# vtk DataFile Version 4.2
Generated by LIGGGHTS
ASCII
DATASET POLYDATA
POINTS 17232 float
-5.88785 -0.844406 19.856 5.88488 -0.658179 19.8707 5.86119 -0.286462 19.8999 
5.86119 -0.286462 19.8999 5.81389 0.0830079 19.929 -5.88785 -0.844406 19.856 
5.81389 0.0830079 19.929 5.74318 0.448744 19.9578 -5.88785 -0.844406 19.856 
5.74318 0.448744 19.9578 5.64935 0.809272 19.9862 -5.88785 -0.844406 19.856 
5.64935 0.809272 19.9862 5.53277 1.16314 20.014 -5.88785 -0.844406 19.856 
5.53277 1.16314 20.014 5.39391 1.50893 20.0412 -5.88785 -0.844406 19.856 
5.39391 1.50893 20.0412 5.23333 1.84524 20.0677 -5.88785 -0.844406 19.856 
5.23333 1.84524 20.0677 5.05167 2.17072 20.0933 -5.88785 -0.844406 19.856 
5.05167 2.17072 20.0933 4.84968 2.48406 20.118 -5.88785 -0.844406 19.856 
4.84968 2.48406 20.118 4.62816 2.78399 20.1416 -5.88785 -0.844406 19.856 
4.62816 2.78399 20.1416 4.388 3.06932 20.164 -5.88785 -0.844406 19.856 
4.388 3.06932 20.164 4.13018 3.33889 20.1853 -5.88785 -0.844406 19.856 
4.13018 3.33889 20.1853 3.85572 3.59161 20.2051 -5.88785 -0.844406 19.856 
3.85572 3.59161 20.2051 3.56574 3.82647 20.2236 -5.88785 -0.844406 19.856 
3.56574 3.82647 20.2236 3.2614 4.04252 20.2406 -5.88785 -0.844406 19.856 
3.2614 4.04252 20.2406 2.94392 4.23889 20.2561 -5.88785 -0.844406 19.856 
2.94392 4.23889 20.2561 2.6146 4.4148 20.2699 -5.88785 -0.844406 19.856 
2.6146 4.4148 20.2699 2.27474 4.56953 20.2821 -5.88785 -0.844406 19.856 
2.27474 4.56953 20.2821 1.92573 4.70246 20.2926 -5.88785 -0.844406 19.856 
1.92573 4.70246 20.2926 1.56896 4.81305 20.3013 -5.88785 -0.844406 19.856 
1.56896 4.81305 20.3013 1.20587 4.90086 20.3082 -5.88785 -0.844406 19.856 
1.20587 4.90086 20.3082 0.837928 4.96554 20.3133 -5.88785 -0.844406 19.856 
0.837928 4.96554 20.3133 0.466612 5.00682 20.3165 -5.88785 -0.844406 19.856 
0.466612 5.00682 20.3165 0.0934164 5.02455 20.3179 -5.88785 -0.844406 19.856 
0.0934164 5.02455 20.3179 -0.280155 5.01864 20.3175 -5.88785 -0.844406 19.856 
-0.280155 5.01864 20.3175 -0.652598 4.98912 20.3151 -5.88785 -0.844406 19.856 
-0.652598 4.98912 20.3151 -1.02241 4.93611 20.311 -5.88785 -0.844406 19.856 
-1.02241 4.93611 20.311 -1.38811 4.85983 20.305 -5.88785 -0.844406 19.856 
-1.38811 4.85983 20.305 -1.74822 4.76057 20.2971 -5.88785 -0.844406 19.856 
-1.74822 4.76057 20.2971 -2.10129 4.63875 20.2876 -5.88785 -0.844406 19.856 
-2.10129 4.63875 20.2876 -2.4459 4.49485 20.2762 -5.88785 -0.844406 19.856 
-2.4459 4.49485 20.2762 -2.78066 4.32945 20.2632 -5.88785 -0.844406 19.856 
-2.78066 4.32945 20.2632 -3.10422 4.14322 20.2486 -5.88785 -0.844406 19.856 
-3.10422 4.14322 20.2486 -3.41529 3.9369 20.2323 -5.88785 -0.844406 19.856 
-3.41529 3.9369 20.2323 -3.7126 3.71133 20.2146 -5.88785 -0.844406 19.856 
-3.7126 3.71133 20.2146 -3.99496 3.46742 20.1954 -5.88785 -0.844406 19.856 
-3.99496 3.46742 20.1954 -4.26124 3.20614 20.1748 -5.88785 -0.844406 19.856 
-4.26124 3.20614 20.1748 -4.51035 2.92856 20.153 -5.88785 -0.844406 19.856 
-4.51035 2.92856 20.153 -4.74131 2.63578 20.1299 -5.88785 -0.844406 19.856 
-4.74131 2.63578 20.1299 -4.95317 2.32899 20.1058 -5.88785 -0.844406 19.856 
-4.95317 2.32899 20.1058 -5.14509 2.00941 20.0806 -5.88785 -0.844406 19.856 
-5.14509 2.00941 20.0806 -5.31629 1.67835 20.0546 -5.88785 -0.844406 19.856 
-5.31629 1.67835 20.0546 -5.46609 1.33713 20.0277 -5.88785 -0.844406 19.856 
-5.46609 1.33713 20.0277 -5.59387 0.987129 20.0002 -5.88785 -0.844406 19.856 
-5.59387 0.987129 20.0002 -5.69913 0.62975 19.972 -5.88785 -0.844406 19.856 
-5.69913 0.62975 19.972 -5.78145 0.266435 19.9434 -5.88785 -0.844406 19.856 
-5.78145 0.266435 19.9434 -5.84048 -0.101353 19.9145 -5.88785 -0.844406 19.856 
-5.84048 -0.101353 19.9145 -5.87599 -0.472133 19.8853 -5.88785 -0.844406 19.856 
-5.87599 -1.21669 19.8267 -5.84048 -1.58747 19.7975 -5.88785 -0.844406 19.856 
-5.84048 -1.58747 19.7975 -5.78145 -1.95526 19.7686 -5.88785 -0.844406 19.856 
-5.78145 -1.95526 19.7686 -5.69913 -2.31857 19.74 -5.88785 -0.844406 19.856 
-5.69913 -2.31857 19.74 -5.59387 -2.67595 19.7119 -5.88785 -0.844406 19.856 
-5.59387 -2.67595 19.7119 -5.46609 -3.02596 19.6843 -5.88785 -0.844406 19.856 
-5.46609 -3.02596 19.6843 -5.31629 -3.36718 19.6575 -5.88785 -0.844406 19.856 
-5.31629 -3.36718 19.6575 -5.14509 -3.69824 19.6314 -5.88785 -0.844406 19.856 
-5.14509 -3.69824 19.6314 -4.95317 -4.01781 19.6063 -5.88785 -0.844406 19.856 
-4.95317 -4.01781 19.6063 -4.74131 -4.3246 19.5821 -5.88785 -0.844406 19.856 
-4.74131 -4.3246 19.5821 -4.51035 -4.61738 19.5591 -5.88785 -0.844406 19.856 
-4.51035 -4.61738 19.5591 -4.26124 -4.89497 19.5372 -5.88785 -0.844406 19.856 
-4.26124 -4.89497 19.5372 -3.99496 -5.15624 19.5167 -5.88785 -0.844406 19.856 
-3.99496 -5.15624 19.5167 -3.7126 -5.40016 19.4975 -5.88785 -0.844406 19.856 
-3.7126 -5.40016 19.4975 -3.41529 -5.62573 19.4797 -5.88785 -0.844406 19.856 
-3.41529 -5.62573 19.4797 -3.10422 -5.83204 19.4635 -5.88785 -0.844406 19.856 
-3.10422 -5.83204 19.4635 -2.78066 -6.01828 19.4488 -5.88785 -0.844406 19.856 
-2.78066 -6.01828 19.4488 -2.4459 -6.18368 19.4358 -5.88785 -0.844406 19.856 
-2.4459 -6.18368 19.4358 -2.10129 -6.32758 19.4245 -5.88785 -0.844406 19.856 
-2.10129 -6.32758 19.4245 -1.74822 -6.4494 19.4149 -5.88785 -0.844406 19.856 
-1.74822 -6.4494 19.4149 -1.38811 -6.54865 19.4071 -5.88785 -0.844406 19.856 
-1.38811 -6.54865 19.4071 -1.02241 -6.62494 19.4011 -5.88785 -0.844406 19.856 
-1.02241 -6.62494 19.4011 -0.652598 -6.67794 19.3969 -5.88785 -0.844406 19.856 
-0.652598 -6.67794 19.3969 -0.280155 -6.70746 19.3946 -5.88785 -0.844406 19.856 
-0.280155 -6.70746 19.3946 0.0934164 -6.71337 19.3941 -5.88785 -0.844406 19.856 
0.0934164 -6.71337 19.3941 0.466612 -6.69565 19.3955 -5.88785 -0.844406 19.856 
0.466612 -6.69565 19.3955 0.837928 -6.65436 19.3988 -5.88785 -0.844406 19.856 
0.837928 -6.65436 19.3988 1.20587 -6.58969 19.4039 -5.88785 -0.844406 19.856 
1.20587 -6.58969 19.4039 1.56896 -6.50187 19.4108 -5.88785 -0.844406 19.856 
1.56896 -6.50187 19.4108 1.92573 -6.39128 19.4195 -5.88785 -0.844406 19.856 
1.92573 -6.39128 19.4195 2.27474 -6.25835 19.4299 -5.88785 -0.844406 19.856 
2.27474 -6.25835 19.4299 2.6146 -6.10362 19.4421 -5.88785 -0.844406 19.856 
2.6146 -6.10362 19.4421 2.94392 -5.92772 19.456 -5.88785 -0.844406 19.856 
2.94392 -5.92772 19.456 3.2614 -5.73134 19.4714 -5.88785 -0.844406 19.856 
3.2614 -5.73134 19.4714 3.56574 -5.51529 19.4884 -5.88785 -0.844406 19.856 
3.56574 -5.51529 19.4884 3.85572 -5.28043 19.5069 -5.88785 -0.844406 19.856 
3.85572 -5.28043 19.5069 4.13018 -5.02771 19.5268 -5.88785 -0.844406 19.856 
4.13018 -5.02771 19.5268 4.388 -4.75814 19.548 -5.88785 -0.844406 19.856 
4.388 -4.75814 19.548 4.62816 -4.47282 19.5705 -5.88785 -0.844406 19.856 
4.62816 -4.47282 19.5705 4.84968 -4.17288 19.5941 -5.88785 -0.844406 19.856 
4.84968 -4.17288 19.5941 5.05167 -3.85954 19.6187 -5.88785 -0.844406 19.856 
5.05167 -3.85954 19.6187 5.23333 -3.53406 19.6443 -5.88785 -0.844406 19.856 
5.23333 -3.53406 19.6443 5.39391 -3.19775 19.6708 -5.88785 -0.844406 19.856 
5.39391 -3.19775 19.6708 5.53277 -2.85197 19.698 -5.88785 -0.844406 19.856 
5.53277 -2.85197 19.698 5.64935 -2.4981 19.7259 -5.88785 -0.844406 19.856 
5.64935 -2.4981 19.7259 5.74318 -2.13757 19.7542 -5.88785 -0.844406 19.856 
5.74318 -2.13757 19.7542 5.81389 -1.77183 19.783 -5.88785 -0.844406 19.856 
5.81389 -1.77183 19.783 5.86119 -1.40236 19.8121 -5.88785 -0.844406 19.856 
5.86119 -1.40236 19.8121 5.88488 -1.03065 19.8414 -5.88785 -0.844406 19.856 
5.88488 -1.03065 19.8414 5.88785 -0.844412 19.856 -5.88785 -0.844406 19.856 
5.88785 -0.844412 19.856 5.88488 -0.658179 19.8707 -5.88785 -0.844406 19.856 
-5.88785 -0.844406 19.856 -5.87599 -0.472133 19.8853 -5.88192 -0.192548 14.9401 
-5.87599 -0.472133 19.8853 -5.87599 -0.0836119 14.9487 -5.88192 -0.192548 14.9401 
-5.84048 -0.101353 19.9145 -5.84048 0.287168 14.9779 -5.86414 0.0702645 14.9608 
-5.86414 0.0702645 14.9608 -5.87599 -0.472133 19.8853 -5.84048 -0.101353 19.9145 
-5.84048 -0.101353 19.9145 -5.78145 0.266435 19.9434 -5.78884 0.619228 15.0078 
-5.78884 0.619228 15.0078 -5.83456 0.332017 14.9814 -5.84048 -0.101353 19.9145 
-5.78145 0.266435 19.9434 -5.69913 0.62975 19.972 -5.74023 0.850239 15.0222 
-5.69913 0.62975 19.972 -5.68561 1.07214 15.0419 -5.74023 0.850239 15.0222 
-5.69913 0.62975 19.972 -5.59737 1.3659 15.0606 -5.68561 1.07214 15.0419 
-5.59737 1.3659 15.0606 -5.69913 0.62975 19.972 -5.59387 0.987129 20.0002 
-5.59387 0.987129 20.0002 -5.46609 1.33713 20.0277 -5.51241 1.60657 15.0817 
-5.46609 1.33713 20.0277 -5.46609 1.72565 15.0911 -5.51241 1.60657 15.0817 
-5.31629 1.67835 20.0546 -5.31011 2.08781 15.0253 -5.41404 1.85105 15.1009 
-5.41404 1.85105 15.1009 -5.46609 1.33713 20.0277 -5.31629 1.67835 20.0546 
-5.31629 1.67835 20.0546 -5.14509 2.00941 20.0806 -5.16928 2.35517 15.1471 
-5.16928 2.35517 15.1471 -5.31011 2.08781 15.0253 -5.31629 1.67835 20.0546 
-4.95317 2.32899 20.1058 -4.93126 2.75268 15.1697 -5.05441 2.55467 15.1563 
-5.05441 2.55467 15.1563 -5.14509 2.00941 20.0806 -4.95317 2.32899 20.1058 
-4.74131 2.63578 20.1299 -4.76337 2.99423 15.1909 -4.93126 2.75268 15.1697 
-4.93126 2.75268 15.1697 -4.95317 2.32899 20.1058 -4.74131 2.63578 20.1299 
-4.74131 2.63578 20.1299 -4.74131 3.0243 15.1933 -4.76337 2.99423 15.1909 
-4.74131 2.63578 20.1299 -4.51035 2.92856 20.153 -4.6033 3.2038 15.2074 
-4.51035 2.92856 20.153 -4.51035 3.31708 15.2163 -4.6033 3.2038 15.2074 
-4.26124 3.20614 20.1748 -4.25814 3.60548 15.1418 -4.43397 3.40601 15.2233 
-4.43397 3.40601 15.2233 -4.51035 2.92856 20.153 -4.26124 3.20614 20.1748 
-4.26124 3.20614 20.1748 -3.99496 3.46742 20.1954 -4.06887 3.7867 15.2533 
-4.06887 3.7867 15.2533 -4.25814 3.60548 15.1418 -4.26124 3.20614 20.1748 
-3.99496 3.46742 20.1954 -3.99496 3.85594 15.2587 -4.06887 3.7867 15.2533 
-3.7126 3.71133 20.2146 -3.68989 4.11906 15.277 -3.87384 3.96441 15.2673 
-3.87384 3.96441 15.2673 -3.99496 3.46742 20.1954 -3.7126 3.71133 20.2146 
-3.7126 3.71133 20.2146 -3.41529 3.9369 20.2323 -3.44125 4.30749 15.2958 
-3.44125 4.30749 15.2958 -3.68989 4.11906 15.277 -3.7126 3.71133 20.2146 
-3.41529 3.9369 20.2323 -3.10422 4.14322 20.2486 -3.2436 4.4428 15.3049 
-3.10422 4.14322 20.2486 -3.10422 4.53174 15.3119 -3.2436 4.4428 15.3049 
-3.10422 4.14322 20.2486 -2.78606 4.71539 15.3243 -3.01987 4.58294 15.316 
-2.78606 4.71539 15.3243 -3.10422 4.14322 20.2486 -2.78066 4.32945 20.2632 
-3.01987 4.58294 15.316 -3.10422 4.53174 15.3119 -3.10422 4.14322 20.2486 
-2.78066 4.32945 20.2632 -2.4459 4.49485 20.2762 -2.55464 4.83252 15.3356 
-2.4459 4.49485 20.2762 -2.4459 4.88337 15.3396 -2.55464 4.83252 15.3356 
-2.10129 4.63875 20.2876 -2.08415 5.03412 15.3522 -2.31407 4.94146 15.3442 
-2.31407 4.94146 15.3442 -2.4459 4.49485 20.2762 -2.10129 4.63875 20.2876 
-2.10129 4.63875 20.2876 -1.74822 4.76057 20.2971 -1.78965 5.13647 15.364 
-1.78965 5.13647 15.364 -2.08415 5.03412 15.3522 -2.10129 4.63875 20.2876 
-1.74822 4.76057 20.2971 -1.38811 4.85983 20.305 -1.56638 5.20228 15.3647 
-1.38811 4.85983 20.305 -1.34266 5.25967 15.3721 -1.56638 5.20228 15.3647 
-1.02241 4.93611 20.311 -1.03773 5.32222 15.3745 -1.34266 5.25967 15.3721 
-1.34266 5.25967 15.3721 -1.38811 4.85983 20.305 -1.02241 4.93611 20.311 
-1.02241 4.93611 20.311 -0.652598 4.98912 20.3151 -0.790345 5.36068 15.3772 
-0.652598 4.98912 20.3151 -0.652598 5.37764 15.3785 -0.790345 5.36068 15.3772 
-0.280155 5.01864 20.3175 -0.271477 5.41561 15.2782 -0.527782 5.39018 15.3795 
-0.527782 5.39018 15.3795 -0.652598 4.98912 20.3151 -0.280155 5.01864 20.3175 
-0.280155 5.01864 20.3175 0.0934164 5.02455 20.3179 -8.88178e-11 5.41381 15.3813 
-8.88178e-11 5.41381 15.3813 -0.271477 5.41561 15.2782 -0.280155 5.01864 20.3175 
0.0934164 5.02455 20.3179 0.0934164 5.41307 15.3813 -8.88178e-11 5.41381 15.3813 
0.466612 5.00682 20.3165 0.501291 5.39323 15.3783 0.264157 5.4079 15.3809 
0.264157 5.4079 15.3809 0.0934164 5.02455 20.3179 0.466612 5.00682 20.3165 
0.837928 4.96554 20.3133 0.811957 5.35833 15.3758 0.501291 5.39323 15.3783 
0.501291 5.39323 15.3783 0.466612 5.00682 20.3165 0.837928 4.96554 20.3133 
0.837928 4.96554 20.3133 1.20587 4.90086 20.3082 1.05132 5.31948 15.3739 
1.20587 4.90086 20.3082 1.20587 5.28938 15.3716 1.05132 5.31948 15.3739 
1.20587 4.90086 20.3082 1.56767 5.20192 15.3647 1.31017 5.26664 15.3698 
1.56767 5.20192 15.3647 1.20587 4.90086 20.3082 1.56896 4.81305 20.3013 
1.31017 5.26664 15.3698 1.20587 5.28938 15.3716 1.20587 4.90086 20.3082 
1.56896 4.81305 20.3013 1.92573 4.70246 20.2926 1.81944 5.12652 15.3587 
1.92573 4.70246 20.2926 1.92573 5.09098 15.3559 1.81944 5.12652 15.3587 
2.27474 4.56953 20.2821 2.27474 4.95805 15.3455 2.06884 5.03952 15.3519 
2.06884 5.03952 15.3519 1.92573 4.70246 20.2926 2.27474 4.56953 20.2821 
2.27474 4.56953 20.2821 2.6146 4.4148 20.2699 2.58085 4.82027 15.3388 
2.58085 4.82027 15.3388 2.31407 4.94146 15.3442 2.27474 4.56953 20.2821 
2.6146 4.4148 20.2699 2.94392 4.23889 20.2561 2.79007 4.71294 15.3262 
2.94392 4.23889 20.2561 2.99072 4.60125 15.3155 2.79007 4.71294 15.3262 
2.94392 4.23889 20.2561 3.2525 4.43692 15.3045 2.99072 4.60125 15.3155 
3.2525 4.43692 15.3045 2.94392 4.23889 20.2561 3.2614 4.04252 20.2406 
3.2614 4.04252 20.2406 3.56574 3.82647 20.2236 3.46079 4.29279 15.2931 
3.56574 3.82647 20.2236 3.56574 4.21499 15.287 3.46079 4.29279 15.2931 
3.85572 3.59161 20.2051 3.86585 3.97939 15.1701 3.67101 4.13322 15.2806 
3.67101 4.13322 15.2806 3.56574 3.82647 20.2236 3.85572 3.59161 20.2051 
3.85572 3.59161 20.2051 4.13018 3.33889 20.1853 4.09436 3.76275 15.2581 
4.09436 3.76275 15.2581 3.86585 3.97939 15.1701 3.85572 3.59161 20.2051 
4.388 3.06932 20.164 4.41491 3.4286 15.2261 4.25571 3.60044 15.2386 
4.25571 3.60044 15.2386 4.13018 3.33889 20.1853 4.388 3.06932 20.164 
4.62816 2.78399 20.1416 4.61515 3.18959 15.207 4.41491 3.4286 15.2261 
4.41491 3.4286 15.2261 4.388 3.06932 20.164 4.62816 2.78399 20.1416 
4.62816 2.78399 20.1416 4.84968 2.48406 20.118 4.76337 2.99423 15.1909 
4.84968 2.48406 20.118 4.84968 2.87258 15.1813 4.76337 2.99423 15.1909 
5.05167 2.17072 20.0933 5.05311 2.55697 15.1565 4.91384 2.77771 15.1739 
4.91384 2.77771 15.1739 4.84968 2.48406 20.118 5.05167 2.17072 20.0933 
5.05167 2.17072 20.0933 5.23333 1.84524 20.0677 5.18481 2.32557 15.1383 
5.18481 2.32557 15.1383 5.05311 2.55697 15.1565 5.05167 2.17072 20.0933 
5.23333 1.84524 20.0677 5.23333 2.23376 15.1311 5.18481 2.32557 15.1383 
5.39391 1.50893 20.0412 5.40553 1.87222 15.1016 5.30477 2.09087 15.1198 
5.30477 2.09087 15.1198 5.23333 1.84524 20.0677 5.39391 1.50893 20.0412 
5.39391 1.50893 20.0412 5.53277 1.16314 20.014 5.51241 1.60657 15.0817 
5.51241 1.60657 15.0817 5.40553 1.87222 15.1016 5.39391 1.50893 20.0412 
5.53277 1.16314 20.014 5.53277 1.55166 15.0774 5.51241 1.60657 15.0817 
5.53277 1.16314 20.014 5.64935 0.809272 19.9862 5.59968 1.35794 15.0621 
5.64935 0.809272 19.9862 5.64935 1.19779 15.0495 5.59968 1.35794 15.0621 
5.64935 0.809272 19.9862 5.7417 0.843752 15.0217 5.67567 1.10566 15.0423 
5.7417 0.843752 15.0217 5.64935 0.809272 19.9862 5.74318 0.448744 19.9578 
5.67567 1.10566 15.0423 5.64935 1.19779 15.0495 5.64935 0.809272 19.9862 
5.74318 0.448744 19.9578 5.81389 0.0830079 19.929 5.79323 0.592184 15.0019 
5.81389 0.0830079 19.929 5.81389 0.471529 14.9924 5.79323 0.592184 15.0019 
5.86119 -0.286462 19.8999 5.86322 0.091549 14.8672 5.83456 0.332017 14.9814 
5.83456 0.332017 14.9814 5.81389 0.0830079 19.929 5.86119 -0.286462 19.8999 
5.86119 -0.286462 19.8999 5.88488 -0.658179 19.8707 5.88411 -0.226743 14.94 
5.88411 -0.226743 14.94 5.86322 0.091549 14.8672 5.86119 -0.286462 19.8999 
5.88488 -1.03065 19.8414 5.884 -0.686648 14.8977 5.88785 -0.455891 14.9194 
5.88411 -0.226743 14.94 5.88488 -0.658179 19.8707 5.88785 -0.844412 19.856 
5.88785 -0.844412 19.856 5.88785 -0.455891 14.9194 5.88411 -0.226743 14.94 
5.86119 -1.40236 19.8121 5.86267 -0.997944 14.8767 5.884 -0.686648 14.8977 
5.884 -0.686648 14.8977 5.88488 -1.03065 19.8414 5.86119 -1.40236 19.8121 
5.86119 -1.40236 19.8121 5.81389 -1.77183 19.783 5.83456 -1.2438 14.8574 
5.81389 -1.77183 19.783 5.81389 -1.38331 14.8464 5.83456 -1.2438 14.8574 
5.74318 -2.13757 19.7542 5.7417 -1.75553 14.8171 5.79323 -1.50397 14.8369 
5.79323 -1.50397 14.8369 5.81389 -1.77183 19.783 5.74318 -2.13757 19.7542 
5.74318 -2.13757 19.7542 5.64935 -2.4981 19.7259 5.66654 -2.0523 14.7874 
5.66654 -2.0523 14.7874 5.7417 -1.75553 14.8171 5.74318 -2.13757 19.7542 
5.53277 -2.85197 19.698 5.53277 -2.46345 14.7614 5.59968 -2.26973 14.7766 
5.59968 -2.26973 14.7766 5.64935 -2.4981 19.7259 5.53277 -2.85197 19.698 
5.39391 -3.19775 19.6708 5.40553 -2.78382 14.735 5.51241 -2.51835 14.7571 
5.51241 -2.51835 14.7571 5.53277 -2.85197 19.698 5.39391 -3.19775 19.6708 
5.39391 -3.19775 19.6708 5.23333 -3.53406 19.6443 5.30477 -3.00266 14.719 
5.23333 -3.53406 19.6443 5.23333 -3.14554 14.7077 5.30477 -3.00266 14.719 
5.23333 -3.53406 19.6443 5.0533 -3.46834 14.681 5.18481 -3.23736 14.7005 
5.0533 -3.46834 14.681 5.23333 -3.53406 19.6443 5.05167 -3.85954 19.6187 
5.18481 -3.23736 14.7005 5.23333 -3.14554 14.7077 5.23333 -3.53406 19.6443 
5.05167 -3.85954 19.6187 4.84968 -4.17288 19.5941 4.91384 -3.68949 14.6649 
4.84968 -4.17288 19.5941 4.84968 -3.78436 14.6574 4.91384 -3.68949 14.6649 
4.62816 -4.47282 19.5705 4.61515 -4.10151 14.6335 4.76337 -3.90601 14.6479 
4.76337 -3.90601 14.6479 4.84968 -4.17288 19.5941 4.62816 -4.47282 19.5705 
4.62816 -4.47282 19.5705 4.388 -4.75814 19.548 4.41491 -4.34046 14.6137 
4.41491 -4.34046 14.6137 4.61515 -4.10151 14.6335 4.62816 -4.47282 19.5705 
4.388 -4.75814 19.548 4.13018 -5.02771 19.5268 4.25571 -4.51222 14.6001 
4.13018 -5.02771 19.5268 4.09375 -4.67555 14.5854 4.25571 -4.51222 14.6001 
4.13018 -5.02771 19.5268 3.87384 -4.87619 14.5715 4.09375 -4.67555 14.5854 
3.85572 -5.28043 19.5069 3.85572 -4.89191 14.5703 3.87384 -4.87619 14.5715 
3.87384 -4.87619 14.5715 4.13018 -5.02771 19.5268 3.85572 -5.28043 19.5069 
3.85572 -5.28043 19.5069 3.56574 -5.51529 19.4884 3.67101 -5.045 14.5582 
3.56574 -5.51529 19.4884 3.56574 -5.12677 14.5518 3.67101 -5.045 14.5582 
3.2614 -5.73134 19.4714 3.25197 -5.34131 14.4361 3.46079 -5.20458 14.5457 
3.46079 -5.20458 14.5457 3.56574 -5.51529 19.4884 3.2614 -5.73134 19.4714 
3.2614 -5.73134 19.4714 2.94392 -5.92772 19.456 3.01987 -5.49472 14.5228 
3.01987 -5.49472 14.5228 3.25197 -5.34131 14.4361 3.2614 -5.73134 19.4714 
2.94392 -5.92772 19.456 2.94392 -5.5392 14.5193 3.01987 -5.49472 14.5228 
2.6146 -6.10362 19.4421 2.58081 -5.73226 14.5023 2.79007 -5.62472 14.5126 
2.79007 -5.62472 14.5126 2.94392 -5.92772 19.456 2.6146 -6.10362 19.4421 
2.27474 -6.25835 19.4299 2.31407 -5.85324 14.4946 2.58081 -5.73226 14.5023 
2.58081 -5.73226 14.5023 2.6146 -6.10362 19.4421 2.27474 -6.25835 19.4299 
2.27474 -6.25835 19.4299 2.27474 -5.86983 14.4933 2.31407 -5.85324 14.4946 
2.27474 -6.25835 19.4299 1.92573 -6.39128 19.4195 2.06884 -5.95131 14.4869 
1.92573 -6.39128 19.4195 1.92573 -6.00276 14.4828 2.06884 -5.95131 14.4869 
1.56896 -6.50187 19.4108 1.56767 -6.11371 14.4741 1.81944 -6.0383 14.48 
1.81944 -6.0383 14.48 1.92573 -6.39128 19.4195 1.56896 -6.50187 19.4108 
1.56896 -6.50187 19.4108 1.20587 -6.58969 19.4039 1.31017 -6.17842 14.469 
1.31017 -6.17842 14.469 1.56767 -6.11371 14.4741 1.56896 -6.50187 19.4108 
1.20587 -6.58969 19.4039 1.20587 -6.20116 14.4672 1.31017 -6.17842 14.469 
0.837928 -6.65436 19.3988 0.811959 -6.26994 14.4607 1.05132 -6.23126 14.4649 
1.05132 -6.23126 14.4649 1.20587 -6.58969 19.4039 0.837928 -6.65436 19.3988 
0.837928 -6.65436 19.3988 0.466612 -6.69565 19.3955 0.501267 -6.3052 14.4627 
0.501267 -6.3052 14.4627 0.811959 -6.26994 14.4607 0.837928 -6.65436 19.3988 
0.466612 -6.69565 19.3955 0.0934164 -6.71337 19.3941 0.264157 -6.31968 14.4579 
0.0934164 -6.71337 19.3941 0.0346292 -6.32605 14.4543 0.264157 -6.31968 14.4579 
0.0934164 -6.71337 19.3941 -0.272156 -6.31931 14.4579 0.0346292 -6.32605 14.4543 
-0.272156 -6.31931 14.4579 0.0934164 -6.71337 19.3941 -0.280155 -6.70746 19.3946 
-0.280155 -6.70746 19.3946 -0.652598 -6.67794 19.3969 -0.527782 -6.30196 14.4593 
-0.652598 -6.67794 19.3969 -0.652598 -6.28942 14.4603 -0.527782 -6.30196 14.4593 
-1.02241 -6.62494 19.4011 -1.03772 -6.23407 14.4651 -0.790345 -6.27247 14.4616 
-0.790345 -6.27247 14.4616 -0.652598 -6.67794 19.3969 -1.02241 -6.62494 19.4011 
-1.02241 -6.62494 19.4011 -1.38811 -6.54865 19.4071 -1.34268 -6.17189 14.4723 
-1.34268 -6.17189 14.4723 -1.03772 -6.23407 14.4651 -1.02241 -6.62494 19.4011 
-1.74822 -6.4494 19.4149 -1.78967 -6.04866 14.4799 -1.56638 -6.11406 14.4741 
-1.56638 -6.11406 14.4741 -1.38811 -6.54865 19.4071 -1.74822 -6.4494 19.4149 
-2.10129 -6.32758 19.4245 -2.08414 -5.946 14.4878 -1.78967 -6.04866 14.4799 
-1.78967 -6.04866 14.4799 -1.74822 -6.4494 19.4149 -2.10129 -6.32758 19.4245 
-2.10129 -6.32758 19.4245 -2.4459 -6.18368 19.4358 -2.31407 -5.85324 14.4946 
-2.4459 -6.18368 19.4358 -2.4459 -5.79516 14.4992 -2.31407 -5.85324 14.4946 
-2.78066 -6.01828 19.4488 -2.78551 -5.6273 14.5124 -2.55464 -5.7443 14.5032 
-2.55464 -5.7443 14.5032 -2.4459 -6.18368 19.4358 -2.78066 -6.01828 19.4488 
-2.78066 -6.01828 19.4488 -3.10422 -5.83204 19.4635 -3.05236 -5.47616 14.525 
-3.05236 -5.47616 14.525 -2.78551 -5.6273 14.5124 -2.78066 -6.01828 19.4488 
-3.41529 -5.62573 19.4797 -3.44211 -5.21155 14.4528 -3.2436 -5.35458 14.5339 
-3.2436 -5.35458 14.5339 -3.10422 -5.83204 19.4635 -3.41529 -5.62573 19.4797 
-3.7126 -5.40016 19.4975 -3.68998 -5.03083 14.5625 -3.44211 -5.21155 14.4528 
-3.44211 -5.21155 14.4528 -3.41529 -5.62573 19.4797 -3.7126 -5.40016 19.4975 
-3.7126 -5.40016 19.4975 -3.99496 -5.15624 19.5167 -3.87384 -4.87619 14.5715 
-3.99496 -5.15624 19.5167 -3.99496 -4.76772 14.58 -3.87384 -4.87619 14.5715 
-3.99496 -5.15624 19.5167 -4.25847 -4.50933 14.6004 -4.06887 -4.69848 14.5855 
-4.25847 -4.50933 14.6004 -3.99496 -5.15624 19.5167 -4.26124 -4.89497 19.5372 
-4.06887 -4.69848 14.5855 -3.99496 -4.76772 14.58 -3.99496 -5.15624 19.5167 
-4.26124 -4.89497 19.5372 -4.51035 -4.61738 19.5591 -4.43397 -4.31779 14.6155 
-4.51035 -4.61738 19.5591 -4.51035 -4.22886 14.6224 -4.43397 -4.31779 14.6155 
-4.74131 -4.3246 19.5821 -4.74131 -3.93608 14.6455 -4.6033 -4.11559 14.6314 
-4.6033 -4.11559 14.6314 -4.51035 -4.61738 19.5591 -4.74131 -4.3246 19.5821 
-4.74131 -4.3246 19.5821 -4.95317 -4.01781 19.6063 -4.93127 -3.66429 14.6672 
-4.93127 -3.66429 14.6672 -4.76337 -3.90601 14.6479 -4.74131 -4.3246 19.5821 
-4.95317 -4.01781 19.6063 -5.14509 -3.69824 19.6314 -5.05441 -3.46645 14.6825 
-5.14509 -3.69824 19.6314 -5.16959 -3.26656 14.6938 -5.05441 -3.46645 14.6825 
-5.31629 -3.36718 19.6575 -5.31053 -2.99066 14.7199 -5.16959 -3.26656 14.6938 
-5.16959 -3.26656 14.6938 -5.14509 -3.69824 19.6314 -5.31629 -3.36718 19.6575 
-5.31629 -3.36718 19.6575 -5.46609 -3.02596 19.6843 -5.41404 -2.76283 14.7378 
-5.46609 -3.02596 19.6843 -5.46609 -2.63744 14.7477 -5.41404 -2.76283 14.7378 
-5.59387 -2.67595 19.7119 -5.59709 -2.27833 14.7761 -5.51241 -2.51835 14.7571 
-5.51241 -2.51835 14.7571 -5.46609 -3.02596 19.6843 -5.59387 -2.67595 19.7119 
-5.59387 -2.67595 19.7119 -5.69913 -2.31857 19.74 -5.68585 -1.98315 14.8006 
-5.68585 -1.98315 14.8006 -5.59709 -2.27833 14.7761 -5.59387 -2.67595 19.7119 
-5.78145 -1.95526 19.7686 -5.78884 -1.5312 14.8336 -5.74023 -1.76202 14.8166 
-5.74023 -1.76202 14.8166 -5.69913 -2.31857 19.74 -5.78145 -1.95526 19.7686 
-5.84048 -1.58747 19.7975 -5.83456 -1.2438 14.8574 -5.78884 -1.5312 14.8336 
-5.78884 -1.5312 14.8336 -5.78145 -1.95526 19.7686 -5.84048 -1.58747 19.7975 
-5.84048 -1.58747 19.7975 -5.84048 -1.19895 14.8609 -5.83456 -1.2438 14.8574 
-5.84048 -1.58747 19.7975 -5.87599 -1.21669 19.8267 -5.86414 -0.982047 14.878 
-5.87599 -1.21669 19.8267 -5.87599 -0.82817 14.8901 -5.86414 -0.982047 14.878 
-5.88785 -0.844406 19.856 -5.88785 -0.455891 14.9194 -5.88192 -0.719234 14.8987 
-5.88192 -0.719234 14.8987 -5.87599 -1.21669 19.8267 -5.88785 -0.844406 19.856 
-5.88192 -0.719234 14.8987 -5.87599 -0.82817 14.8901 -5.87599 -1.21669 19.8267 
-5.86414 -0.982047 14.878 -5.84048 -1.19895 14.8609 -5.84048 -1.58747 19.7975 
-5.74023 -1.76202 14.8166 -5.68585 -1.98315 14.8006 -5.69913 -2.31857 19.74 
-5.51241 -2.51835 14.7571 -5.46609 -2.63744 14.7477 -5.46609 -3.02596 19.6843 
-5.41404 -2.76283 14.7378 -5.31053 -2.99066 14.7199 -5.31629 -3.36718 19.6575 
-5.05441 -3.46645 14.6825 -4.93127 -3.66429 14.6672 -4.95317 -4.01781 19.6063 
-4.76337 -3.90601 14.6479 -4.74131 -3.93608 14.6455 -4.74131 -4.3246 19.5821 
-4.6033 -4.11559 14.6314 -4.51035 -4.22886 14.6224 -4.51035 -4.61738 19.5591 
-4.43397 -4.31779 14.6155 -4.25847 -4.50933 14.6004 -4.26124 -4.89497 19.5372 
-3.87384 -4.87619 14.5715 -3.68998 -5.03083 14.5625 -3.7126 -5.40016 19.4975 
-3.2436 -5.35458 14.5339 -3.05236 -5.47616 14.525 -3.10422 -5.83204 19.4635 
-2.55464 -5.7443 14.5032 -2.4459 -5.79516 14.4992 -2.4459 -6.18368 19.4358 
-2.31407 -5.85324 14.4946 -2.08414 -5.946 14.4878 -2.10129 -6.32758 19.4245 
-1.56638 -6.11406 14.4741 -1.34268 -6.17189 14.4723 -1.38811 -6.54865 19.4071 
-0.790345 -6.27247 14.4616 -0.652598 -6.28942 14.4603 -0.652598 -6.67794 19.3969 
-0.527782 -6.30196 14.4593 -0.272156 -6.31931 14.4579 -0.280155 -6.70746 19.3946 
0.264157 -6.31968 14.4579 0.501267 -6.3052 14.4627 0.466612 -6.69565 19.3955 
1.05132 -6.23126 14.4649 1.20587 -6.20116 14.4672 1.20587 -6.58969 19.4039 
1.81944 -6.0383 14.48 1.92573 -6.00276 14.4828 1.92573 -6.39128 19.4195 
2.06884 -5.95131 14.4869 2.27474 -5.86983 14.4933 2.27474 -6.25835 19.4299 
2.79007 -5.62472 14.5126 2.94392 -5.5392 14.5193 2.94392 -5.92772 19.456 
3.46079 -5.20458 14.5457 3.56574 -5.12677 14.5518 3.56574 -5.51529 19.4884 
3.67101 -5.045 14.5582 3.85572 -4.89191 14.5703 3.85572 -5.28043 19.5069 
4.25571 -4.51222 14.6001 4.41491 -4.34046 14.6137 4.388 -4.75814 19.548 
4.76337 -3.90601 14.6479 4.84968 -3.78436 14.6574 4.84968 -4.17288 19.5941 
4.91384 -3.68949 14.6649 5.0533 -3.46834 14.681 5.05167 -3.85954 19.6187 
5.30477 -3.00266 14.719 5.40553 -2.78382 14.735 5.39391 -3.19775 19.6708 
5.51241 -2.51835 14.7571 5.53277 -2.46345 14.7614 5.53277 -2.85197 19.698 
5.59968 -2.26973 14.7766 5.66654 -2.0523 14.7874 5.64935 -2.4981 19.7259 
5.79323 -1.50397 14.8369 5.81389 -1.38331 14.8464 5.81389 -1.77183 19.783 
5.83456 -1.2438 14.8574 5.86267 -0.997944 14.8767 5.86119 -1.40236 19.8121 
5.88785 -0.455891 14.9194 5.88785 -0.844412 19.856 5.88488 -1.03065 19.8414 
5.83456 0.332017 14.9814 5.81389 0.471529 14.9924 5.81389 0.0830079 19.929 
5.79323 0.592184 15.0019 5.7417 0.843752 15.0217 5.74318 0.448744 19.9578 
5.59968 1.35794 15.0621 5.53277 1.55166 15.0774 5.53277 1.16314 20.014 
5.30477 2.09087 15.1198 5.23333 2.23376 15.1311 5.23333 1.84524 20.0677 
4.91384 2.77771 15.1739 4.84968 2.87258 15.1813 4.84968 2.48406 20.118 
4.76337 2.99423 15.1909 4.61515 3.18959 15.207 4.62816 2.78399 20.1416 
4.25571 3.60044 15.2386 4.09436 3.76275 15.2581 4.13018 3.33889 20.1853 
3.67101 4.13322 15.2806 3.56574 4.21499 15.287 3.56574 3.82647 20.2236 
3.46079 4.29279 15.2931 3.2525 4.43692 15.3045 3.2614 4.04252 20.2406 
2.79007 4.71294 15.3262 2.58085 4.82027 15.3388 2.6146 4.4148 20.2699 
2.31407 4.94146 15.3442 2.27474 4.95805 15.3455 2.27474 4.56953 20.2821 
2.06884 5.03952 15.3519 1.92573 5.09098 15.3559 1.92573 4.70246 20.2926 
1.81944 5.12652 15.3587 1.56767 5.20192 15.3647 1.56896 4.81305 20.3013 
1.05132 5.31948 15.3739 0.811957 5.35833 15.3758 0.837928 4.96554 20.3133 
0.264157 5.4079 15.3809 0.0934164 5.41307 15.3813 0.0934164 5.02455 20.3179 
-0.527782 5.39018 15.3795 -0.652598 5.37764 15.3785 -0.652598 4.98912 20.3151 
-0.790345 5.36068 15.3772 -1.03773 5.32222 15.3745 -1.02241 4.93611 20.311 
-1.56638 5.20228 15.3647 -1.78965 5.13647 15.364 -1.74822 4.76057 20.2971 
-2.31407 4.94146 15.3442 -2.4459 4.88337 15.3396 -2.4459 4.49485 20.2762 
-2.55464 4.83252 15.3356 -2.78606 4.71539 15.3243 -2.78066 4.32945 20.2632 
-3.2436 4.4428 15.3049 -3.44125 4.30749 15.2958 -3.41529 3.9369 20.2323 
-3.87384 3.96441 15.2673 -3.99496 3.85594 15.2587 -3.99496 3.46742 20.1954 
-4.43397 3.40601 15.2233 -4.51035 3.31708 15.2163 -4.51035 2.92856 20.153 
-4.6033 3.2038 15.2074 -4.74131 3.0243 15.1933 -4.74131 2.63578 20.1299 
-5.05441 2.55467 15.1563 -5.16928 2.35517 15.1471 -5.14509 2.00941 20.0806 
-5.41404 1.85105 15.1009 -5.46609 1.72565 15.0911 -5.46609 1.33713 20.0277 
-5.51241 1.60657 15.0817 -5.59737 1.3659 15.0606 -5.59387 0.987129 20.0002 
-5.74023 0.850239 15.0222 -5.78884 0.619228 15.0078 -5.78145 0.266435 19.9434 
-5.83456 0.332017 14.9814 -5.84048 0.287168 14.9779 -5.84048 -0.101353 19.9145 
-5.86414 0.0702645 14.9608 -5.87599 -0.0836119 14.9487 -5.87599 -0.472133 19.8853 
-5.88192 -0.192548 14.9401 -5.88785 -0.455891 14.9194 -5.88785 -0.844406 19.856 
-5.87596 -0.344492 14.6898 -5.88785 -0.455891 14.9194 -5.88192 -0.192548 14.9401 
-5.84901 0.178554 14.7648 -5.87596 -0.344492 14.6898 -5.87599 -0.0836119 14.9487 
-5.87596 -0.344492 14.6898 -5.88192 -0.192548 14.9401 -5.87599 -0.0836119 14.9487 
-5.84901 0.178554 14.7648 -5.86414 0.0702645 14.9608 -5.84048 0.287168 14.9779 
-5.84901 0.178554 14.7648 -5.83456 0.332017 14.9814 -5.78884 0.619228 15.0078 
-5.75417 0.753608 14.7751 -5.74023 0.850239 15.0222 -5.68561 1.07214 15.0419 
-5.68561 1.07214 15.0419 -5.63943 1.20996 14.8128 -5.75417 0.753608 14.7751 
-5.63943 1.20996 14.8128 -5.68561 1.07214 15.0419 -5.59737 1.3659 15.0606 
-5.47411 1.70006 14.864 -5.63943 1.20996 14.8128 -5.59737 1.3659 15.0606 
-5.47411 1.70006 14.864 -5.51241 1.60657 15.0817 -5.46609 1.72565 15.0911 
-5.47411 1.70006 14.864 -5.41404 1.85105 15.1009 -5.31011 2.08781 15.0253 
-5.12041 2.43931 14.9164 -5.05441 2.55467 15.1563 -4.93126 2.75268 15.1697 
-4.93126 2.75268 15.1697 -4.8554 2.86665 14.967 -5.12041 2.43931 14.9164 
-4.8554 2.86665 14.967 -4.93126 2.75268 15.1697 -4.76337 2.99423 15.1909 
-4.51379 3.31652 14.9929 -4.8554 2.86665 14.967 -4.74131 3.0243 15.1933 
-4.8554 2.86665 14.967 -4.76337 2.99423 15.1909 -4.74131 3.0243 15.1933 
-4.51379 3.31652 14.9929 -4.6033 3.2038 15.2074 -4.51035 3.31708 15.2163 
-4.51379 3.31652 14.9929 -4.43397 3.40601 15.2233 -4.25814 3.60548 15.1418 
-3.98861 3.85664 14.9146 -4.06887 3.7867 15.2533 -3.99496 3.85594 15.2587 
-3.98861 3.85664 14.9146 -3.87384 3.96441 15.2673 -3.68989 4.11906 15.277 
-3.68989 4.11906 15.277 -3.66589 4.13369 14.9521 -3.98861 3.85664 14.9146 
-3.66589 4.13369 14.9521 -3.68989 4.11906 15.277 -3.44125 4.30749 15.2958 
-3.35872 4.36609 14.9758 -3.2436 4.4428 15.3049 -3.10422 4.53174 15.3119 
-3.10422 4.53174 15.3119 -2.93448 4.63846 15.079 -3.35872 4.36609 14.9758 
-2.93448 4.63846 15.079 -3.01987 4.58294 15.316 -2.78606 4.71539 15.3243 
-2.45199 4.88971 15.1072 -2.93448 4.63846 15.079 -2.78606 4.71539 15.3243 
-2.45199 4.88971 15.1072 -2.55464 4.83252 15.3356 -2.4459 4.88337 15.3396 
-2.45199 4.88971 15.1072 -2.31407 4.94146 15.3442 -2.08415 5.03412 15.3522 
-2.08415 5.03412 15.3522 -1.94885 5.08559 15.0201 -2.45199 4.88971 15.1072 
-1.94885 5.08559 15.0201 -2.08415 5.03412 15.3522 -1.78965 5.13647 15.364 
-1.56227 5.20391 15.0157 -1.94885 5.08559 15.0201 -1.78965 5.13647 15.364 
-1.56227 5.20391 15.0157 -1.56638 5.20228 15.3647 -1.34266 5.25967 15.3721 
-1.34266 5.25967 15.3721 -1.21855 5.28967 15.0293 -1.56227 5.20391 15.0157 
-1.21855 5.28967 15.0293 -1.34266 5.25967 15.3721 -1.03773 5.32222 15.3745 
-0.707878 5.38046 15.1485 -1.21855 5.28967 15.0293 -1.03773 5.32222 15.3745 
-0.707878 5.38046 15.1485 -0.790345 5.36068 15.3772 -0.652598 5.37764 15.3785 
-0.707878 5.38046 15.1485 -0.527782 5.39018 15.3795 -0.271477 5.41561 15.2782 
0.116053 5.42069 15.1517 -8.88178e-11 5.41381 15.3813 0.0934164 5.41307 15.3813 
0.116053 5.42069 15.1517 0.264157 5.4079 15.3809 0.501291 5.39323 15.3783 
0.501291 5.39323 15.3783 0.529736 5.39619 15.1492 0.116053 5.42069 15.1517 
0.529736 5.39619 15.1492 0.501291 5.39323 15.3783 0.811957 5.35833 15.3758 
0.910234 5.34729 15.0352 1.05132 5.31948 15.3739 1.20587 5.28938 15.3716 
1.20587 5.28938 15.3716 1.39703 5.25323 15.1323 0.910234 5.34729 15.0352 
1.39703 5.25323 15.1323 1.31017 5.26664 15.3698 1.56767 5.20192 15.3647 
1.90943 5.10512 15.1137 1.39703 5.25323 15.1323 1.56767 5.20192 15.3647 
1.90943 5.10512 15.1137 1.81944 5.12652 15.3587 1.92573 5.09098 15.3559 
1.90943 5.10512 15.1137 2.06884 5.03952 15.3519 2.27474 4.95805 15.3455 
2.27474 4.95805 15.3455 2.31178 4.94809 15.1917 1.90943 5.10512 15.1137 
2.31178 4.94809 15.1917 2.31407 4.94146 15.3442 2.58085 4.82027 15.3388 
2.66123 4.78617 15.1026 2.79007 4.71294 15.3262 2.99072 4.60125 15.3155 
2.99072 4.60125 15.3155 3.09713 4.54356 15.1012 2.66123 4.78617 15.1026 
3.09713 4.54356 15.1012 2.99072 4.60125 15.3155 3.2525 4.43692 15.3045 
3.55895 4.22553 15.061 3.09713 4.54356 15.1012 3.2525 4.43692 15.3045 
3.55895 4.22553 15.061 3.46079 4.29279 15.2931 3.56574 4.21499 15.287 
3.55895 4.22553 15.061 3.67101 4.13322 15.2806 3.86585 3.97939 15.1701 
4.15765 3.70459 15.0154 4.25571 3.60044 15.2386 4.41491 3.4286 15.2261 
4.41491 3.4286 15.2261 4.48552 3.34766 14.9813 4.15765 3.70459 15.0154 
4.48552 3.34766 14.9813 4.41491 3.4286 15.2261 4.61515 3.18959 15.207 
4.815 2.92517 14.954 4.48552 3.34766 14.9813 4.61515 3.18959 15.207 
4.815 2.92517 14.954 4.76337 2.99423 15.1909 4.84968 2.87258 15.1813 
4.815 2.92517 14.954 4.91384 2.77771 15.1739 5.05311 2.55697 15.1565 
5.05311 2.55697 15.1565 5.09177 2.48784 14.9125 4.815 2.92517 14.954 
5.09177 2.48784 14.9125 5.05311 2.55697 15.1565 5.18481 2.32557 15.1383 
5.28072 2.1317 14.8919 5.09177 2.48784 14.9125 5.23333 2.23376 15.1311 
5.09177 2.48784 14.9125 5.18481 2.32557 15.1383 5.23333 2.23376 15.1311 
5.28072 2.1317 14.8919 5.30477 2.09087 15.1198 5.40553 1.87222 15.1016 
5.40553 1.87222 15.1016 5.45171 1.74932 14.8449 5.28072 2.1317 14.8919 
5.45171 1.74932 14.8449 5.40553 1.87222 15.1016 5.51241 1.60657 15.0817 
5.53185 1.51681 14.751 5.45171 1.74932 14.8449 5.53277 1.55166 15.0774 
5.45171 1.74932 14.8449 5.51241 1.60657 15.0817 5.53277 1.55166 15.0774 
5.53185 1.51681 14.751 5.59968 1.35794 15.0621 5.64935 1.19779 15.0495 
5.64935 1.19779 15.0495 5.69548 1.00523 14.7858 5.53185 1.51681 14.751 
5.69548 1.00523 14.7858 5.67567 1.10566 15.0423 5.7417 0.843752 15.0217 
5.80055 0.519682 14.7853 5.69548 1.00523 14.7858 5.7417 0.843752 15.0217 
5.80055 0.519682 14.7853 5.79323 0.592184 15.0019 5.81389 0.471529 14.9924 
5.80055 0.519682 14.7853 5.83456 0.332017 14.9814 5.86322 0.091549 14.8672 
5.87572 -0.269476 14.7057 5.88785 -0.455891 14.9194 5.884 -0.686648 14.8977 
5.884 -0.686648 14.8977 5.85653 -0.833407 14.5847 5.87572 -0.269476 14.7057 
5.85653 -0.833407 14.5847 5.884 -0.686648 14.8977 5.86267 -0.997944 14.8767 
5.80558 -1.35504 14.6213 5.85653 -0.833407 14.5847 5.86267 -0.997944 14.8767 
5.80558 -1.35504 14.6213 5.83456 -1.2438 14.8574 5.81389 -1.38331 14.8464 
5.80558 -1.35504 14.6213 5.79323 -1.50397 14.8369 5.7417 -1.75553 14.8171 
5.7417 -1.75553 14.8171 5.72914 -1.69406 14.5214 5.80558 -1.35504 14.6213 
5.72914 -1.69406 14.5214 5.7417 -1.75553 14.8171 5.66654 -2.0523 14.7874 
5.63484 -2.10716 14.5644 5.59968 -2.26973 14.7766 5.53277 -2.46345 14.7614 
5.53277 -2.46345 14.7614 5.50028 -2.49892 14.5279 5.63484 -2.10716 14.5644 
5.50028 -2.49892 14.5279 5.51241 -2.51835 14.7571 5.40553 -2.78382 14.735 
5.36743 -2.79792 14.4184 5.30477 -3.00266 14.719 5.23333 -3.14554 14.7077 
5.23333 -3.14554 14.7077 5.13086 -3.29364 14.4591 5.36743 -2.79792 14.4184 
5.13086 -3.29364 14.4591 5.18481 -3.23736 14.7005 5.0533 -3.46834 14.681 
4.92809 -3.62818 14.4378 5.13086 -3.29364 14.4591 5.0533 -3.46834 14.681 
4.68334 -3.98461 14.4331 4.92809 -3.62818 14.4378 4.84968 -3.78436 14.6574 
4.92809 -3.62818 14.4378 4.91384 -3.68949 14.6649 4.84968 -3.78436 14.6574 
4.68334 -3.98461 14.4331 4.76337 -3.90601 14.6479 4.61515 -4.10151 14.6335 
4.68334 -3.98461 14.4331 4.61515 -4.10151 14.6335 4.41491 -4.34046 14.6137 
4.3433 -4.38538 14.381 4.25571 -4.51222 14.6001 4.09375 -4.67555 14.5854 
4.09375 -4.67555 14.5854 3.99401 -4.74101 14.3688 4.3433 -4.38538 14.381 
3.99401 -4.74101 14.3688 4.09375 -4.67555 14.5854 3.87384 -4.87619 14.5715 
3.56214 -5.09941 14.3271 3.99401 -4.74101 14.3688 3.85572 -4.89191 14.5703 
3.99401 -4.74101 14.3688 3.87384 -4.87619 14.5715 3.85572 -4.89191 14.5703 
3.56214 -5.09941 14.3271 3.67101 -5.045 14.5582 3.56574 -5.12677 14.5518 
3.56214 -5.09941 14.3271 3.46079 -5.20458 14.5457 3.25197 -5.34131 14.4361 
2.91496 -5.52619 14.2898 3.01987 -5.49472 14.5228 2.94392 -5.5392 14.5193 
2.91496 -5.52619 14.2898 2.79007 -5.62472 14.5126 2.58081 -5.73226 14.5023 
2.58081 -5.73226 14.5023 2.46141 -5.76277 14.2888 2.91496 -5.52619 14.2898 
2.46141 -5.76277 14.2888 2.58081 -5.73226 14.5023 2.31407 -5.85324 14.4946 
1.92496 -5.97458 14.2537 2.46141 -5.76277 14.2888 2.27474 -5.86983 14.4933 
2.46141 -5.76277 14.2888 2.31407 -5.85324 14.4946 2.27474 -5.86983 14.4933 
1.92496 -5.97458 14.2537 2.06884 -5.95131 14.4869 1.92573 -6.00276 14.4828 
1.92496 -5.97458 14.2537 1.81944 -6.0383 14.48 1.56767 -6.11371 14.4741 
1.56767 -6.11371 14.4741 1.4737 -6.10862 14.2362 1.92496 -5.97458 14.2537 
1.4737 -6.10862 14.2362 1.56767 -6.11371 14.4741 1.31017 -6.17842 14.469 
0.963209 -6.22515 14.2668 1.4737 -6.10862 14.2362 1.20587 -6.20116 14.4672 
1.4737 -6.10862 14.2362 1.31017 -6.17842 14.469 1.20587 -6.20116 14.4672 
0.963209 -6.22515 14.2668 1.05132 -6.23126 14.4649 0.811959 -6.26994 14.4607 
0.963209 -6.22515 14.2668 0.811959 -6.26994 14.4607 0.501267 -6.3052 14.4627 
0.401376 -6.28293 14.2285 0.264157 -6.31968 14.4579 0.0346292 -6.32605 14.4543 
0.0346292 -6.32605 14.4543 -0.0708477 -6.30029 14.2466 0.401376 -6.28293 14.2285 
-0.0708477 -6.30029 14.2466 0.0346292 -6.32605 14.4543 -0.272156 -6.31931 14.4579 
-0.638131 -6.26237 14.2258 -0.0708477 -6.30029 14.2466 -0.272156 -6.31931 14.4579 
-0.638131 -6.26237 14.2258 -0.527782 -6.30196 14.4593 -0.652598 -6.28942 14.4603 
-0.638131 -6.26237 14.2258 -0.790345 -6.27247 14.4616 -1.03772 -6.23407 14.4651 
-1.03772 -6.23407 14.4651 -1.08546 -6.19457 14.2326 -0.638131 -6.26237 14.2258 
-1.08546 -6.19457 14.2326 -1.03772 -6.23407 14.4651 -1.34268 -6.17189 14.4723 
-1.47502 -6.09217 14.1559 -1.56638 -6.11406 14.4741 -1.78967 -6.04866 14.4799 
-1.78967 -6.04866 14.4799 -1.90292 -5.9802 14.2473 -1.47502 -6.09217 14.1559 
-1.90292 -5.9802 14.2473 -1.78967 -6.04866 14.4799 -2.08414 -5.946 14.4878 
-2.38926 -5.79243 14.267 -1.90292 -5.9802 14.2473 -2.08414 -5.946 14.4878 
-2.38926 -5.79243 14.267 -2.31407 -5.85324 14.4946 -2.4459 -5.79516 14.4992 
-2.38926 -5.79243 14.267 -2.55464 -5.7443 14.5032 -2.78551 -5.6273 14.5124 
-2.78551 -5.6273 14.5124 -2.78558 -5.57609 14.1904 -2.38926 -5.79243 14.267 
-2.78558 -5.57609 14.1904 -2.78551 -5.6273 14.5124 -3.05236 -5.47616 14.525 
-3.11383 -5.38118 14.1863 -3.2436 -5.35458 14.5339 -3.44211 -5.21155 14.4528 
-3.75968 -4.94134 14.3365 -3.87384 -4.87619 14.5715 -3.99496 -4.76772 14.58 
-3.99496 -4.76772 14.58 -4.15512 -4.56166 14.2762 -3.75968 -4.94134 14.3365 
-4.15512 -4.56166 14.2762 -4.06887 -4.69848 14.5855 -4.25847 -4.50933 14.6004 
-4.46715 -4.25258 14.4068 -4.43397 -4.31779 14.6155 -4.51035 -4.22886 14.6224 
-4.46715 -4.25258 14.4068 -4.6033 -4.11559 14.6314 -4.74131 -3.93608 14.6455 
-4.74131 -3.93608 14.6455 -4.81968 -3.79101 14.4181 -4.46715 -4.25258 14.4068 
-4.81968 -3.79101 14.4181 -4.76337 -3.90601 14.6479 -4.93127 -3.66429 14.6672 
-5.11452 -3.32849 14.4726 -4.81968 -3.79101 14.4181 -4.93127 -3.66429 14.6672 
-5.11452 -3.32849 14.4726 -5.05441 -3.46645 14.6825 -5.16959 -3.26656 14.6938 
-5.11452 -3.32849 14.4726 -5.16959 -3.26656 14.6938 -5.31053 -2.99066 14.7199 
-5.45306 -2.62356 14.5114 -5.29569 -2.97166 14.4729 -5.31053 -2.99066 14.7199 
-5.45306 -2.62356 14.5114 -5.41404 -2.76283 14.7378 -5.46609 -2.63744 14.7477 
-5.45306 -2.62356 14.5114 -5.51241 -2.51835 14.7571 -5.59709 -2.27833 14.7761 
-5.59709 -2.27833 14.7761 -5.59948 -2.21343 14.5462 -5.45306 -2.62356 14.5114 
-5.59948 -2.21343 14.5462 -5.59709 -2.27833 14.7761 -5.68585 -1.98315 14.8006 
-5.70083 -1.8617 14.5753 -5.74023 -1.76202 14.8166 -5.78884 -1.5312 14.8336 
-5.78884 -1.5312 14.8336 -5.80299 -1.38435 14.6339 -5.70083 -1.8617 14.5753 
-5.80299 -1.38435 14.6339 -5.78884 -1.5312 14.8336 -5.83456 -1.2438 14.8574 
-5.86589 -0.814217 14.6597 -5.80299 -1.38435 14.6339 -5.84048 -1.19895 14.8609 
-5.80299 -1.38435 14.6339 -5.83456 -1.2438 14.8574 -5.84048 -1.19895 14.8609 
-5.86589 -0.814217 14.6597 -5.86414 -0.982047 14.878 -5.87599 -0.82817 14.8901 
-5.86589 -0.814217 14.6597 -5.88192 -0.719234 14.8987 -5.88785 -0.455891 14.9194 
-5.8 0.357504 14.6029 -5.84901 0.178554 14.7648 -5.75417 0.753608 14.7751 
-5.233 2.15158 14.6254 -5.31011 2.08781 15.0253 -5.12041 2.43931 14.9164 
-4.59479 3.17529 14.7561 -4.8554 2.86665 14.967 -4.51379 3.31652 14.9929 
-4.25353 3.57907 14.8456 -4.25814 3.60548 15.1418 -3.98861 3.85664 14.9146 
-0.159803 5.40175 14.9457 -0.271477 5.41561 15.2782 0.116053 5.42069 15.1517 
2.42853 4.88016 14.929 2.31178 4.94809 15.1917 2.66123 4.78617 15.1026 
3.40411 4.31555 14.8633 3.09713 4.54356 15.1012 3.55895 4.22553 15.061 
3.9178 3.90381 14.8446 3.86585 3.97939 15.1701 4.15765 3.70459 15.0154 
5.80135 0.198582 14.482 5.86322 0.091549 14.8672 5.87572 -0.269476 14.7057 
4.49337 -4.156 14.2167 4.68334 -3.98461 14.4331 4.3433 -4.38538 14.381 
3.85065 -4.82054 14.1954 3.99401 -4.74101 14.3688 3.56214 -5.09941 14.3271 
3.13867 -5.34411 14.1251 3.25197 -5.34131 14.4361 2.91496 -5.52619 14.2898 
2.30004 -5.79171 14.119 2.46141 -5.76277 14.2888 1.92496 -5.97458 14.2537 
0.698706 -6.21756 14.073 0.963209 -6.22515 14.2668 0.401376 -6.28293 14.2285 
-0.15458 -6.24918 14.0441 -0.0708477 -6.30029 14.2466 -0.638131 -6.26237 14.2258 
-3.5325 -5.07319 14.1511 -3.44211 -5.21155 14.4528 -3.75968 -4.94134 14.3365 
-5.80011 -1.209 14.4796 -5.80299 -1.38435 14.6339 -5.86589 -0.814217 14.6597 
-5.79664 -0.0619964 14.3606 -5.87596 -0.344492 14.6898 -5.84901 0.178554 14.7648 
-5.79664 -0.0619964 14.3606 -5.84901 0.178554 14.7648 -5.8 0.357504 14.6029 
-5.71507 0.754075 14.5469 -5.75417 0.753608 14.7751 -5.63943 1.20996 14.8128 
-5.50511 1.5115 14.6126 -5.63943 1.20996 14.8128 -5.47411 1.70006 14.864 
-5.28031 1.99299 14.5155 -5.47411 1.70006 14.864 -5.233 2.15158 14.6254 
-4.94196 2.67631 14.7102 -5.12041 2.43931 14.9164 -4.8554 2.86665 14.967 
-4.94196 2.67631 14.7102 -4.8554 2.86665 14.967 -4.59479 3.17529 14.7561 
-4.59479 3.17529 14.7561 -4.51379 3.31652 14.9929 -4.25353 3.57907 14.8456 
-2.86322 4.64448 14.8183 -2.93448 4.63846 15.079 -2.45199 4.88971 15.1072 
-2.42953 4.85335 14.7733 -2.45199 4.88971 15.1072 -1.94885 5.08559 15.0201 
-0.675848 5.35828 14.915 -0.707878 5.38046 15.1485 -0.159803 5.40175 14.9457 
0.393396 5.38556 14.9234 0.116053 5.42069 15.1517 0.529736 5.39619 15.1492 
0.393396 5.38556 14.9234 0.529736 5.39619 15.1492 0.910234 5.34729 15.0352 
1.41487 5.22733 14.9225 1.39703 5.25323 15.1323 1.90943 5.10512 15.1137 
1.89147 5.08497 14.9021 1.90943 5.10512 15.1137 2.42853 4.88016 14.929 
2.88128 4.64044 14.8648 2.66123 4.78617 15.1026 3.09713 4.54356 15.1012 
2.88128 4.64044 14.8648 3.09713 4.54356 15.1012 3.40411 4.31555 14.8633 
3.40411 4.31555 14.8633 3.55895 4.22553 15.061 3.9178 3.90381 14.8446 
4.2862 3.52502 14.7608 4.15765 3.70459 15.0154 4.48552 3.34766 14.9813 
4.56249 3.20698 14.7523 4.48552 3.34766 14.9813 4.815 2.92517 14.954 
4.79848 2.89299 14.7272 4.815 2.92517 14.954 5.09177 2.48784 14.9125 
5.06335 2.48204 14.7089 5.09177 2.48784 14.9125 5.28072 2.1317 14.8919 
5.30406 1.98663 14.601 5.28072 2.1317 14.8919 5.45171 1.74932 14.8449 
5.71431 0.728055 14.517 5.69548 1.00523 14.7858 5.80055 0.519682 14.7853 
5.8109 -0.449414 14.3491 5.87572 -0.269476 14.7057 5.85653 -0.833407 14.5847 
5.72753 -1.38328 14.2768 5.80558 -1.35504 14.6213 5.72914 -1.69406 14.5214 
5.49219 -2.31026 14.2117 5.63484 -2.10716 14.5644 5.50028 -2.49892 14.5279 
5.49219 -2.31026 14.2117 5.50028 -2.49892 14.5279 5.36743 -2.79792 14.4184 
5.12347 -3.21844 14.2568 5.36743 -2.79792 14.4184 5.13086 -3.29364 14.4591 
5.12347 -3.21844 14.2568 5.13086 -3.29364 14.4591 4.92809 -3.62818 14.4378 
4.79837 -3.72665 14.1932 4.92809 -3.62818 14.4378 4.68334 -3.98461 14.4331 
4.79837 -3.72665 14.1932 4.68334 -3.98461 14.4331 4.49337 -4.156 14.2167 
4.12687 -4.53546 14.1426 4.3433 -4.38538 14.381 3.99401 -4.74101 14.3688 
4.12687 -4.53546 14.1426 3.99401 -4.74101 14.3688 3.85065 -4.82054 14.1954 
3.56018 -5.02469 14.0873 3.56214 -5.09941 14.3271 3.13867 -5.34411 14.1251 
2.64928 -5.60539 14.0584 2.91496 -5.52619 14.2898 2.46141 -5.76277 14.2888 
2.64928 -5.60539 14.0584 2.46141 -5.76277 14.2888 2.30004 -5.79171 14.119 
1.85699 -5.89081 13.8943 1.92496 -5.97458 14.2537 1.4737 -6.10862 14.2362 
1.17322 -6.11664 14.0066 1.4737 -6.10862 14.2362 0.963209 -6.22515 14.2668 
1.17322 -6.11664 14.0066 0.963209 -6.22515 14.2668 0.698706 -6.21756 14.073 
0.261815 -6.23208 14.0094 0.401376 -6.28293 14.2285 -0.0708477 -6.30029 14.2466 
-0.661928 -6.20247 14.0124 -0.638131 -6.26237 14.2258 -1.08546 -6.19457 14.2326 
-1.0503 -6.12248 13.951 -1.08546 -6.19457 14.2326 -1.47502 -6.09217 14.1559 
-1.92156 -5.91628 14.0326 -1.90292 -5.9802 14.2473 -2.38926 -5.79243 14.267 
-2.41464 -5.71804 14.0495 -2.38926 -5.79243 14.267 -2.78558 -5.57609 14.1904 
-3.93863 -4.71488 14.1285 -3.75968 -4.94134 14.3365 -4.15512 -4.56166 14.2762 
-4.47669 -4.15513 14.1732 -4.46715 -4.25258 14.4068 -4.81968 -3.79101 14.4181 
-4.94276 -3.51553 14.2229 -4.81968 -3.79101 14.4181 -5.11452 -3.32849 14.4726 
-5.15489 -3.09944 14.1565 -5.11452 -3.32849 14.4726 -5.29569 -2.97166 14.4729 
-5.15489 -3.09944 14.1565 -5.29569 -2.97166 14.4729 -5.45306 -2.62356 14.5114 
-5.41772 -2.58594 14.296 -5.45306 -2.62356 14.5114 -5.59948 -2.21343 14.5462 
-5.59037 -2.09681 14.3364 -5.59948 -2.21343 14.5462 -5.70083 -1.8617 14.5753 
-5.71855 -1.58675 14.3747 -5.70083 -1.8617 14.5753 -5.80299 -1.38435 14.6339 
-5.71855 -1.58675 14.3747 -5.80299 -1.38435 14.6339 -5.80011 -1.209 14.4796 
-5.82386 -0.810936 14.4357 -5.86589 -0.814217 14.6597 -5.87596 -0.344492 14.6898 
-5.72023 0.370169 14.3088 -5.8 0.357504 14.6029 -5.71507 0.754075 14.5469 
-5.65323 0.758344 14.3327 -5.71507 0.754075 14.5469 -5.59803 1.09519 14.4337 
-5.44438 1.50295 14.386 -5.50511 1.5115 14.6126 -5.28031 1.99299 14.5155 
-4.89286 2.66337 14.5046 -4.94196 2.67631 14.7102 -4.59479 3.17529 14.7561 
-4.25032 3.48778 14.5421 -4.59479 3.17529 14.7561 -4.25353 3.57907 14.8456 
-4.25032 3.48778 14.5421 -4.25353 3.57907 14.8456 -3.98861 3.85664 14.9146 
-3.9088 3.83366 14.5805 -3.98861 3.85664 14.9146 -3.66589 4.13369 14.9521 
-3.59857 4.09668 14.6021 -3.66589 4.13369 14.9521 -3.35872 4.36609 14.9758 
-3.18819 4.38943 14.5976 -3.35872 4.36609 14.9758 -2.86322 4.64448 14.8183 
-1.87157 5.04613 14.6885 -1.94885 5.08559 15.0201 -1.56227 5.20391 15.0157 
-1.46822 5.14566 14.6195 -1.56227 5.20391 15.0157 -1.21855 5.28967 15.0293 
-1.03001 5.25938 14.6936 -1.21855 5.28967 15.0293 -0.675848 5.35828 14.915 
-0.662069 5.31785 14.7044 -0.675848 5.35828 14.915 -0.159803 5.40175 14.9457 
-0.105026 5.35922 14.7214 -0.159803 5.40175 14.9457 0.393396 5.38556 14.9234 
0.561419 5.32566 14.6858 0.393396 5.38556 14.9234 0.910234 5.34729 15.0352 
1.20468 5.22829 14.6977 0.910234 5.34729 15.0352 1.41487 5.22733 14.9225 
1.66648 5.10655 14.6749 1.41487 5.22733 14.9225 1.89147 5.08497 14.9021 
2.1428 4.94058 14.6595 1.89147 5.08497 14.9021 2.42853 4.88016 14.929 
2.61884 4.72533 14.651 2.42853 4.88016 14.929 2.88128 4.64044 14.8648 
2.96138 4.53676 14.6367 2.88128 4.64044 14.8648 3.40411 4.31555 14.8633 
3.40751 4.25436 14.6288 3.40411 4.31555 14.8633 3.9178 3.90381 14.8446 
3.89594 3.84454 14.5787 3.9178 3.90381 14.8446 4.2862 3.52502 14.7608 
4.23973 3.5064 14.5575 4.2862 3.52502 14.7608 4.56249 3.20698 14.7523 
4.59147 3.0847 14.5219 4.56249 3.20698 14.7523 4.79848 2.89299 14.7272 
4.89359 2.64737 14.4751 4.79848 2.89299 14.7272 5.06335 2.48204 14.7089 
5.11585 2.20558 14.3665 5.06335 2.48204 14.7089 5.30406 1.98663 14.601 
5.4561 1.49324 14.4084 5.53185 1.51681 14.751 5.60888 1.12814 14.5145 
5.74441 -0.989864 14.1986 5.8109 -0.449414 14.3491 5.85653 -0.833407 14.5847 
5.74441 -0.989864 14.1986 5.85653 -0.833407 14.5847 5.72753 -1.38328 14.2768 
5.72753 -1.38328 14.2768 5.72914 -1.69406 14.5214 5.6163 -1.94908 14.2877 
5.25675 -2.78295 14.0579 5.36743 -2.79792 14.4184 5.12347 -3.21844 14.2568 
4.88955 -3.46601 14.0088 5.12347 -3.21844 14.2568 4.79837 -3.72665 14.1932 
4.58702 -3.89739 13.9698 4.79837 -3.72665 14.1932 4.49337 -4.156 14.2167 
4.26429 -4.27392 13.9279 4.49337 -4.156 14.2167 4.12687 -4.53546 14.1426 
3.98868 -4.56308 13.9206 4.12687 -4.53546 14.1426 3.85065 -4.82054 14.1954 
3.70027 -4.82104 13.8975 3.85065 -4.82054 14.1954 3.56018 -5.02469 14.0873 
3.28436 -5.13204 13.8628 3.56018 -5.02469 14.0873 3.13867 -5.34411 14.1251 
2.85539 -5.39804 13.8394 3.13867 -5.34411 14.1251 2.64928 -5.60539 14.0584 
2.38397 -5.64345 13.8277 2.64928 -5.60539 14.0584 2.30004 -5.79171 14.119 
2.38397 -5.64345 13.8277 2.30004 -5.79171 14.119 1.85699 -5.89081 13.8943 
1.13729 -6.04526 13.7997 1.17322 -6.11664 14.0066 0.698706 -6.21756 14.073 
0.652971 -6.12656 13.8038 0.698706 -6.21756 14.073 0.261815 -6.23208 14.0094 
0.0730592 -6.16396 13.8084 0.261815 -6.23208 14.0094 -0.15458 -6.24918 14.0441 
-0.400177 -6.14931 13.806 -0.15458 -6.24918 14.0441 -0.661928 -6.20247 14.0124 
-0.919874 -6.0539 13.732 -0.661928 -6.20247 14.0124 -1.0503 -6.12248 13.951 
-1.39156 -5.98979 13.8077 -1.47502 -6.09217 14.1559 -1.92156 -5.91628 14.0326 
-1.90429 -5.83922 13.8202 -1.92156 -5.91628 14.0326 -2.41464 -5.71804 14.0495 
-2.39075 -5.64374 13.8363 -2.41464 -5.71804 14.0495 -2.78558 -5.57609 14.1904 
-2.73609 -5.47034 13.8492 -2.78558 -5.57609 14.1904 -3.11383 -5.38118 14.1863 
-3.08533 -5.27135 13.8699 -3.11383 -5.38118 14.1863 -3.5325 -5.07319 14.1511 
-3.51016 -4.98046 13.8983 -3.5325 -5.07319 14.1511 -3.93863 -4.71488 14.1285 
-3.90581 -4.64601 13.9181 -3.93863 -4.71488 14.1285 -4.15512 -4.56166 14.2762 
-4.24585 -4.30059 13.934 -4.15512 -4.56166 14.2762 -4.47669 -4.15513 14.1732 
-5.44551 -2.30281 14.0848 -5.41772 -2.58594 14.296 -5.59037 -2.09681 14.3364 
-5.56474 -1.93333 14.1275 -5.59037 -2.09681 14.3364 -5.71855 -1.58675 14.3747 
-5.66134 -1.54704 14.162 -5.71855 -1.58675 14.3747 -5.80011 -1.209 14.4796 
-5.73582 -1.06171 14.1932 -5.80011 -1.209 14.4796 -5.82386 -0.810936 14.4357 
-4.97371 2.39321 14.2939 -5.233 2.15158 14.6254 -4.89286 2.66337 14.5046 
-2.64529 4.65417 14.4882 -2.86322 4.64448 14.8183 -2.42953 4.85335 14.7733 
-2.22512 4.85864 14.5256 -2.42953 4.85335 14.7733 -1.87157 5.04613 14.6885 
5.26726 1.82588 14.287 5.30406 1.98663 14.601 5.4561 1.49324 14.4084 
5.67468 0.497338 14.2468 5.71431 0.728055 14.517 5.80135 0.198582 14.482 
5.70511 -0.0373489 14.1313 5.80135 0.198582 14.482 5.81672 -0.143869 14.4298 
5.70511 -0.0373489 14.1313 5.81672 -0.143869 14.4298 5.8109 -0.449414 14.3491 
5.57077 -1.79808 14.0661 5.72753 -1.38328 14.2768 5.6163 -1.94908 14.2877 
5.57077 -1.79808 14.0661 5.6163 -1.94908 14.2877 5.49219 -2.31026 14.2117 
-0.919874 -6.0539 13.732 -1.0503 -6.12248 13.951 -1.39156 -5.98979 13.8077 
-5.67427 -0.251045 14.033 -5.79872 -0.477478 14.311 -5.79664 -0.0619964 14.3606 
-5.61924 0.266511 14.0279 -5.79664 -0.0619964 14.3606 -5.72023 0.370169 14.3088 
-5.61924 0.266511 14.0279 -5.72023 0.370169 14.3088 -5.65323 0.758344 14.3327 
-5.5298 0.753774 14.0478 -5.65323 0.758344 14.3327 -5.59803 1.09519 14.4337 
-5.47702 1.12039 14.1565 -5.59803 1.09519 14.4337 -5.44438 1.50295 14.386 
-5.31959 1.50492 14.1104 -5.44438 1.50295 14.386 -5.20935 1.93805 14.2714 
-5.20935 1.93805 14.2714 -5.28031 1.99299 14.5155 -4.97371 2.39321 14.2939 
-4.5961 2.87584 14.197 -4.89286 2.66337 14.5046 -4.59125 3.09048 14.5265 
-4.40379 3.1509 14.2531 -4.59125 3.09048 14.5265 -4.25032 3.48778 14.5421 
-4.05611 3.53606 14.2661 -4.25032 3.48778 14.5421 -3.9088 3.83366 14.5805 
-3.63238 3.96344 14.3664 -3.9088 3.83366 14.5805 -3.59857 4.09668 14.6021 
-3.63238 3.96344 14.3664 -3.59857 4.09668 14.6021 -3.18819 4.38943 14.5976 
-3.1739 4.31305 14.4008 -3.18819 4.38943 14.5976 -2.64529 4.65417 14.4882 
-2.64529 4.65417 14.4882 -2.42953 4.85335 14.7733 -2.22512 4.85864 14.5256 
-1.79591 4.94554 14.3579 -1.87157 5.04613 14.6885 -1.46822 5.14566 14.6195 
-1.03244 5.16382 14.415 -1.46822 5.14566 14.6195 -1.03001 5.25938 14.6936 
-1.03244 5.16382 14.415 -1.03001 5.25938 14.6936 -0.662069 5.31785 14.7044 
0.131403 5.25181 14.4143 -0.105026 5.35922 14.7214 0.561419 5.32566 14.6858 
0.798733 5.20662 14.4298 0.561419 5.32566 14.6858 1.20468 5.22829 14.6977 
1.27794 5.11371 14.4229 1.20468 5.22829 14.6977 1.66648 5.10655 14.6749 
1.75997 4.96836 14.3775 1.66648 5.10655 14.6749 2.1428 4.94058 14.6595 
2.35427 4.76405 14.4294 2.1428 4.94058 14.6595 2.61884 4.72533 14.651 
2.82963 4.51121 14.3856 2.61884 4.72533 14.651 2.96138 4.53676 14.6367 
2.82963 4.51121 14.3856 2.96138 4.53676 14.6367 3.40751 4.25436 14.6288 
3.54253 4.04198 14.3864 3.40751 4.25436 14.6288 3.89594 3.84454 14.5787 
3.92192 3.66641 14.2696 3.89594 3.84454 14.5787 4.23973 3.5064 14.5575 
4.36232 3.23575 14.3091 4.23973 3.5064 14.5575 4.59147 3.0847 14.5219 
4.72706 2.7501 14.2665 4.59147 3.0847 14.5219 4.89359 2.64737 14.4751 
4.72706 2.7501 14.2665 4.89359 2.64737 14.4751 5.11585 2.20558 14.3665 
5.34253 1.39766 14.0725 5.4561 1.49324 14.4084 5.55874 1.0255 14.2658 
5.53723 0.744525 14.0589 5.55874 1.0255 14.2658 5.67468 0.497338 14.2468 
5.60386 0.268438 14.0032 5.67468 0.497338 14.2468 5.70511 -0.0373489 14.1313 
5.67427 -0.519546 14.0118 5.8109 -0.449414 14.3491 5.74441 -0.989864 14.1986 
5.47571 -1.74192 13.8523 5.57077 -1.79808 14.0661 5.40149 -2.22965 13.9388 
5.40149 -2.22965 13.9388 5.49219 -2.31026 14.2117 5.25675 -2.78295 14.0579 
5.13105 -2.72577 13.7717 5.25675 -2.78295 14.0579 5.08296 -3.1307 14.0333 
4.92026 -3.15835 13.7533 5.08296 -3.1307 14.0333 4.88955 -3.46601 14.0088 
4.63413 -3.60368 13.7134 4.88955 -3.46601 14.0088 4.58702 -3.89739 13.9698 
4.25782 -4.10573 13.6976 4.58702 -3.89739 13.9698 4.26429 -4.27392 13.9279 
4.25782 -4.10573 13.6976 4.26429 -4.27392 13.9279 3.98868 -4.56308 13.9206 
3.91269 -4.45703 13.666 3.98868 -4.56308 13.9206 3.70027 -4.82104 13.8975 
3.63238 -4.7343 13.6818 3.70027 -4.82104 13.8975 3.28436 -5.13204 13.8628 
3.22939 -5.04509 13.6626 3.28436 -5.13204 13.8628 2.85539 -5.39804 13.8394 
2.69949 -5.35345 13.6127 2.85539 -5.39804 13.8394 2.38397 -5.64345 13.8277 
2.1063 -5.63962 13.6089 2.38397 -5.64345 13.8277 1.85699 -5.89081 13.8943 
1.59734 -5.80401 13.5737 1.85699 -5.89081 13.8943 1.55302 -5.97907 13.8829 
1.59734 -5.80401 13.5737 1.55302 -5.97907 13.8829 1.13729 -6.04526 13.7997 
1.11597 -5.90919 13.5435 1.13729 -6.04526 13.7997 0.652971 -6.12656 13.8038 
-0.150259 -6.01286 13.5266 0.0730592 -6.16396 13.8084 -0.400177 -6.14931 13.806 
-0.740927 -5.97237 13.5361 -0.400177 -6.14931 13.806 -0.919874 -6.0539 13.732 
-1.39703 -5.83983 13.54 -1.39156 -5.98979 13.8077 -1.90429 -5.83922 13.8202 
-1.90191 -5.66718 13.5191 -1.90429 -5.83922 13.8202 -2.39075 -5.64374 13.8363 
-2.3518 -5.50443 13.5681 -2.39075 -5.64374 13.8363 -2.73609 -5.47034 13.8492 
-2.75859 -5.28286 13.5592 -2.73609 -5.47034 13.8492 -3.08533 -5.27135 13.8699 
-3.22362 -5.0108 13.608 -3.08533 -5.27135 13.8699 -3.51016 -4.98046 13.8983 
-3.51934 -4.79085 13.6271 -3.51016 -4.98046 13.8983 -3.90581 -4.64601 13.9181 
-3.94001 -4.45546 13.6964 -3.90581 -4.64601 13.9181 -4.24585 -4.30059 13.934 
-4.36232 -4.00661 13.7391 -4.24585 -4.30059 13.934 -4.64185 -3.87328 14.0387 
-4.63013 -3.59773 13.7008 -4.64185 -3.87328 14.0387 -4.81804 -3.57273 13.9985 
-4.63013 -3.59773 13.7008 -4.81804 -3.57273 13.9985 -4.95031 -3.19635 13.839 
-5.33991 -2.22353 13.824 -5.44551 -2.30281 14.0848 -5.56474 -1.93333 14.1275 
-5.4526 -1.85782 13.8533 -5.56474 -1.93333 14.1275 -5.66134 -1.54704 14.162 
-5.542 -1.50969 13.8912 -5.66134 -1.54704 14.162 -5.73582 -1.06171 14.1932 
-5.54923 -0.331247 13.8024 -5.67427 -0.251045 14.033 -5.61924 0.266511 14.0279 
-5.27724 1.19921 13.8604 -5.47702 1.12039 14.1565 -5.31959 1.50492 14.1104 
-5.06842 1.94194 14.0239 -5.20935 1.93805 14.2714 -4.97371 2.39321 14.2939 
-4.83574 2.39317 14.0573 -4.97371 2.39321 14.2939 -4.5961 2.87584 14.197 
-3.56187 3.89894 14.1724 -3.63238 3.96344 14.3664 -3.1739 4.31305 14.4008 
-2.72932 4.51765 14.3009 -3.1739 4.31305 14.4008 -2.64529 4.65417 14.4882 
-2.31856 4.717 14.3044 -2.64529 4.65417 14.4882 -2.22512 4.85864 14.5256 
-2.31856 4.717 14.3044 -2.22512 4.85864 14.5256 -1.79591 4.94554 14.3579 
-1.79591 4.94554 14.3579 -1.46822 5.14566 14.6195 -1.03244 5.16382 14.415 
-0.643026 5.08544 14.1607 -1.03244 5.16382 14.415 -0.314371 5.25566 14.4383 
2.30693 4.68379 14.2337 2.35427 4.76405 14.4294 2.82963 4.51121 14.3856 
3.53434 3.91631 14.1679 3.54253 4.04198 14.3864 3.92192 3.66641 14.2696 
4.28279 3.18024 14.1158 4.36232 3.23575 14.3091 4.72706 2.7501 14.2665 
4.90969 2.34401 14.1298 4.72706 2.7501 14.2665 5.11585 2.20558 14.3665 
5.10869 1.93547 14.0855 5.11585 2.20558 14.3665 5.26726 1.82588 14.287 
5.10869 1.93547 14.0855 5.26726 1.82588 14.287 5.34253 1.39766 14.0725 
5.34253 1.39766 14.0725 5.55874 1.0255 14.2658 5.53723 0.744525 14.0589 
5.57498 -0.359026 13.838 5.70511 -0.0373489 14.1313 5.67427 -0.519546 14.0118 
5.57498 -0.359026 13.838 5.67427 -0.519546 14.0118 5.63214 -0.904337 13.9421 
5.2957 -2.22465 13.7564 5.40149 -2.22965 13.9388 5.13105 -2.72577 13.7717 
3.56866 -4.62463 13.49 3.63238 -4.7343 13.6818 3.22939 -5.04509 13.6626 
3.15071 -4.9063 13.4239 3.22939 -5.04509 13.6626 2.69949 -5.35345 13.6127 
2.58615 -5.30875 13.4673 2.69949 -5.35345 13.6127 2.1063 -5.63962 13.6089 
1.86643 -5.55217 13.3599 2.1063 -5.63962 13.6089 1.59734 -5.80401 13.5737 
-0.740927 -5.97237 13.5361 -0.919874 -6.0539 13.732 -1.39703 -5.83983 13.54 
-3.89787 -4.35824 13.5402 -3.94001 -4.45546 13.6964 -4.36232 -4.00661 13.7391 
-4.27933 -3.91902 13.5507 -4.36232 -4.00661 13.7391 -4.63013 -3.59773 13.7008 
-4.85621 -3.08687 13.6186 -4.95031 -3.19635 13.839 -5.20368 -2.81641 13.9666 
-5.091 -2.65986 13.6754 -5.20368 -2.81641 13.9666 -5.33991 -2.22353 13.824 
-5.45245 0.291967 13.7754 -5.61924 0.266511 14.0279 -5.5298 0.753774 14.0478 
-5.3649 0.756726 13.7968 -5.5298 0.753774 14.0478 -5.27724 1.19921 13.8604 
-5.08408 1.65529 13.8563 -5.31959 1.50492 14.1104 -5.06842 1.94194 14.0239 
-4.1951 3.15508 13.9851 -4.40379 3.1509 14.2531 -4.05611 3.53606 14.2661 
-3.82094 3.55625 14.0155 -4.05611 3.53606 14.2661 -3.56187 3.89894 14.1724 
-2.60458 4.45356 14.0923 -2.72932 4.51765 14.3009 -2.31856 4.717 14.3044 
-1.9516 4.75922 14.1269 -2.31856 4.717 14.3044 -1.79591 4.94554 14.3579 
-1.22216 4.96659 14.1259 -1.79591 4.94554 14.3579 -1.03244 5.16382 14.415 
-1.22216 4.96659 14.1259 -1.03244 5.16382 14.415 -0.643026 5.08544 14.1607 
-0.104961 5.10279 14.1394 -0.314371 5.25566 14.4383 0.131403 5.25181 14.4143 
1.10435 4.99518 14.1314 0.798733 5.20662 14.4298 1.27794 5.11371 14.4229 
1.10435 4.99518 14.1314 1.27794 5.11371 14.4229 1.75997 4.96836 14.3775 
1.69437 4.81685 14.0819 1.75997 4.96836 14.3775 2.30693 4.68379 14.2337 
2.91986 4.26161 14.0707 2.82963 4.51121 14.3856 3.24173 4.21109 14.2911 
4.03703 3.32246 13.9888 3.92192 3.66641 14.2696 4.28279 3.18024 14.1158 
4.82555 2.24581 13.9212 4.90969 2.34401 14.1298 5.10869 1.93547 14.0855 
5.13784 1.54557 13.8537 5.10869 1.93547 14.0855 5.34253 1.39766 14.0725 
5.36662 0.814895 13.8162 5.34253 1.39766 14.0725 5.53723 0.744525 14.0589 
5.36662 0.814895 13.8162 5.53723 0.744525 14.0589 5.60386 0.268438 14.0032 
5.45208 0.258458 13.7643 5.60386 0.268438 14.0032 5.57498 -0.359026 13.838 
5.49248 -0.984827 13.7269 5.63214 -0.904337 13.9421 5.59089 -1.33904 13.9331 
5.3516 -1.59403 13.6232 5.59089 -1.33904 13.9331 5.47571 -1.74192 13.8523 
5.3516 -1.59403 13.6232 5.47571 -1.74192 13.8523 5.2957 -2.22465 13.7564 
5.15875 -2.20175 13.562 5.2957 -2.22465 13.7564 5.13105 -2.72577 13.7717 
4.97515 -2.64859 13.5266 5.13105 -2.72577 13.7717 4.92026 -3.15835 13.7533 
4.70421 -3.18859 13.4989 4.92026 -3.15835 13.7533 4.63413 -3.60368 13.7134 
4.35983 -3.67957 13.4517 4.63413 -3.60368 13.7134 4.25782 -4.10573 13.6976 
4.06935 -4.08281 13.4716 4.25782 -4.10573 13.6976 3.91269 -4.45703 13.666 
3.80033 -4.29544 13.3992 3.91269 -4.45703 13.666 3.56866 -4.62463 13.49 
1.34259 -5.66193 13.2942 1.59734 -5.80401 13.5737 1.11597 -5.90919 13.5435 
0.703234 -5.79744 13.2996 1.11597 -5.90919 13.5435 0.742671 -5.9724 13.5433 
0.703234 -5.79744 13.2996 0.742671 -5.9724 13.5433 0.324856 -6.02684 13.5595 
0.107494 -5.83701 13.293 0.324856 -6.02684 13.5595 -0.150259 -6.01286 13.5266 
-0.506187 -5.8155 13.2944 -0.150259 -6.01286 13.5266 -0.740927 -5.97237 13.5361 
-0.972136 -5.7482 13.2972 -0.740927 -5.97237 13.5361 -1.39703 -5.83983 13.54 
-1.34879 -5.66132 13.2975 -1.39703 -5.83983 13.54 -1.90191 -5.66718 13.5191 
-2.41686 -5.26762 13.3238 -2.3518 -5.50443 13.5681 -2.75859 -5.28286 13.5592 
-2.97069 -4.92883 13.3219 -2.75859 -5.28286 13.5592 -3.22362 -5.0108 13.608 
-3.43899 -4.61989 13.3752 -3.22362 -5.0108 13.608 -3.51934 -4.79085 13.6271 
-3.43899 -4.61989 13.3752 -3.51934 -4.79085 13.6271 -3.89787 -4.35824 13.5402 
-4.63285 -3.26145 13.4698 -4.63013 -3.59773 13.7008 -4.85621 -3.08687 13.6186 
-5.17825 -2.16472 13.5728 -5.33991 -2.22353 13.824 -5.4526 -1.85782 13.8533 
-5.33846 -1.57934 13.6035 -5.4526 -1.85782 13.8533 -5.542 -1.50969 13.8912 
-5.33846 -1.57934 13.6035 -5.542 -1.50969 13.8912 -5.60303 -1.12694 13.9165 
-5.49226 -0.982191 13.7244 -5.60303 -1.12694 13.9165 -5.65778 -0.708752 13.9741 
-5.39383 -0.0091706 13.6424 -5.54923 -0.331247 13.8024 -5.45245 0.291967 13.7754 
-4.78508 2.21344 13.8538 -5.06842 1.94194 14.0239 -4.83574 2.39317 14.0573 
-4.47447 2.74072 13.9128 -4.83574 2.39317 14.0573 -4.5961 2.87584 14.197 
-4.47447 2.74072 13.9128 -4.5961 2.87584 14.197 -4.1951 3.15508 13.9851 
-3.21834 4.00825 13.9887 -3.56187 3.89894 14.1724 -3.15812 4.20459 14.195 
-3.21834 4.00825 13.9887 -3.15812 4.20459 14.195 -2.60458 4.45356 14.0923 
2.37361 4.51202 14.0278 2.30693 4.68379 14.2337 2.63933 4.51569 14.2176 
2.37361 4.51202 14.0278 2.63933 4.51569 14.2176 2.91986 4.26161 14.0707 
3.29438 3.95334 13.9936 3.24173 4.21109 14.2911 3.53434 3.91631 14.1679 
3.677 3.648 13.9824 3.53434 3.91631 14.1679 3.92192 3.66641 14.2696 
3.677 3.648 13.9824 3.92192 3.66641 14.2696 4.03703 3.32246 13.9888 
4.37125 2.78578 13.8352 4.28279 3.18024 14.1158 4.58666 2.78419 14.0859 
4.37125 2.78578 13.8352 4.58666 2.78419 14.0859 4.82555 2.24581 13.9212 
5.43924 -0.360474 13.6543 5.57498 -0.359026 13.838 5.49248 -0.984827 13.7269 
5.35113 -0.984105 13.5471 5.49248 -0.984827 13.7269 5.3516 -1.59403 13.6232 
3.96514 -3.98541 13.3092 4.06935 -4.08281 13.4716 3.80033 -4.29544 13.3992 
3.4261 -4.50235 13.2747 3.56866 -4.62463 13.49 3.15071 -4.9063 13.4239 
2.75022 -5.03664 13.2898 3.15071 -4.9063 13.4239 2.58615 -5.30875 13.4673 
2.24572 -5.29063 13.2661 2.58615 -5.30875 13.4673 1.86643 -5.55217 13.3599 
-1.87711 -5.4609 13.2708 -1.90191 -5.66718 13.5191 -2.41686 -5.26762 13.3238 
-2.41686 -5.26762 13.3238 -2.75859 -5.28286 13.5592 -2.97069 -4.92883 13.3219 
-3.93305 -4.1013 13.3611 -3.89787 -4.35824 13.5402 -4.27933 -3.91902 13.5507 
-4.33531 -3.64188 13.4074 -4.27933 -3.91902 13.5507 -4.63013 -3.59773 13.7008 
-4.33531 -3.64188 13.4074 -4.63013 -3.59773 13.7008 -4.63285 -3.26145 13.4698 
-4.86261 -2.68132 13.4178 -4.85621 -3.08687 13.6186 -5.091 -2.65986 13.6754 
-4.86261 -2.68132 13.4178 -5.091 -2.65986 13.6754 -5.17825 -2.16472 13.5728 
-5.35602 -0.936725 13.5492 -5.49226 -0.982191 13.7244 -5.54923 -0.331247 13.8024 
-5.23268 0.400876 13.5477 -5.45245 0.291967 13.7754 -5.3649 0.756726 13.7968 
-5.14295 0.859972 13.5782 -5.3649 0.756726 13.7968 -5.27724 1.19921 13.8604 
-4.98178 1.40427 13.622 -5.27724 1.19921 13.8604 -5.08408 1.65529 13.8563 
-4.76898 1.92109 13.6608 -5.08408 1.65529 13.8563 -4.78508 2.21344 13.8538 
-4.47445 2.45084 13.7018 -4.78508 2.21344 13.8538 -4.47447 2.74072 13.9128 
-4.20987 2.84737 13.7427 -4.47447 2.74072 13.9128 -4.1951 3.15508 13.9851 
-3.86834 3.2455 13.767 -4.1951 3.15508 13.9851 -3.82094 3.55625 14.0155 
-3.55105 3.56134 13.7973 -3.82094 3.55625 14.0155 -3.21834 4.00825 13.9887 
-2.70924 4.17413 13.8349 -3.21834 4.00825 13.9887 -2.60458 4.45356 14.0923 
-2.18248 4.46192 13.8706 -2.60458 4.45356 14.0923 -1.9516 4.75922 14.1269 
-1.58913 4.69045 13.8883 -1.9516 4.75922 14.1269 -1.22216 4.96659 14.1259 
-0.940558 4.82608 13.8776 -1.22216 4.96659 14.1259 -0.643026 5.08544 14.1607 
-0.364724 4.91476 13.9035 -0.643026 5.08544 14.1607 -0.104961 5.10279 14.1394 
0.138879 4.92892 13.9069 -0.104961 5.10279 14.1394 0.518785 5.10245 14.1674 
0.618792 4.88166 13.8912 0.518785 5.10245 14.1674 1.10435 4.99518 14.1314 
1.19689 4.79012 13.8925 1.10435 4.99518 14.1314 1.69437 4.81685 14.0819 
1.86217 4.56262 13.8471 1.69437 4.81685 14.0819 2.37361 4.51202 14.0278 
2.50345 4.29455 13.8472 2.37361 4.51202 14.0278 2.91986 4.26161 14.0707 
2.99708 3.99464 13.828 2.91986 4.26161 14.0707 3.29438 3.95334 13.9936 
3.38593 3.69538 13.8 3.29438 3.95334 13.9936 3.677 3.648 13.9824 
3.82955 3.2781 13.7622 3.677 3.648 13.9824 4.03703 3.32246 13.9888 
3.82955 3.2781 13.7622 4.03703 3.32246 13.9888 4.37125 2.78578 13.8352 
4.85396 1.74178 13.6493 4.82555 2.24581 13.9212 5.13784 1.54557 13.8537 
5.06618 1.16632 13.6079 5.13784 1.54557 13.8537 5.36662 0.814895 13.8162 
5.17229 0.70371 13.5639 5.36662 0.814895 13.8162 5.45208 0.258458 13.7643 
5.25145 0.217511 13.5276 5.45208 0.258458 13.7643 5.43924 -0.360474 13.6543 
5.27881 -0.37017 13.4778 5.43924 -0.360474 13.6543 5.35113 -0.984105 13.5471 
5.06872 -1.857 13.3737 5.3516 -1.59403 13.6232 5.15875 -2.20175 13.562 
4.90621 -2.30816 13.3355 5.15875 -2.20175 13.562 4.97515 -2.64859 13.5266 
4.70623 -2.75583 13.3035 4.97515 -2.64859 13.5266 4.70421 -3.18859 13.4989 
4.47973 -3.15654 13.2756 4.70421 -3.18859 13.4989 4.35983 -3.67957 13.4517 
4.19176 -3.56131 13.2383 4.35983 -3.67957 13.4517 3.96514 -3.98541 13.3092 
3.50821 -4.2617 13.1644 3.80033 -4.29544 13.3992 3.4261 -4.50235 13.2747 
3.01229 -4.67264 13.1477 3.15071 -4.9063 13.4239 2.75022 -5.03664 13.2898 
2.51547 -4.95896 13.1076 2.75022 -5.03664 13.2898 2.24572 -5.29063 13.2661 
1.85859 -5.27567 13.096 2.24572 -5.29063 13.2661 1.86643 -5.55217 13.3599 
1.85859 -5.27567 13.096 1.86643 -5.55217 13.3599 1.34259 -5.66193 13.2942 
1.29565 -5.43969 13.0772 1.34259 -5.66193 13.2942 0.848537 -5.57782 13.1047 
0.360513 -5.61089 13.0839 0.703234 -5.79744 13.2996 0.107494 -5.83701 13.293 
-0.12626 -5.66423 13.1218 0.107494 -5.83701 13.293 -0.506187 -5.8155 13.2944 
-0.60269 -5.58396 13.0812 -0.506187 -5.8155 13.2944 -0.972136 -5.7482 13.2972 
-1.0737 -5.5036 13.0824 -0.972136 -5.7482 13.2972 -1.34879 -5.66132 13.2975 
-1.63436 -5.36027 13.0968 -1.34879 -5.66132 13.2975 -1.87711 -5.4609 13.2708 
-2.20355 -5.12733 13.1062 -1.87711 -5.4609 13.2708 -2.41686 -5.26762 13.3238 
-2.66714 -4.86072 13.1079 -2.41686 -5.26762 13.3238 -2.97069 -4.92883 13.3219 
-3.63538 -4.16445 13.1828 -3.43899 -4.61989 13.3752 -3.93305 -4.1013 13.3611 
-4.04898 -3.72436 13.2182 -3.93305 -4.1013 13.3611 -4.33531 -3.64188 13.4074 
-4.42828 -3.22133 13.2587 -4.33531 -3.64188 13.4074 -4.63285 -3.26145 13.4698 
-4.42828 -3.22133 13.2587 -4.63285 -3.26145 13.4698 -4.86261 -2.68132 13.4178 
-4.99486 -2.07686 13.3552 -5.17825 -2.16472 13.5728 -5.33846 -1.57934 13.6035 
-5.15448 -1.51386 13.3938 -5.33846 -1.57934 13.6035 -5.35602 -0.936725 13.5492 
-5.22048 -0.183425 13.444 -5.39129 -0.454386 13.5941 -5.39383 -0.0091706 13.6424 
-5.22048 -0.183425 13.444 -5.39383 -0.0091706 13.6424 -5.23268 0.400876 13.5477 
4.23098 2.69549 13.66 4.37125 2.78578 13.8352 4.60827 2.24276 13.6946 
5.18806 -0.950695 13.3861 5.35113 -0.984105 13.5471 5.17667 -1.415 13.4058 
3.7314 -3.84694 13.0779 3.96514 -3.98541 13.3092 3.50821 -4.2617 13.1644 
3.50821 -4.2617 13.1644 3.4261 -4.50235 13.2747 3.01229 -4.67264 13.1477 
-0.380146 -5.43142 12.9487 -0.12626 -5.66423 13.1218 -0.60269 -5.58396 13.0812 
-2.66714 -4.86072 13.1079 -2.97069 -4.92883 13.3219 -3.21835 -4.52517 13.1602 
-4.72393 -2.63917 13.2795 -4.86261 -2.68132 13.4178 -4.99486 -2.07686 13.3552 
-5.20091 -0.838835 13.3935 -5.35602 -0.936725 13.5492 -5.39129 -0.454386 13.5941 
-5.07011 0.028659 13.3457 -5.22048 -0.183425 13.444 -5.23268 0.400876 13.5477 
-5.00644 0.482855 13.3752 -5.23268 0.400876 13.5477 -5.14295 0.859972 13.5782 
-4.90754 0.983492 13.4202 -5.14295 0.859972 13.5782 -4.98178 1.40427 13.622 
-4.75859 1.4412 13.4563 -4.98178 1.40427 13.622 -4.76898 1.92109 13.6608 
-4.56993 1.89399 13.4933 -4.76898 1.92109 13.6608 -4.47445 2.45084 13.7018 
-4.2912 2.38858 13.5334 -4.47445 2.45084 13.7018 -4.20987 2.84737 13.7427 
-4.03289 2.75998 13.5636 -4.20987 2.84737 13.7427 -3.86834 3.2455 13.767 
-3.37643 3.46353 13.6197 -3.86834 3.2455 13.767 -3.55105 3.56134 13.7973 
-3.37643 3.46353 13.6197 -3.55105 3.56134 13.7973 -3.19726 3.84232 13.8101 
-2.99251 3.76182 13.639 -3.19726 3.84232 13.8101 -2.70924 4.17413 13.8349 
-2.58313 4.04084 13.6647 -2.70924 4.17413 13.8349 -2.18248 4.46192 13.8706 
-2.07712 4.29652 13.6836 -2.18248 4.46192 13.8706 -1.58913 4.69045 13.8883 
-1.11133 4.60578 13.6985 -1.58913 4.69045 13.8883 -0.940558 4.82608 13.8776 
-0.464176 4.72019 13.7167 -0.940558 4.82608 13.8776 -0.364724 4.91476 13.9035 
-0.464176 4.72019 13.7167 -0.364724 4.91476 13.9035 0.138879 4.92892 13.9069 
0.109471 4.74281 13.7225 0.138879 4.92892 13.9069 0.618792 4.88166 13.8912 
0.676179 4.69785 13.7158 0.618792 4.88166 13.8912 1.19689 4.79012 13.8925 
1.25959 4.58021 13.7045 1.19689 4.79012 13.8925 1.86217 4.56262 13.8471 
2.19707 4.22981 13.6697 1.86217 4.56262 13.8471 2.50345 4.29455 13.8472 
2.66658 3.97454 13.6512 2.50345 4.29455 13.8472 2.99708 3.99464 13.828 
2.98466 3.76735 13.6393 2.99708 3.99464 13.828 3.38593 3.69538 13.8 
3.27718 3.54524 13.6244 3.38593 3.69538 13.8 3.82955 3.2781 13.7622 
3.90776 2.89454 13.565 3.82955 3.2781 13.7622 4.23098 2.69549 13.66 
4.2344 2.48133 13.5423 4.23098 2.69549 13.66 4.60827 2.24276 13.6946 
4.52382 1.94856 13.4853 4.60827 2.24276 13.6946 4.85396 1.74178 13.6493 
4.75521 1.44994 13.457 4.85396 1.74178 13.6493 5.06618 1.16632 13.6079 
4.90705 0.979532 13.4182 5.06618 1.16632 13.6079 5.17229 0.70371 13.5639 
5.01926 0.439272 13.3757 5.17229 0.70371 13.5639 5.25145 0.217511 13.5276 
5.07815 -0.110958 13.3343 5.25145 0.217511 13.5276 5.27881 -0.37017 13.4778 
5.06311 -0.65541 13.2857 5.27881 -0.37017 13.4778 5.18806 -0.950695 13.3861 
5.01032 -1.10591 13.2489 5.18806 -0.950695 13.3861 5.17667 -1.415 13.4058 
4.95198 -1.45653 13.2282 5.17667 -1.415 13.4058 5.06872 -1.857 13.3737 
4.8113 -1.94093 13.184 5.06872 -1.857 13.3737 4.90621 -2.30816 13.3355 
4.56699 -2.57144 13.1458 4.90621 -2.30816 13.3355 4.70623 -2.75583 13.3035 
4.56699 -2.57144 13.1458 4.70623 -2.75583 13.3035 4.47973 -3.15654 13.2756 
4.3071 -3.03027 13.1098 4.47973 -3.15654 13.2756 4.19176 -3.56131 13.2383 
3.99799 -3.45224 13.0681 4.19176 -3.56131 13.2383 3.7314 -3.84694 13.0779 
3.33206 -4.16796 13.0205 3.50821 -4.2617 13.1644 3.01229 -4.67264 13.1477 
2.89046 -4.49869 12.9905 3.01229 -4.67264 13.1477 2.51547 -4.95896 13.1076 
1.98794 -5.00059 12.954 2.51547 -4.95896 13.1076 1.85859 -5.27567 13.096 
1.47545 -5.16736 12.9305 1.85859 -5.27567 13.096 1.29565 -5.43969 13.0772 
1.07158 -5.27497 12.9241 1.29565 -5.43969 13.0772 0.848537 -5.57782 13.1047 
0.683954 -5.34734 12.922 0.848537 -5.57782 13.1047 0.360513 -5.61089 13.0839 
-0.801506 -5.32594 12.9207 -0.60269 -5.58396 13.0812 -1.0737 -5.5036 13.0824 
-1.23366 -5.24452 12.93 -1.0737 -5.5036 13.0824 -1.63436 -5.36027 13.0968 
-1.70456 -5.10353 12.9422 -1.63436 -5.36027 13.0968 -2.20355 -5.12733 13.1062 
-2.21625 -4.87636 12.9503 -2.20355 -5.12733 13.1062 -2.66714 -4.86072 13.1079 
-2.72802 -4.60312 12.9808 -2.66714 -4.86072 13.1079 -3.21835 -4.52517 13.1602 
-3.10336 -4.34282 13.0017 -3.21835 -4.52517 13.1602 -3.63538 -4.16445 13.1828 
-3.53525 -3.98262 13.0355 -3.63538 -4.16445 13.1828 -4.04898 -3.72436 13.2182 
-3.90401 -3.58622 13.067 -4.04898 -3.72436 13.2182 -4.42828 -3.22133 13.2587 
-4.2465 -3.1216 13.0988 -4.42828 -3.22133 13.2587 -4.72393 -2.63917 13.2795 
-4.78335 -2.05004 13.1822 -4.72393 -2.63917 13.2795 -4.99486 -2.07686 13.3552 
-4.78335 -2.05004 13.1822 -4.99486 -2.07686 13.3552 -5.15448 -1.51386 13.3938 
-4.96602 -1.41691 13.2322 -5.15448 -1.51386 13.3938 -5.20091 -0.838835 13.3935 
-5.0821 -0.418289 13.3114 -5.20091 -0.838835 13.3935 -5.22048 -0.183425 13.444 
-5.20091 -0.838835 13.3935 -5.0821 -0.418289 13.3114 -5.04388 -0.869036 13.2686 
-5.20091 -0.838835 13.3935 -5.04388 -0.869036 13.2686 -4.96602 -1.41691 13.2322 
-5.15448 -1.51386 13.3938 -4.96602 -1.41691 13.2322 -4.78335 -2.05004 13.1822 
-4.72393 -2.63917 13.2795 -4.78335 -2.05004 13.1822 -4.52524 -2.64066 13.1371 
-4.72393 -2.63917 13.2795 -4.52524 -2.64066 13.1371 -4.2465 -3.1216 13.0988 
-4.42828 -3.22133 13.2587 -4.2465 -3.1216 13.0988 -3.90401 -3.58622 13.067 
-4.04898 -3.72436 13.2182 -3.90401 -3.58622 13.067 -3.53525 -3.98262 13.0355 
-3.63538 -4.16445 13.1828 -3.53525 -3.98262 13.0355 -3.10336 -4.34282 13.0017 
-3.21835 -4.52517 13.1602 -3.10336 -4.34282 13.0017 -2.72802 -4.60312 12.9808 
-2.66714 -4.86072 13.1079 -2.72802 -4.60312 12.9808 -2.21625 -4.87636 12.9503 
-2.20355 -5.12733 13.1062 -2.21625 -4.87636 12.9503 -1.70456 -5.10353 12.9422 
-1.63436 -5.36027 13.0968 -1.70456 -5.10353 12.9422 -1.23366 -5.24452 12.93 
-1.0737 -5.5036 13.0824 -1.23366 -5.24452 12.93 -0.801506 -5.32594 12.9207 
-0.60269 -5.58396 13.0812 -0.801506 -5.32594 12.9207 -0.380146 -5.43142 12.9487 
0.360513 -5.61089 13.0839 0.171139 -5.42241 12.9353 0.683954 -5.34734 12.922 
0.848537 -5.57782 13.1047 0.683954 -5.34734 12.922 1.07158 -5.27497 12.9241 
1.29565 -5.43969 13.0772 1.07158 -5.27497 12.9241 1.47545 -5.16736 12.9305 
1.85859 -5.27567 13.096 1.47545 -5.16736 12.9305 1.98794 -5.00059 12.954 
2.51547 -4.95896 13.1076 1.98794 -5.00059 12.954 2.48846 -4.7384 12.965 
2.51547 -4.95896 13.1076 2.48846 -4.7384 12.965 2.89046 -4.49869 12.9905 
3.01229 -4.67264 13.1477 2.89046 -4.49869 12.9905 3.33206 -4.16796 13.0205 
3.50821 -4.2617 13.1644 3.33206 -4.16796 13.0205 3.7314 -3.84694 13.0779 
4.19176 -3.56131 13.2383 3.99799 -3.45224 13.0681 4.3071 -3.03027 13.1098 
4.47973 -3.15654 13.2756 4.3071 -3.03027 13.1098 4.56699 -2.57144 13.1458 
4.90621 -2.30816 13.3355 4.56699 -2.57144 13.1458 4.8113 -1.94093 13.184 
5.06872 -1.857 13.3737 4.8113 -1.94093 13.184 4.95198 -1.45653 13.2282 
5.17667 -1.415 13.4058 4.95198 -1.45653 13.2282 5.01032 -1.10591 13.2489 
5.18806 -0.950695 13.3861 5.01032 -1.10591 13.2489 5.06311 -0.65541 13.2857 
5.27881 -0.37017 13.4778 5.06311 -0.65541 13.2857 5.07815 -0.110958 13.3343 
5.25145 0.217511 13.5276 5.07815 -0.110958 13.3343 5.01926 0.439272 13.3757 
5.17229 0.70371 13.5639 5.01926 0.439272 13.3757 4.90705 0.979532 13.4182 
5.06618 1.16632 13.6079 4.90705 0.979532 13.4182 4.75521 1.44994 13.457 
4.85396 1.74178 13.6493 4.75521 1.44994 13.457 4.52382 1.94856 13.4853 
4.60827 2.24276 13.6946 4.52382 1.94856 13.4853 4.2344 2.48133 13.5423 
4.23098 2.69549 13.66 4.2344 2.48133 13.5423 3.90776 2.89454 13.565 
3.82955 3.2781 13.7622 3.90776 2.89454 13.565 3.6082 3.23946 13.5986 
3.82955 3.2781 13.7622 3.6082 3.23946 13.5986 3.27718 3.54524 13.6244 
3.38593 3.69538 13.8 3.27718 3.54524 13.6244 2.98466 3.76735 13.6393 
2.99708 3.99464 13.828 2.98466 3.76735 13.6393 2.66658 3.97454 13.6512 
2.50345 4.29455 13.8472 2.66658 3.97454 13.6512 2.19707 4.22981 13.6697 
1.86217 4.56262 13.8471 2.19707 4.22981 13.6697 1.69894 4.43524 13.6862 
1.86217 4.56262 13.8471 1.69894 4.43524 13.6862 1.25959 4.58021 13.7045 
1.19689 4.79012 13.8925 1.25959 4.58021 13.7045 0.676179 4.69785 13.7158 
0.618792 4.88166 13.8912 0.676179 4.69785 13.7158 0.109471 4.74281 13.7225 
0.138879 4.92892 13.9069 0.109471 4.74281 13.7225 -0.464176 4.72019 13.7167 
-0.940558 4.82608 13.8776 -0.464176 4.72019 13.7167 -1.11133 4.60578 13.6985 
-1.58913 4.69045 13.8883 -1.11133 4.60578 13.6985 -1.68421 4.45237 13.6954 
-1.58913 4.69045 13.8883 -1.68421 4.45237 13.6954 -2.07712 4.29652 13.6836 
-2.18248 4.46192 13.8706 -2.07712 4.29652 13.6836 -2.58313 4.04084 13.6647 
-2.70924 4.17413 13.8349 -2.58313 4.04084 13.6647 -2.99251 3.76182 13.639 
-3.19726 3.84232 13.8101 -2.99251 3.76182 13.639 -3.37643 3.46353 13.6197 
-3.86834 3.2455 13.767 -3.37643 3.46353 13.6197 -3.7286 3.09899 13.5811 
-3.86834 3.2455 13.767 -3.7286 3.09899 13.5811 -4.03289 2.75998 13.5636 
-4.20987 2.84737 13.7427 -4.03289 2.75998 13.5636 -4.2912 2.38858 13.5334 
-4.47445 2.45084 13.7018 -4.2912 2.38858 13.5334 -4.56993 1.89399 13.4933 
-4.76898 1.92109 13.6608 -4.56993 1.89399 13.4933 -4.75859 1.4412 13.4563 
-4.98178 1.40427 13.622 -4.75859 1.4412 13.4563 -4.90754 0.983492 13.4202 
-5.14295 0.859972 13.5782 -4.90754 0.983492 13.4202 -5.00644 0.482855 13.3752 
-5.23268 0.400876 13.5477 -5.00644 0.482855 13.3752 -5.07011 0.028659 13.3457 
-5.22048 -0.183425 13.444 -5.07011 0.028659 13.3457 -5.0821 -0.418289 13.3114 
-5.39129 -0.454386 13.5941 -5.22048 -0.183425 13.444 -5.20091 -0.838835 13.3935 
-5.35602 -0.936725 13.5492 -5.20091 -0.838835 13.3935 -5.15448 -1.51386 13.3938 
-0.12626 -5.66423 13.1218 -0.380146 -5.43142 12.9487 0.171139 -5.42241 12.9353 
-0.12626 -5.66423 13.1218 0.171139 -5.42241 12.9353 0.360513 -5.61089 13.0839 
3.96514 -3.98541 13.3092 3.7314 -3.84694 13.0779 4.19176 -3.56131 13.2383 
5.35113 -0.984105 13.5471 5.18806 -0.950695 13.3861 5.27881 -0.37017 13.4778 
4.37125 2.78578 13.8352 4.23098 2.69549 13.66 3.82955 3.2781 13.7622 
1.69437 4.81685 14.0819 1.86217 4.56262 13.8471 1.19689 4.79012 13.8925 
-5.33846 -1.57934 13.6035 -5.15448 -1.51386 13.3938 -4.99486 -2.07686 13.3552 
-5.17825 -2.16472 13.5728 -4.99486 -2.07686 13.3552 -4.86261 -2.68132 13.4178 
-4.86261 -2.68132 13.4178 -4.72393 -2.63917 13.2795 -4.42828 -3.22133 13.2587 
-4.33531 -3.64188 13.4074 -4.42828 -3.22133 13.2587 -4.04898 -3.72436 13.2182 
-3.93305 -4.1013 13.3611 -4.04898 -3.72436 13.2182 -3.63538 -4.16445 13.1828 
-3.43899 -4.61989 13.3752 -3.63538 -4.16445 13.1828 -3.21835 -4.52517 13.1602 
-3.43899 -4.61989 13.3752 -3.21835 -4.52517 13.1602 -2.97069 -4.92883 13.3219 
-2.41686 -5.26762 13.3238 -2.66714 -4.86072 13.1079 -2.20355 -5.12733 13.1062 
-1.87711 -5.4609 13.2708 -2.20355 -5.12733 13.1062 -1.63436 -5.36027 13.0968 
-1.34879 -5.66132 13.2975 -1.63436 -5.36027 13.0968 -1.0737 -5.5036 13.0824 
-0.972136 -5.7482 13.2972 -1.0737 -5.5036 13.0824 -0.60269 -5.58396 13.0812 
-0.506187 -5.8155 13.2944 -0.60269 -5.58396 13.0812 -0.12626 -5.66423 13.1218 
0.107494 -5.83701 13.293 -0.12626 -5.66423 13.1218 0.360513 -5.61089 13.0839 
0.703234 -5.79744 13.2996 0.360513 -5.61089 13.0839 0.848537 -5.57782 13.1047 
1.34259 -5.66193 13.2942 1.29565 -5.43969 13.0772 1.85859 -5.27567 13.096 
2.24572 -5.29063 13.2661 1.85859 -5.27567 13.096 2.51547 -4.95896 13.1076 
2.75022 -5.03664 13.2898 2.51547 -4.95896 13.1076 3.01229 -4.67264 13.1477 
3.15071 -4.9063 13.4239 3.01229 -4.67264 13.1477 3.4261 -4.50235 13.2747 
3.80033 -4.29544 13.3992 3.50821 -4.2617 13.1644 3.96514 -3.98541 13.3092 
4.35983 -3.67957 13.4517 4.19176 -3.56131 13.2383 4.47973 -3.15654 13.2756 
4.70421 -3.18859 13.4989 4.47973 -3.15654 13.2756 4.70623 -2.75583 13.3035 
4.97515 -2.64859 13.5266 4.70623 -2.75583 13.3035 4.90621 -2.30816 13.3355 
5.15875 -2.20175 13.562 4.90621 -2.30816 13.3355 5.06872 -1.857 13.3737 
5.3516 -1.59403 13.6232 5.06872 -1.857 13.3737 5.17667 -1.415 13.4058 
5.3516 -1.59403 13.6232 5.17667 -1.415 13.4058 5.35113 -0.984105 13.5471 
5.43924 -0.360474 13.6543 5.27881 -0.37017 13.4778 5.25145 0.217511 13.5276 
5.45208 0.258458 13.7643 5.25145 0.217511 13.5276 5.17229 0.70371 13.5639 
5.36662 0.814895 13.8162 5.17229 0.70371 13.5639 5.06618 1.16632 13.6079 
5.13784 1.54557 13.8537 5.06618 1.16632 13.6079 4.85396 1.74178 13.6493 
4.82555 2.24581 13.9212 4.85396 1.74178 13.6493 4.60827 2.24276 13.6946 
4.82555 2.24581 13.9212 4.60827 2.24276 13.6946 4.37125 2.78578 13.8352 
3.677 3.648 13.9824 3.82955 3.2781 13.7622 3.38593 3.69538 13.8 
3.29438 3.95334 13.9936 3.38593 3.69538 13.8 2.99708 3.99464 13.828 
2.91986 4.26161 14.0707 2.99708 3.99464 13.828 2.50345 4.29455 13.8472 
2.37361 4.51202 14.0278 2.50345 4.29455 13.8472 1.86217 4.56262 13.8471 
1.10435 4.99518 14.1314 1.19689 4.79012 13.8925 0.618792 4.88166 13.8912 
0.518785 5.10245 14.1674 0.618792 4.88166 13.8912 0.138879 4.92892 13.9069 
-0.104961 5.10279 14.1394 0.138879 4.92892 13.9069 -0.364724 4.91476 13.9035 
-0.643026 5.08544 14.1607 -0.364724 4.91476 13.9035 -0.940558 4.82608 13.8776 
-1.22216 4.96659 14.1259 -0.940558 4.82608 13.8776 -1.58913 4.69045 13.8883 
-1.9516 4.75922 14.1269 -1.58913 4.69045 13.8883 -2.18248 4.46192 13.8706 
-2.60458 4.45356 14.0923 -2.18248 4.46192 13.8706 -2.70924 4.17413 13.8349 
-3.21834 4.00825 13.9887 -2.70924 4.17413 13.8349 -3.19726 3.84232 13.8101 
-3.21834 4.00825 13.9887 -3.19726 3.84232 13.8101 -3.55105 3.56134 13.7973 
-3.82094 3.55625 14.0155 -3.55105 3.56134 13.7973 -3.86834 3.2455 13.767 
-4.1951 3.15508 13.9851 -3.86834 3.2455 13.767 -4.20987 2.84737 13.7427 
-4.47447 2.74072 13.9128 -4.20987 2.84737 13.7427 -4.47445 2.45084 13.7018 
-4.78508 2.21344 13.8538 -4.47445 2.45084 13.7018 -4.76898 1.92109 13.6608 
-5.08408 1.65529 13.8563 -4.76898 1.92109 13.6608 -4.98178 1.40427 13.622 
-5.27724 1.19921 13.8604 -4.98178 1.40427 13.622 -5.14295 0.859972 13.5782 
-5.3649 0.756726 13.7968 -5.14295 0.859972 13.5782 -5.23268 0.400876 13.5477 
-5.45245 0.291967 13.7754 -5.23268 0.400876 13.5477 -5.39383 -0.0091706 13.6424 
-5.54923 -0.331247 13.8024 -5.39129 -0.454386 13.5941 -5.35602 -0.936725 13.5492 
-5.49226 -0.982191 13.7244 -5.35602 -0.936725 13.5492 -5.33846 -1.57934 13.6035 
-4.85621 -3.08687 13.6186 -4.86261 -2.68132 13.4178 -4.63285 -3.26145 13.4698 
-4.27933 -3.91902 13.5507 -4.33531 -3.64188 13.4074 -3.93305 -4.1013 13.3611 
-3.89787 -4.35824 13.5402 -3.93305 -4.1013 13.3611 -3.43899 -4.61989 13.3752 
0.703234 -5.79744 13.2996 0.848537 -5.57782 13.1047 1.34259 -5.66193 13.2942 
2.58615 -5.30875 13.4673 2.24572 -5.29063 13.2661 2.75022 -5.03664 13.2898 
3.56866 -4.62463 13.49 3.4261 -4.50235 13.2747 3.80033 -4.29544 13.3992 
4.06935 -4.08281 13.4716 3.96514 -3.98541 13.3092 4.35983 -3.67957 13.4517 
5.49248 -0.984827 13.7269 5.35113 -0.984105 13.5471 5.43924 -0.360474 13.6543 
5.57498 -0.359026 13.838 5.43924 -0.360474 13.6543 5.45208 0.258458 13.7643 
4.28279 3.18024 14.1158 4.37125 2.78578 13.8352 4.03703 3.32246 13.9888 
3.53434 3.91631 14.1679 3.677 3.648 13.9824 3.29438 3.95334 13.9936 
3.24173 4.21109 14.2911 3.29438 3.95334 13.9936 2.91986 4.26161 14.0707 
2.30693 4.68379 14.2337 2.37361 4.51202 14.0278 1.69437 4.81685 14.0819 
-3.56187 3.89894 14.1724 -3.21834 4.00825 13.9887 -3.82094 3.55625 14.0155 
-4.83574 2.39317 14.0573 -4.47447 2.74072 13.9128 -4.78508 2.21344 13.8538 
-5.06842 1.94194 14.0239 -4.78508 2.21344 13.8538 -5.08408 1.65529 13.8563 
-5.54923 -0.331247 13.8024 -5.39383 -0.0091706 13.6424 -5.39129 -0.454386 13.5941 
-5.65778 -0.708752 13.9741 -5.54923 -0.331247 13.8024 -5.49226 -0.982191 13.7244 
-5.60303 -1.12694 13.9165 -5.49226 -0.982191 13.7244 -5.33846 -1.57934 13.6035 
-5.4526 -1.85782 13.8533 -5.33846 -1.57934 13.6035 -5.17825 -2.16472 13.5728 
-5.33991 -2.22353 13.824 -5.17825 -2.16472 13.5728 -5.091 -2.65986 13.6754 
-3.22362 -5.0108 13.608 -3.43899 -4.61989 13.3752 -2.97069 -4.92883 13.3219 
-2.3518 -5.50443 13.5681 -2.41686 -5.26762 13.3238 -1.90191 -5.66718 13.5191 
-1.90191 -5.66718 13.5191 -1.87711 -5.4609 13.2708 -1.34879 -5.66132 13.2975 
-1.39703 -5.83983 13.54 -1.34879 -5.66132 13.2975 -0.972136 -5.7482 13.2972 
-0.740927 -5.97237 13.5361 -0.972136 -5.7482 13.2972 -0.506187 -5.8155 13.2944 
-0.150259 -6.01286 13.5266 -0.506187 -5.8155 13.2944 0.107494 -5.83701 13.293 
0.324856 -6.02684 13.5595 0.107494 -5.83701 13.293 0.703234 -5.79744 13.2996 
1.11597 -5.90919 13.5435 0.703234 -5.79744 13.2996 1.34259 -5.66193 13.2942 
1.59734 -5.80401 13.5737 1.34259 -5.66193 13.2942 1.86643 -5.55217 13.3599 
3.91269 -4.45703 13.666 3.80033 -4.29544 13.3992 4.06935 -4.08281 13.4716 
4.25782 -4.10573 13.6976 4.06935 -4.08281 13.4716 4.35983 -3.67957 13.4517 
4.63413 -3.60368 13.7134 4.35983 -3.67957 13.4517 4.70421 -3.18859 13.4989 
4.92026 -3.15835 13.7533 4.70421 -3.18859 13.4989 4.97515 -2.64859 13.5266 
5.13105 -2.72577 13.7717 4.97515 -2.64859 13.5266 5.15875 -2.20175 13.562 
5.2957 -2.22465 13.7564 5.15875 -2.20175 13.562 5.3516 -1.59403 13.6232 
5.59089 -1.33904 13.9331 5.3516 -1.59403 13.6232 5.49248 -0.984827 13.7269 
5.63214 -0.904337 13.9421 5.49248 -0.984827 13.7269 5.57498 -0.359026 13.838 
5.60386 0.268438 14.0032 5.45208 0.258458 13.7643 5.36662 0.814895 13.8162 
5.34253 1.39766 14.0725 5.36662 0.814895 13.8162 5.13784 1.54557 13.8537 
5.10869 1.93547 14.0855 5.13784 1.54557 13.8537 4.82555 2.24581 13.9212 
4.90969 2.34401 14.1298 4.82555 2.24581 13.9212 4.58666 2.78419 14.0859 
2.82963 4.51121 14.3856 2.91986 4.26161 14.0707 2.63933 4.51569 14.2176 
1.75997 4.96836 14.3775 1.69437 4.81685 14.0819 1.10435 4.99518 14.1314 
0.798733 5.20662 14.4298 1.10435 4.99518 14.1314 0.518785 5.10245 14.1674 
0.131403 5.25181 14.4143 0.518785 5.10245 14.1674 -0.104961 5.10279 14.1394 
-0.314371 5.25566 14.4383 -0.104961 5.10279 14.1394 -0.643026 5.08544 14.1607 
-1.79591 4.94554 14.3579 -1.22216 4.96659 14.1259 -1.9516 4.75922 14.1269 
-2.31856 4.717 14.3044 -1.9516 4.75922 14.1269 -2.60458 4.45356 14.0923 
-2.72932 4.51765 14.3009 -2.60458 4.45356 14.0923 -3.15812 4.20459 14.195 
-4.05611 3.53606 14.2661 -3.82094 3.55625 14.0155 -4.1951 3.15508 13.9851 
-4.40379 3.1509 14.2531 -4.1951 3.15508 13.9851 -4.5961 2.87584 14.197 
-5.31959 1.50492 14.1104 -5.08408 1.65529 13.8563 -5.27724 1.19921 13.8604 
-5.5298 0.753774 14.0478 -5.3649 0.756726 13.7968 -5.45245 0.291967 13.7754 
-5.61924 0.266511 14.0279 -5.45245 0.291967 13.7754 -5.54923 -0.331247 13.8024 
-5.67427 -0.251045 14.033 -5.54923 -0.331247 13.8024 -5.65778 -0.708752 13.9741 
-5.20368 -2.81641 13.9666 -5.091 -2.65986 13.6754 -4.85621 -3.08687 13.6186 
-4.95031 -3.19635 13.839 -4.85621 -3.08687 13.6186 -4.63013 -3.59773 13.7008 
-4.36232 -4.00661 13.7391 -4.27933 -3.91902 13.5507 -3.89787 -4.35824 13.5402 
-3.94001 -4.45546 13.6964 -3.89787 -4.35824 13.5402 -3.51934 -4.79085 13.6271 
2.1063 -5.63962 13.6089 1.86643 -5.55217 13.3599 2.58615 -5.30875 13.4673 
2.69949 -5.35345 13.6127 2.58615 -5.30875 13.4673 3.15071 -4.9063 13.4239 
3.22939 -5.04509 13.6626 3.15071 -4.9063 13.4239 3.56866 -4.62463 13.49 
3.63238 -4.7343 13.6818 3.56866 -4.62463 13.49 3.91269 -4.45703 13.666 
5.40149 -2.22965 13.9388 5.2957 -2.22465 13.7564 5.47571 -1.74192 13.8523 
5.70511 -0.0373489 14.1313 5.57498 -0.359026 13.838 5.60386 0.268438 14.0032 
5.11585 2.20558 14.3665 5.10869 1.93547 14.0855 4.90969 2.34401 14.1298 
4.72706 2.7501 14.2665 4.90969 2.34401 14.1298 4.58666 2.78419 14.0859 
4.72706 2.7501 14.2665 4.58666 2.78419 14.0859 4.28279 3.18024 14.1158 
4.36232 3.23575 14.3091 4.28279 3.18024 14.1158 3.92192 3.66641 14.2696 
3.54253 4.04198 14.3864 3.53434 3.91631 14.1679 3.24173 4.21109 14.2911 
2.82963 4.51121 14.3856 2.63933 4.51569 14.2176 2.30693 4.68379 14.2337 
2.35427 4.76405 14.4294 2.30693 4.68379 14.2337 1.75997 4.96836 14.3775 
0.798733 5.20662 14.4298 0.518785 5.10245 14.1674 0.131403 5.25181 14.4143 
-2.64529 4.65417 14.4882 -2.31856 4.717 14.3044 -2.72932 4.51765 14.3009 
-3.1739 4.31305 14.4008 -2.72932 4.51765 14.3009 -3.15812 4.20459 14.195 
-3.1739 4.31305 14.4008 -3.15812 4.20459 14.195 -3.56187 3.89894 14.1724 
-3.63238 3.96344 14.3664 -3.56187 3.89894 14.1724 -4.05611 3.53606 14.2661 
-4.97371 2.39321 14.2939 -4.83574 2.39317 14.0573 -5.06842 1.94194 14.0239 
-5.20935 1.93805 14.2714 -5.06842 1.94194 14.0239 -5.31959 1.50492 14.1104 
-5.47702 1.12039 14.1565 -5.27724 1.19921 13.8604 -5.5298 0.753774 14.0478 
-5.79872 -0.477478 14.311 -5.67427 -0.251045 14.033 -5.65778 -0.708752 13.9741 
-5.73582 -1.06171 14.1932 -5.65778 -0.708752 13.9741 -5.60303 -1.12694 13.9165 
-5.73582 -1.06171 14.1932 -5.60303 -1.12694 13.9165 -5.542 -1.50969 13.8912 
-5.66134 -1.54704 14.162 -5.542 -1.50969 13.8912 -5.4526 -1.85782 13.8533 
-5.56474 -1.93333 14.1275 -5.4526 -1.85782 13.8533 -5.33991 -2.22353 13.824 
-5.44551 -2.30281 14.0848 -5.33991 -2.22353 13.824 -5.20368 -2.81641 13.9666 
-4.64185 -3.87328 14.0387 -4.63013 -3.59773 13.7008 -4.36232 -4.00661 13.7391 
-4.24585 -4.30059 13.934 -4.36232 -4.00661 13.7391 -3.94001 -4.45546 13.6964 
-3.90581 -4.64601 13.9181 -3.94001 -4.45546 13.6964 -3.51934 -4.79085 13.6271 
-3.51016 -4.98046 13.8983 -3.51934 -4.79085 13.6271 -3.22362 -5.0108 13.608 
-3.08533 -5.27135 13.8699 -3.22362 -5.0108 13.608 -2.75859 -5.28286 13.5592 
-2.73609 -5.47034 13.8492 -2.75859 -5.28286 13.5592 -2.3518 -5.50443 13.5681 
-2.39075 -5.64374 13.8363 -2.3518 -5.50443 13.5681 -1.90191 -5.66718 13.5191 
-1.90429 -5.83922 13.8202 -1.90191 -5.66718 13.5191 -1.39703 -5.83983 13.54 
-1.39156 -5.98979 13.8077 -1.39703 -5.83983 13.54 -0.919874 -6.0539 13.732 
-0.400177 -6.14931 13.806 -0.740927 -5.97237 13.5361 -0.150259 -6.01286 13.5266 
0.0730592 -6.16396 13.8084 -0.150259 -6.01286 13.5266 0.324856 -6.02684 13.5595 
0.652971 -6.12656 13.8038 0.324856 -6.02684 13.5595 0.742671 -5.9724 13.5433 
0.652971 -6.12656 13.8038 0.742671 -5.9724 13.5433 1.11597 -5.90919 13.5435 
1.13729 -6.04526 13.7997 1.11597 -5.90919 13.5435 1.59734 -5.80401 13.5737 
1.85699 -5.89081 13.8943 1.59734 -5.80401 13.5737 2.1063 -5.63962 13.6089 
2.38397 -5.64345 13.8277 2.1063 -5.63962 13.6089 2.69949 -5.35345 13.6127 
2.85539 -5.39804 13.8394 2.69949 -5.35345 13.6127 3.22939 -5.04509 13.6626 
3.28436 -5.13204 13.8628 3.22939 -5.04509 13.6626 3.63238 -4.7343 13.6818 
3.70027 -4.82104 13.8975 3.63238 -4.7343 13.6818 3.91269 -4.45703 13.666 
3.98868 -4.56308 13.9206 3.91269 -4.45703 13.666 4.25782 -4.10573 13.6976 
4.58702 -3.89739 13.9698 4.25782 -4.10573 13.6976 4.63413 -3.60368 13.7134 
4.88955 -3.46601 14.0088 4.63413 -3.60368 13.7134 4.92026 -3.15835 13.7533 
5.08296 -3.1307 14.0333 4.92026 -3.15835 13.7533 5.13105 -2.72577 13.7717 
5.25675 -2.78295 14.0579 5.13105 -2.72577 13.7717 5.40149 -2.22965 13.9388 
5.57077 -1.79808 14.0661 5.47571 -1.74192 13.8523 5.59089 -1.33904 13.9331 
5.74441 -0.989864 14.1986 5.59089 -1.33904 13.9331 5.63214 -0.904337 13.9421 
5.74441 -0.989864 14.1986 5.63214 -0.904337 13.9421 5.67427 -0.519546 14.0118 
5.8109 -0.449414 14.3491 5.67427 -0.519546 14.0118 5.70511 -0.0373489 14.1313 
5.67468 0.497338 14.2468 5.60386 0.268438 14.0032 5.53723 0.744525 14.0589 
5.4561 1.49324 14.4084 5.34253 1.39766 14.0725 5.26726 1.82588 14.287 
4.59147 3.0847 14.5219 4.72706 2.7501 14.2665 4.36232 3.23575 14.3091 
4.23973 3.5064 14.5575 4.36232 3.23575 14.3091 3.92192 3.66641 14.2696 
3.89594 3.84454 14.5787 3.92192 3.66641 14.2696 3.54253 4.04198 14.3864 
3.40751 4.25436 14.6288 3.54253 4.04198 14.3864 3.24173 4.21109 14.2911 
3.40751 4.25436 14.6288 3.24173 4.21109 14.2911 2.82963 4.51121 14.3856 
2.61884 4.72533 14.651 2.82963 4.51121 14.3856 2.35427 4.76405 14.4294 
2.1428 4.94058 14.6595 2.35427 4.76405 14.4294 1.75997 4.96836 14.3775 
1.66648 5.10655 14.6749 1.75997 4.96836 14.3775 1.27794 5.11371 14.4229 
1.20468 5.22829 14.6977 1.27794 5.11371 14.4229 0.798733 5.20662 14.4298 
0.561419 5.32566 14.6858 0.798733 5.20662 14.4298 0.131403 5.25181 14.4143 
-0.105026 5.35922 14.7214 0.131403 5.25181 14.4143 -0.314371 5.25566 14.4383 
-0.662069 5.31785 14.7044 -0.314371 5.25566 14.4383 -1.03244 5.16382 14.415 
-1.87157 5.04613 14.6885 -1.79591 4.94554 14.3579 -2.22512 4.85864 14.5256 
-3.18819 4.38943 14.5976 -3.1739 4.31305 14.4008 -3.63238 3.96344 14.3664 
-3.9088 3.83366 14.5805 -3.63238 3.96344 14.3664 -4.05611 3.53606 14.2661 
-4.25032 3.48778 14.5421 -4.05611 3.53606 14.2661 -4.40379 3.1509 14.2531 
-4.59125 3.09048 14.5265 -4.40379 3.1509 14.2531 -4.5961 2.87584 14.197 
-4.89286 2.66337 14.5046 -4.5961 2.87584 14.197 -4.97371 2.39321 14.2939 
-5.44438 1.50295 14.386 -5.31959 1.50492 14.1104 -5.47702 1.12039 14.1565 
-5.59803 1.09519 14.4337 -5.47702 1.12039 14.1565 -5.5298 0.753774 14.0478 
-5.65323 0.758344 14.3327 -5.5298 0.753774 14.0478 -5.61924 0.266511 14.0279 
-5.79664 -0.0619964 14.3606 -5.61924 0.266511 14.0279 -5.67427 -0.251045 14.033 
-5.79872 -0.477478 14.311 -5.65778 -0.708752 13.9741 -5.73582 -1.06171 14.1932 
-5.15489 -3.09944 14.1565 -5.20368 -2.81641 13.9666 -4.95031 -3.19635 13.839 
-5.15489 -3.09944 14.1565 -4.95031 -3.19635 13.839 -4.81804 -3.57273 13.9985 
0.0730592 -6.16396 13.8084 0.324856 -6.02684 13.5595 0.652971 -6.12656 13.8038 
5.49219 -2.31026 14.2117 5.40149 -2.22965 13.9388 5.57077 -1.79808 14.0661 
5.72753 -1.38328 14.2768 5.57077 -1.79808 14.0661 5.59089 -1.33904 13.9331 
5.72753 -1.38328 14.2768 5.59089 -1.33904 13.9331 5.74441 -0.989864 14.1986 
5.80135 0.198582 14.482 5.70511 -0.0373489 14.1313 5.67468 0.497338 14.2468 
5.71431 0.728055 14.517 5.67468 0.497338 14.2468 5.55874 1.0255 14.2658 
5.60888 1.12814 14.5145 5.55874 1.0255 14.2658 5.4561 1.49324 14.4084 
5.30406 1.98663 14.601 5.26726 1.82588 14.287 5.11585 2.20558 14.3665 
-0.105026 5.35922 14.7214 -0.314371 5.25566 14.4383 -0.662069 5.31785 14.7044 
-2.86322 4.64448 14.8183 -2.64529 4.65417 14.4882 -3.18819 4.38943 14.5976 
-5.233 2.15158 14.6254 -4.97371 2.39321 14.2939 -5.28031 1.99299 14.5155 
-5.28031 1.99299 14.5155 -5.20935 1.93805 14.2714 -5.44438 1.50295 14.386 
-5.82386 -0.810936 14.4357 -5.79872 -0.477478 14.311 -5.73582 -1.06171 14.1932 
-5.80011 -1.209 14.4796 -5.73582 -1.06171 14.1932 -5.66134 -1.54704 14.162 
-5.71855 -1.58675 14.3747 -5.66134 -1.54704 14.162 -5.56474 -1.93333 14.1275 
-5.59037 -2.09681 14.3364 -5.56474 -1.93333 14.1275 -5.44551 -2.30281 14.0848 
-5.41772 -2.58594 14.296 -5.44551 -2.30281 14.0848 -5.20368 -2.81641 13.9666 
-5.41772 -2.58594 14.296 -5.20368 -2.81641 13.9666 -5.15489 -3.09944 14.1565 
-4.94276 -3.51553 14.2229 -5.15489 -3.09944 14.1565 -4.81804 -3.57273 13.9985 
-4.94276 -3.51553 14.2229 -4.81804 -3.57273 13.9985 -4.64185 -3.87328 14.0387 
-4.47669 -4.15513 14.1732 -4.64185 -3.87328 14.0387 -4.24585 -4.30059 13.934 
-4.15512 -4.56166 14.2762 -4.24585 -4.30059 13.934 -3.90581 -4.64601 13.9181 
-3.93863 -4.71488 14.1285 -3.90581 -4.64601 13.9181 -3.51016 -4.98046 13.8983 
-3.5325 -5.07319 14.1511 -3.51016 -4.98046 13.8983 -3.08533 -5.27135 13.8699 
-3.11383 -5.38118 14.1863 -3.08533 -5.27135 13.8699 -2.73609 -5.47034 13.8492 
-2.78558 -5.57609 14.1904 -2.73609 -5.47034 13.8492 -2.39075 -5.64374 13.8363 
-2.41464 -5.71804 14.0495 -2.39075 -5.64374 13.8363 -1.90429 -5.83922 13.8202 
-1.92156 -5.91628 14.0326 -1.90429 -5.83922 13.8202 -1.39156 -5.98979 13.8077 
-1.47502 -6.09217 14.1559 -1.39156 -5.98979 13.8077 -1.0503 -6.12248 13.951 
-0.661928 -6.20247 14.0124 -0.919874 -6.0539 13.732 -0.400177 -6.14931 13.806 
-0.15458 -6.24918 14.0441 -0.400177 -6.14931 13.806 0.0730592 -6.16396 13.8084 
0.261815 -6.23208 14.0094 0.0730592 -6.16396 13.8084 0.652971 -6.12656 13.8038 
0.698706 -6.21756 14.073 0.652971 -6.12656 13.8038 1.13729 -6.04526 13.7997 
1.17322 -6.11664 14.0066 1.13729 -6.04526 13.7997 1.55302 -5.97907 13.8829 
2.64928 -5.60539 14.0584 2.38397 -5.64345 13.8277 2.85539 -5.39804 13.8394 
3.13867 -5.34411 14.1251 2.85539 -5.39804 13.8394 3.28436 -5.13204 13.8628 
3.56018 -5.02469 14.0873 3.28436 -5.13204 13.8628 3.70027 -4.82104 13.8975 
3.85065 -4.82054 14.1954 3.70027 -4.82104 13.8975 3.98868 -4.56308 13.9206 
4.12687 -4.53546 14.1426 3.98868 -4.56308 13.9206 4.26429 -4.27392 13.9279 
4.49337 -4.156 14.2167 4.26429 -4.27392 13.9279 4.58702 -3.89739 13.9698 
4.79837 -3.72665 14.1932 4.58702 -3.89739 13.9698 4.88955 -3.46601 14.0088 
5.12347 -3.21844 14.2568 4.88955 -3.46601 14.0088 5.08296 -3.1307 14.0333 
5.12347 -3.21844 14.2568 5.08296 -3.1307 14.0333 5.25675 -2.78295 14.0579 
5.36743 -2.79792 14.4184 5.25675 -2.78295 14.0579 5.49219 -2.31026 14.2117 
5.71431 0.728055 14.517 5.55874 1.0255 14.2658 5.60888 1.12814 14.5145 
5.53185 1.51681 14.751 5.4561 1.49324 14.4084 5.30406 1.98663 14.601 
5.06335 2.48204 14.7089 5.11585 2.20558 14.3665 4.89359 2.64737 14.4751 
4.79848 2.89299 14.7272 4.89359 2.64737 14.4751 4.59147 3.0847 14.5219 
4.56249 3.20698 14.7523 4.59147 3.0847 14.5219 4.23973 3.5064 14.5575 
4.2862 3.52502 14.7608 4.23973 3.5064 14.5575 3.89594 3.84454 14.5787 
3.9178 3.90381 14.8446 3.89594 3.84454 14.5787 3.40751 4.25436 14.6288 
3.40411 4.31555 14.8633 3.40751 4.25436 14.6288 2.96138 4.53676 14.6367 
2.88128 4.64044 14.8648 2.96138 4.53676 14.6367 2.61884 4.72533 14.651 
2.42853 4.88016 14.929 2.61884 4.72533 14.651 2.1428 4.94058 14.6595 
1.89147 5.08497 14.9021 2.1428 4.94058 14.6595 1.66648 5.10655 14.6749 
1.41487 5.22733 14.9225 1.66648 5.10655 14.6749 1.20468 5.22829 14.6977 
0.910234 5.34729 15.0352 1.20468 5.22829 14.6977 0.561419 5.32566 14.6858 
0.393396 5.38556 14.9234 0.561419 5.32566 14.6858 -0.105026 5.35922 14.7214 
-0.159803 5.40175 14.9457 -0.105026 5.35922 14.7214 -0.662069 5.31785 14.7044 
-0.675848 5.35828 14.915 -0.662069 5.31785 14.7044 -1.03001 5.25938 14.6936 
-1.21855 5.28967 15.0293 -1.03001 5.25938 14.6936 -1.46822 5.14566 14.6195 
-1.56227 5.20391 15.0157 -1.46822 5.14566 14.6195 -1.87157 5.04613 14.6885 
-1.94885 5.08559 15.0201 -1.87157 5.04613 14.6885 -2.42953 4.85335 14.7733 
-3.35872 4.36609 14.9758 -3.18819 4.38943 14.5976 -3.59857 4.09668 14.6021 
-3.66589 4.13369 14.9521 -3.59857 4.09668 14.6021 -3.9088 3.83366 14.5805 
-3.98861 3.85664 14.9146 -3.9088 3.83366 14.5805 -4.25032 3.48778 14.5421 
-4.59479 3.17529 14.7561 -4.25032 3.48778 14.5421 -4.59125 3.09048 14.5265 
-4.59479 3.17529 14.7561 -4.59125 3.09048 14.5265 -4.89286 2.66337 14.5046 
-4.94196 2.67631 14.7102 -4.89286 2.66337 14.5046 -5.233 2.15158 14.6254 
-5.50511 1.5115 14.6126 -5.44438 1.50295 14.386 -5.59803 1.09519 14.4337 
-5.71507 0.754075 14.5469 -5.65323 0.758344 14.3327 -5.72023 0.370169 14.3088 
-5.8 0.357504 14.6029 -5.72023 0.370169 14.3088 -5.79664 -0.0619964 14.3606 
-5.87596 -0.344492 14.6898 -5.79872 -0.477478 14.311 -5.82386 -0.810936 14.4357 
-5.86589 -0.814217 14.6597 -5.82386 -0.810936 14.4357 -5.80011 -1.209 14.4796 
-5.70083 -1.8617 14.5753 -5.71855 -1.58675 14.3747 -5.59037 -2.09681 14.3364 
-5.59948 -2.21343 14.5462 -5.59037 -2.09681 14.3364 -5.41772 -2.58594 14.296 
-5.45306 -2.62356 14.5114 -5.41772 -2.58594 14.296 -5.15489 -3.09944 14.1565 
-5.11452 -3.32849 14.4726 -5.15489 -3.09944 14.1565 -4.94276 -3.51553 14.2229 
-4.81968 -3.79101 14.4181 -4.94276 -3.51553 14.2229 -4.64185 -3.87328 14.0387 
-4.81968 -3.79101 14.4181 -4.64185 -3.87328 14.0387 -4.47669 -4.15513 14.1732 
-4.46715 -4.25258 14.4068 -4.47669 -4.15513 14.1732 -4.15512 -4.56166 14.2762 
-3.75968 -4.94134 14.3365 -3.93863 -4.71488 14.1285 -3.5325 -5.07319 14.1511 
-2.38926 -5.79243 14.267 -2.41464 -5.71804 14.0495 -1.92156 -5.91628 14.0326 
-1.90292 -5.9802 14.2473 -1.92156 -5.91628 14.0326 -1.47502 -6.09217 14.1559 
-1.08546 -6.19457 14.2326 -1.0503 -6.12248 13.951 -0.661928 -6.20247 14.0124 
-0.638131 -6.26237 14.2258 -0.661928 -6.20247 14.0124 -0.15458 -6.24918 14.0441 
-0.0708477 -6.30029 14.2466 -0.15458 -6.24918 14.0441 0.261815 -6.23208 14.0094 
0.401376 -6.28293 14.2285 0.261815 -6.23208 14.0094 0.698706 -6.21756 14.073 
1.4737 -6.10862 14.2362 1.17322 -6.11664 14.0066 1.55302 -5.97907 13.8829 
1.4737 -6.10862 14.2362 1.55302 -5.97907 13.8829 1.85699 -5.89081 13.8943 
1.92496 -5.97458 14.2537 1.85699 -5.89081 13.8943 2.30004 -5.79171 14.119 
2.91496 -5.52619 14.2898 2.64928 -5.60539 14.0584 3.13867 -5.34411 14.1251 
3.56214 -5.09941 14.3271 3.56018 -5.02469 14.0873 3.85065 -4.82054 14.1954 
4.3433 -4.38538 14.381 4.12687 -4.53546 14.1426 4.49337 -4.156 14.2167 
4.92809 -3.62818 14.4378 4.79837 -3.72665 14.1932 5.12347 -3.21844 14.2568 
5.63484 -2.10716 14.5644 5.49219 -2.31026 14.2117 5.6163 -1.94908 14.2877 
5.63484 -2.10716 14.5644 5.6163 -1.94908 14.2877 5.72914 -1.69406 14.5214 
5.80558 -1.35504 14.6213 5.72753 -1.38328 14.2768 5.85653 -0.833407 14.5847 
5.87572 -0.269476 14.7057 5.8109 -0.449414 14.3491 5.81672 -0.143869 14.4298 
5.87572 -0.269476 14.7057 5.81672 -0.143869 14.4298 5.80135 0.198582 14.482 
5.80055 0.519682 14.7853 5.80135 0.198582 14.482 5.71431 0.728055 14.517 
5.69548 1.00523 14.7858 5.71431 0.728055 14.517 5.60888 1.12814 14.5145 
5.69548 1.00523 14.7858 5.60888 1.12814 14.5145 5.53185 1.51681 14.751 
5.45171 1.74932 14.8449 5.53185 1.51681 14.751 5.30406 1.98663 14.601 
5.28072 2.1317 14.8919 5.30406 1.98663 14.601 5.06335 2.48204 14.7089 
5.09177 2.48784 14.9125 5.06335 2.48204 14.7089 4.79848 2.89299 14.7272 
4.815 2.92517 14.954 4.79848 2.89299 14.7272 4.56249 3.20698 14.7523 
4.48552 3.34766 14.9813 4.56249 3.20698 14.7523 4.2862 3.52502 14.7608 
4.15765 3.70459 15.0154 4.2862 3.52502 14.7608 3.9178 3.90381 14.8446 
2.66123 4.78617 15.1026 2.88128 4.64044 14.8648 2.42853 4.88016 14.929 
1.90943 5.10512 15.1137 1.89147 5.08497 14.9021 1.41487 5.22733 14.9225 
1.39703 5.25323 15.1323 1.41487 5.22733 14.9225 0.910234 5.34729 15.0352 
0.116053 5.42069 15.1517 0.393396 5.38556 14.9234 -0.159803 5.40175 14.9457 
-0.707878 5.38046 15.1485 -0.675848 5.35828 14.915 -1.21855 5.28967 15.0293 
-2.45199 4.88971 15.1072 -2.42953 4.85335 14.7733 -2.86322 4.64448 14.8183 
-2.93448 4.63846 15.079 -2.86322 4.64448 14.8183 -3.35872 4.36609 14.9758 
-5.12041 2.43931 14.9164 -4.94196 2.67631 14.7102 -5.233 2.15158 14.6254 
-5.47411 1.70006 14.864 -5.28031 1.99299 14.5155 -5.50511 1.5115 14.6126 
-5.63943 1.20996 14.8128 -5.50511 1.5115 14.6126 -5.59803 1.09519 14.4337 
-5.63943 1.20996 14.8128 -5.59803 1.09519 14.4337 -5.71507 0.754075 14.5469 
-5.75417 0.753608 14.7751 -5.71507 0.754075 14.5469 -5.8 0.357504 14.6029 
-5.87596 -0.344492 14.6898 -5.79664 -0.0619964 14.3606 -5.79872 -0.477478 14.311 
-3.44211 -5.21155 14.4528 -3.5325 -5.07319 14.1511 -3.11383 -5.38118 14.1863 
3.25197 -5.34131 14.4361 3.13867 -5.34411 14.1251 3.56214 -5.09941 14.3271 
5.86322 0.091549 14.8672 5.80135 0.198582 14.482 5.80055 0.519682 14.7853 
3.86585 3.97939 15.1701 3.9178 3.90381 14.8446 3.55895 4.22553 15.061 
2.31178 4.94809 15.1917 2.42853 4.88016 14.929 1.90943 5.10512 15.1137 
-0.271477 5.41561 15.2782 -0.159803 5.40175 14.9457 -0.707878 5.38046 15.1485 
-4.25814 3.60548 15.1418 -4.25353 3.57907 14.8456 -4.51379 3.31652 14.9929 
-5.31011 2.08781 15.0253 -5.233 2.15158 14.6254 -5.47411 1.70006 14.864 
-5.88785 -0.455891 14.9194 -5.87596 -0.344492 14.6898 -5.86589 -0.814217 14.6597 
-5.87599 -0.82817 14.8901 -5.88192 -0.719234 14.8987 -5.86589 -0.814217 14.6597 
-5.84048 -1.19895 14.8609 -5.86414 -0.982047 14.878 -5.86589 -0.814217 14.6597 
-5.68585 -1.98315 14.8006 -5.74023 -1.76202 14.8166 -5.70083 -1.8617 14.5753 
-5.68585 -1.98315 14.8006 -5.70083 -1.8617 14.5753 -5.59948 -2.21343 14.5462 
-5.46609 -2.63744 14.7477 -5.51241 -2.51835 14.7571 -5.45306 -2.62356 14.5114 
-5.31053 -2.99066 14.7199 -5.41404 -2.76283 14.7378 -5.45306 -2.62356 14.5114 
-5.31053 -2.99066 14.7199 -5.29569 -2.97166 14.4729 -5.11452 -3.32849 14.4726 
-4.93127 -3.66429 14.6672 -5.05441 -3.46645 14.6825 -5.11452 -3.32849 14.4726 
-4.74131 -3.93608 14.6455 -4.76337 -3.90601 14.6479 -4.81968 -3.79101 14.4181 
-4.51035 -4.22886 14.6224 -4.6033 -4.11559 14.6314 -4.46715 -4.25258 14.4068 
-4.25847 -4.50933 14.6004 -4.43397 -4.31779 14.6155 -4.46715 -4.25258 14.4068 
-4.25847 -4.50933 14.6004 -4.46715 -4.25258 14.4068 -4.15512 -4.56166 14.2762 
-3.99496 -4.76772 14.58 -4.06887 -4.69848 14.5855 -4.15512 -4.56166 14.2762 
-3.68998 -5.03083 14.5625 -3.87384 -4.87619 14.5715 -3.75968 -4.94134 14.3365 
-3.68998 -5.03083 14.5625 -3.75968 -4.94134 14.3365 -3.44211 -5.21155 14.4528 
-3.05236 -5.47616 14.525 -3.2436 -5.35458 14.5339 -3.11383 -5.38118 14.1863 
-3.05236 -5.47616 14.525 -3.11383 -5.38118 14.1863 -2.78558 -5.57609 14.1904 
-2.4459 -5.79516 14.4992 -2.55464 -5.7443 14.5032 -2.38926 -5.79243 14.267 
-2.08414 -5.946 14.4878 -2.31407 -5.85324 14.4946 -2.38926 -5.79243 14.267 
-1.34268 -6.17189 14.4723 -1.56638 -6.11406 14.4741 -1.47502 -6.09217 14.1559 
-1.34268 -6.17189 14.4723 -1.47502 -6.09217 14.1559 -1.08546 -6.19457 14.2326 
-0.652598 -6.28942 14.4603 -0.790345 -6.27247 14.4616 -0.638131 -6.26237 14.2258 
-0.272156 -6.31931 14.4579 -0.527782 -6.30196 14.4593 -0.638131 -6.26237 14.2258 
0.501267 -6.3052 14.4627 0.264157 -6.31968 14.4579 0.401376 -6.28293 14.2285 
0.501267 -6.3052 14.4627 0.401376 -6.28293 14.2285 0.963209 -6.22515 14.2668 
1.20587 -6.20116 14.4672 1.05132 -6.23126 14.4649 0.963209 -6.22515 14.2668 
1.92573 -6.00276 14.4828 1.81944 -6.0383 14.48 1.92496 -5.97458 14.2537 
2.27474 -5.86983 14.4933 2.06884 -5.95131 14.4869 1.92496 -5.97458 14.2537 
2.94392 -5.5392 14.5193 2.79007 -5.62472 14.5126 2.91496 -5.52619 14.2898 
3.01987 -5.49472 14.5228 2.91496 -5.52619 14.2898 3.25197 -5.34131 14.4361 
3.56574 -5.12677 14.5518 3.46079 -5.20458 14.5457 3.56214 -5.09941 14.3271 
3.85572 -4.89191 14.5703 3.67101 -5.045 14.5582 3.56214 -5.09941 14.3271 
4.41491 -4.34046 14.6137 4.25571 -4.51222 14.6001 4.3433 -4.38538 14.381 
4.41491 -4.34046 14.6137 4.3433 -4.38538 14.381 4.68334 -3.98461 14.4331 
4.84968 -3.78436 14.6574 4.76337 -3.90601 14.6479 4.68334 -3.98461 14.4331 
5.0533 -3.46834 14.681 4.91384 -3.68949 14.6649 4.92809 -3.62818 14.4378 
5.23333 -3.14554 14.7077 5.18481 -3.23736 14.7005 5.13086 -3.29364 14.4591 
5.40553 -2.78382 14.735 5.30477 -3.00266 14.719 5.36743 -2.79792 14.4184 
5.40553 -2.78382 14.735 5.36743 -2.79792 14.4184 5.50028 -2.49892 14.5279 
5.53277 -2.46345 14.7614 5.51241 -2.51835 14.7571 5.50028 -2.49892 14.5279 
5.66654 -2.0523 14.7874 5.59968 -2.26973 14.7766 5.63484 -2.10716 14.5644 
5.66654 -2.0523 14.7874 5.63484 -2.10716 14.5644 5.72914 -1.69406 14.5214 
5.81389 -1.38331 14.8464 5.79323 -1.50397 14.8369 5.80558 -1.35504 14.6213 
5.86267 -0.997944 14.8767 5.83456 -1.2438 14.8574 5.80558 -1.35504 14.6213 
5.88411 -0.226743 14.94 5.88785 -0.455891 14.9194 5.87572 -0.269476 14.7057 
5.88411 -0.226743 14.94 5.87572 -0.269476 14.7057 5.86322 0.091549 14.8672 
5.81389 0.471529 14.9924 5.83456 0.332017 14.9814 5.80055 0.519682 14.7853 
5.7417 0.843752 15.0217 5.79323 0.592184 15.0019 5.80055 0.519682 14.7853 
5.64935 1.19779 15.0495 5.67567 1.10566 15.0423 5.69548 1.00523 14.7858 
5.53277 1.55166 15.0774 5.59968 1.35794 15.0621 5.53185 1.51681 14.751 
5.23333 2.23376 15.1311 5.30477 2.09087 15.1198 5.28072 2.1317 14.8919 
4.84968 2.87258 15.1813 4.91384 2.77771 15.1739 4.815 2.92517 14.954 
4.61515 3.18959 15.207 4.76337 2.99423 15.1909 4.815 2.92517 14.954 
4.09436 3.76275 15.2581 4.25571 3.60044 15.2386 4.15765 3.70459 15.0154 
4.09436 3.76275 15.2581 4.15765 3.70459 15.0154 3.86585 3.97939 15.1701 
3.56574 4.21499 15.287 3.67101 4.13322 15.2806 3.55895 4.22553 15.061 
3.2525 4.43692 15.3045 3.46079 4.29279 15.2931 3.55895 4.22553 15.061 
2.58085 4.82027 15.3388 2.79007 4.71294 15.3262 2.66123 4.78617 15.1026 
2.58085 4.82027 15.3388 2.66123 4.78617 15.1026 2.31178 4.94809 15.1917 
2.27474 4.95805 15.3455 2.31407 4.94146 15.3442 2.31178 4.94809 15.1917 
1.92573 5.09098 15.3559 2.06884 5.03952 15.3519 1.90943 5.10512 15.1137 
1.56767 5.20192 15.3647 1.81944 5.12652 15.3587 1.90943 5.10512 15.1137 
1.20587 5.28938 15.3716 1.31017 5.26664 15.3698 1.39703 5.25323 15.1323 
0.811957 5.35833 15.3758 1.05132 5.31948 15.3739 0.910234 5.34729 15.0352 
0.811957 5.35833 15.3758 0.910234 5.34729 15.0352 0.529736 5.39619 15.1492 
0.0934164 5.41307 15.3813 0.264157 5.4079 15.3809 0.116053 5.42069 15.1517 
-8.88178e-11 5.41381 15.3813 0.116053 5.42069 15.1517 -0.271477 5.41561 15.2782 
-0.652598 5.37764 15.3785 -0.527782 5.39018 15.3795 -0.707878 5.38046 15.1485 
-1.03773 5.32222 15.3745 -0.790345 5.36068 15.3772 -0.707878 5.38046 15.1485 
-1.78965 5.13647 15.364 -1.56638 5.20228 15.3647 -1.56227 5.20391 15.0157 
-2.4459 4.88337 15.3396 -2.31407 4.94146 15.3442 -2.45199 4.88971 15.1072 
-2.78606 4.71539 15.3243 -2.55464 4.83252 15.3356 -2.45199 4.88971 15.1072 
-3.10422 4.53174 15.3119 -3.01987 4.58294 15.316 -2.93448 4.63846 15.079 
-3.44125 4.30749 15.2958 -3.2436 4.4428 15.3049 -3.35872 4.36609 14.9758 
-3.44125 4.30749 15.2958 -3.35872 4.36609 14.9758 -3.66589 4.13369 14.9521 
-3.99496 3.85594 15.2587 -3.87384 3.96441 15.2673 -3.98861 3.85664 14.9146 
-4.06887 3.7867 15.2533 -3.98861 3.85664 14.9146 -4.25814 3.60548 15.1418 
-4.51035 3.31708 15.2163 -4.43397 3.40601 15.2233 -4.51379 3.31652 14.9929 
-4.74131 3.0243 15.1933 -4.6033 3.2038 15.2074 -4.51379 3.31652 14.9929 
-5.16928 2.35517 15.1471 -5.05441 2.55467 15.1563 -5.12041 2.43931 14.9164 
-5.16928 2.35517 15.1471 -5.12041 2.43931 14.9164 -5.31011 2.08781 15.0253 
-5.46609 1.72565 15.0911 -5.41404 1.85105 15.1009 -5.47411 1.70006 14.864 
-5.59737 1.3659 15.0606 -5.51241 1.60657 15.0817 -5.47411 1.70006 14.864 
-5.78884 0.619228 15.0078 -5.74023 0.850239 15.0222 -5.75417 0.753608 14.7751 
-5.78884 0.619228 15.0078 -5.75417 0.753608 14.7751 -5.84901 0.178554 14.7648 
-5.84048 0.287168 14.9779 -5.83456 0.332017 14.9814 -5.84901 0.178554 14.7648 
-5.87599 -0.0836119 14.9487 -5.86414 0.0702645 14.9608 -5.84901 0.178554 14.7648 
0.450188 0.321697 4.87201 0.448935 0.366259 4.89072 0.458681 0.341203 5.25137 
0.448935 0.366259 4.89072 0.444512 0.404504 4.91619 0.458681 0.341203 5.25137 
0.444512 0.404504 4.91619 0.434324 0.450658 4.90846 0.458681 0.341203 5.25137 
0.434324 0.450658 4.90846 0.423936 0.482577 4.92048 0.408232 0.517508 5.2532 
0.411846 0.514826 4.90023 0.394232 0.549175 4.92585 0.408232 0.517508 5.2532 
0.394232 0.549175 4.92585 0.369665 0.591598 4.88343 0.408232 0.517508 5.2532 
0.369665 0.591598 4.88343 0.348775 0.615982 4.92561 0.309442 0.642297 5.28076 
0.327087 0.64121 4.92053 0.30432 0.662895 4.92896 0.309442 0.642297 5.28076 
0.272103 0.693765 4.88422 0.228648 0.718069 4.94952 0.207917 0.710676 5.27495 
0.228648 0.718069 4.94952 0.186867 0.741736 4.92171 0.207917 0.710676 5.27495 
0.186867 0.741736 4.92171 0.155624 0.753304 4.93669 0.0964883 0.751627 5.29496 
0.0964883 0.751627 5.29496 0.155624 0.753304 4.93669 0.124493 0.764416 4.92726 
0.124493 0.764416 4.92726 0.0850226 0.77149 4.962 0.0964883 0.751627 5.29496 
0.0850226 0.77149 4.962 0.0391996 0.781107 4.91735 0.0964883 0.751627 5.29496 
0.0391996 0.781107 4.91735 0.00461801 0.780916 4.94026 -0.0281912 0.759321 5.2863 
-0.0282704 0.78102 4.92856 -0.0683429 0.775501 4.94743 -0.0281912 0.759321 5.2863 
-0.0683429 0.775501 4.94743 -0.156045 0.736988 5.26764 -0.0281912 0.759321 5.2863 
-0.0683429 0.775501 4.94743 -0.113422 0.767429 4.92778 -0.156045 0.736988 5.26764 
-0.113422 0.767429 4.92778 -0.150125 0.753998 4.95763 -0.156045 0.736988 5.26764 
-0.150125 0.753998 4.95763 -0.18603 0.740856 4.93571 -0.156045 0.736988 5.26764 
-0.18603 0.740856 4.93571 -0.213624 0.725673 4.9597 -0.156045 0.736988 5.26764 
-0.213624 0.725673 4.9597 -0.252882 0.704338 4.92348 -0.301733 0.644031 5.51386 
-0.252882 0.704338 4.92348 -0.28538 0.678613 4.94617 -0.301733 0.644031 5.51386 
-0.28538 0.678613 4.94617 -0.374568 0.570543 5.24538 -0.301733 0.644031 5.51386 
-0.28538 0.678613 4.94617 -0.319585 0.649385 4.91602 -0.374568 0.570543 5.24538 
-0.319585 0.649385 4.91602 -0.342795 0.622933 4.92831 -0.374568 0.570543 5.24538 
-0.363218 0.59843 4.91145 -0.385806 0.563998 4.92349 -0.374568 0.570543 5.24538 
-0.385806 0.563998 4.92349 -0.407292 0.524187 4.90943 -0.374568 0.570543 5.24538 
-0.407292 0.524187 4.90943 -0.420749 0.490825 4.92701 -0.437801 0.436573 5.25356 
-0.431333 0.461405 4.90385 -0.4414 0.421631 4.91138 -0.437801 0.436573 5.25356 
-0.4414 0.421631 4.91138 -0.457593 0.315568 5.24725 -0.437801 0.436573 5.25356 
-0.4414 0.421631 4.91138 -0.447975 0.377182 4.89567 -0.457593 0.315568 5.24725 
-0.447975 0.377182 4.89567 -0.450435 0.335111 4.91868 -0.457593 0.315568 5.24725 
-0.450435 0.335111 4.91868 -0.448091 0.289307 4.90251 -0.457593 0.315568 5.24725 
-0.448091 0.289307 4.90251 -0.443477 0.256265 4.89757 -0.432701 0.151824 5.19737 
-0.432701 0.151824 5.19737 -0.443477 0.256265 4.89757 -0.436864 0.224989 4.88541 
-0.436864 0.224989 4.88541 -0.425595 0.183905 4.90945 -0.432701 0.151824 5.19737 
-0.425595 0.183905 4.90945 -0.407939 0.143398 4.8791 -0.432701 0.151824 5.19737 
-0.407939 0.143398 4.8791 -0.392055 0.111923 4.88761 -0.432701 0.151824 5.19737 
-0.332979 -0.00651939 5.19768 -0.432701 0.151824 5.19737 -0.392055 0.111923 4.88761 
-0.374915 0.0851022 4.87074 -0.351738 0.0531249 4.86658 -0.332979 -0.00651939 5.19768 
-0.351738 0.0531249 4.86658 -0.320872 0.0188693 4.8631 -0.332979 -0.00651939 5.19768 
-0.320872 0.0188693 4.8631 -0.295412 -0.00683873 4.88583 -0.332979 -0.00651939 5.19768 
-0.269796 -0.0283937 4.89536 -0.243707 -0.0447568 4.87388 -0.225185 -0.0914938 5.21243 
-0.243707 -0.0447568 4.87388 -0.206917 -0.0570607 4.7546 -0.225185 -0.0914938 5.21243 
-0.206917 -0.0570607 4.7546 -0.159167 -0.0882195 4.87677 -0.0859126 -0.146267 5.22745 
-0.159167 -0.0882195 4.87677 -0.114739 -0.100725 4.85874 -0.0859126 -0.146267 5.22745 
-0.114739 -0.100725 4.85874 -0.0811423 -0.109083 4.8707 -0.0859126 -0.146267 5.22745 
-0.0486067 -0.113036 4.85956 -0.00844419 -0.117369 4.87805 -0.0859126 -0.146267 5.22745 
-0.00844419 -0.117369 4.87805 0.0782662 -0.142428 5.17841 -0.0859126 -0.146267 5.22745 
-0.00844419 -0.117369 4.87805 0.0376113 -0.113076 4.8463 0.0782662 -0.142428 5.17841 
0.0376113 -0.113076 4.8463 0.0719892 -0.111901 4.886 0.0782662 -0.142428 5.17841 
0.104252 -0.103298 4.85837 0.143095 -0.0940111 4.87809 0.0782662 -0.142428 5.17841 
0.143095 -0.0940111 4.87809 0.203563 -0.103131 5.22146 0.0782662 -0.142428 5.17841 
0.143095 -0.0940111 4.87809 0.185843 -0.0755278 4.86101 0.203563 -0.103131 5.22146 
0.185843 -0.0755278 4.86101 0.221852 -0.0578544 4.86523 0.203563 -0.103131 5.22146 
0.221852 -0.0578544 4.86523 0.261238 -0.0321191 4.86251 0.299871 -0.0403883 5.22457 
0.261238 -0.0321191 4.86251 0.287853 -0.0124533 4.87642 0.299871 -0.0403883 5.22457 
0.299871 -0.0403883 5.22457 0.287853 -0.0124533 4.87642 0.312379 0.00996214 4.86943 
0.312379 0.00996214 4.86943 0.340562 0.035978 4.91196 0.299871 -0.0403883 5.22457 
0.340562 0.035978 4.91196 0.391337 0.067901 5.21329 0.299871 -0.0403883 5.22457 
0.340562 0.035978 4.91196 0.36878 0.0758397 4.87307 0.391337 0.067901 5.21329 
0.36878 0.0758397 4.87307 0.387438 0.10395 4.88698 0.391337 0.067901 5.21329 
0.403173 0.133782 4.87604 0.419453 0.167934 4.90239 0.391337 0.067901 5.21329 
0.419453 0.167934 4.90239 0.443771 0.195161 5.23618 0.391337 0.067901 5.21329 
0.419453 0.167934 4.90239 0.433861 0.213638 4.88288 0.443771 0.195161 5.23618 
0.433861 0.213638 4.88288 0.441773 0.245394 4.91199 0.443771 0.195161 5.23618 
0.44692 0.278755 4.90268 0.450188 0.321697 4.87201 0.458681 0.341203 5.25137 
0.458681 0.341203 5.25137 0.408232 0.517508 5.2532 0.487509 0.340645 5.80083 
0.408232 0.517508 5.2532 0.309442 0.642297 5.28076 0.415963 0.519787 5.77833 
0.309442 0.642297 5.28076 0.207917 0.710676 5.27495 0.31933 0.633159 5.80096 
0.207917 0.710676 5.27495 0.0964883 0.751627 5.29496 0.217973 0.700212 5.82807 
0.0964883 0.751627 5.29496 -0.0281912 0.759321 5.2863 0.0250206 0.754924 5.84915 
-0.0281912 0.759321 5.2863 -0.156045 0.736988 5.26764 0.0250206 0.754924 5.84915 
-0.374568 0.570543 5.24538 -0.437801 0.436573 5.25356 -0.417497 0.508373 5.6057 
-0.437801 0.436573 5.25356 -0.457593 0.315568 5.24725 -0.476987 0.357373 5.75702 
-0.457593 0.315568 5.24725 -0.432701 0.151824 5.19737 -0.485013 0.235018 5.73909 
-0.432701 0.151824 5.19737 -0.332979 -0.00651939 5.19768 -0.38033 -0.0238287 5.63899 
-0.332979 -0.00651939 5.19768 -0.225185 -0.0914938 5.21243 -0.243622 -0.16386 5.77415 
-0.225185 -0.0914938 5.21243 -0.0859126 -0.146267 5.22745 -0.0860385 -0.222002 5.75663 
-0.0859126 -0.146267 5.22745 0.0782662 -0.142428 5.17841 -0.0860385 -0.222002 5.75663 
0.0782662 -0.142428 5.17841 0.203563 -0.103131 5.22146 0.24378 -0.15579 5.71779 
0.203563 -0.103131 5.22146 0.299871 -0.0403883 5.22457 0.24378 -0.15579 5.71779 
0.299871 -0.0403883 5.22457 0.391337 0.067901 5.21329 0.353442 -0.0677745 5.73368 
0.391337 0.067901 5.21329 0.443771 0.195161 5.23618 0.422185 0.0609186 5.56002 
0.443771 0.195161 5.23618 0.458681 0.341203 5.25137 0.47708 0.16848 5.75022 
-0.165442 0.722363 5.76922 -0.301733 0.644031 5.51386 -0.272712 0.685862 6.19134 
-0.301733 0.644031 5.51386 -0.417497 0.508373 5.6057 -0.383017 0.592275 6.13163 
-0.417497 0.508373 5.6057 -0.476987 0.357373 5.75702 -0.472552 0.471648 6.15048 
-0.485013 0.235018 5.73909 -0.453901 0.142289 5.57425 -0.503965 0.0854418 6.123 
-0.453901 0.142289 5.57425 -0.38033 -0.0238287 5.63899 -0.455745 -0.0260873 6.10393 
0.353442 -0.0677745 5.73368 0.422185 0.0609186 5.56002 0.475046 -0.00974128 6.15566 
0.487509 0.340645 5.80083 0.415963 0.519787 5.77833 0.509545 0.453074 6.41109 
0.415963 0.519787 5.77833 0.31933 0.633159 5.80096 0.433964 0.574242 6.45576 
0.31933 0.633159 5.80096 0.217973 0.700212 5.82807 0.341043 0.664982 6.48848 
0.217973 0.700212 5.82807 0.0250206 0.754924 5.84915 0.175023 0.75004 6.43054 
0.0250206 0.754924 5.84915 -0.165442 0.722363 5.76922 -0.139864 0.753146 6.31852 
-0.165442 0.722363 5.76922 -0.272712 0.685862 6.19134 -0.139864 0.753146 6.31852 
-0.472552 0.471648 6.15048 -0.476987 0.357373 5.75702 -0.540249 0.267103 6.20508 
-0.476987 0.357373 5.75702 -0.485013 0.235018 5.73909 -0.540249 0.267103 6.20508 
-0.38033 -0.0238287 5.63899 -0.243622 -0.16386 5.77415 -0.350515 -0.191368 6.21812 
-0.243622 -0.16386 5.77415 -0.0860385 -0.222002 5.75663 -0.173773 -0.290144 6.21297 
-0.0860385 -0.222002 5.75663 0.102498 -0.20667 5.69673 -0.012359 -0.316518 6.21332 
0.102498 -0.20667 5.69673 0.24378 -0.15579 5.71779 0.30154 -0.258316 6.35023 
0.24378 -0.15579 5.71779 0.353442 -0.0677745 5.73368 0.399908 -0.147176 6.23533 
0.353442 -0.0677745 5.73368 0.475046 -0.00974128 6.15566 0.399908 -0.147176 6.23533 
0.475046 -0.00974128 6.15566 0.47708 0.16848 5.75022 0.534463 0.112396 6.26392 
0.47708 0.16848 5.75022 0.487509 0.340645 5.80083 0.544091 0.277962 6.26078 
0.544091 0.277962 6.26078 0.509545 0.453074 6.41109 0.599627 0.374967 6.79047 
0.0190862 0.775934 6.44563 -0.139864 0.753146 6.31852 -0.114835 0.802144 6.83119 
-0.139864 0.753146 6.31852 -0.272712 0.685862 6.19134 -0.244959 0.75887 6.80084 
-0.272712 0.685862 6.19134 -0.383017 0.592275 6.13163 -0.364201 0.691269 6.7871 
-0.383017 0.592275 6.13163 -0.472552 0.471648 6.15048 -0.469538 0.564923 6.61661 
-0.472552 0.471648 6.15048 -0.540249 0.267103 6.20508 -0.558115 0.413449 6.60968 
-0.540249 0.267103 6.20508 -0.503965 0.0854418 6.123 -0.582466 0.0516839 6.59241 
-0.503965 0.0854418 6.123 -0.455745 -0.0260873 6.10393 -0.582466 0.0516839 6.59241 
-0.455745 -0.0260873 6.10393 -0.350515 -0.191368 6.21812 -0.490402 -0.143931 6.57794 
-0.350515 -0.191368 6.21812 -0.173773 -0.290144 6.21297 -0.351057 -0.287264 6.56069 
-0.173773 -0.290144 6.21297 -0.012359 -0.316518 6.21332 -0.0224644 -0.441937 6.73049 
-0.012359 -0.316518 6.21332 0.137208 -0.300722 6.21813 0.125063 -0.437764 6.7597 
0.137208 -0.300722 6.21813 0.30154 -0.258316 6.35023 0.277912 -0.382023 6.74949 
0.399908 -0.147176 6.23533 0.475046 -0.00974128 6.15566 0.502934 -0.173187 6.70047 
0.475046 -0.00974128 6.15566 0.534463 0.112396 6.26392 0.583651 -0.0165658 6.71153 
0.534463 0.112396 6.26392 0.544091 0.277962 6.26078 0.600646 0.171457 6.60923 
0.600646 0.171457 6.60923 0.599627 0.374967 6.79047 0.708732 0.171831 7.14253 
0.509545 0.453074 6.41109 0.433964 0.574242 6.45576 0.578532 0.538982 7.11224 
0.433964 0.574242 6.45576 0.341043 0.664982 6.48848 0.493094 0.645077 7.12524 
0.341043 0.664982 6.48848 0.175023 0.75004 6.43054 0.394459 0.736232 7.17252 
0.175023 0.75004 6.43054 0.0190862 0.775934 6.44563 0.0230119 0.832304 6.9935 
-0.364201 0.691269 6.7871 -0.469538 0.564923 6.61661 -0.467865 0.692501 7.21179 
-0.469538 0.564923 6.61661 -0.558115 0.413449 6.60968 -0.620094 0.476868 7.0994 
-0.558115 0.413449 6.60968 -0.595126 0.245546 6.6002 -0.693165 0.244874 7.11181 
-0.595126 0.245546 6.6002 -0.582466 0.0516839 6.59241 -0.690286 0.0602169 7.09736 
-0.582466 0.0516839 6.59241 -0.490402 -0.143931 6.57794 -0.637889 -0.119345 7.0766 
-0.490402 -0.143931 6.57794 -0.351057 -0.287264 6.56069 -0.520861 -0.297397 7.05318 
-0.351057 -0.287264 6.56069 -0.172699 -0.41486 6.71949 -0.336734 -0.478221 7.12608 
0.277912 -0.382023 6.74949 0.30154 -0.258316 6.35023 0.4617 -0.367849 7.07068 
0.30154 -0.258316 6.35023 0.502934 -0.173187 6.70047 0.4617 -0.367849 7.07068 
0.583651 -0.0165658 6.71153 0.600646 0.171457 6.60923 0.705883 -0.0425645 7.22879 
0.708732 0.171831 7.14253 0.599627 0.374967 6.79047 0.747127 0.381718 7.48887 
0.394459 0.736232 7.17252 0.192405 0.801266 6.95428 0.265326 0.866057 7.49612 
0.192405 0.801266 6.95428 0.0230119 0.832304 6.9935 0.0771368 0.90141 7.47841 
0.0230119 0.832304 6.9935 -0.114835 0.802144 6.83119 -0.083308 0.895696 7.44938 
-0.114835 0.802144 6.83119 -0.244959 0.75887 6.80084 -0.282085 0.826135 7.31566 
-0.244959 0.75887 6.80084 -0.364201 0.691269 6.7871 -0.282085 0.826135 7.31566 
-0.172699 -0.41486 6.71949 -0.0224644 -0.441937 6.73049 -0.132792 -0.575893 7.20501 
-0.0224644 -0.441937 6.73049 0.125063 -0.437764 6.7597 0.125173 -0.571055 7.17619 
0.125063 -0.437764 6.7597 0.277912 -0.382023 6.74949 0.125173 -0.571055 7.17619 
0.277912 -0.382023 6.74949 0.4617 -0.367849 7.07068 0.364909 -0.568451 7.42596 
0.4617 -0.367849 7.07068 0.502934 -0.173187 6.70047 0.632253 -0.244216 7.25396 
0.502934 -0.173187 6.70047 0.583651 -0.0165658 6.71153 0.632253 -0.244216 7.25396 
0.708732 0.171831 7.14253 0.747127 0.381718 7.48887 0.826592 0.168865 7.60566 
0.747127 0.381718 7.48887 0.578532 0.538982 7.11224 0.686795 0.569285 7.61271 
0.578532 0.538982 7.11224 0.493094 0.645077 7.12524 0.555316 0.727822 7.64352 
0.493094 0.645077 7.12524 0.394459 0.736232 7.17252 0.555316 0.727822 7.64352 
0.394459 0.736232 7.17252 0.265326 0.866057 7.49612 0.420073 0.8264 7.65394 
-0.083308 0.895696 7.44938 -0.282085 0.826135 7.31566 -0.257075 0.901025 7.65178 
-0.282085 0.826135 7.31566 -0.467865 0.692501 7.21179 -0.42877 0.819972 7.64758 
-0.467865 0.692501 7.21179 -0.620094 0.476868 7.0994 -0.590969 0.693791 7.63865 
-0.620094 0.476868 7.0994 -0.693165 0.244874 7.11181 -0.818493 0.213567 7.5915 
-0.693165 0.244874 7.11181 -0.690286 0.0602169 7.09736 -0.818493 0.213567 7.5915 
-0.690286 0.0602169 7.09736 -0.637889 -0.119345 7.0766 -0.811325 -0.0252576 7.5867 
-0.637889 -0.119345 7.0766 -0.520861 -0.297397 7.05318 -0.731708 -0.373454 7.7413 
-0.520861 -0.297397 7.05318 -0.336734 -0.478221 7.12608 -0.571574 -0.524387 7.65699 
-0.336734 -0.478221 7.12608 -0.132792 -0.575893 7.20501 -0.238795 -0.715904 7.67066 
-0.132792 -0.575893 7.20501 0.125173 -0.571055 7.17619 -0.005185 -0.768073 7.71397 
0.364909 -0.568451 7.42596 0.4617 -0.367849 7.07068 0.568017 -0.568222 7.74968 
0.4617 -0.367849 7.07068 0.632253 -0.244216 7.25396 0.700307 -0.40582 7.72299 
0.632253 -0.244216 7.25396 0.705883 -0.0425645 7.22879 0.805032 -0.25049 7.76929 
0.705883 -0.0425645 7.22879 0.708732 0.171831 7.14253 0.835844 -0.0829833 7.70414 
0.826592 0.168865 7.60566 0.747127 0.381718 7.48887 0.940192 0.303314 8.08003 
0.747127 0.381718 7.48887 0.686795 0.569285 7.61271 0.863738 0.536557 8.1342 
0.686795 0.569285 7.61271 0.555316 0.727822 7.64352 0.750428 0.708673 8.15602 
0.555316 0.727822 7.64352 0.420073 0.8264 7.65394 0.491717 0.939183 8.21763 
0.420073 0.8264 7.65394 0.265326 0.866057 7.49612 0.272608 0.977706 8.00526 
0.265326 0.866057 7.49612 0.0771368 0.90141 7.47841 0.272608 0.977706 8.00526 
0.0771368 0.90141 7.47841 -0.083308 0.895696 7.44938 0.0555328 1.01092 7.99506 
-0.083308 0.895696 7.44938 -0.257075 0.901025 7.65178 -0.122363 1.00335 7.98362 
-0.257075 0.901025 7.65178 -0.42877 0.819972 7.64758 -0.496297 0.917167 8.1485 
-0.42877 0.819972 7.64758 -0.590969 0.693791 7.63865 -0.63794 0.757473 7.96724 
-0.590969 0.693791 7.63865 -0.728078 0.491757 7.58879 -0.811581 0.546441 7.97324 
-0.728078 0.491757 7.58879 -0.818493 0.213567 7.5915 -0.924445 0.298648 8.02204 
-0.818493 0.213567 7.5915 -0.811325 -0.0252576 7.5867 -0.92358 0.0674276 7.92539 
-0.811325 -0.0252576 7.5867 -0.798141 -0.215002 7.70994 -0.958244 -0.175207 8.11991 
-0.571574 -0.524387 7.65699 -0.390259 -0.665373 7.69204 -0.613962 -0.697846 8.07579 
-0.238795 -0.715904 7.67066 -0.005185 -0.768073 7.71397 -0.207582 -0.879884 8.03199 
0.364909 -0.568451 7.42596 0.568017 -0.568222 7.74968 0.499064 -0.726287 7.96602 
0.835844 -0.0829833 7.70414 0.826592 0.168865 7.60566 1.00239 0.0703268 8.16699 
0.491717 0.939183 8.21763 0.272608 0.977706 8.00526 0.347121 1.06524 8.42453 
0.272608 0.977706 8.00526 0.0555328 1.01092 7.99506 0.0836088 1.15214 8.53677 
0.0555328 1.01092 7.99506 -0.122363 1.00335 7.98362 0.0836088 1.15214 8.53677 
-0.496297 0.917167 8.1485 -0.63794 0.757473 7.96724 -0.758 0.836462 8.46445 
-0.63794 0.757473 7.96724 -0.811581 0.546441 7.97324 -0.906571 0.667162 8.47495 
-0.924445 0.298648 8.02204 -0.92358 0.0674276 7.92539 -1.0702 0.209354 8.39804 
-0.92358 0.0674276 7.92539 -0.958244 -0.175207 8.11991 -1.08083 -0.0285773 8.38608 
-0.958244 -0.175207 8.11991 -0.798141 -0.215002 7.70994 -0.93605 -0.364636 8.21458 
-0.798141 -0.215002 7.70994 -0.731708 -0.373454 7.7413 -0.93605 -0.364636 8.21458 
-0.731708 -0.373454 7.7413 -0.571574 -0.524387 7.65699 -0.792167 -0.581112 8.17895 
-0.613962 -0.697846 8.07579 -0.390259 -0.665373 7.69204 -0.496527 -0.915886 8.34279 
-0.390259 -0.665373 7.69204 -0.238795 -0.715904 7.67066 -0.496527 -0.915886 8.34279 
-0.207582 -0.879884 8.03199 -0.005185 -0.768073 7.71397 -0.102179 -1.02528 8.32701 
-0.005185 -0.768073 7.71397 0.142716 -0.743978 7.68671 0.237537 -1.01438 8.34987 
0.142716 -0.743978 7.68671 0.291959 -0.721021 7.72475 0.387035 -0.958154 8.33301 
0.499064 -0.726287 7.96602 0.568017 -0.568222 7.74968 0.713387 -0.757972 8.33779 
0.568017 -0.568222 7.74968 0.700307 -0.40582 7.72299 0.855409 -0.642808 8.39426 
0.700307 -0.40582 7.72299 0.805032 -0.25049 7.76929 0.911604 -0.372705 8.15782 
0.805032 -0.25049 7.76929 0.835844 -0.0829833 7.70414 1.02016 -0.135386 8.25332 
0.835844 -0.0829833 7.70414 1.00239 0.0703268 8.16699 1.02016 -0.135386 8.25332 
1.00239 0.0703268 8.16699 0.940192 0.303314 8.08003 1.21432 0.207937 8.77032 
0.940192 0.303314 8.08003 0.863738 0.536557 8.1342 1.14654 0.429923 8.76048 
0.863738 0.536557 8.1342 0.750428 0.708673 8.15602 0.901642 0.753972 8.61363 
0.750428 0.708673 8.15602 0.621043 0.836254 8.16225 0.773687 0.892365 8.63215 
0.621043 0.836254 8.16225 0.491717 0.939183 8.21763 0.593947 1.02276 8.63098 
0.491717 0.939183 8.21763 0.347121 1.06524 8.42453 0.447733 1.15686 8.81736 
-0.150415 1.13671 8.51286 -0.30336 1.01844 8.21328 -0.346337 1.19967 8.84114 
-0.30336 1.01844 8.21328 -0.496297 0.917167 8.1485 -0.488975 1.13196 8.79452 
-0.980624 0.534276 8.45478 -0.924445 0.298648 8.02204 -1.15488 0.405897 8.75683 
-1.08083 -0.0285773 8.38608 -0.958244 -0.175207 8.11991 -1.17211 -0.269004 8.6947 
-0.958244 -0.175207 8.11991 -0.93605 -0.364636 8.21458 -1.11457 -0.471567 8.70559 
-0.93605 -0.364636 8.21458 -0.792167 -0.581112 8.17895 -1.01502 -0.674436 8.72277 
-0.792167 -0.581112 8.17895 -0.613962 -0.697846 8.07579 -0.758889 -0.923337 8.67021 
-0.496527 -0.915886 8.34279 -0.207582 -0.879884 8.03199 -0.31252 -1.06046 8.47966 
0.387035 -0.958154 8.33301 0.499064 -0.726287 7.96602 0.592266 -0.930193 8.46869 
0.911604 -0.372705 8.15782 1.02016 -0.135386 8.25332 1.18383 -0.260618 8.71556 
1.02016 -0.135386 8.25332 1.00239 0.0703268 8.16699 1.15103 -0.042744 8.56591 
1.15103 -0.042744 8.56591 1.21432 0.207937 8.77032 1.35546 -0.0679715 9.04058 
1.08298 0.588686 8.7812 0.901642 0.753972 8.61363 1.10395 0.885543 9.2549 
0.901642 0.753972 8.61363 0.773687 0.892365 8.63215 0.909408 0.998399 9.10975 
0.773687 0.892365 8.63215 0.593947 1.02276 8.63098 0.708125 1.16857 9.1561 
0.447733 1.15686 8.81736 0.347121 1.06524 8.42453 0.275413 1.33342 9.16068 
0.347121 1.06524 8.42453 0.0836088 1.15214 8.53677 0.275413 1.33342 9.16068 
0.0836088 1.15214 8.53677 -0.150415 1.13671 8.51286 -0.196624 1.34712 9.16618 
-0.150415 1.13671 8.51286 -0.346337 1.19967 8.84114 -0.196624 1.34712 9.16618 
-0.488975 1.13196 8.79452 -0.616572 1.01241 8.64119 -0.735641 1.14689 9.14966 
-0.616572 1.01241 8.64119 -0.758 0.836462 8.46445 -0.951462 0.98129 9.14319 
-0.758 0.836462 8.46445 -0.906571 0.667162 8.47495 -1.1192 0.776018 9.12109 
-0.906571 0.667162 8.47495 -0.980624 0.534276 8.45478 -1.20848 0.605468 9.08404 
-1.15488 0.405897 8.75683 -1.0702 0.209354 8.39804 -1.26567 0.240481 8.90505 
-1.0702 0.209354 8.39804 -1.08083 -0.0285773 8.38608 -1.28106 -0.036088 8.87019 
-0.758889 -0.923337 8.67021 -0.496527 -0.915886 8.34279 -0.678406 -1.16058 8.95187 
-0.496527 -0.915886 8.34279 -0.31252 -1.06046 8.47966 -0.496466 -1.24972 8.94885 
-0.31252 -1.06046 8.47966 -0.102179 -1.02528 8.32701 -0.28494 -1.28783 8.89675 
-0.102179 -1.02528 8.32701 0.0758263 -1.03868 8.35127 0.128556 -1.25553 8.78365 
0.0758263 -1.03868 8.35127 0.237537 -1.01438 8.34987 0.128556 -1.25553 8.78365 
0.237537 -1.01438 8.34987 0.387035 -0.958154 8.33301 0.457348 -1.17974 8.78632 
0.387035 -0.958154 8.33301 0.592266 -0.930193 8.46869 0.457348 -1.17974 8.78632 
0.592266 -0.930193 8.46869 0.713387 -0.757972 8.33779 0.770263 -0.988155 8.77638 
0.713387 -0.757972 8.33779 0.855409 -0.642808 8.39426 1.03019 -0.869265 8.98012 
0.855409 -0.642808 8.39426 1.08709 -0.477504 8.65112 1.17429 -0.686473 9.01411 
1.18383 -0.260618 8.71556 1.15103 -0.042744 8.56591 1.35546 -0.0679715 9.04058 
1.35546 -0.0679715 9.04058 1.21432 0.207937 8.77032 1.41396 0.145177 9.20001 
1.21432 0.207937 8.77032 1.14654 0.429923 8.76048 1.37923 0.341064 9.21479 
1.14654 0.429923 8.76048 1.08298 0.588686 8.7812 1.36383 0.571312 9.36576 
1.08298 0.588686 8.7812 1.10395 0.885543 9.2549 1.26486 0.78532 9.41538 
0.708125 1.16857 9.1561 0.447733 1.15686 8.81736 0.506719 1.32342 9.29948 
0.447733 1.15686 8.81736 0.275413 1.33342 9.16068 0.506719 1.32342 9.29948 
-0.196624 1.34712 9.16618 -0.346337 1.19967 8.84114 -0.461292 1.40644 9.46575 
-0.346337 1.19967 8.84114 -0.488975 1.13196 8.79452 -0.582966 1.29153 9.29769 
-1.20848 0.605468 9.08404 -1.15488 0.405897 8.75683 -1.365 0.395097 9.21576 
-1.15488 0.405897 8.75683 -1.26567 0.240481 8.90505 -1.365 0.395097 9.21576 
-1.26567 0.240481 8.90505 -1.28106 -0.036088 8.87019 -1.47648 0.153828 9.33714 
-1.28106 -0.036088 8.87019 -1.17211 -0.269004 8.6947 -1.39021 -0.27528 9.15369 
-1.17211 -0.269004 8.6947 -1.11457 -0.471567 8.70559 -1.34102 -0.480674 9.15535 
-1.11457 -0.471567 8.70559 -1.01502 -0.674436 8.72277 -1.30509 -0.710493 9.25465 
-1.01502 -0.674436 8.72277 -0.899895 -0.815436 8.70994 -1.17314 -0.917807 9.24511 
-0.899895 -0.815436 8.70994 -0.758889 -0.923337 8.67021 -0.997177 -1.14754 9.2759 
-0.0967045 -1.248 8.76884 0.128556 -1.25553 8.78365 0.109423 -1.51604 9.24521 
0.128556 -1.25553 8.78365 0.457348 -1.17974 8.78632 0.313957 -1.48679 9.2483 
0.457348 -1.17974 8.78632 0.770263 -0.988155 8.77638 0.712596 -1.23348 9.09611 
0.770263 -0.988155 8.77638 1.03019 -0.869265 8.98012 0.918172 -1.08506 9.09568 
1.08709 -0.477504 8.65112 1.18383 -0.260618 8.71556 1.48339 -0.336113 9.36018 
1.35546 -0.0679715 9.04058 1.41396 0.145177 9.20001 1.57196 -0.0570003 9.48331 
1.41396 0.145177 9.20001 1.37923 0.341064 9.21479 1.63739 0.202781 9.66827 
1.10395 0.885543 9.2549 0.909408 0.998399 9.10975 1.05816 1.13335 9.58516 
0.909408 0.998399 9.10975 0.708125 1.16857 9.1561 0.883011 1.35829 9.76575 
0.708125 1.16857 9.1561 0.506719 1.32342 9.29948 0.628273 1.47897 9.75376 
0.506719 1.32342 9.29948 0.275413 1.33342 9.16068 0.383155 1.49416 9.6152 
0.275413 1.33342 9.16068 0.0183677 1.36839 9.18582 0.139297 1.53918 9.62445 
0.0183677 1.36839 9.18582 -0.196624 1.34712 9.16618 -0.202379 1.52353 9.59818 
-0.196624 1.34712 9.16618 -0.461292 1.40644 9.46575 -0.202379 1.52353 9.59818 
-0.582966 1.29153 9.29769 -0.735641 1.14689 9.14966 -0.732712 1.41997 9.72958 
-0.735641 1.14689 9.14966 -0.951462 0.98129 9.14319 -0.979843 1.2819 9.74166 
-0.951462 0.98129 9.14319 -1.1192 0.776018 9.12109 -1.16703 1.02836 9.57595 
-1.1192 0.776018 9.12109 -1.20848 0.605468 9.08404 -1.3997 0.842288 9.7258 
-1.20848 0.605468 9.08404 -1.365 0.395097 9.21576 -1.51814 0.630788 9.71461 
-1.49081 -0.0433623 9.33086 -1.39021 -0.27528 9.15369 -1.63963 -0.285981 9.63296 
-1.39021 -0.27528 9.15369 -1.34102 -0.480674 9.15535 -1.56808 -0.570108 9.60495 
-0.997177 -1.14754 9.2759 -0.678406 -1.16058 8.95187 -0.842351 -1.35558 9.39031 
-0.678406 -1.16058 8.95187 -0.496466 -1.24972 8.94885 -0.63745 -1.46381 9.38053 
-0.496466 -1.24972 8.94885 -0.28494 -1.28783 8.89675 -0.368475 -1.57287 9.39715 
0.535952 -1.42291 9.25435 0.712596 -1.23348 9.09611 0.764091 -1.50765 9.53788 
0.712596 -1.23348 9.09611 0.918172 -1.08506 9.09568 0.970535 -1.36706 9.52913 
0.918172 -1.08506 9.09568 1.03019 -0.869265 8.98012 1.1977 -1.18006 9.55696 
1.03019 -0.869265 8.98012 1.17429 -0.686473 9.01411 1.36972 -0.958701 9.56985 
1.17429 -0.686473 9.01411 1.39409 -0.52676 9.28341 1.49937 -0.750137 9.5989 
1.36383 0.571312 9.36576 1.26486 0.78532 9.41538 1.51792 0.799686 9.86743 
1.26486 0.78532 9.41538 1.10395 0.885543 9.2549 1.32472 1.07476 9.88476 
1.10395 0.885543 9.2549 1.05816 1.13335 9.58516 1.32472 1.07476 9.88476 
1.05816 1.13335 9.58516 0.883011 1.35829 9.76575 1.08936 1.29327 9.89357 
0.628273 1.47897 9.75376 0.383155 1.49416 9.6152 0.4535 1.69736 10.0872 
0.383155 1.49416 9.6152 0.139297 1.53918 9.62445 0.201234 1.74102 10.0843 
0.139297 1.53918 9.62445 -0.202379 1.52353 9.59818 -0.031127 1.75173 10.0882 
-0.202379 1.52353 9.59818 -0.461292 1.40644 9.46575 -0.558909 1.67362 10.0936 
-0.979843 1.2819 9.74166 -1.16703 1.02836 9.57595 -1.27882 1.11989 9.88029 
-1.62775 0.388152 9.73595 -1.47648 0.153828 9.33714 -1.72536 0.148088 9.80911 
-1.47648 0.153828 9.33714 -1.49081 -0.0433623 9.33086 -1.73665 -0.0959409 9.78898 
-1.49081 -0.0433623 9.33086 -1.63963 -0.285981 9.63296 -1.73665 -0.0959409 9.78898 
-1.30509 -0.710493 9.25465 -1.17314 -0.917807 9.24511 -1.41698 -1.1637 9.8157 
-1.17314 -0.917807 9.24511 -0.997177 -1.14754 9.2759 -1.26191 -1.36731 9.83525 
-0.997177 -1.14754 9.2759 -0.842351 -1.35558 9.39031 -1.09852 -1.524 9.84607 
-0.842351 -1.35558 9.39031 -0.63745 -1.46381 9.38053 -0.763252 -1.72667 9.83152 
-0.63745 -1.46381 9.38053 -0.368475 -1.57287 9.39715 -0.483545 -1.82472 9.81605 
-0.368475 -1.57287 9.39715 -0.0792005 -1.5101 9.2329 -0.200012 -1.85731 9.78715 
-0.0792005 -1.5101 9.2329 0.109423 -1.51604 9.24521 0.0331969 -1.85439 9.76365 
0.109423 -1.51604 9.24521 0.313957 -1.48679 9.2483 0.322822 -1.82534 9.76417 
0.313957 -1.48679 9.2483 0.535952 -1.42291 9.25435 0.612192 -1.78117 9.81746 
1.49937 -0.750137 9.5989 1.39409 -0.52676 9.28341 1.73349 -0.62829 9.90329 
1.39409 -0.52676 9.28341 1.48339 -0.336113 9.36018 1.80218 -0.420626 9.93983 
1.48339 -0.336113 9.36018 1.57196 -0.0570003 9.48331 1.83476 -0.100647 9.95679 
1.83476 -0.100647 9.95679 1.63739 0.202781 9.66827 1.878 0.261713 10.1074 
1.63739 0.202781 9.66827 1.5818 0.498114 9.71756 1.878 0.261713 10.1074 
1.5818 0.498114 9.71756 1.51792 0.799686 9.86743 1.68613 0.817601 10.1556 
1.51792 0.799686 9.86743 1.32472 1.07476 9.88476 1.55789 1.11305 10.27 
1.32472 1.07476 9.88476 1.08936 1.29327 9.89357 1.29885 1.41666 10.3324 
1.08936 1.29327 9.89357 0.883011 1.35829 9.76575 1.03071 1.63756 10.3955 
0.883011 1.35829 9.76575 0.628273 1.47897 9.75376 0.774525 1.75964 10.3942 
-0.558909 1.67362 10.0936 -0.732712 1.41997 9.72958 -0.85965 1.62639 10.2241 
-0.732712 1.41997 9.72958 -0.979843 1.2819 9.74166 -1.10504 1.48116 10.2132 
-0.979843 1.2819 9.74166 -1.27882 1.11989 9.88029 -1.34212 1.37588 10.3326 
-1.27882 1.11989 9.88029 -1.3997 0.842288 9.7258 -1.56009 1.15517 10.3238 
-1.3997 0.842288 9.7258 -1.51814 0.630788 9.71461 -1.74377 0.873775 10.2995 
-1.51814 0.630788 9.71461 -1.62775 0.388152 9.73595 -1.93555 0.44269 10.2877 
-1.62775 0.388152 9.73595 -1.72536 0.148088 9.80911 -1.97877 0.214154 10.2631 
-1.72536 0.148088 9.80911 -1.73665 -0.0959409 9.78898 -1.98292 -0.000549947 10.2183 
-1.73665 -0.0959409 9.78898 -1.63963 -0.285981 9.63296 -1.89515 -0.254739 10.0612 
-1.63963 -0.285981 9.63296 -1.56808 -0.570108 9.60495 -1.85497 -0.53672 10.0558 
-1.56808 -0.570108 9.60495 -1.51357 -0.901598 9.72559 -1.7575 -0.818518 10.0243 
-1.51357 -0.901598 9.72559 -1.41698 -1.1637 9.8157 -1.70853 -1.1564 10.1761 
0.612192 -1.78117 9.81746 0.764091 -1.50765 9.53788 0.898587 -1.90273 10.1353 
0.764091 -1.50765 9.53788 0.970535 -1.36706 9.52913 0.898587 -1.90273 10.1353 
0.970535 -1.36706 9.52913 1.1977 -1.18006 9.55696 1.33949 -1.42562 9.97025 
1.1977 -1.18006 9.55696 1.36972 -0.958701 9.56985 1.54919 -1.19068 10.001 
1.36972 -0.958701 9.56985 1.49937 -0.750137 9.5989 1.70586 -0.914796 10.006 
1.83476 -0.100647 9.95679 1.878 0.261713 10.1074 2.1572 0.23372 10.5396 
1.878 0.261713 10.1074 1.79711 0.574932 10.1424 2.05255 0.666731 10.5877 
1.79711 0.574932 10.1424 1.68613 0.817601 10.1556 2.05255 0.666731 10.5877 
1.68613 0.817601 10.1556 1.55789 1.11305 10.27 1.80458 1.15295 10.6461 
0.774525 1.75964 10.3942 0.4535 1.69736 10.0872 0.536601 1.98458 10.652 
0.4535 1.69736 10.0872 0.201234 1.74102 10.0843 0.225644 2.04169 10.6572 
0.201234 1.74102 10.0843 -0.031127 1.75173 10.0882 -0.0389473 1.99173 10.5482 
-0.031127 1.75173 10.0882 -0.244881 1.7338 10.0812 -0.284737 1.96729 10.5347 
-0.244881 1.7338 10.0812 -0.558909 1.67362 10.0936 -0.593607 1.90441 10.534 
-0.558909 1.67362 10.0936 -0.85965 1.62639 10.2241 -0.901498 1.84779 10.6302 
-0.85965 1.62639 10.2241 -1.10504 1.48116 10.2132 -1.25844 1.68726 10.6726 
-1.89515 -0.254739 10.0612 -1.85497 -0.53672 10.0558 -2.08467 -0.407576 10.3692 
-1.85497 -0.53672 10.0558 -1.7575 -0.818518 10.0243 -2.07186 -0.78677 10.4547 
-1.70853 -1.1564 10.1761 -1.41698 -1.1637 9.8157 -1.65881 -1.4952 10.3769 
-1.41698 -1.1637 9.8157 -1.26191 -1.36731 9.83525 -1.65881 -1.4952 10.3769 
-1.26191 -1.36731 9.83525 -1.09852 -1.524 9.84607 -1.44301 -1.72873 10.3722 
-1.09852 -1.524 9.84607 -0.956129 -1.62688 9.84289 -1.07674 -1.99185 10.3539 
-0.956129 -1.62688 9.84289 -0.763252 -1.72667 9.83152 -1.07674 -1.99185 10.3539 
-0.763252 -1.72667 9.83152 -0.483545 -1.82472 9.81605 -0.646272 -2.17271 10.3332 
-0.483545 -1.82472 9.81605 -0.200012 -1.85731 9.78715 -0.373201 -2.14775 10.2095 
-0.200012 -1.85731 9.78715 0.0331969 -1.85439 9.76365 -0.126189 -2.18311 10.2161 
0.0331969 -1.85439 9.76365 0.322822 -1.82534 9.76417 0.123141 -2.1818 10.2129 
0.322822 -1.82534 9.76417 0.612192 -1.78117 9.81746 0.664635 -2.07882 10.2237 
1.13013 -1.70246 10.0734 1.33949 -1.42562 9.97025 1.38751 -1.77981 10.3705 
1.33949 -1.42562 9.97025 1.54919 -1.19068 10.001 1.80495 -1.35354 10.4264 
1.54919 -1.19068 10.001 1.70586 -0.914796 10.006 1.80495 -1.35354 10.4264 
1.70586 -0.914796 10.006 1.73349 -0.62829 9.90329 2.07465 -0.776138 10.4584 
1.73349 -0.62829 9.90329 1.80218 -0.420626 9.93983 2.11855 -0.572208 10.4578 
1.80218 -0.420626 9.93983 1.83476 -0.100647 9.95679 2.14894 -0.368499 10.4684 
1.80458 1.15295 10.6461 1.55789 1.11305 10.27 1.70325 1.41624 10.7952 
1.55789 1.11305 10.27 1.29885 1.41666 10.3324 1.70325 1.41624 10.7952 
1.29885 1.41666 10.3324 1.03071 1.63756 10.3955 1.23908 1.79852 10.8158 
1.03071 1.63756 10.3955 0.774525 1.75964 10.3942 1.01047 1.92566 10.8218 
0.225644 2.04169 10.6572 -0.0389473 1.99173 10.5482 -0.0410984 2.24365 10.9824 
-0.0389473 1.99173 10.5482 -0.284737 1.96729 10.5347 -0.256604 2.22802 10.9787 
-0.284737 1.96729 10.5347 -0.593607 1.90441 10.534 -0.50892 2.10601 10.8404 
-1.25844 1.68726 10.6726 -1.34212 1.37588 10.3326 -1.60398 1.51896 10.8034 
-1.34212 1.37588 10.3326 -1.56009 1.15517 10.3238 -1.60398 1.51896 10.8034 
-1.56009 1.15517 10.3238 -1.74377 0.873775 10.2995 -1.96947 1.04329 10.7564 
-1.74377 0.873775 10.2995 -1.86731 0.66803 10.3211 -2.08826 0.811218 10.7341 
-1.86731 0.66803 10.3211 -1.93555 0.44269 10.2877 -2.19837 0.5043 10.7053 
-1.93555 0.44269 10.2877 -1.97877 0.214154 10.2631 -2.26575 0.212169 10.691 
-1.97877 0.214154 10.2631 -1.98292 -0.000549947 10.2183 -2.283 -0.0690527 10.6572 
-1.98292 -0.000549947 10.2183 -2.08467 -0.407576 10.3692 -2.37001 -0.359292 10.7753 
-1.98631 -1.04589 10.4602 -1.70853 -1.1564 10.1761 -1.94941 -1.3183 10.5684 
-0.646272 -2.17271 10.3332 -0.373201 -2.14775 10.2095 -0.417705 -2.48411 10.6259 
-0.373201 -2.14775 10.2095 -0.126189 -2.18311 10.2161 -0.140436 -2.51834 10.6276 
-0.126189 -2.18311 10.2161 0.123141 -2.1818 10.2129 0.137264 -2.52836 10.6374 
0.123141 -2.1818 10.2129 0.414171 -2.14188 10.2121 0.375284 -2.48404 10.6207 
0.414171 -2.14188 10.2121 0.664635 -2.07882 10.2237 0.613211 -2.42338 10.6101 
0.664635 -2.07882 10.2237 0.898587 -1.90273 10.1353 0.868301 -2.34048 10.6196 
0.898587 -1.90273 10.1353 1.13013 -1.70246 10.0734 1.29704 -2.13846 10.6536 
2.15778 -0.115789 10.4763 2.1572 0.23372 10.5396 2.54704 0.150158 11.06 
2.1572 0.23372 10.5396 2.05255 0.666731 10.5877 2.40514 0.489198 10.9799 
2.05255 0.666731 10.5877 1.91463 0.958698 10.6149 2.17066 1.07354 11.0325 
1.91463 0.958698 10.6149 1.80458 1.15295 10.6461 2.11053 1.31884 11.1642 
1.80458 1.15295 10.6461 1.70325 1.41624 10.7952 1.96204 1.52668 11.1957 
1.70325 1.41624 10.7952 1.4537 1.63715 10.7947 1.79986 1.70644 11.216 
1.4537 1.63715 10.7947 1.23908 1.79852 10.8158 1.54768 1.90897 11.2193 
1.23908 1.79852 10.8158 1.01047 1.92566 10.8218 1.2982 2.08601 11.2505 
1.01047 1.92566 10.8218 0.760824 2.14084 11.0047 1.05245 2.22151 11.2723 
0.536601 1.98458 10.652 0.225644 2.04169 10.6572 0.542256 2.3628 11.2542 
-0.256604 2.22802 10.9787 -0.50892 2.10601 10.8404 -0.541318 2.38309 11.2816 
-0.7372 2.14493 10.9996 -0.901498 1.84779 10.6302 -1.03174 2.11773 11.1134 
-0.901498 1.84779 10.6302 -1.25844 1.68726 10.6726 -1.29822 1.97567 11.1035 
-1.25844 1.68726 10.6726 -1.60398 1.51896 10.8034 -1.82226 1.699 11.2286 
-1.60398 1.51896 10.8034 -1.81483 1.26371 10.7652 -1.85617 1.51289 11.0668 
-1.81483 1.26371 10.7652 -1.96947 1.04329 10.7564 -2.12395 1.27706 11.1408 
-1.96947 1.04329 10.7564 -2.08826 0.811218 10.7341 -2.33224 0.975746 11.1585 
-2.08826 0.811218 10.7341 -2.19837 0.5043 10.7053 -2.46596 0.643333 11.1324 
-2.19837 0.5043 10.7053 -2.26575 0.212169 10.691 -2.5656 0.216959 11.0947 
-2.26575 0.212169 10.691 -2.283 -0.0690527 10.6572 -2.5656 0.216959 11.0947 
-2.33277 -0.588836 10.7525 -2.07186 -0.78677 10.4547 -2.38912 -0.845123 10.8821 
-2.07186 -0.78677 10.4547 -1.98631 -1.04589 10.4602 -2.26908 -1.14527 10.8465 
-1.98631 -1.04589 10.4602 -1.94941 -1.3183 10.5684 -2.14034 -1.41017 10.8356 
-1.94941 -1.3183 10.5684 -1.65881 -1.4952 10.3769 -1.92367 -1.71556 10.8057 
-1.65881 -1.4952 10.3769 -1.44301 -1.72873 10.3722 -1.64267 -2.00742 10.787 
-1.44301 -1.72873 10.3722 -1.2769 -1.89142 10.3929 -1.40201 -2.19611 10.7767 
-1.2769 -1.89142 10.3929 -1.07674 -1.99185 10.3539 -1.40201 -2.19611 10.7767 
-1.07674 -1.99185 10.3539 -0.844905 -2.11287 10.3537 -1.13347 -2.34668 10.7552 
-0.844905 -2.11287 10.3537 -0.646272 -2.17271 10.3332 -0.762579 -2.49395 10.7341 
-0.646272 -2.17271 10.3332 -0.417705 -2.48411 10.6259 -0.762579 -2.49395 10.7341 
1.29704 -2.13846 10.6536 1.38751 -1.77981 10.3705 1.65768 -2.14999 10.9219 
1.38751 -1.77981 10.3705 1.59668 -1.60472 10.4068 1.86586 -1.80411 10.8179 
1.59668 -1.60472 10.4068 1.80495 -1.35354 10.4264 1.86586 -1.80411 10.8179 
1.80495 -1.35354 10.4264 2.00231 -1.02858 10.4703 2.28605 -1.16078 10.8689 
2.00231 -1.02858 10.4703 2.07465 -0.776138 10.4584 2.28605 -1.16078 10.8689 
2.07465 -0.776138 10.4584 2.11855 -0.572208 10.4578 2.40144 -0.798211 10.8852 
2.11855 -0.572208 10.4578 2.14894 -0.368499 10.4684 2.45297 -0.511917 10.895 
2.14894 -0.368499 10.4684 2.15778 -0.115789 10.4763 2.48504 -0.16345 10.9254 
2.54704 0.150158 11.06 2.40514 0.489198 10.9799 2.60822 0.507102 11.2431 
2.40514 0.489198 10.9799 2.29039 0.822165 11.006 2.60135 0.916418 11.4355 
2.29039 0.822165 11.006 2.17066 1.07354 11.0325 2.45893 1.21002 11.4633 
1.05245 2.22151 11.2723 0.760824 2.14084 11.0047 0.914913 2.48527 11.5615 
0.243869 2.42037 11.277 -0.0410984 2.24365 10.9824 0.0190684 2.53271 11.4199 
-0.0410984 2.24365 10.9824 -0.256604 2.22802 10.9787 -0.296806 2.51341 11.4153 
-0.541318 2.38309 11.2816 -0.7372 2.14493 10.9996 -0.947421 2.45686 11.5353 
-0.7372 2.14493 10.9996 -1.03174 2.11773 11.1134 -0.947421 2.45686 11.5353 
-1.03174 2.11773 11.1134 -1.29822 1.97567 11.1035 -1.2923 2.30446 11.5198 
-1.29822 1.97567 11.1035 -1.60079 1.8716 11.2217 -1.57154 2.14343 11.5145 
-1.85617 1.51289 11.0668 -2.12395 1.27706 11.1408 -2.23201 1.5499 11.4886 
-2.60126 -0.151482 11.0822 -2.37001 -0.359292 10.7753 -2.79626 -0.436042 11.3146 
-2.37001 -0.359292 10.7753 -2.33277 -0.588836 10.7525 -2.7262 -0.785177 11.2704 
-2.33277 -0.588836 10.7525 -2.38912 -0.845123 10.8821 -2.7262 -0.785177 11.2704 
-2.38912 -0.845123 10.8821 -2.26908 -1.14527 10.8465 -2.64042 -1.09991 11.2515 
-2.26908 -1.14527 10.8465 -2.14034 -1.41017 10.8356 -2.43419 -1.61974 11.2494 
-2.14034 -1.41017 10.8356 -1.92367 -1.71556 10.8057 -2.2206 -1.8909 11.2004 
-1.92367 -1.71556 10.8057 -1.64267 -2.00742 10.787 -1.99036 -2.1257 11.1633 
-1.64267 -2.00742 10.787 -1.40201 -2.19611 10.7767 -1.59048 -2.50171 11.1708 
-1.40201 -2.19611 10.7767 -1.13347 -2.34668 10.7552 -1.30514 -2.67321 11.1571 
-1.13347 -2.34668 10.7552 -0.762579 -2.49395 10.7341 -0.888208 -2.71315 11.0066 
-0.762579 -2.49395 10.7341 -0.417705 -2.48411 10.6259 -0.560116 -2.90957 11.1127 
-0.417705 -2.48411 10.6259 -0.140436 -2.51834 10.6276 -0.270653 -2.95219 11.1098 
-0.140436 -2.51834 10.6276 0.137264 -2.52836 10.6374 0.0422456 -2.9686 11.1095 
0.137264 -2.52836 10.6374 0.375284 -2.48404 10.6207 0.42093 -2.91772 11.0915 
0.375284 -2.48404 10.6207 0.613211 -2.42338 10.6101 0.68265 -2.7555 10.9826 
0.613211 -2.42338 10.6101 0.868301 -2.34048 10.6196 1.03431 -2.7747 11.1285 
0.868301 -2.34048 10.6196 1.09168 -2.25246 10.6389 1.23708 -2.55892 11.0161 
1.09168 -2.25246 10.6389 1.29704 -2.13846 10.6536 1.52339 -2.52885 11.1545 
1.65768 -2.14999 10.9219 1.86586 -1.80411 10.8179 1.96847 -2.00812 11.0595 
1.86586 -1.80411 10.8179 2.18668 -1.51344 10.9445 2.1401 -1.80851 11.0752 
2.28605 -1.16078 10.8689 2.40144 -0.798211 10.8852 2.67384 -1.05512 11.2737 
2.40144 -0.798211 10.8852 2.45297 -0.511917 10.895 2.63723 -0.747828 11.1587 
2.45297 -0.511917 10.895 2.48504 -0.16345 10.9254 2.69079 -0.445677 11.1855 
2.54704 0.150158 11.06 2.60822 0.507102 11.2431 2.85611 0.37337 11.494 
2.45893 1.21002 11.4633 2.11053 1.31884 11.1642 2.3457 1.55623 11.5997 
2.11053 1.31884 11.1642 1.96204 1.52668 11.1957 2.3457 1.55623 11.5997 
1.96204 1.52668 11.1957 1.79986 1.70644 11.216 2.05615 1.87978 11.6201 
1.79986 1.70644 11.216 1.54768 1.90897 11.2193 1.87149 2.16668 11.7604 
1.54768 1.90897 11.2193 1.2982 2.08601 11.2505 1.57796 2.38602 11.7896 
1.2982 2.08601 11.2505 1.05245 2.22151 11.2723 1.21112 2.47044 11.6765 
0.914913 2.48527 11.5615 0.542256 2.3628 11.2542 0.638381 2.75421 11.8116 
0.542256 2.3628 11.2542 0.243869 2.42037 11.277 0.227364 2.82598 11.8316 
0.243869 2.42037 11.277 0.0190684 2.53271 11.4199 0.227364 2.82598 11.8316 
0.0190684 2.53271 11.4199 -0.296806 2.51341 11.4153 -0.186581 2.83612 11.8437 
-0.296806 2.51341 11.4153 -0.541318 2.38309 11.2816 -0.476989 2.78597 11.8206 
-0.541318 2.38309 11.2816 -0.947421 2.45686 11.5353 -0.803268 2.61046 11.6759 
-1.57154 2.14343 11.5145 -1.60079 1.8716 11.2217 -1.95348 2.14533 11.7989 
-1.60079 1.8716 11.2217 -1.82226 1.699 11.2286 -2.07988 1.86246 11.6262 
-2.23201 1.5499 11.4886 -2.12395 1.27706 11.1408 -2.53634 1.26246 11.5753 
-2.12395 1.27706 11.1408 -2.33224 0.975746 11.1585 -2.53634 1.26246 11.5753 
-2.33224 0.975746 11.1585 -2.46596 0.643333 11.1324 -2.79837 0.957076 11.6771 
-2.46596 0.643333 11.1324 -2.5656 0.216959 11.0947 -2.82667 0.549991 11.5184 
-2.5656 0.216959 11.0947 -2.60126 -0.151482 11.0822 -2.92233 -0.185378 11.465 
-1.30514 -2.67321 11.1571 -0.888208 -2.71315 11.0066 -0.983732 -3.05885 11.3681 
1.03431 -2.7747 11.1285 1.23708 -2.55892 11.0161 1.39067 -2.90073 11.3958 
1.52339 -2.52885 11.1545 1.65768 -2.14999 10.9219 1.92827 -2.5296 11.4072 
1.65768 -2.14999 10.9219 1.96847 -2.00812 11.0595 2.14987 -2.3147 11.4163 
1.96847 -2.00812 11.0595 2.1401 -1.80851 11.0752 2.36753 -2.0829 11.4407 
2.1401 -1.80851 11.0752 2.18668 -1.51344 10.9445 2.55145 -1.79603 11.4465 
2.67384 -1.05512 11.2737 2.63723 -0.747828 11.1587 2.97851 -0.847014 11.558 
2.63723 -0.747828 11.1587 2.69079 -0.445677 11.1855 3.03569 -0.556188 11.5892 
2.69079 -0.445677 11.1855 2.77915 -0.0861923 11.3044 3.05912 -0.193473 11.6179 
2.77915 -0.0861923 11.3044 2.85611 0.37337 11.494 3.25708 0.183277 11.8875 
2.85611 0.37337 11.494 2.79812 0.655148 11.5318 3.18126 0.572131 11.9107 
2.79812 0.655148 11.5318 2.60135 0.916418 11.4355 3.05238 0.93009 11.9253 
2.60135 0.916418 11.4355 2.45893 1.21002 11.4633 2.88085 1.28613 11.9401 
2.45893 1.21002 11.4633 2.3457 1.55623 11.5997 2.71922 1.5661 11.9666 
2.3457 1.55623 11.5997 2.05615 1.87978 11.6201 2.23273 2.00262 11.8793 
1.57796 2.38602 11.7896 1.21112 2.47044 11.6765 1.35714 2.77422 12.1019 
1.21112 2.47044 11.6765 0.914913 2.48527 11.5615 1.05005 2.88565 12.1006 
-0.476989 2.78597 11.8206 -0.803268 2.61046 11.6759 -0.849513 2.82159 11.9538 
-0.803268 2.61046 11.6759 -0.947421 2.45686 11.5353 -1.28832 2.7909 12.0884 
-0.947421 2.45686 11.5353 -1.2923 2.30446 11.5198 -1.45131 2.58281 11.9325 
-1.2923 2.30446 11.5198 -1.57154 2.14343 11.5145 -1.77312 2.39664 11.925 
-1.95348 2.14533 11.7989 -2.07988 1.86246 11.6262 -2.33425 2.08209 12.0344 
-2.07988 1.86246 11.6262 -2.23201 1.5499 11.4886 -2.46385 1.89574 11.9866 
-2.23201 1.5499 11.4886 -2.53634 1.26246 11.5753 -2.59223 1.57691 11.8518 
-2.79837 0.957076 11.6771 -2.82667 0.549991 11.5184 -3.04713 0.603666 11.7787 
-2.98672 0.153272 11.5886 -2.92233 -0.185378 11.465 -3.15495 -0.282208 11.7137 
-2.92233 -0.185378 11.465 -2.79626 -0.436042 11.3146 -3.15495 -0.282208 11.7137 
-2.79626 -0.436042 11.3146 -2.7262 -0.785177 11.2704 -3.11811 -0.662759 11.6819 
-2.7262 -0.785177 11.2704 -2.64042 -1.09991 11.2515 -2.97606 -1.24825 11.6388 
-2.64042 -1.09991 11.2515 -2.54979 -1.3663 11.2499 -2.81969 -1.60402 11.6033 
-2.54979 -1.3663 11.2499 -2.43419 -1.61974 11.2494 -2.81969 -1.60402 11.6033 
-2.43419 -1.61974 11.2494 -2.2206 -1.8909 11.2004 -2.62793 -1.9388 11.5815 
-2.2206 -1.8909 11.2004 -1.99036 -2.1257 11.1633 -2.2415 -2.41511 11.5445 
-1.99036 -2.1257 11.1633 -1.80169 -2.33754 11.1783 -1.95375 -2.6672 11.5198 
-1.80169 -2.33754 11.1783 -1.59048 -2.50171 11.1708 -1.95375 -2.6672 11.5198 
-1.59048 -2.50171 11.1708 -1.30514 -2.67321 11.1571 -1.6408 -2.88677 11.5068 
-0.983732 -3.05885 11.3681 -0.560116 -2.90957 11.1127 -0.676332 -3.40669 11.5949 
-0.560116 -2.90957 11.1127 -0.270653 -2.95219 11.1098 -0.357767 -3.45782 11.5917 
-0.270653 -2.95219 11.1098 0.0422456 -2.9686 11.1095 -0.115102 -3.34376 11.4715 
0.0422456 -2.9686 11.1095 0.42093 -2.91772 11.0915 0.204883 -3.33679 11.4685 
0.844256 -3.08794 11.3527 1.03431 -2.7747 11.1285 1.20972 -3.24637 11.6091 
1.39067 -2.90073 11.3958 1.52339 -2.52885 11.1545 1.77582 -2.94235 11.6215 
2.55145 -1.79603 11.4465 2.53907 -1.3637 11.2369 2.85788 -1.54083 11.6156 
2.53907 -1.3637 11.2369 2.67384 -1.05512 11.2737 2.99563 -1.19107 11.6433 
2.23273 2.00262 11.8793 1.87149 2.16668 11.7604 2.17988 2.49812 12.2867 
1.87149 2.16668 11.7604 1.57796 2.38602 11.7896 1.77174 2.65551 12.1839 
1.05005 2.88565 12.1006 0.638381 2.75421 11.8116 0.711496 3.19639 12.3516 
0.638381 2.75421 11.8116 0.227364 2.82598 11.8316 0.302272 3.22373 12.3226 
0.227364 2.82598 11.8316 -0.186581 2.83612 11.8437 -0.0343354 3.2401 12.3289 
-0.186581 2.83612 11.8437 -0.476989 2.78597 11.8206 -0.393158 3.20695 12.3118 
-0.476989 2.78597 11.8206 -0.849513 2.82159 11.9538 -0.698049 3.08393 12.2231 
-0.849513 2.82159 11.9538 -1.28832 2.7909 12.0884 -1.11878 3.09203 12.3489 
-1.45131 2.58281 11.9325 -1.77312 2.39664 11.925 -1.94385 2.66852 12.2994 
-1.77312 2.39664 11.925 -1.95348 2.14533 11.7989 -2.12269 2.39933 12.1567 
-2.46385 1.89574 11.9866 -2.59223 1.57691 11.8518 -2.78195 1.68775 12.0987 
-2.59223 1.57691 11.8518 -2.78793 1.26685 11.8361 -3.11625 1.3964 12.2192 
-2.78793 1.26685 11.8361 -2.79837 0.957076 11.6771 -3.2816 1.02465 12.1837 
-2.79837 0.957076 11.6771 -3.04713 0.603666 11.7787 -3.2816 1.02465 12.1837 
-3.04713 0.603666 11.7787 -2.98672 0.153272 11.5886 -3.36128 0.193536 11.9906 
-2.98672 0.153272 11.5886 -3.15495 -0.282208 11.7137 -3.3887 -0.140973 11.97 
-3.15495 -0.282208 11.7137 -3.11811 -0.662759 11.6819 -3.47931 -0.521348 12.0395 
-3.11811 -0.662759 11.6819 -3.06103 -0.963279 11.6606 -3.41973 -1.01396 12.016 
-3.06103 -0.963279 11.6606 -2.97606 -1.24825 11.6388 -3.30583 -1.40931 11.99 
-2.97606 -1.24825 11.6388 -2.81969 -1.60402 11.6033 -3.16326 -1.81051 11.9814 
-2.81969 -1.60402 11.6033 -2.62793 -1.9388 11.5815 -2.92977 -2.17205 11.9356 
-2.62793 -1.9388 11.5815 -2.44837 -2.18677 11.5643 -2.65137 -2.51532 11.8935 
-2.44837 -2.18677 11.5643 -2.2415 -2.41511 11.5445 -2.65137 -2.51532 11.8935 
-2.2415 -2.41511 11.5445 -1.95375 -2.6672 11.5198 -2.24157 -2.75521 11.7602 
-1.95375 -2.6672 11.5198 -1.6408 -2.88677 11.5068 -1.85606 -3.0333 11.7257 
-1.6408 -2.88677 11.5068 -1.37272 -3.03533 11.4975 -1.493 -3.25914 11.7249 
-1.37272 -3.03533 11.4975 -0.983732 -3.05885 11.3681 -1.0989 -3.41388 11.7034 
-0.357767 -3.45782 11.5917 -0.115102 -3.34376 11.4715 0.028769 -3.73549 11.8071 
-0.115102 -3.34376 11.4715 0.204883 -3.33679 11.4685 0.028769 -3.73549 11.8071 
0.204883 -3.33679 11.4685 0.573846 -3.29625 11.477 0.4535 -3.57245 11.6983 
0.573846 -3.29625 11.477 0.844256 -3.08794 11.3527 0.861201 -3.57777 11.7759 
1.20972 -3.24637 11.6091 1.39067 -2.90073 11.3958 1.55123 -3.22818 11.7264 
1.77582 -2.94235 11.6215 1.92827 -2.5296 11.4072 2.15576 -2.82402 11.7502 
1.92827 -2.5296 11.4072 2.14987 -2.3147 11.4163 2.47102 -2.538 11.7805 
2.14987 -2.3147 11.4163 2.36753 -2.0829 11.4407 2.47102 -2.538 11.7805 
2.36753 -2.0829 11.4407 2.55145 -1.79603 11.4465 2.91328 -1.94418 11.8215 
2.55145 -1.79603 11.4465 2.85788 -1.54083 11.6156 2.91328 -1.94418 11.8215 
2.85788 -1.54083 11.6156 2.99563 -1.19107 11.6433 3.14161 -1.49135 11.8606 
2.99563 -1.19107 11.6433 2.97851 -0.847014 11.558 3.26944 -1.11648 11.8926 
2.97851 -0.847014 11.558 3.03569 -0.556188 11.5892 3.34109 -0.795236 11.9178 
3.03569 -0.556188 11.5892 3.05912 -0.193473 11.6179 3.37594 -0.459048 11.938 
3.38897 -0.139581 11.9694 3.25708 0.183277 11.8875 3.748 0.120058 12.3505 
3.25708 0.183277 11.8875 3.18126 0.572131 11.9107 3.55723 0.495161 12.2528 
3.18126 0.572131 11.9107 3.05238 0.93009 11.9253 3.45525 0.888047 12.2884 
3.05238 0.93009 11.9253 2.88085 1.28613 11.9401 3.31932 1.22215 12.3075 
2.88085 1.28613 11.9401 2.71922 1.5661 11.9666 3.10389 1.64595 12.3452 
2.71922 1.5661 11.9666 2.52578 1.83859 11.9903 2.80463 2.05829 12.374 
2.17988 2.49812 12.2867 1.77174 2.65551 12.1839 2.20795 2.82359 12.5861 
1.77174 2.65551 12.1839 1.35714 2.77422 12.1019 1.72062 2.95093 12.4481 
1.35714 2.77422 12.1019 1.05005 2.88565 12.1006 1.33908 3.1286 12.4647 
1.05005 2.88565 12.1006 0.711496 3.19639 12.3516 1.03478 3.37793 12.6239 
-0.393158 3.20695 12.3118 -0.698049 3.08393 12.2231 -0.7667 3.42047 12.6048 
-1.11878 3.09203 12.3489 -1.28832 2.7909 12.0884 -1.55544 3.16424 12.5875 
-2.12269 2.39933 12.1567 -2.33425 2.08209 12.0344 -2.74924 2.36016 12.5538 
-2.33425 2.08209 12.0344 -2.46385 1.89574 11.9866 -2.83754 2.01515 12.3696 
-2.46385 1.89574 11.9866 -2.78195 1.68775 12.0987 -2.83754 2.01515 12.3696 
-3.2816 1.02465 12.1837 -3.29029 0.590438 12.0269 -3.6807 0.656449 12.4145 
-3.29029 0.590438 12.0269 -3.36128 0.193536 11.9906 -3.7487 0.208755 12.363 
-3.36128 0.193536 11.9906 -3.3887 -0.140973 11.97 -3.7807 -0.259254 12.3318 
-3.3887 -0.140973 11.97 -3.47931 -0.521348 12.0395 -3.7807 -0.259254 12.3318 
-2.65137 -2.51532 11.8935 -2.24157 -2.75521 11.7602 -2.54521 -3.00326 12.0928 
-2.24157 -2.75521 11.7602 -1.85606 -3.0333 11.7257 -2.20835 -3.3004 12.0836 
-1.85606 -3.0333 11.7257 -1.493 -3.25914 11.7249 -1.79636 -3.54722 12.0579 
-1.493 -3.25914 11.7249 -1.0989 -3.41388 11.7034 -1.48279 -3.7127 12.0559 
-1.0989 -3.41388 11.7034 -0.676332 -3.40669 11.5949 -0.747366 -3.79151 11.9204 
-0.676332 -3.40669 11.5949 -0.357767 -3.45782 11.5917 -0.396417 -3.84539 11.9159 
0.028769 -3.73549 11.8071 0.4535 -3.57245 11.6983 0.500987 -4.03759 12.0739 
0.861201 -3.57777 11.7759 1.20972 -3.24637 11.6091 1.15153 -3.68023 11.9283 
1.20972 -3.24637 11.6091 1.55123 -3.22818 11.7264 1.63121 -3.58945 12.0213 
1.55123 -3.22818 11.7264 1.77582 -2.94235 11.6215 1.96365 -3.4569 12.0701 
1.77582 -2.94235 11.6215 2.15576 -2.82402 11.7502 2.18286 -3.304 12.0746 
2.15576 -2.82402 11.7502 2.47102 -2.538 11.7805 2.45109 -2.92382 11.9893 
2.78602 -2.37561 11.9237 2.91328 -1.94418 11.8215 3.11051 -2.10875 12.0452 
2.91328 -1.94418 11.8215 3.14161 -1.49135 11.8606 3.39977 -1.85014 12.1889 
3.14161 -1.49135 11.8606 3.26944 -1.11648 11.8926 3.53386 -1.13548 12.1349 
3.26944 -1.11648 11.8926 3.34109 -0.795236 11.9178 3.53386 -1.13548 12.1349 
3.34109 -0.795236 11.9178 3.37594 -0.459048 11.938 3.59868 -0.69789 12.1554 
3.37594 -0.459048 11.938 3.38897 -0.139581 11.9694 3.72759 -0.250205 12.2839 
3.748 0.120058 12.3505 3.55723 0.495161 12.2528 3.81129 0.505535 12.4831 
3.55723 0.495161 12.2528 3.45525 0.888047 12.2884 3.69948 0.94897 12.5246 
3.45525 0.888047 12.2884 3.31932 1.22215 12.3075 3.56315 1.30348 12.5513 
3.31932 1.22215 12.3075 3.10389 1.64595 12.3452 3.45806 1.78638 12.7038 
3.10389 1.64595 12.3452 2.80463 2.05829 12.374 3.08105 2.1126 12.6161 
2.80463 2.05829 12.374 2.43674 2.30282 12.2944 2.79429 2.45032 12.6459 
2.43674 2.30282 12.2944 2.17988 2.49812 12.2867 2.48861 2.72132 12.6629 
2.20795 2.82359 12.5861 1.72062 2.95093 12.4481 1.86314 3.14244 12.6902 
1.72062 2.95093 12.4481 1.33908 3.1286 12.4647 1.43438 3.3482 12.7134 
1.03478 3.37793 12.6239 0.711496 3.19639 12.3516 0.70656 3.55678 12.7298 
0.711496 3.19639 12.3516 0.302272 3.22373 12.3226 0.335258 3.60786 12.7339 
0.302272 3.22373 12.3226 -0.0343354 3.2401 12.3289 -0.048007 3.62093 12.7348 
-0.0343354 3.2401 12.3289 -0.393158 3.20695 12.3118 -0.427265 3.5983 12.7324 
-0.7667 3.42047 12.6048 -1.11878 3.09203 12.3489 -1.2308 3.42781 12.7228 
-1.55544 3.16424 12.5875 -1.69294 2.85378 12.3436 -1.86442 3.14723 12.6976 
-1.69294 2.85378 12.3436 -1.94385 2.66852 12.2994 -2.18908 2.94994 12.6812 
-3.20376 1.74482 12.4888 -3.11625 1.3964 12.2192 -3.55367 1.60757 12.6889 
-3.11625 1.3964 12.2192 -3.2816 1.02465 12.1837 -3.67194 1.2626 12.6255 
-3.7807 -0.259254 12.3318 -3.47931 -0.521348 12.0395 -3.86197 -0.727925 12.3879 
-3.47931 -0.521348 12.0395 -3.41973 -1.01396 12.016 -3.86197 -0.727925 12.3879 
-3.41973 -1.01396 12.016 -3.30583 -1.40931 11.99 -3.62147 -1.65363 12.3071 
-3.30583 -1.40931 11.99 -3.16326 -1.81051 11.9814 -3.62147 -1.65363 12.3071 
-3.16326 -1.81051 11.9814 -2.92977 -2.17205 11.9356 -3.40034 -2.16703 12.2855 
-2.92977 -2.17205 11.9356 -2.65137 -2.51532 11.8935 -3.13575 -2.55594 12.2468 
-1.13226 -3.85976 12.0583 -0.747366 -3.79151 11.9204 -0.850486 -4.2456 12.2728 
-0.747366 -3.79151 11.9204 -0.396417 -3.84539 11.9159 -0.425208 -4.11786 12.1258 
-0.396417 -3.84539 11.9159 0.028769 -3.73549 11.8071 0.0388086 -4.13862 12.1203 
0.500987 -4.03759 12.0739 0.861201 -3.57777 11.7759 0.981464 -4.01214 12.1291 
0.861201 -3.57777 11.7759 1.15153 -3.68023 11.9283 0.981464 -4.01214 12.1291 
1.15153 -3.68023 11.9283 1.63121 -3.58945 12.0213 1.43522 -3.86499 12.1438 
2.18286 -3.304 12.0746 2.45109 -2.92382 11.9893 2.71294 -3.2495 12.3163 
2.8087 -2.76417 12.1293 2.78602 -2.37561 11.9237 3.24859 -2.63117 12.3527 
2.78602 -2.37561 11.9237 3.11051 -2.10875 12.0452 3.24859 -2.63117 12.3527 
3.51988 -1.59627 12.2165 3.53386 -1.13548 12.1349 3.85743 -1.42579 12.4563 
3.53386 -1.13548 12.1349 3.59868 -0.69789 12.1554 3.8862 -0.670762 12.4069 
3.59868 -0.69789 12.1554 3.72759 -0.250205 12.2839 3.8862 -0.670762 12.4069 
3.72759 -0.250205 12.2839 3.748 0.120058 12.3505 4.12921 0.163099 12.6798 
3.748 0.120058 12.3505 3.81129 0.505535 12.4831 4.12921 0.163099 12.6798 
3.81129 0.505535 12.4831 3.69948 0.94897 12.5246 4.06419 1.09229 12.8661 
3.69948 0.94897 12.5246 3.56315 1.30348 12.5513 4.06419 1.09229 12.8661 
3.45806 1.78638 12.7038 3.08105 2.1126 12.6161 3.42142 2.33639 12.9837 
3.08105 2.1126 12.6161 2.79429 2.45032 12.6459 3.02486 2.56044 12.8695 
2.79429 2.45032 12.6459 2.48861 2.72132 12.6629 2.81954 2.91991 12.9988 
2.48861 2.72132 12.6629 2.20795 2.82359 12.5861 2.32126 3.14758 12.9058 
2.20795 2.82359 12.5861 1.86314 3.14244 12.6902 2.32126 3.14758 12.9058 
1.86314 3.14244 12.6902 1.43438 3.3482 12.7134 1.84548 3.55414 13.0421 
1.43438 3.3482 12.7134 1.03478 3.37793 12.6239 1.39168 3.74667 13.0647 
1.03478 3.37793 12.6239 0.70656 3.55678 12.7298 0.773 3.91229 13.0811 
0.70656 3.55678 12.7298 0.335258 3.60786 12.7339 0.378858 3.84549 12.9706 
0.335258 3.60786 12.7339 -0.048007 3.62093 12.7348 -0.114668 3.8646 12.9736 
-0.048007 3.62093 12.7348 -0.427265 3.5983 12.7324 -0.114668 3.8646 12.9736 
-0.427265 3.5983 12.7324 -0.7667 3.42047 12.6048 -0.854736 3.77432 12.9657 
-0.7667 3.42047 12.6048 -1.2308 3.42781 12.7228 -1.27316 3.77635 13.0596 
-1.2308 3.42781 12.7228 -1.55544 3.16424 12.5875 -1.66248 3.6463 13.0593 
-1.55544 3.16424 12.5875 -1.86442 3.14723 12.6976 -1.95001 3.51691 13.053 
-1.86442 3.14723 12.6976 -2.18908 2.94994 12.6812 -2.2186 3.36036 13.0344 
-2.18908 2.94994 12.6812 -2.41603 2.64145 12.5564 -2.75509 2.99794 13.0199 
-2.41603 2.64145 12.5564 -2.74924 2.36016 12.5538 -3.04449 2.71937 12.9884 
-2.74924 2.36016 12.5538 -3.1388 2.03614 12.6101 -3.31399 2.40688 12.9574 
-3.1388 2.03614 12.6101 -3.20376 1.74482 12.4888 -3.57451 2.07079 12.9382 
-3.66722 1.036 12.5295 -3.6807 0.656449 12.4145 -4.0799 0.960848 12.8382 
-3.6807 0.656449 12.4145 -3.7487 0.208755 12.363 -4.11338 0.313979 12.695 
-3.7487 0.208755 12.363 -3.7807 -0.259254 12.3318 -4.14793 -0.0766924 12.6626 
-3.7807 -0.259254 12.3318 -3.86197 -0.727925 12.3879 -4.14639 -0.482899 12.6287 
-3.86197 -0.727925 12.3879 -3.77563 -1.19631 12.3538 -4.08793 -0.990833 12.5869 
-3.77563 -1.19631 12.3538 -3.62147 -1.65363 12.3071 -4.10044 -1.50633 12.6532 
-3.62147 -1.65363 12.3071 -3.40034 -2.16703 12.2855 -3.79125 -2.27844 12.5975 
-3.40034 -2.16703 12.2855 -3.13575 -2.55594 12.2468 -3.58005 -2.63544 12.5687 
-3.13575 -2.55594 12.2468 -2.89911 -2.85033 12.2255 -3.32287 -2.96068 12.5326 
-2.89911 -2.85033 12.2255 -2.54521 -3.00326 12.0928 -2.86124 -3.25179 12.3957 
-2.54521 -3.00326 12.0928 -2.20835 -3.3004 12.0836 -2.55436 -3.6854 12.4688 
-2.20835 -3.3004 12.0836 -1.79636 -3.54722 12.0579 -2.1636 -3.81141 12.3681 
-1.79636 -3.54722 12.0579 -1.48279 -3.7127 12.0559 -1.80723 -4.00444 12.3535 
-1.48279 -3.7127 12.0559 -1.13226 -3.85976 12.0583 -1.27824 -4.35845 12.4304 
-0.850486 -4.2456 12.2728 -0.425208 -4.11786 12.1258 -0.384228 -4.40704 12.3257 
-0.425208 -4.11786 12.1258 0.0388086 -4.13862 12.1203 -0.384228 -4.40704 12.3257 
0.0388086 -4.13862 12.1203 0.500987 -4.03759 12.0739 0.361577 -4.5308 12.4117 
0.500987 -4.03759 12.0739 0.981464 -4.01214 12.1291 0.756832 -4.34705 12.325 
0.981464 -4.01214 12.1291 1.43522 -3.86499 12.1438 1.25575 -4.22014 12.3327 
1.43522 -3.86499 12.1438 1.63121 -3.58945 12.0213 1.7179 -4.0462 12.3502 
1.63121 -3.58945 12.0213 1.96365 -3.4569 12.0701 2.08107 -3.85147 12.3593 
1.96365 -3.4569 12.0701 2.18286 -3.304 12.0746 2.41734 -3.64334 12.3819 
2.71294 -3.2495 12.3163 2.8087 -2.76417 12.1293 3.19773 -3.14066 12.5358 
3.51762 -2.23511 12.3952 3.39977 -1.85014 12.1889 3.88691 -2.10085 12.6174 
3.39977 -1.85014 12.1889 3.51988 -1.59627 12.2165 4.00784 -1.81322 12.6378 
3.93654 -1.14149 12.4813 3.8862 -0.670762 12.4069 4.24663 -0.906251 12.7113 
3.8862 -0.670762 12.4069 3.72759 -0.250205 12.2839 4.15248 -0.277096 12.6476 
4.15248 -0.277096 12.6476 4.12921 0.163099 12.6798 4.56251 0.0335732 12.9986 
3.89871 1.53504 12.914 3.45806 1.78638 12.7038 3.99396 1.88928 13.1326 
3.42142 2.33639 12.9837 3.02486 2.56044 12.8695 3.31146 2.83381 13.2127 
2.81954 2.91991 12.9988 2.32126 3.14758 12.9058 2.73711 3.34764 13.2579 
0.773 3.91229 13.0811 0.378858 3.84549 12.9706 0.485109 4.23052 13.3285 
0.378858 3.84549 12.9706 -0.114668 3.8646 12.9736 0.157338 4.24087 13.3189 
-0.572171 3.96003 13.0985 -0.854736 3.77432 12.9657 -0.933128 4.19028 13.3455 
-3.57451 2.07079 12.9382 -3.55367 1.60757 12.6889 -3.9102 1.7705 13.0211 
-3.55367 1.60757 12.6889 -3.67194 1.2626 12.6255 -4.09308 1.38533 12.9912 
-4.19978 0.647969 12.842 -4.11338 0.313979 12.695 -4.53524 0.378342 13.0333 
-4.11338 0.313979 12.695 -4.14793 -0.0766924 12.6626 -4.56821 -0.0557168 12.9923 
-4.14793 -0.0766924 12.6626 -4.14639 -0.482899 12.6287 -4.58828 -0.458933 12.9701 
-4.14639 -0.482899 12.6287 -4.08793 -0.990833 12.5869 -4.54062 -0.958873 12.9303 
-3.32287 -2.96068 12.5326 -2.86124 -3.25179 12.3957 -3.31514 -3.43476 12.7214 
-2.55436 -3.6854 12.4688 -2.1636 -3.81141 12.3681 -2.36426 -4.21645 12.6693 
-2.1636 -3.81141 12.3681 -1.80723 -4.00444 12.3535 -1.98588 -4.41106 12.6482 
-1.27824 -4.35845 12.4304 -0.850486 -4.2456 12.2728 -1.03001 -4.73846 12.6184 
-0.850486 -4.2456 12.2728 -0.384228 -4.40704 12.3257 -0.714109 -4.795 12.6101 
0.361577 -4.5308 12.4117 0.756832 -4.34705 12.325 0.791655 -4.63523 12.5182 
0.756832 -4.34705 12.325 1.25575 -4.22014 12.3327 1.3258 -4.49443 12.5202 
1.25575 -4.22014 12.3327 1.7179 -4.0462 12.3502 1.90115 -4.47609 12.659 
1.7179 -4.0462 12.3502 2.08107 -3.85147 12.3593 2.29359 -4.26262 12.6688 
2.08107 -3.85147 12.3593 2.41734 -3.64334 12.3819 2.6644 -4.01314 12.6815 
2.41734 -3.64334 12.3819 2.71294 -3.2495 12.3163 2.96945 -3.55289 12.5937 
3.19773 -3.14066 12.5358 3.24859 -2.63117 12.3527 3.60813 -3.08461 12.7433 
3.24859 -2.63117 12.3527 3.51762 -2.23511 12.3952 3.97473 -2.51367 12.7821 
4.00784 -1.81322 12.6378 3.85743 -1.42579 12.4563 4.38214 -1.59888 12.8678 
3.85743 -1.42579 12.4563 3.93654 -1.14149 12.4813 4.44335 -1.28682 12.8788 
4.28006 -0.596204 12.7341 4.15248 -0.277096 12.6476 4.61201 -0.303611 12.999 
4.5276 0.377621 13.0287 4.16458 0.626195 12.8087 4.58712 0.705369 13.1376 
4.16458 0.626195 12.8087 4.06419 1.09229 12.8661 4.47449 1.13949 13.1756 
4.06419 1.09229 12.8661 3.89871 1.53504 12.914 4.30682 1.56851 13.2073 
3.84553 2.14496 13.1564 3.42142 2.33639 12.9837 3.65649 2.62579 13.2838 
3.42142 2.33639 12.9837 3.31146 2.83381 13.2127 3.65649 2.62579 13.2838 
3.31146 2.83381 13.2127 2.81954 2.91991 12.9988 3.10159 3.21853 13.3407 
2.44593 3.51855 13.2517 1.84548 3.55414 13.0421 2.04008 3.89783 13.3775 
1.84548 3.55414 13.0421 1.39168 3.74667 13.0647 1.52284 4.12233 13.407 
1.39168 3.74667 13.0647 1.08919 3.85791 13.0902 1.18837 4.22211 13.4154 
1.08919 3.85791 13.0902 0.773 3.91229 13.0811 0.859948 4.30328 13.4266 
-0.267426 4.2577 13.3359 -0.572171 3.96003 13.0985 -0.627434 4.33245 13.424 
-0.933128 4.19028 13.3455 -1.27316 3.77635 13.0596 -1.39489 4.1755 13.4196 
-1.27316 3.77635 13.0596 -1.66248 3.6463 13.0593 -1.83479 4.00873 13.4017 
-1.66248 3.6463 13.0593 -1.95001 3.51691 13.053 -2.30949 3.77522 13.381 
-1.95001 3.51691 13.053 -2.2186 3.36036 13.0344 -2.30949 3.77522 13.381 
-2.2186 3.36036 13.0344 -2.49914 3.19885 13.0383 -2.73377 3.49988 13.3585 
-2.49914 3.19885 13.0383 -2.75509 2.99794 13.0199 -3.00166 3.2932 13.3404 
-2.75509 2.99794 13.0199 -3.04449 2.71937 12.9884 -3.34547 2.99349 13.3241 
-3.04449 2.71937 12.9884 -3.31399 2.40688 12.9574 -3.64356 2.64554 13.2893 
-3.31399 2.40688 12.9574 -3.57451 2.07079 12.9382 -3.90287 2.3084 13.2676 
-3.57451 2.07079 12.9382 -3.9102 1.7705 13.0211 -4.09719 1.98291 13.2391 
-3.9102 1.7705 13.0211 -4.09308 1.38533 12.9912 -4.2994 1.5633 13.1989 
-4.09308 1.38533 12.9912 -4.0799 0.960848 12.8382 -4.49664 1.04532 13.1633 
-4.0799 0.960848 12.8382 -4.19978 0.647969 12.842 -4.58594 0.70896 13.1389 
-4.4703 -1.31153 12.8996 -4.10044 -1.50633 12.6532 -4.50928 -1.6563 12.9582 
-4.10044 -1.50633 12.6532 -3.96413 -1.90341 12.6241 -4.34903 -2.09093 12.9196 
-3.96413 -1.90341 12.6241 -3.79125 -2.27844 12.5975 -4.1556 -2.50197 12.8871 
-3.79125 -2.27844 12.5975 -3.58005 -2.63544 12.5687 -3.93723 -2.88022 12.861 
-3.58005 -2.63544 12.5687 -3.32287 -2.96068 12.5326 -3.65664 -3.26152 12.83 
-3.0841 -3.66859 12.7057 -2.55436 -3.6854 12.4688 -2.78374 -4.09402 12.7649 
-2.55436 -3.6854 12.4688 -2.36426 -4.21645 12.6693 -2.78374 -4.09402 12.7649 
-1.98588 -4.41106 12.6482 -1.58577 -4.26856 12.451 -1.55184 -4.73569 12.7105 
-1.58577 -4.26856 12.451 -1.27824 -4.35845 12.4304 -1.55184 -4.73569 12.7105 
-0.319697 -4.85301 12.6144 0.0476027 -4.56011 12.4207 -0.025338 -4.97912 12.6807 
0.0476027 -4.56011 12.4207 0.361577 -4.5308 12.4117 0.498283 -4.9547 12.6823 
0.361577 -4.5308 12.4117 0.791655 -4.63523 12.5182 0.498283 -4.9547 12.6823 
0.791655 -4.63523 12.5182 1.3258 -4.49443 12.5202 1.06523 -4.86735 12.6964 
2.6644 -4.01314 12.6815 2.96945 -3.55289 12.5937 3.15729 -3.78523 12.7858 
2.96945 -3.55289 12.5937 3.19773 -3.14066 12.5358 3.4992 -3.43508 12.8127 
3.97473 -2.51367 12.7821 3.88691 -2.10085 12.6174 4.25411 -2.29755 12.9022 
3.88691 -2.10085 12.6174 4.00784 -1.81322 12.6378 4.3878 -1.98548 12.9259 
4.44335 -1.28682 12.8788 4.24663 -0.906251 12.7113 4.69508 -0.807169 13.0335 
4.24663 -0.906251 12.7113 4.28006 -0.596204 12.7341 4.69508 -0.807169 13.0335 
4.61201 -0.303611 12.999 4.56251 0.0335732 12.9986 5.07815 -0.110958 13.3343 
4.56251 0.0335732 12.9986 4.5276 0.377621 13.0287 5.01926 0.439272 13.3757 
4.5276 0.377621 13.0287 4.58712 0.705369 13.1376 5.01926 0.439272 13.3757 
4.90705 0.979532 13.4182 5.01926 0.439272 13.3757 4.58712 0.705369 13.1376 
4.47449 1.13949 13.1756 4.75521 1.44994 13.457 4.90705 0.979532 13.4182 
4.75521 1.44994 13.457 4.47449 1.13949 13.1756 4.30682 1.56851 13.2073 
3.84553 2.14496 13.1564 4.2344 2.48133 13.5423 4.52382 1.94856 13.4853 
3.84553 2.14496 13.1564 3.65649 2.62579 13.2838 4.2344 2.48133 13.5423 
3.65649 2.62579 13.2838 3.31146 2.83381 13.2127 3.6082 3.23946 13.5986 
3.27718 3.54524 13.6244 3.6082 3.23946 13.5986 3.10159 3.21853 13.3407 
3.27718 3.54524 13.6244 3.10159 3.21853 13.3407 2.73711 3.34764 13.2579 
2.73711 3.34764 13.2579 2.98466 3.76735 13.6393 3.27718 3.54524 13.6244 
2.44593 3.51855 13.2517 2.66658 3.97454 13.6512 2.98466 3.76735 13.6393 
2.04008 3.89783 13.3775 2.19707 4.22981 13.6697 2.66658 3.97454 13.6512 
2.04008 3.89783 13.3775 1.52284 4.12233 13.407 1.69894 4.43524 13.6862 
1.52284 4.12233 13.407 1.18837 4.22211 13.4154 1.25959 4.58021 13.7045 
1.18837 4.22211 13.4154 0.859948 4.30328 13.4266 1.25959 4.58021 13.7045 
0.676179 4.69785 13.7158 1.25959 4.58021 13.7045 0.859948 4.30328 13.4266 
0.676179 4.69785 13.7158 0.859948 4.30328 13.4266 0.485109 4.23052 13.3285 
0.676179 4.69785 13.7158 0.485109 4.23052 13.3285 0.157338 4.24087 13.3189 
-0.267426 4.2577 13.3359 -0.464176 4.72019 13.7167 0.109471 4.74281 13.7225 
-0.627434 4.33245 13.424 -0.933128 4.19028 13.3455 -1.11133 4.60578 13.6985 
-0.933128 4.19028 13.3455 -1.39489 4.1755 13.4196 -1.11133 4.60578 13.6985 
-2.07712 4.29652 13.6836 -1.68421 4.45237 13.6954 -1.83479 4.00873 13.4017 
-2.07712 4.29652 13.6836 -1.83479 4.00873 13.4017 -2.30949 3.77522 13.381 
-2.30949 3.77522 13.381 -2.58313 4.04084 13.6647 -2.07712 4.29652 13.6836 
-2.73377 3.49988 13.3585 -2.99251 3.76182 13.639 -2.58313 4.04084 13.6647 
-3.00166 3.2932 13.3404 -3.37643 3.46353 13.6197 -2.99251 3.76182 13.639 
-3.00166 3.2932 13.3404 -3.34547 2.99349 13.3241 -3.37643 3.46353 13.6197 
-3.34547 2.99349 13.3241 -3.64356 2.64554 13.2893 -3.7286 3.09899 13.5811 
-4.2912 2.38858 13.5334 -4.03289 2.75998 13.5636 -3.90287 2.3084 13.2676 
-4.2912 2.38858 13.5334 -3.90287 2.3084 13.2676 -4.09719 1.98291 13.2391 
-4.09719 1.98291 13.2391 -4.56993 1.89399 13.4933 -4.2912 2.38858 13.5334 
-4.56993 1.89399 13.4933 -4.09719 1.98291 13.2391 -4.2994 1.5633 13.1989 
-4.2994 1.5633 13.1989 -4.75859 1.4412 13.4563 -4.56993 1.89399 13.4933 
-4.49664 1.04532 13.1633 -4.90754 0.983492 13.4202 -4.75859 1.4412 13.4563 
-4.49664 1.04532 13.1633 -4.58594 0.70896 13.1389 -4.90754 0.983492 13.4202 
-4.58594 0.70896 13.1389 -4.53524 0.378342 13.0333 -5.00644 0.482855 13.3752 
-4.53524 0.378342 13.0333 -4.56821 -0.0557168 12.9923 -5.07011 0.028659 13.3457 
-5.0821 -0.418289 13.3114 -5.07011 0.028659 13.3457 -4.58828 -0.458933 12.9701 
-4.58828 -0.458933 12.9701 -5.04388 -0.869036 13.2686 -5.0821 -0.418289 13.3114 
-4.54062 -0.958873 12.9303 -4.96602 -1.41691 13.2322 -5.04388 -0.869036 13.2686 
-4.50928 -1.6563 12.9582 -4.34903 -2.09093 12.9196 -4.78335 -2.05004 13.1822 
-4.34903 -2.09093 12.9196 -4.1556 -2.50197 12.8871 -4.52524 -2.64066 13.1371 
-4.2465 -3.1216 13.0988 -4.52524 -2.64066 13.1371 -4.1556 -2.50197 12.8871 
-4.2465 -3.1216 13.0988 -3.93723 -2.88022 12.861 -3.65664 -3.26152 12.83 
-3.31514 -3.43476 12.7214 -3.53525 -3.98262 13.0355 -3.90401 -3.58622 13.067 
-3.0841 -3.66859 12.7057 -2.78374 -4.09402 12.7649 -3.10336 -4.34282 13.0017 
-2.78374 -4.09402 12.7649 -2.36426 -4.21645 12.6693 -2.72802 -4.60312 12.9808 
-2.21625 -4.87636 12.9503 -2.72802 -4.60312 12.9808 -2.36426 -4.21645 12.6693 
-2.21625 -4.87636 12.9503 -1.98588 -4.41106 12.6482 -1.55184 -4.73569 12.7105 
-1.55184 -4.73569 12.7105 -1.70456 -5.10353 12.9422 -2.21625 -4.87636 12.9503 
-1.55184 -4.73569 12.7105 -1.23366 -5.24452 12.93 -1.70456 -5.10353 12.9422 
-0.714109 -4.795 12.6101 -0.801506 -5.32594 12.9207 -1.23366 -5.24452 12.93 
-0.714109 -4.795 12.6101 -0.319697 -4.85301 12.6144 -0.380146 -5.43142 12.9487 
-0.319697 -4.85301 12.6144 -0.025338 -4.97912 12.6807 -0.380146 -5.43142 12.9487 
-0.025338 -4.97912 12.6807 0.498283 -4.9547 12.6823 0.171139 -5.42241 12.9353 
0.683954 -5.34734 12.922 0.171139 -5.42241 12.9353 0.498283 -4.9547 12.6823 
0.498283 -4.9547 12.6823 1.07158 -5.27497 12.9241 0.683954 -5.34734 12.922 
1.07158 -5.27497 12.9241 0.498283 -4.9547 12.6823 1.06523 -4.86735 12.6964 
1.06523 -4.86735 12.6964 1.47545 -5.16736 12.9305 1.07158 -5.27497 12.9241 
1.50995 -4.74249 12.707 1.98794 -5.00059 12.954 1.47545 -5.16736 12.9305 
1.90115 -4.47609 12.659 2.29359 -4.26262 12.6688 2.48846 -4.7384 12.965 
2.29359 -4.26262 12.6688 2.6644 -4.01314 12.6815 2.89046 -4.49869 12.9905 
3.33206 -4.16796 13.0205 2.89046 -4.49869 12.9905 2.6644 -4.01314 12.6815 
3.4992 -3.43508 12.8127 3.99799 -3.45224 13.0681 3.7314 -3.84694 13.0779 
3.80542 -2.78841 12.7604 4.3071 -3.03027 13.1098 3.99799 -3.45224 13.0681 
3.80542 -2.78841 12.7604 3.97473 -2.51367 12.7821 4.3071 -3.03027 13.1098 
3.97473 -2.51367 12.7821 4.25411 -2.29755 12.9022 4.56699 -2.57144 13.1458 
4.25411 -2.29755 12.9022 4.3878 -1.98548 12.9259 4.56699 -2.57144 13.1458 
4.8113 -1.94093 13.184 4.56699 -2.57144 13.1458 4.3878 -1.98548 12.9259 
4.8113 -1.94093 13.184 4.38214 -1.59888 12.8678 4.44335 -1.28682 12.8788 
4.44335 -1.28682 12.8788 4.95198 -1.45653 13.2282 4.8113 -1.94093 13.184 
4.69508 -0.807169 13.0335 5.06311 -0.65541 13.2857 5.01032 -1.10591 13.2489 
4.61201 -0.303611 12.999 5.07815 -0.110958 13.3343 5.06311 -0.65541 13.2857 
5.06311 -0.65541 13.2857 4.69508 -0.807169 13.0335 4.61201 -0.303611 12.999 
5.01032 -1.10591 13.2489 4.44335 -1.28682 12.8788 4.69508 -0.807169 13.0335 
4.44335 -1.28682 12.8788 5.01032 -1.10591 13.2489 4.95198 -1.45653 13.2282 
4.3878 -1.98548 12.9259 4.38214 -1.59888 12.8678 4.8113 -1.94093 13.184 
4.56699 -2.57144 13.1458 4.3071 -3.03027 13.1098 3.97473 -2.51367 12.7821 
3.99799 -3.45224 13.0681 3.60813 -3.08461 12.7433 3.80542 -2.78841 12.7604 
3.99799 -3.45224 13.0681 3.4992 -3.43508 12.8127 3.60813 -3.08461 12.7433 
3.7314 -3.84694 13.0779 3.15729 -3.78523 12.7858 3.4992 -3.43508 12.8127 
3.15729 -3.78523 12.7858 3.7314 -3.84694 13.0779 3.33206 -4.16796 13.0205 
2.6644 -4.01314 12.6815 3.15729 -3.78523 12.7858 3.33206 -4.16796 13.0205 
2.89046 -4.49869 12.9905 2.48846 -4.7384 12.965 2.29359 -4.26262 12.6688 
2.48846 -4.7384 12.965 1.98794 -5.00059 12.954 1.90115 -4.47609 12.659 
1.98794 -5.00059 12.954 1.50995 -4.74249 12.707 1.90115 -4.47609 12.659 
1.47545 -5.16736 12.9305 1.06523 -4.86735 12.6964 1.50995 -4.74249 12.707 
0.171139 -5.42241 12.9353 -0.380146 -5.43142 12.9487 -0.025338 -4.97912 12.6807 
-0.380146 -5.43142 12.9487 -0.801506 -5.32594 12.9207 -0.714109 -4.795 12.6101 
-1.23366 -5.24452 12.93 -1.03001 -4.73846 12.6184 -0.714109 -4.795 12.6101 
-1.23366 -5.24452 12.93 -1.55184 -4.73569 12.7105 -1.03001 -4.73846 12.6184 
-2.36426 -4.21645 12.6693 -1.98588 -4.41106 12.6482 -2.21625 -4.87636 12.9503 
-2.72802 -4.60312 12.9808 -3.10336 -4.34282 13.0017 -2.78374 -4.09402 12.7649 
-3.10336 -4.34282 13.0017 -3.53525 -3.98262 13.0355 -3.0841 -3.66859 12.7057 
-3.53525 -3.98262 13.0355 -3.31514 -3.43476 12.7214 -3.0841 -3.66859 12.7057 
-3.90401 -3.58622 13.067 -3.65664 -3.26152 12.83 -3.31514 -3.43476 12.7214 
-3.65664 -3.26152 12.83 -3.90401 -3.58622 13.067 -4.2465 -3.1216 13.0988 
-4.1556 -2.50197 12.8871 -3.93723 -2.88022 12.861 -4.2465 -3.1216 13.0988 
-4.52524 -2.64066 13.1371 -4.78335 -2.05004 13.1822 -4.34903 -2.09093 12.9196 
-4.78335 -2.05004 13.1822 -4.96602 -1.41691 13.2322 -4.50928 -1.6563 12.9582 
-4.96602 -1.41691 13.2322 -4.4703 -1.31153 12.8996 -4.50928 -1.6563 12.9582 
-4.96602 -1.41691 13.2322 -4.54062 -0.958873 12.9303 -4.4703 -1.31153 12.8996 
-5.04388 -0.869036 13.2686 -4.58828 -0.458933 12.9701 -4.54062 -0.958873 12.9303 
-4.56821 -0.0557168 12.9923 -4.58828 -0.458933 12.9701 -5.07011 0.028659 13.3457 
-5.07011 0.028659 13.3457 -5.00644 0.482855 13.3752 -4.53524 0.378342 13.0333 
-5.00644 0.482855 13.3752 -4.90754 0.983492 13.4202 -4.58594 0.70896 13.1389 
-4.75859 1.4412 13.4563 -4.2994 1.5633 13.1989 -4.49664 1.04532 13.1633 
-3.64356 2.64554 13.2893 -3.90287 2.3084 13.2676 -4.03289 2.75998 13.5636 
-4.03289 2.75998 13.5636 -3.7286 3.09899 13.5811 -3.64356 2.64554 13.2893 
-3.7286 3.09899 13.5811 -3.37643 3.46353 13.6197 -3.34547 2.99349 13.3241 
-2.99251 3.76182 13.639 -2.73377 3.49988 13.3585 -3.00166 3.2932 13.3404 
-2.58313 4.04084 13.6647 -2.30949 3.77522 13.381 -2.73377 3.49988 13.3585 
-1.39489 4.1755 13.4196 -1.83479 4.00873 13.4017 -1.68421 4.45237 13.6954 
-1.68421 4.45237 13.6954 -1.11133 4.60578 13.6985 -1.39489 4.1755 13.4196 
-1.11133 4.60578 13.6985 -0.464176 4.72019 13.7167 -0.627434 4.33245 13.424 
-0.464176 4.72019 13.7167 -0.267426 4.2577 13.3359 -0.627434 4.33245 13.424 
0.109471 4.74281 13.7225 0.157338 4.24087 13.3189 -0.267426 4.2577 13.3359 
0.157338 4.24087 13.3189 0.109471 4.74281 13.7225 0.676179 4.69785 13.7158 
1.25959 4.58021 13.7045 1.69894 4.43524 13.6862 1.52284 4.12233 13.407 
1.69894 4.43524 13.6862 2.19707 4.22981 13.6697 2.04008 3.89783 13.3775 
2.66658 3.97454 13.6512 2.44593 3.51855 13.2517 2.04008 3.89783 13.3775 
2.98466 3.76735 13.6393 2.73711 3.34764 13.2579 2.44593 3.51855 13.2517 
3.31146 2.83381 13.2127 3.10159 3.21853 13.3407 3.6082 3.23946 13.5986 
3.6082 3.23946 13.5986 3.90776 2.89454 13.565 3.65649 2.62579 13.2838 
3.90776 2.89454 13.565 4.2344 2.48133 13.5423 3.65649 2.62579 13.2838 
4.52382 1.94856 13.4853 3.99396 1.88928 13.1326 3.84553 2.14496 13.1564 
4.52382 1.94856 13.4853 4.30682 1.56851 13.2073 3.99396 1.88928 13.1326 
4.30682 1.56851 13.2073 4.52382 1.94856 13.4853 4.75521 1.44994 13.457 
4.58712 0.705369 13.1376 4.47449 1.13949 13.1756 4.90705 0.979532 13.4182 
5.01926 0.439272 13.3757 5.07815 -0.110958 13.3343 4.56251 0.0335732 12.9986 
4.61201 -0.303611 12.999 4.69508 -0.807169 13.0335 4.28006 -0.596204 12.7341 
4.38214 -1.59888 12.8678 4.3878 -1.98548 12.9259 4.00784 -1.81322 12.6378 
4.3878 -1.98548 12.9259 4.25411 -2.29755 12.9022 3.88691 -2.10085 12.6174 
3.60813 -3.08461 12.7433 3.4992 -3.43508 12.8127 3.19773 -3.14066 12.5358 
3.4992 -3.43508 12.8127 3.15729 -3.78523 12.7858 2.96945 -3.55289 12.5937 
1.90115 -4.47609 12.659 1.50995 -4.74249 12.707 1.3258 -4.49443 12.5202 
1.50995 -4.74249 12.707 1.06523 -4.86735 12.6964 1.3258 -4.49443 12.5202 
1.06523 -4.86735 12.6964 0.498283 -4.9547 12.6823 0.791655 -4.63523 12.5182 
0.498283 -4.9547 12.6823 -0.025338 -4.97912 12.6807 0.0476027 -4.56011 12.4207 
-1.03001 -4.73846 12.6184 -1.55184 -4.73569 12.7105 -1.27824 -4.35845 12.4304 
-3.31514 -3.43476 12.7214 -3.65664 -3.26152 12.83 -3.32287 -2.96068 12.5326 
-3.65664 -3.26152 12.83 -3.93723 -2.88022 12.861 -3.58005 -2.63544 12.5687 
-3.93723 -2.88022 12.861 -4.1556 -2.50197 12.8871 -3.79125 -2.27844 12.5975 
-4.1556 -2.50197 12.8871 -4.34903 -2.09093 12.9196 -3.96413 -1.90341 12.6241 
-4.34903 -2.09093 12.9196 -4.50928 -1.6563 12.9582 -4.10044 -1.50633 12.6532 
-4.53524 0.378342 13.0333 -4.58594 0.70896 13.1389 -4.19978 0.647969 12.842 
-4.58594 0.70896 13.1389 -4.49664 1.04532 13.1633 -4.0799 0.960848 12.8382 
-4.49664 1.04532 13.1633 -4.2994 1.5633 13.1989 -4.09308 1.38533 12.9912 
-4.2994 1.5633 13.1989 -4.09719 1.98291 13.2391 -3.9102 1.7705 13.0211 
-4.09719 1.98291 13.2391 -3.90287 2.3084 13.2676 -3.57451 2.07079 12.9382 
-3.90287 2.3084 13.2676 -3.64356 2.64554 13.2893 -3.31399 2.40688 12.9574 
-3.64356 2.64554 13.2893 -3.34547 2.99349 13.3241 -3.04449 2.71937 12.9884 
-3.34547 2.99349 13.3241 -3.00166 3.2932 13.3404 -2.75509 2.99794 13.0199 
-3.00166 3.2932 13.3404 -2.73377 3.49988 13.3585 -2.49914 3.19885 13.0383 
-2.73377 3.49988 13.3585 -2.30949 3.77522 13.381 -2.2186 3.36036 13.0344 
-2.30949 3.77522 13.381 -1.83479 4.00873 13.4017 -1.66248 3.6463 13.0593 
-1.83479 4.00873 13.4017 -1.39489 4.1755 13.4196 -1.27316 3.77635 13.0596 
-0.933128 4.19028 13.3455 -0.627434 4.33245 13.424 -0.572171 3.96003 13.0985 
0.485109 4.23052 13.3285 0.859948 4.30328 13.4266 0.773 3.91229 13.0811 
0.859948 4.30328 13.4266 1.18837 4.22211 13.4154 1.08919 3.85791 13.0902 
1.18837 4.22211 13.4154 1.52284 4.12233 13.407 1.39168 3.74667 13.0647 
1.52284 4.12233 13.407 2.04008 3.89783 13.3775 1.84548 3.55414 13.0421 
2.73711 3.34764 13.2579 3.10159 3.21853 13.3407 2.81954 2.91991 12.9988 
3.99396 1.88928 13.1326 4.30682 1.56851 13.2073 3.89871 1.53504 12.914 
4.30682 1.56851 13.2073 4.47449 1.13949 13.1756 4.06419 1.09229 12.8661 
4.47449 1.13949 13.1756 4.58712 0.705369 13.1376 4.16458 0.626195 12.8087 
4.24663 -0.906251 12.7113 4.44335 -1.28682 12.8788 3.93654 -1.14149 12.4813 
4.44335 -1.28682 12.8788 4.38214 -1.59888 12.8678 3.85743 -1.42579 12.4563 
3.88691 -2.10085 12.6174 3.97473 -2.51367 12.7821 3.51762 -2.23511 12.3952 
3.97473 -2.51367 12.7821 3.80542 -2.78841 12.7604 3.24859 -2.63117 12.3527 
3.80542 -2.78841 12.7604 3.60813 -3.08461 12.7433 3.24859 -2.63117 12.3527 
3.19773 -3.14066 12.5358 2.96945 -3.55289 12.5937 2.71294 -3.2495 12.3163 
2.96945 -3.55289 12.5937 2.6644 -4.01314 12.6815 2.41734 -3.64334 12.3819 
2.6644 -4.01314 12.6815 2.29359 -4.26262 12.6688 2.08107 -3.85147 12.3593 
2.29359 -4.26262 12.6688 1.90115 -4.47609 12.659 1.7179 -4.0462 12.3502 
1.90115 -4.47609 12.659 1.3258 -4.49443 12.5202 1.25575 -4.22014 12.3327 
1.3258 -4.49443 12.5202 0.791655 -4.63523 12.5182 0.756832 -4.34705 12.325 
0.0476027 -4.56011 12.4207 -0.319697 -4.85301 12.6144 -0.384228 -4.40704 12.3257 
-0.319697 -4.85301 12.6144 -0.714109 -4.795 12.6101 -0.384228 -4.40704 12.3257 
-0.714109 -4.795 12.6101 -1.03001 -4.73846 12.6184 -0.850486 -4.2456 12.2728 
-1.58577 -4.26856 12.451 -1.98588 -4.41106 12.6482 -1.80723 -4.00444 12.3535 
-1.98588 -4.41106 12.6482 -2.36426 -4.21645 12.6693 -2.1636 -3.81141 12.3681 
-2.55436 -3.6854 12.4688 -3.0841 -3.66859 12.7057 -2.86124 -3.25179 12.3957 
-3.0841 -3.66859 12.7057 -3.31514 -3.43476 12.7214 -2.86124 -3.25179 12.3957 
-4.10044 -1.50633 12.6532 -4.4703 -1.31153 12.8996 -4.08793 -0.990833 12.5869 
-4.4703 -1.31153 12.8996 -4.54062 -0.958873 12.9303 -4.08793 -0.990833 12.5869 
-4.54062 -0.958873 12.9303 -4.58828 -0.458933 12.9701 -4.14639 -0.482899 12.6287 
-4.58828 -0.458933 12.9701 -4.56821 -0.0557168 12.9923 -4.14793 -0.0766924 12.6626 
-4.56821 -0.0557168 12.9923 -4.53524 0.378342 13.0333 -4.11338 0.313979 12.695 
-4.0799 0.960848 12.8382 -4.09308 1.38533 12.9912 -3.67194 1.2626 12.6255 
-4.09308 1.38533 12.9912 -3.9102 1.7705 13.0211 -3.55367 1.60757 12.6889 
-1.27316 3.77635 13.0596 -0.933128 4.19028 13.3455 -0.854736 3.77432 12.9657 
-0.572171 3.96003 13.0985 -0.267426 4.2577 13.3359 -0.114668 3.8646 12.9736 
-0.267426 4.2577 13.3359 0.157338 4.24087 13.3189 -0.114668 3.8646 12.9736 
0.157338 4.24087 13.3189 0.485109 4.23052 13.3285 0.378858 3.84549 12.9706 
1.84548 3.55414 13.0421 2.44593 3.51855 13.2517 2.32126 3.14758 12.9058 
2.44593 3.51855 13.2517 2.73711 3.34764 13.2579 2.32126 3.14758 12.9058 
2.81954 2.91991 12.9988 3.31146 2.83381 13.2127 3.02486 2.56044 12.8695 
3.42142 2.33639 12.9837 3.84553 2.14496 13.1564 3.45806 1.78638 12.7038 
3.84553 2.14496 13.1564 3.99396 1.88928 13.1326 3.45806 1.78638 12.7038 
4.16458 0.626195 12.8087 4.5276 0.377621 13.0287 4.12921 0.163099 12.6798 
4.5276 0.377621 13.0287 4.56251 0.0335732 12.9986 4.12921 0.163099 12.6798 
4.56251 0.0335732 12.9986 4.61201 -0.303611 12.999 4.15248 -0.277096 12.6476 
4.15248 -0.277096 12.6476 4.28006 -0.596204 12.7341 3.8862 -0.670762 12.4069 
4.28006 -0.596204 12.7341 4.24663 -0.906251 12.7113 3.8862 -0.670762 12.4069 
3.85743 -1.42579 12.4563 4.00784 -1.81322 12.6378 3.51988 -1.59627 12.2165 
4.00784 -1.81322 12.6378 3.88691 -2.10085 12.6174 3.39977 -1.85014 12.1889 
3.24859 -2.63117 12.3527 3.19773 -3.14066 12.5358 2.8087 -2.76417 12.1293 
2.71294 -3.2495 12.3163 2.41734 -3.64334 12.3819 2.18286 -3.304 12.0746 
2.41734 -3.64334 12.3819 2.08107 -3.85147 12.3593 1.96365 -3.4569 12.0701 
2.08107 -3.85147 12.3593 1.7179 -4.0462 12.3502 1.63121 -3.58945 12.0213 
1.7179 -4.0462 12.3502 1.25575 -4.22014 12.3327 1.43522 -3.86499 12.1438 
1.25575 -4.22014 12.3327 0.756832 -4.34705 12.325 0.981464 -4.01214 12.1291 
0.756832 -4.34705 12.325 0.361577 -4.5308 12.4117 0.500987 -4.03759 12.0739 
0.361577 -4.5308 12.4117 0.0476027 -4.56011 12.4207 0.0388086 -4.13862 12.1203 
0.0476027 -4.56011 12.4207 -0.384228 -4.40704 12.3257 0.0388086 -4.13862 12.1203 
-0.850486 -4.2456 12.2728 -1.27824 -4.35845 12.4304 -1.13226 -3.85976 12.0583 
-1.27824 -4.35845 12.4304 -1.58577 -4.26856 12.451 -1.48279 -3.7127 12.0559 
-1.58577 -4.26856 12.451 -1.80723 -4.00444 12.3535 -1.48279 -3.7127 12.0559 
-1.80723 -4.00444 12.3535 -2.1636 -3.81141 12.3681 -1.79636 -3.54722 12.0579 
-2.1636 -3.81141 12.3681 -2.55436 -3.6854 12.4688 -2.20835 -3.3004 12.0836 
-2.55436 -3.6854 12.4688 -2.86124 -3.25179 12.3957 -2.54521 -3.00326 12.0928 
-2.86124 -3.25179 12.3957 -3.32287 -2.96068 12.5326 -2.89911 -2.85033 12.2255 
-3.32287 -2.96068 12.5326 -3.58005 -2.63544 12.5687 -3.13575 -2.55594 12.2468 
-3.58005 -2.63544 12.5687 -3.79125 -2.27844 12.5975 -3.40034 -2.16703 12.2855 
-3.79125 -2.27844 12.5975 -3.96413 -1.90341 12.6241 -3.62147 -1.65363 12.3071 
-3.96413 -1.90341 12.6241 -4.10044 -1.50633 12.6532 -3.62147 -1.65363 12.3071 
-4.10044 -1.50633 12.6532 -4.08793 -0.990833 12.5869 -3.77563 -1.19631 12.3538 
-4.08793 -0.990833 12.5869 -4.14639 -0.482899 12.6287 -3.86197 -0.727925 12.3879 
-4.14639 -0.482899 12.6287 -4.14793 -0.0766924 12.6626 -3.7807 -0.259254 12.3318 
-4.14793 -0.0766924 12.6626 -4.11338 0.313979 12.695 -3.7487 0.208755 12.363 
-4.11338 0.313979 12.695 -4.19978 0.647969 12.842 -3.6807 0.656449 12.4145 
-4.19978 0.647969 12.842 -4.0799 0.960848 12.8382 -3.6807 0.656449 12.4145 
-4.0799 0.960848 12.8382 -3.67194 1.2626 12.6255 -3.66722 1.036 12.5295 
-3.55367 1.60757 12.6889 -3.57451 2.07079 12.9382 -3.20376 1.74482 12.4888 
-3.57451 2.07079 12.9382 -3.31399 2.40688 12.9574 -3.1388 2.03614 12.6101 
-3.31399 2.40688 12.9574 -3.04449 2.71937 12.9884 -2.74924 2.36016 12.5538 
-3.04449 2.71937 12.9884 -2.75509 2.99794 13.0199 -2.41603 2.64145 12.5564 
-2.75509 2.99794 13.0199 -2.49914 3.19885 13.0383 -2.18908 2.94994 12.6812 
-2.49914 3.19885 13.0383 -2.2186 3.36036 13.0344 -2.18908 2.94994 12.6812 
-2.2186 3.36036 13.0344 -1.95001 3.51691 13.053 -1.86442 3.14723 12.6976 
-1.95001 3.51691 13.053 -1.66248 3.6463 13.0593 -1.55544 3.16424 12.5875 
-1.66248 3.6463 13.0593 -1.27316 3.77635 13.0596 -1.2308 3.42781 12.7228 
-1.27316 3.77635 13.0596 -0.854736 3.77432 12.9657 -0.7667 3.42047 12.6048 
-0.854736 3.77432 12.9657 -0.572171 3.96003 13.0985 -0.427265 3.5983 12.7324 
-0.572171 3.96003 13.0985 -0.114668 3.8646 12.9736 -0.427265 3.5983 12.7324 
-0.114668 3.8646 12.9736 0.378858 3.84549 12.9706 0.335258 3.60786 12.7339 
0.378858 3.84549 12.9706 0.773 3.91229 13.0811 0.70656 3.55678 12.7298 
0.773 3.91229 13.0811 1.08919 3.85791 13.0902 1.03478 3.37793 12.6239 
1.08919 3.85791 13.0902 1.39168 3.74667 13.0647 1.03478 3.37793 12.6239 
1.39168 3.74667 13.0647 1.84548 3.55414 13.0421 1.43438 3.3482 12.7134 
1.84548 3.55414 13.0421 2.32126 3.14758 12.9058 1.86314 3.14244 12.6902 
2.32126 3.14758 12.9058 2.81954 2.91991 12.9988 2.48861 2.72132 12.6629 
2.81954 2.91991 12.9988 3.02486 2.56044 12.8695 2.79429 2.45032 12.6459 
3.02486 2.56044 12.8695 3.42142 2.33639 12.9837 3.08105 2.1126 12.6161 
3.45806 1.78638 12.7038 3.89871 1.53504 12.914 3.56315 1.30348 12.5513 
3.89871 1.53504 12.914 4.06419 1.09229 12.8661 3.56315 1.30348 12.5513 
4.06419 1.09229 12.8661 4.16458 0.626195 12.8087 3.81129 0.505535 12.4831 
4.16458 0.626195 12.8087 4.12921 0.163099 12.6798 3.81129 0.505535 12.4831 
4.12921 0.163099 12.6798 4.15248 -0.277096 12.6476 3.72759 -0.250205 12.2839 
3.8862 -0.670762 12.4069 3.93654 -1.14149 12.4813 3.53386 -1.13548 12.1349 
3.93654 -1.14149 12.4813 3.85743 -1.42579 12.4563 3.53386 -1.13548 12.1349 
3.39977 -1.85014 12.1889 3.51762 -2.23511 12.3952 3.11051 -2.10875 12.0452 
3.51762 -2.23511 12.3952 3.24859 -2.63117 12.3527 3.11051 -2.10875 12.0452 
2.8087 -2.76417 12.1293 2.71294 -3.2495 12.3163 2.45109 -2.92382 11.9893 
1.43522 -3.86499 12.1438 0.981464 -4.01214 12.1291 1.15153 -3.68023 11.9283 
0.500987 -4.03759 12.0739 0.0388086 -4.13862 12.1203 0.028769 -3.73549 11.8071 
0.0388086 -4.13862 12.1203 -0.425208 -4.11786 12.1258 -0.396417 -3.84539 11.9159 
-0.425208 -4.11786 12.1258 -0.850486 -4.2456 12.2728 -0.747366 -3.79151 11.9204 
-2.54521 -3.00326 12.0928 -2.89911 -2.85033 12.2255 -2.65137 -2.51532 11.8935 
-2.89911 -2.85033 12.2255 -3.13575 -2.55594 12.2468 -2.65137 -2.51532 11.8935 
-3.13575 -2.55594 12.2468 -3.40034 -2.16703 12.2855 -2.92977 -2.17205 11.9356 
-3.40034 -2.16703 12.2855 -3.62147 -1.65363 12.3071 -3.16326 -1.81051 11.9814 
-3.62147 -1.65363 12.3071 -3.77563 -1.19631 12.3538 -3.41973 -1.01396 12.016 
-3.77563 -1.19631 12.3538 -3.86197 -0.727925 12.3879 -3.41973 -1.01396 12.016 
-3.6807 0.656449 12.4145 -3.66722 1.036 12.5295 -3.2816 1.02465 12.1837 
-3.66722 1.036 12.5295 -3.67194 1.2626 12.6255 -3.2816 1.02465 12.1837 
-3.67194 1.2626 12.6255 -3.55367 1.60757 12.6889 -3.11625 1.3964 12.2192 
-3.20376 1.74482 12.4888 -3.1388 2.03614 12.6101 -2.83754 2.01515 12.3696 
-3.1388 2.03614 12.6101 -2.74924 2.36016 12.5538 -2.83754 2.01515 12.3696 
-2.41603 2.64145 12.5564 -2.18908 2.94994 12.6812 -1.94385 2.66852 12.2994 
-2.18908 2.94994 12.6812 -1.86442 3.14723 12.6976 -1.69294 2.85378 12.3436 
-1.55544 3.16424 12.5875 -1.2308 3.42781 12.7228 -1.11878 3.09203 12.3489 
-0.7667 3.42047 12.6048 -0.427265 3.5983 12.7324 -0.393158 3.20695 12.3118 
-0.427265 3.5983 12.7324 -0.048007 3.62093 12.7348 -0.0343354 3.2401 12.3289 
-0.048007 3.62093 12.7348 0.335258 3.60786 12.7339 0.302272 3.22373 12.3226 
0.335258 3.60786 12.7339 0.70656 3.55678 12.7298 0.711496 3.19639 12.3516 
1.03478 3.37793 12.6239 1.43438 3.3482 12.7134 1.33908 3.1286 12.4647 
1.43438 3.3482 12.7134 1.86314 3.14244 12.6902 1.72062 2.95093 12.4481 
2.20795 2.82359 12.5861 2.48861 2.72132 12.6629 2.17988 2.49812 12.2867 
2.48861 2.72132 12.6629 2.79429 2.45032 12.6459 2.43674 2.30282 12.2944 
2.79429 2.45032 12.6459 3.08105 2.1126 12.6161 2.80463 2.05829 12.374 
3.08105 2.1126 12.6161 3.45806 1.78638 12.7038 3.10389 1.64595 12.3452 
3.45806 1.78638 12.7038 3.56315 1.30348 12.5513 3.31932 1.22215 12.3075 
3.56315 1.30348 12.5513 3.69948 0.94897 12.5246 3.45525 0.888047 12.2884 
3.69948 0.94897 12.5246 3.81129 0.505535 12.4831 3.55723 0.495161 12.2528 
3.72759 -0.250205 12.2839 3.59868 -0.69789 12.1554 3.37594 -0.459048 11.938 
3.59868 -0.69789 12.1554 3.53386 -1.13548 12.1349 3.34109 -0.795236 11.9178 
3.53386 -1.13548 12.1349 3.51988 -1.59627 12.2165 3.14161 -1.49135 11.8606 
3.51988 -1.59627 12.2165 3.39977 -1.85014 12.1889 3.14161 -1.49135 11.8606 
3.39977 -1.85014 12.1889 3.11051 -2.10875 12.0452 2.91328 -1.94418 11.8215 
2.78602 -2.37561 11.9237 2.8087 -2.76417 12.1293 2.47102 -2.538 11.7805 
2.8087 -2.76417 12.1293 2.45109 -2.92382 11.9893 2.47102 -2.538 11.7805 
2.45109 -2.92382 11.9893 2.18286 -3.304 12.0746 2.15576 -2.82402 11.7502 
2.18286 -3.304 12.0746 1.96365 -3.4569 12.0701 1.77582 -2.94235 11.6215 
1.96365 -3.4569 12.0701 1.63121 -3.58945 12.0213 1.55123 -3.22818 11.7264 
1.63121 -3.58945 12.0213 1.15153 -3.68023 11.9283 1.20972 -3.24637 11.6091 
0.861201 -3.57777 11.7759 0.500987 -4.03759 12.0739 0.4535 -3.57245 11.6983 
0.028769 -3.73549 11.8071 -0.396417 -3.84539 11.9159 -0.357767 -3.45782 11.5917 
-0.396417 -3.84539 11.9159 -0.747366 -3.79151 11.9204 -0.676332 -3.40669 11.5949 
-0.747366 -3.79151 11.9204 -1.13226 -3.85976 12.0583 -1.0989 -3.41388 11.7034 
-1.13226 -3.85976 12.0583 -1.48279 -3.7127 12.0559 -1.0989 -3.41388 11.7034 
-1.48279 -3.7127 12.0559 -1.79636 -3.54722 12.0579 -1.493 -3.25914 11.7249 
-1.79636 -3.54722 12.0579 -2.20835 -3.3004 12.0836 -1.85606 -3.0333 11.7257 
-2.20835 -3.3004 12.0836 -2.54521 -3.00326 12.0928 -2.24157 -2.75521 11.7602 
-3.7807 -0.259254 12.3318 -3.7487 0.208755 12.363 -3.36128 0.193536 11.9906 
-3.7487 0.208755 12.363 -3.6807 0.656449 12.4145 -3.29029 0.590438 12.0269 
-3.11625 1.3964 12.2192 -3.20376 1.74482 12.4888 -2.78195 1.68775 12.0987 
-3.20376 1.74482 12.4888 -2.83754 2.01515 12.3696 -2.78195 1.68775 12.0987 
-2.83754 2.01515 12.3696 -2.74924 2.36016 12.5538 -2.33425 2.08209 12.0344 
-2.74924 2.36016 12.5538 -2.41603 2.64145 12.5564 -2.12269 2.39933 12.1567 
-2.41603 2.64145 12.5564 -1.94385 2.66852 12.2994 -2.12269 2.39933 12.1567 
-1.69294 2.85378 12.3436 -1.55544 3.16424 12.5875 -1.28832 2.7909 12.0884 
-1.11878 3.09203 12.3489 -0.7667 3.42047 12.6048 -0.698049 3.08393 12.2231 
1.03478 3.37793 12.6239 1.33908 3.1286 12.4647 1.05005 2.88565 12.1006 
1.33908 3.1286 12.4647 1.72062 2.95093 12.4481 1.35714 2.77422 12.1019 
1.72062 2.95093 12.4481 2.20795 2.82359 12.5861 1.77174 2.65551 12.1839 
2.43674 2.30282 12.2944 2.80463 2.05829 12.374 2.52578 1.83859 11.9903 
2.80463 2.05829 12.374 3.10389 1.64595 12.3452 2.71922 1.5661 11.9666 
3.10389 1.64595 12.3452 3.31932 1.22215 12.3075 2.88085 1.28613 11.9401 
3.31932 1.22215 12.3075 3.45525 0.888047 12.2884 3.05238 0.93009 11.9253 
3.45525 0.888047 12.2884 3.55723 0.495161 12.2528 3.18126 0.572131 11.9107 
3.55723 0.495161 12.2528 3.748 0.120058 12.3505 3.25708 0.183277 11.8875 
3.748 0.120058 12.3505 3.72759 -0.250205 12.2839 3.38897 -0.139581 11.9694 
3.38897 -0.139581 11.9694 3.37594 -0.459048 11.938 3.05912 -0.193473 11.6179 
3.37594 -0.459048 11.938 3.34109 -0.795236 11.9178 3.03569 -0.556188 11.5892 
3.34109 -0.795236 11.9178 3.26944 -1.11648 11.8926 2.97851 -0.847014 11.558 
3.26944 -1.11648 11.8926 3.14161 -1.49135 11.8606 2.99563 -1.19107 11.6433 
3.14161 -1.49135 11.8606 2.91328 -1.94418 11.8215 2.85788 -1.54083 11.6156 
2.91328 -1.94418 11.8215 2.78602 -2.37561 11.9237 2.36753 -2.0829 11.4407 
2.78602 -2.37561 11.9237 2.47102 -2.538 11.7805 2.36753 -2.0829 11.4407 
2.47102 -2.538 11.7805 2.15576 -2.82402 11.7502 1.92827 -2.5296 11.4072 
1.77582 -2.94235 11.6215 1.55123 -3.22818 11.7264 1.39067 -2.90073 11.3958 
1.20972 -3.24637 11.6091 0.861201 -3.57777 11.7759 0.844256 -3.08794 11.3527 
0.861201 -3.57777 11.7759 0.4535 -3.57245 11.6983 0.573846 -3.29625 11.477 
0.4535 -3.57245 11.6983 0.028769 -3.73549 11.8071 0.204883 -3.33679 11.4685 
-0.676332 -3.40669 11.5949 -1.0989 -3.41388 11.7034 -0.983732 -3.05885 11.3681 
-1.0989 -3.41388 11.7034 -1.493 -3.25914 11.7249 -1.37272 -3.03533 11.4975 
-1.493 -3.25914 11.7249 -1.85606 -3.0333 11.7257 -1.6408 -2.88677 11.5068 
-1.85606 -3.0333 11.7257 -2.24157 -2.75521 11.7602 -1.95375 -2.6672 11.5198 
-2.24157 -2.75521 11.7602 -2.65137 -2.51532 11.8935 -2.2415 -2.41511 11.5445 
-2.65137 -2.51532 11.8935 -2.92977 -2.17205 11.9356 -2.62793 -1.9388 11.5815 
-2.92977 -2.17205 11.9356 -3.16326 -1.81051 11.9814 -2.81969 -1.60402 11.6033 
-3.16326 -1.81051 11.9814 -3.30583 -1.40931 11.99 -2.97606 -1.24825 11.6388 
-3.30583 -1.40931 11.99 -3.41973 -1.01396 12.016 -3.06103 -0.963279 11.6606 
-3.41973 -1.01396 12.016 -3.47931 -0.521348 12.0395 -3.11811 -0.662759 11.6819 
-3.47931 -0.521348 12.0395 -3.3887 -0.140973 11.97 -3.15495 -0.282208 11.7137 
-3.3887 -0.140973 11.97 -3.36128 0.193536 11.9906 -2.98672 0.153272 11.5886 
-3.36128 0.193536 11.9906 -3.29029 0.590438 12.0269 -3.04713 0.603666 11.7787 
-3.29029 0.590438 12.0269 -3.2816 1.02465 12.1837 -3.04713 0.603666 11.7787 
-3.2816 1.02465 12.1837 -3.11625 1.3964 12.2192 -2.78793 1.26685 11.8361 
-3.11625 1.3964 12.2192 -2.78195 1.68775 12.0987 -2.59223 1.57691 11.8518 
-2.33425 2.08209 12.0344 -2.12269 2.39933 12.1567 -1.95348 2.14533 11.7989 
-2.12269 2.39933 12.1567 -1.94385 2.66852 12.2994 -1.77312 2.39664 11.925 
-1.94385 2.66852 12.2994 -1.69294 2.85378 12.3436 -1.45131 2.58281 11.9325 
-1.69294 2.85378 12.3436 -1.28832 2.7909 12.0884 -1.45131 2.58281 11.9325 
-1.11878 3.09203 12.3489 -0.698049 3.08393 12.2231 -0.849513 2.82159 11.9538 
-0.698049 3.08393 12.2231 -0.393158 3.20695 12.3118 -0.476989 2.78597 11.8206 
-0.393158 3.20695 12.3118 -0.0343354 3.2401 12.3289 -0.186581 2.83612 11.8437 
-0.0343354 3.2401 12.3289 0.302272 3.22373 12.3226 0.227364 2.82598 11.8316 
0.302272 3.22373 12.3226 0.711496 3.19639 12.3516 0.638381 2.75421 11.8116 
1.35714 2.77422 12.1019 1.77174 2.65551 12.1839 1.57796 2.38602 11.7896 
1.77174 2.65551 12.1839 2.17988 2.49812 12.2867 1.87149 2.16668 11.7604 
2.17988 2.49812 12.2867 2.43674 2.30282 12.2944 2.23273 2.00262 11.8793 
2.43674 2.30282 12.2944 2.52578 1.83859 11.9903 2.23273 2.00262 11.8793 
3.25708 0.183277 11.8875 3.38897 -0.139581 11.9694 3.05912 -0.193473 11.6179 
2.97851 -0.847014 11.558 2.99563 -1.19107 11.6433 2.67384 -1.05512 11.2737 
2.99563 -1.19107 11.6433 2.85788 -1.54083 11.6156 2.53907 -1.3637 11.2369 
1.92827 -2.5296 11.4072 1.77582 -2.94235 11.6215 1.52339 -2.52885 11.1545 
1.39067 -2.90073 11.3958 1.20972 -3.24637 11.6091 1.03431 -2.7747 11.1285 
0.844256 -3.08794 11.3527 0.573846 -3.29625 11.477 0.42093 -2.91772 11.0915 
0.573846 -3.29625 11.477 0.204883 -3.33679 11.4685 0.42093 -2.91772 11.0915 
0.204883 -3.33679 11.4685 -0.115102 -3.34376 11.4715 0.0422456 -2.9686 11.1095 
-0.115102 -3.34376 11.4715 -0.357767 -3.45782 11.5917 -0.270653 -2.95219 11.1098 
-0.357767 -3.45782 11.5917 -0.676332 -3.40669 11.5949 -0.560116 -2.90957 11.1127 
-0.983732 -3.05885 11.3681 -1.37272 -3.03533 11.4975 -1.30514 -2.67321 11.1571 
-1.37272 -3.03533 11.4975 -1.6408 -2.88677 11.5068 -1.30514 -2.67321 11.1571 
-1.6408 -2.88677 11.5068 -1.95375 -2.6672 11.5198 -1.59048 -2.50171 11.1708 
-1.95375 -2.6672 11.5198 -2.2415 -2.41511 11.5445 -1.99036 -2.1257 11.1633 
-2.2415 -2.41511 11.5445 -2.44837 -2.18677 11.5643 -2.2206 -1.8909 11.2004 
-2.44837 -2.18677 11.5643 -2.62793 -1.9388 11.5815 -2.2206 -1.8909 11.2004 
-2.62793 -1.9388 11.5815 -2.81969 -1.60402 11.6033 -2.43419 -1.61974 11.2494 
-2.81969 -1.60402 11.6033 -2.97606 -1.24825 11.6388 -2.64042 -1.09991 11.2515 
-2.97606 -1.24825 11.6388 -3.06103 -0.963279 11.6606 -2.7262 -0.785177 11.2704 
-3.06103 -0.963279 11.6606 -3.11811 -0.662759 11.6819 -2.7262 -0.785177 11.2704 
-3.11811 -0.662759 11.6819 -3.15495 -0.282208 11.7137 -2.79626 -0.436042 11.3146 
-2.98672 0.153272 11.5886 -3.04713 0.603666 11.7787 -2.82667 0.549991 11.5184 
-2.79837 0.957076 11.6771 -2.78793 1.26685 11.8361 -2.53634 1.26246 11.5753 
-2.78793 1.26685 11.8361 -2.59223 1.57691 11.8518 -2.53634 1.26246 11.5753 
-2.59223 1.57691 11.8518 -2.46385 1.89574 11.9866 -2.23201 1.5499 11.4886 
-2.46385 1.89574 11.9866 -2.33425 2.08209 12.0344 -2.07988 1.86246 11.6262 
-1.95348 2.14533 11.7989 -1.77312 2.39664 11.925 -1.57154 2.14343 11.5145 
-1.77312 2.39664 11.925 -1.45131 2.58281 11.9325 -1.2923 2.30446 11.5198 
-1.45131 2.58281 11.9325 -1.28832 2.7909 12.0884 -0.947421 2.45686 11.5353 
-1.28832 2.7909 12.0884 -0.849513 2.82159 11.9538 -0.803268 2.61046 11.6759 
0.638381 2.75421 11.8116 1.05005 2.88565 12.1006 0.914913 2.48527 11.5615 
1.05005 2.88565 12.1006 1.35714 2.77422 12.1019 1.21112 2.47044 11.6765 
1.87149 2.16668 11.7604 2.23273 2.00262 11.8793 2.05615 1.87978 11.6201 
2.23273 2.00262 11.8793 2.52578 1.83859 11.9903 2.3457 1.55623 11.5997 
2.52578 1.83859 11.9903 2.71922 1.5661 11.9666 2.3457 1.55623 11.5997 
2.71922 1.5661 11.9666 2.88085 1.28613 11.9401 2.45893 1.21002 11.4633 
2.88085 1.28613 11.9401 3.05238 0.93009 11.9253 2.60135 0.916418 11.4355 
3.05238 0.93009 11.9253 3.18126 0.572131 11.9107 2.79812 0.655148 11.5318 
3.18126 0.572131 11.9107 3.25708 0.183277 11.8875 2.85611 0.37337 11.494 
3.25708 0.183277 11.8875 3.05912 -0.193473 11.6179 2.77915 -0.0861923 11.3044 
3.05912 -0.193473 11.6179 3.03569 -0.556188 11.5892 2.69079 -0.445677 11.1855 
3.03569 -0.556188 11.5892 2.97851 -0.847014 11.558 2.63723 -0.747828 11.1587 
2.53907 -1.3637 11.2369 2.55145 -1.79603 11.4465 2.18668 -1.51344 10.9445 
2.55145 -1.79603 11.4465 2.36753 -2.0829 11.4407 2.1401 -1.80851 11.0752 
2.36753 -2.0829 11.4407 2.14987 -2.3147 11.4163 1.96847 -2.00812 11.0595 
2.14987 -2.3147 11.4163 1.92827 -2.5296 11.4072 1.65768 -2.14999 10.9219 
1.52339 -2.52885 11.1545 1.39067 -2.90073 11.3958 1.23708 -2.55892 11.0161 
1.03431 -2.7747 11.1285 0.844256 -3.08794 11.3527 0.68265 -2.7555 10.9826 
0.844256 -3.08794 11.3527 0.42093 -2.91772 11.0915 0.68265 -2.7555 10.9826 
-0.560116 -2.90957 11.1127 -0.983732 -3.05885 11.3681 -0.888208 -2.71315 11.0066 
-2.79626 -0.436042 11.3146 -2.92233 -0.185378 11.465 -2.60126 -0.151482 11.0822 
-2.92233 -0.185378 11.465 -2.98672 0.153272 11.5886 -2.5656 0.216959 11.0947 
-2.98672 0.153272 11.5886 -2.82667 0.549991 11.5184 -2.5656 0.216959 11.0947 
-2.82667 0.549991 11.5184 -2.79837 0.957076 11.6771 -2.46596 0.643333 11.1324 
-2.79837 0.957076 11.6771 -2.53634 1.26246 11.5753 -2.33224 0.975746 11.1585 
-2.23201 1.5499 11.4886 -2.07988 1.86246 11.6262 -1.82226 1.699 11.2286 
-2.07988 1.86246 11.6262 -1.95348 2.14533 11.7989 -1.60079 1.8716 11.2217 
-0.803268 2.61046 11.6759 -0.476989 2.78597 11.8206 -0.541318 2.38309 11.2816 
-0.476989 2.78597 11.8206 -0.186581 2.83612 11.8437 -0.296806 2.51341 11.4153 
-0.186581 2.83612 11.8437 0.227364 2.82598 11.8316 0.0190684 2.53271 11.4199 
0.227364 2.82598 11.8316 0.638381 2.75421 11.8116 0.542256 2.3628 11.2542 
0.914913 2.48527 11.5615 1.21112 2.47044 11.6765 1.05245 2.22151 11.2723 
1.21112 2.47044 11.6765 1.57796 2.38602 11.7896 1.2982 2.08601 11.2505 
1.57796 2.38602 11.7896 1.87149 2.16668 11.7604 1.54768 1.90897 11.2193 
1.87149 2.16668 11.7604 2.05615 1.87978 11.6201 1.79986 1.70644 11.216 
2.05615 1.87978 11.6201 2.3457 1.55623 11.5997 1.96204 1.52668 11.1957 
2.60135 0.916418 11.4355 2.79812 0.655148 11.5318 2.60822 0.507102 11.2431 
2.79812 0.655148 11.5318 2.85611 0.37337 11.494 2.60822 0.507102 11.2431 
2.85611 0.37337 11.494 2.77915 -0.0861923 11.3044 2.54704 0.150158 11.06 
2.77915 -0.0861923 11.3044 2.69079 -0.445677 11.1855 2.48504 -0.16345 10.9254 
2.69079 -0.445677 11.1855 2.63723 -0.747828 11.1587 2.45297 -0.511917 10.895 
2.63723 -0.747828 11.1587 2.67384 -1.05512 11.2737 2.40144 -0.798211 10.8852 
2.67384 -1.05512 11.2737 2.53907 -1.3637 11.2369 2.28605 -1.16078 10.8689 
2.53907 -1.3637 11.2369 2.18668 -1.51344 10.9445 2.28605 -1.16078 10.8689 
2.1401 -1.80851 11.0752 1.96847 -2.00812 11.0595 1.86586 -1.80411 10.8179 
1.65768 -2.14999 10.9219 1.52339 -2.52885 11.1545 1.29704 -2.13846 10.6536 
1.52339 -2.52885 11.1545 1.23708 -2.55892 11.0161 1.09168 -2.25246 10.6389 
1.23708 -2.55892 11.0161 1.03431 -2.7747 11.1285 0.868301 -2.34048 10.6196 
1.03431 -2.7747 11.1285 0.68265 -2.7555 10.9826 0.613211 -2.42338 10.6101 
0.68265 -2.7555 10.9826 0.42093 -2.91772 11.0915 0.375284 -2.48404 10.6207 
0.42093 -2.91772 11.0915 0.0422456 -2.9686 11.1095 0.137264 -2.52836 10.6374 
0.0422456 -2.9686 11.1095 -0.270653 -2.95219 11.1098 -0.140436 -2.51834 10.6276 
-0.270653 -2.95219 11.1098 -0.560116 -2.90957 11.1127 -0.417705 -2.48411 10.6259 
-0.560116 -2.90957 11.1127 -0.888208 -2.71315 11.0066 -0.762579 -2.49395 10.7341 
-0.888208 -2.71315 11.0066 -1.30514 -2.67321 11.1571 -1.13347 -2.34668 10.7552 
-1.30514 -2.67321 11.1571 -1.59048 -2.50171 11.1708 -1.40201 -2.19611 10.7767 
-1.59048 -2.50171 11.1708 -1.80169 -2.33754 11.1783 -1.64267 -2.00742 10.787 
-1.80169 -2.33754 11.1783 -1.99036 -2.1257 11.1633 -1.64267 -2.00742 10.787 
-1.99036 -2.1257 11.1633 -2.2206 -1.8909 11.2004 -1.92367 -1.71556 10.8057 
-2.2206 -1.8909 11.2004 -2.43419 -1.61974 11.2494 -2.14034 -1.41017 10.8356 
-2.43419 -1.61974 11.2494 -2.54979 -1.3663 11.2499 -2.26908 -1.14527 10.8465 
-2.54979 -1.3663 11.2499 -2.64042 -1.09991 11.2515 -2.26908 -1.14527 10.8465 
-2.64042 -1.09991 11.2515 -2.7262 -0.785177 11.2704 -2.38912 -0.845123 10.8821 
-2.7262 -0.785177 11.2704 -2.79626 -0.436042 11.3146 -2.37001 -0.359292 10.7753 
-2.23201 1.5499 11.4886 -1.82226 1.699 11.2286 -1.85617 1.51289 11.0668 
-1.57154 2.14343 11.5145 -1.2923 2.30446 11.5198 -1.29822 1.97567 11.1035 
-1.2923 2.30446 11.5198 -0.947421 2.45686 11.5353 -1.03174 2.11773 11.1134 
-0.541318 2.38309 11.2816 -0.296806 2.51341 11.4153 -0.256604 2.22802 10.9787 
-0.296806 2.51341 11.4153 0.0190684 2.53271 11.4199 -0.0410984 2.24365 10.9824 
0.542256 2.3628 11.2542 0.914913 2.48527 11.5615 0.760824 2.14084 11.0047 
2.11053 1.31884 11.1642 2.45893 1.21002 11.4633 2.17066 1.07354 11.0325 
2.45893 1.21002 11.4633 2.60135 0.916418 11.4355 2.29039 0.822165 11.006 
2.60135 0.916418 11.4355 2.60822 0.507102 11.2431 2.40514 0.489198 10.9799 
2.54704 0.150158 11.06 2.77915 -0.0861923 11.3044 2.48504 -0.16345 10.9254 
2.48504 -0.16345 10.9254 2.45297 -0.511917 10.895 2.14894 -0.368499 10.4684 
2.45297 -0.511917 10.895 2.40144 -0.798211 10.8852 2.11855 -0.572208 10.4578 
2.40144 -0.798211 10.8852 2.28605 -1.16078 10.8689 2.07465 -0.776138 10.4584 
2.28605 -1.16078 10.8689 2.18668 -1.51344 10.9445 1.80495 -1.35354 10.4264 
2.18668 -1.51344 10.9445 1.86586 -1.80411 10.8179 1.80495 -1.35354 10.4264 
1.86586 -1.80411 10.8179 1.65768 -2.14999 10.9219 1.38751 -1.77981 10.3705 
-0.762579 -2.49395 10.7341 -1.13347 -2.34668 10.7552 -0.844905 -2.11287 10.3537 
-1.13347 -2.34668 10.7552 -1.40201 -2.19611 10.7767 -1.07674 -1.99185 10.3539 
-1.40201 -2.19611 10.7767 -1.64267 -2.00742 10.787 -1.44301 -1.72873 10.3722 
-1.64267 -2.00742 10.787 -1.92367 -1.71556 10.8057 -1.65881 -1.4952 10.3769 
-1.92367 -1.71556 10.8057 -2.14034 -1.41017 10.8356 -1.94941 -1.3183 10.5684 
-2.14034 -1.41017 10.8356 -2.26908 -1.14527 10.8465 -1.98631 -1.04589 10.4602 
-2.26908 -1.14527 10.8465 -2.38912 -0.845123 10.8821 -2.07186 -0.78677 10.4547 
-2.37001 -0.359292 10.7753 -2.60126 -0.151482 11.0822 -2.283 -0.0690527 10.6572 
-2.60126 -0.151482 11.0822 -2.5656 0.216959 11.0947 -2.283 -0.0690527 10.6572 
-2.5656 0.216959 11.0947 -2.46596 0.643333 11.1324 -2.19837 0.5043 10.7053 
-2.46596 0.643333 11.1324 -2.33224 0.975746 11.1585 -2.08826 0.811218 10.7341 
-2.33224 0.975746 11.1585 -2.12395 1.27706 11.1408 -1.96947 1.04329 10.7564 
-2.12395 1.27706 11.1408 -1.85617 1.51289 11.0668 -1.81483 1.26371 10.7652 
-1.85617 1.51289 11.0668 -1.82226 1.699 11.2286 -1.60398 1.51896 10.8034 
-1.82226 1.699 11.2286 -1.60079 1.8716 11.2217 -1.25844 1.68726 10.6726 
-1.60079 1.8716 11.2217 -1.29822 1.97567 11.1035 -1.25844 1.68726 10.6726 
-1.29822 1.97567 11.1035 -1.03174 2.11773 11.1134 -0.901498 1.84779 10.6302 
-0.7372 2.14493 10.9996 -0.541318 2.38309 11.2816 -0.50892 2.10601 10.8404 
-0.0410984 2.24365 10.9824 0.243869 2.42037 11.277 0.225644 2.04169 10.6572 
0.243869 2.42037 11.277 0.542256 2.3628 11.2542 0.225644 2.04169 10.6572 
0.542256 2.3628 11.2542 0.760824 2.14084 11.0047 0.536601 1.98458 10.652 
1.05245 2.22151 11.2723 1.2982 2.08601 11.2505 1.01047 1.92566 10.8218 
1.2982 2.08601 11.2505 1.54768 1.90897 11.2193 1.23908 1.79852 10.8158 
1.54768 1.90897 11.2193 1.79986 1.70644 11.216 1.4537 1.63715 10.7947 
1.79986 1.70644 11.216 1.96204 1.52668 11.1957 1.70325 1.41624 10.7952 
1.96204 1.52668 11.1957 2.11053 1.31884 11.1642 1.80458 1.15295 10.6461 
2.11053 1.31884 11.1642 2.17066 1.07354 11.0325 1.91463 0.958698 10.6149 
2.17066 1.07354 11.0325 2.29039 0.822165 11.006 2.05255 0.666731 10.5877 
2.29039 0.822165 11.006 2.40514 0.489198 10.9799 2.05255 0.666731 10.5877 
2.40514 0.489198 10.9799 2.54704 0.150158 11.06 2.1572 0.23372 10.5396 
2.54704 0.150158 11.06 2.48504 -0.16345 10.9254 2.15778 -0.115789 10.4763 
1.38751 -1.77981 10.3705 1.29704 -2.13846 10.6536 1.13013 -1.70246 10.0734 
1.29704 -2.13846 10.6536 1.09168 -2.25246 10.6389 0.898587 -1.90273 10.1353 
1.09168 -2.25246 10.6389 0.868301 -2.34048 10.6196 0.898587 -1.90273 10.1353 
0.868301 -2.34048 10.6196 0.613211 -2.42338 10.6101 0.664635 -2.07882 10.2237 
0.613211 -2.42338 10.6101 0.375284 -2.48404 10.6207 0.414171 -2.14188 10.2121 
0.375284 -2.48404 10.6207 0.137264 -2.52836 10.6374 0.123141 -2.1818 10.2129 
0.137264 -2.52836 10.6374 -0.140436 -2.51834 10.6276 -0.126189 -2.18311 10.2161 
-0.140436 -2.51834 10.6276 -0.417705 -2.48411 10.6259 -0.373201 -2.14775 10.2095 
-1.65881 -1.4952 10.3769 -1.94941 -1.3183 10.5684 -1.70853 -1.1564 10.1761 
-2.07186 -0.78677 10.4547 -2.33277 -0.588836 10.7525 -2.08467 -0.407576 10.3692 
-2.33277 -0.588836 10.7525 -2.37001 -0.359292 10.7753 -2.08467 -0.407576 10.3692 
-2.37001 -0.359292 10.7753 -2.283 -0.0690527 10.6572 -1.98292 -0.000549947 10.2183 
-2.283 -0.0690527 10.6572 -2.26575 0.212169 10.691 -1.97877 0.214154 10.2631 
-2.26575 0.212169 10.691 -2.19837 0.5043 10.7053 -1.93555 0.44269 10.2877 
-2.19837 0.5043 10.7053 -2.08826 0.811218 10.7341 -1.86731 0.66803 10.3211 
-2.08826 0.811218 10.7341 -1.96947 1.04329 10.7564 -1.74377 0.873775 10.2995 
-1.96947 1.04329 10.7564 -1.81483 1.26371 10.7652 -1.56009 1.15517 10.3238 
-1.81483 1.26371 10.7652 -1.60398 1.51896 10.8034 -1.56009 1.15517 10.3238 
-0.901498 1.84779 10.6302 -0.7372 2.14493 10.9996 -0.593607 1.90441 10.534 
-0.7372 2.14493 10.9996 -0.50892 2.10601 10.8404 -0.593607 1.90441 10.534 
-0.50892 2.10601 10.8404 -0.256604 2.22802 10.9787 -0.284737 1.96729 10.5347 
-0.256604 2.22802 10.9787 -0.0410984 2.24365 10.9824 -0.0389473 1.99173 10.5482 
0.536601 1.98458 10.652 0.760824 2.14084 11.0047 0.774525 1.75964 10.3942 
0.760824 2.14084 11.0047 1.01047 1.92566 10.8218 0.774525 1.75964 10.3942 
1.01047 1.92566 10.8218 1.23908 1.79852 10.8158 1.03071 1.63756 10.3955 
1.23908 1.79852 10.8158 1.4537 1.63715 10.7947 1.29885 1.41666 10.3324 
1.4537 1.63715 10.7947 1.70325 1.41624 10.7952 1.29885 1.41666 10.3324 
2.15778 -0.115789 10.4763 2.14894 -0.368499 10.4684 1.83476 -0.100647 9.95679 
2.14894 -0.368499 10.4684 2.11855 -0.572208 10.4578 1.80218 -0.420626 9.93983 
2.11855 -0.572208 10.4578 2.07465 -0.776138 10.4584 1.73349 -0.62829 9.90329 
2.07465 -0.776138 10.4584 2.00231 -1.02858 10.4703 1.70586 -0.914796 10.006 
2.00231 -1.02858 10.4703 1.80495 -1.35354 10.4264 1.70586 -0.914796 10.006 
1.80495 -1.35354 10.4264 1.59668 -1.60472 10.4068 1.33949 -1.42562 9.97025 
1.59668 -1.60472 10.4068 1.38751 -1.77981 10.3705 1.33949 -1.42562 9.97025 
0.898587 -1.90273 10.1353 0.664635 -2.07882 10.2237 0.612192 -1.78117 9.81746 
0.664635 -2.07882 10.2237 0.414171 -2.14188 10.2121 0.322822 -1.82534 9.76417 
0.414171 -2.14188 10.2121 0.123141 -2.1818 10.2129 0.322822 -1.82534 9.76417 
0.123141 -2.1818 10.2129 -0.126189 -2.18311 10.2161 0.0331969 -1.85439 9.76365 
-0.126189 -2.18311 10.2161 -0.373201 -2.14775 10.2095 -0.200012 -1.85731 9.78715 
-0.373201 -2.14775 10.2095 -0.646272 -2.17271 10.3332 -0.483545 -1.82472 9.81605 
-0.646272 -2.17271 10.3332 -0.844905 -2.11287 10.3537 -0.763252 -1.72667 9.83152 
-0.844905 -2.11287 10.3537 -1.07674 -1.99185 10.3539 -0.763252 -1.72667 9.83152 
-1.07674 -1.99185 10.3539 -1.2769 -1.89142 10.3929 -1.09852 -1.524 9.84607 
-1.2769 -1.89142 10.3929 -1.44301 -1.72873 10.3722 -1.09852 -1.524 9.84607 
-1.44301 -1.72873 10.3722 -1.65881 -1.4952 10.3769 -1.26191 -1.36731 9.83525 
-1.70853 -1.1564 10.1761 -1.98631 -1.04589 10.4602 -1.7575 -0.818518 10.0243 
-1.98631 -1.04589 10.4602 -2.07186 -0.78677 10.4547 -1.7575 -0.818518 10.0243 
-2.07186 -0.78677 10.4547 -2.08467 -0.407576 10.3692 -1.85497 -0.53672 10.0558 
-2.08467 -0.407576 10.3692 -1.98292 -0.000549947 10.2183 -1.89515 -0.254739 10.0612 
-1.34212 1.37588 10.3326 -1.25844 1.68726 10.6726 -1.10504 1.48116 10.2132 
-1.25844 1.68726 10.6726 -0.901498 1.84779 10.6302 -0.85965 1.62639 10.2241 
-0.901498 1.84779 10.6302 -0.593607 1.90441 10.534 -0.558909 1.67362 10.0936 
-0.593607 1.90441 10.534 -0.284737 1.96729 10.5347 -0.244881 1.7338 10.0812 
-0.284737 1.96729 10.5347 -0.0389473 1.99173 10.5482 -0.031127 1.75173 10.0882 
-0.0389473 1.99173 10.5482 0.225644 2.04169 10.6572 0.201234 1.74102 10.0843 
0.225644 2.04169 10.6572 0.536601 1.98458 10.652 0.4535 1.69736 10.0872 
1.80458 1.15295 10.6461 1.91463 0.958698 10.6149 1.68613 0.817601 10.1556 
1.91463 0.958698 10.6149 2.05255 0.666731 10.5877 1.68613 0.817601 10.1556 
2.05255 0.666731 10.5877 2.1572 0.23372 10.5396 1.878 0.261713 10.1074 
2.1572 0.23372 10.5396 2.15778 -0.115789 10.4763 1.83476 -0.100647 9.95679 
1.73349 -0.62829 9.90329 1.70586 -0.914796 10.006 1.49937 -0.750137 9.5989 
1.70586 -0.914796 10.006 1.54919 -1.19068 10.001 1.36972 -0.958701 9.56985 
1.54919 -1.19068 10.001 1.33949 -1.42562 9.97025 1.1977 -1.18006 9.55696 
1.33949 -1.42562 9.97025 1.13013 -1.70246 10.0734 0.970535 -1.36706 9.52913 
1.13013 -1.70246 10.0734 0.898587 -1.90273 10.1353 0.970535 -1.36706 9.52913 
-1.70853 -1.1564 10.1761 -1.7575 -0.818518 10.0243 -1.51357 -0.901598 9.72559 
-1.7575 -0.818518 10.0243 -1.85497 -0.53672 10.0558 -1.56808 -0.570108 9.60495 
-1.85497 -0.53672 10.0558 -1.89515 -0.254739 10.0612 -1.63963 -0.285981 9.63296 
-1.89515 -0.254739 10.0612 -1.98292 -0.000549947 10.2183 -1.73665 -0.0959409 9.78898 
-1.98292 -0.000549947 10.2183 -1.97877 0.214154 10.2631 -1.72536 0.148088 9.80911 
-1.97877 0.214154 10.2631 -1.93555 0.44269 10.2877 -1.62775 0.388152 9.73595 
-1.93555 0.44269 10.2877 -1.86731 0.66803 10.3211 -1.51814 0.630788 9.71461 
-1.86731 0.66803 10.3211 -1.74377 0.873775 10.2995 -1.51814 0.630788 9.71461 
-1.74377 0.873775 10.2995 -1.56009 1.15517 10.3238 -1.3997 0.842288 9.7258 
-1.56009 1.15517 10.3238 -1.34212 1.37588 10.3326 -1.27882 1.11989 9.88029 
-1.34212 1.37588 10.3326 -1.10504 1.48116 10.2132 -0.979843 1.2819 9.74166 
-1.10504 1.48116 10.2132 -0.85965 1.62639 10.2241 -0.732712 1.41997 9.72958 
0.4535 1.69736 10.0872 0.774525 1.75964 10.3942 0.628273 1.47897 9.75376 
0.774525 1.75964 10.3942 1.03071 1.63756 10.3955 0.883011 1.35829 9.76575 
1.03071 1.63756 10.3955 1.29885 1.41666 10.3324 1.08936 1.29327 9.89357 
1.29885 1.41666 10.3324 1.55789 1.11305 10.27 1.32472 1.07476 9.88476 
1.55789 1.11305 10.27 1.68613 0.817601 10.1556 1.51792 0.799686 9.86743 
1.68613 0.817601 10.1556 1.79711 0.574932 10.1424 1.5818 0.498114 9.71756 
1.79711 0.574932 10.1424 1.878 0.261713 10.1074 1.5818 0.498114 9.71756 
1.83476 -0.100647 9.95679 1.80218 -0.420626 9.93983 1.48339 -0.336113 9.36018 
1.80218 -0.420626 9.93983 1.73349 -0.62829 9.90329 1.39409 -0.52676 9.28341 
0.764091 -1.50765 9.53788 0.612192 -1.78117 9.81746 0.535952 -1.42291 9.25435 
0.612192 -1.78117 9.81746 0.322822 -1.82534 9.76417 0.313957 -1.48679 9.2483 
0.322822 -1.82534 9.76417 0.0331969 -1.85439 9.76365 0.109423 -1.51604 9.24521 
0.0331969 -1.85439 9.76365 -0.200012 -1.85731 9.78715 -0.0792005 -1.5101 9.2329 
-0.200012 -1.85731 9.78715 -0.483545 -1.82472 9.81605 -0.368475 -1.57287 9.39715 
-0.483545 -1.82472 9.81605 -0.763252 -1.72667 9.83152 -0.63745 -1.46381 9.38053 
-0.763252 -1.72667 9.83152 -0.956129 -1.62688 9.84289 -0.842351 -1.35558 9.39031 
-0.956129 -1.62688 9.84289 -1.09852 -1.524 9.84607 -0.842351 -1.35558 9.39031 
-1.09852 -1.524 9.84607 -1.26191 -1.36731 9.83525 -0.997177 -1.14754 9.2759 
-1.26191 -1.36731 9.83525 -1.41698 -1.1637 9.8157 -1.17314 -0.917807 9.24511 
-1.41698 -1.1637 9.8157 -1.51357 -0.901598 9.72559 -1.30509 -0.710493 9.25465 
-1.51357 -0.901598 9.72559 -1.56808 -0.570108 9.60495 -1.30509 -0.710493 9.25465 
-1.73665 -0.0959409 9.78898 -1.72536 0.148088 9.80911 -1.47648 0.153828 9.33714 
-1.3997 0.842288 9.7258 -1.27882 1.11989 9.88029 -1.16703 1.02836 9.57595 
-0.732712 1.41997 9.72958 -0.558909 1.67362 10.0936 -0.461292 1.40644 9.46575 
-0.558909 1.67362 10.0936 -0.244881 1.7338 10.0812 -0.202379 1.52353 9.59818 
-0.244881 1.7338 10.0812 -0.031127 1.75173 10.0882 -0.202379 1.52353 9.59818 
-0.031127 1.75173 10.0882 0.201234 1.74102 10.0843 0.139297 1.53918 9.62445 
0.201234 1.74102 10.0843 0.4535 1.69736 10.0872 0.383155 1.49416 9.6152 
1.08936 1.29327 9.89357 1.32472 1.07476 9.88476 1.05816 1.13335 9.58516 
1.32472 1.07476 9.88476 1.51792 0.799686 9.86743 1.26486 0.78532 9.41538 
1.51792 0.799686 9.86743 1.5818 0.498114 9.71756 1.36383 0.571312 9.36576 
1.63739 0.202781 9.66827 1.83476 -0.100647 9.95679 1.57196 -0.0570003 9.48331 
1.57196 -0.0570003 9.48331 1.48339 -0.336113 9.36018 1.35546 -0.0679715 9.04058 
1.49937 -0.750137 9.5989 1.36972 -0.958701 9.56985 1.17429 -0.686473 9.01411 
1.36972 -0.958701 9.56985 1.1977 -1.18006 9.55696 1.03019 -0.869265 8.98012 
1.1977 -1.18006 9.55696 0.970535 -1.36706 9.52913 0.918172 -1.08506 9.09568 
0.970535 -1.36706 9.52913 0.764091 -1.50765 9.53788 0.712596 -1.23348 9.09611 
-0.0792005 -1.5101 9.2329 -0.368475 -1.57287 9.39715 -0.28494 -1.28783 8.89675 
-0.368475 -1.57287 9.39715 -0.63745 -1.46381 9.38053 -0.496466 -1.24972 8.94885 
-0.63745 -1.46381 9.38053 -0.842351 -1.35558 9.39031 -0.678406 -1.16058 8.95187 
-1.30509 -0.710493 9.25465 -1.56808 -0.570108 9.60495 -1.34102 -0.480674 9.15535 
-1.56808 -0.570108 9.60495 -1.63963 -0.285981 9.63296 -1.39021 -0.27528 9.15369 
-1.47648 0.153828 9.33714 -1.62775 0.388152 9.73595 -1.365 0.395097 9.21576 
-1.62775 0.388152 9.73595 -1.51814 0.630788 9.71461 -1.365 0.395097 9.21576 
-1.51814 0.630788 9.71461 -1.3997 0.842288 9.7258 -1.20848 0.605468 9.08404 
-1.3997 0.842288 9.7258 -1.16703 1.02836 9.57595 -1.1192 0.776018 9.12109 
-1.16703 1.02836 9.57595 -0.979843 1.2819 9.74166 -0.951462 0.98129 9.14319 
-0.979843 1.2819 9.74166 -0.732712 1.41997 9.72958 -0.735641 1.14689 9.14966 
-0.732712 1.41997 9.72958 -0.461292 1.40644 9.46575 -0.582966 1.29153 9.29769 
-0.202379 1.52353 9.59818 0.139297 1.53918 9.62445 0.0183677 1.36839 9.18582 
0.139297 1.53918 9.62445 0.383155 1.49416 9.6152 0.275413 1.33342 9.16068 
0.383155 1.49416 9.6152 0.628273 1.47897 9.75376 0.506719 1.32342 9.29948 
0.628273 1.47897 9.75376 0.883011 1.35829 9.76575 0.708125 1.16857 9.1561 
0.883011 1.35829 9.76575 1.05816 1.13335 9.58516 0.909408 0.998399 9.10975 
1.36383 0.571312 9.36576 1.5818 0.498114 9.71756 1.37923 0.341064 9.21479 
1.5818 0.498114 9.71756 1.63739 0.202781 9.66827 1.37923 0.341064 9.21479 
1.63739 0.202781 9.66827 1.57196 -0.0570003 9.48331 1.41396 0.145177 9.20001 
1.35546 -0.0679715 9.04058 1.48339 -0.336113 9.36018 1.18383 -0.260618 8.71556 
1.48339 -0.336113 9.36018 1.39409 -0.52676 9.28341 1.08709 -0.477504 8.65112 
1.39409 -0.52676 9.28341 1.17429 -0.686473 9.01411 1.08709 -0.477504 8.65112 
0.918172 -1.08506 9.09568 0.712596 -1.23348 9.09611 0.770263 -0.988155 8.77638 
0.712596 -1.23348 9.09611 0.535952 -1.42291 9.25435 0.457348 -1.17974 8.78632 
0.535952 -1.42291 9.25435 0.313957 -1.48679 9.2483 0.457348 -1.17974 8.78632 
0.313957 -1.48679 9.2483 0.109423 -1.51604 9.24521 0.128556 -1.25553 8.78365 
0.109423 -1.51604 9.24521 -0.0792005 -1.5101 9.2329 -0.0967045 -1.248 8.76884 
-0.0792005 -1.5101 9.2329 -0.28494 -1.28783 8.89675 -0.0967045 -1.248 8.76884 
-0.678406 -1.16058 8.95187 -0.997177 -1.14754 9.2759 -0.758889 -0.923337 8.67021 
-0.997177 -1.14754 9.2759 -1.17314 -0.917807 9.24511 -0.899895 -0.815436 8.70994 
-1.17314 -0.917807 9.24511 -1.30509 -0.710493 9.25465 -1.01502 -0.674436 8.72277 
-1.30509 -0.710493 9.25465 -1.34102 -0.480674 9.15535 -1.11457 -0.471567 8.70559 
-1.34102 -0.480674 9.15535 -1.39021 -0.27528 9.15369 -1.17211 -0.269004 8.6947 
-1.39021 -0.27528 9.15369 -1.49081 -0.0433623 9.33086 -1.28106 -0.036088 8.87019 
-1.49081 -0.0433623 9.33086 -1.47648 0.153828 9.33714 -1.28106 -0.036088 8.87019 
-1.47648 0.153828 9.33714 -1.365 0.395097 9.21576 -1.26567 0.240481 8.90505 
-0.735641 1.14689 9.14966 -0.582966 1.29153 9.29769 -0.488975 1.13196 8.79452 
-0.582966 1.29153 9.29769 -0.461292 1.40644 9.46575 -0.346337 1.19967 8.84114 
1.26486 0.78532 9.41538 1.36383 0.571312 9.36576 1.08298 0.588686 8.7812 
1.36383 0.571312 9.36576 1.37923 0.341064 9.21479 1.14654 0.429923 8.76048 
1.37923 0.341064 9.21479 1.41396 0.145177 9.20001 1.21432 0.207937 8.77032 
1.17429 -0.686473 9.01411 1.03019 -0.869265 8.98012 0.855409 -0.642808 8.39426 
1.03019 -0.869265 8.98012 0.770263 -0.988155 8.77638 0.713387 -0.757972 8.33779 
0.770263 -0.988155 8.77638 0.457348 -1.17974 8.78632 0.592266 -0.930193 8.46869 
0.457348 -1.17974 8.78632 0.128556 -1.25553 8.78365 0.237537 -1.01438 8.34987 
0.128556 -1.25553 8.78365 -0.0967045 -1.248 8.76884 -0.102179 -1.02528 8.32701 
-0.0967045 -1.248 8.76884 -0.28494 -1.28783 8.89675 -0.102179 -1.02528 8.32701 
-0.28494 -1.28783 8.89675 -0.496466 -1.24972 8.94885 -0.31252 -1.06046 8.47966 
-0.496466 -1.24972 8.94885 -0.678406 -1.16058 8.95187 -0.496527 -0.915886 8.34279 
-1.17211 -0.269004 8.6947 -1.28106 -0.036088 8.87019 -1.08083 -0.0285773 8.38608 
-1.28106 -0.036088 8.87019 -1.26567 0.240481 8.90505 -1.0702 0.209354 8.39804 
-1.15488 0.405897 8.75683 -1.20848 0.605468 9.08404 -0.980624 0.534276 8.45478 
-1.20848 0.605468 9.08404 -1.1192 0.776018 9.12109 -0.906571 0.667162 8.47495 
-1.1192 0.776018 9.12109 -0.951462 0.98129 9.14319 -0.758 0.836462 8.46445 
-0.951462 0.98129 9.14319 -0.735641 1.14689 9.14966 -0.616572 1.01241 8.64119 
-0.196624 1.34712 9.16618 0.0183677 1.36839 9.18582 0.0836088 1.15214 8.53677 
0.0183677 1.36839 9.18582 0.275413 1.33342 9.16068 0.0836088 1.15214 8.53677 
0.447733 1.15686 8.81736 0.708125 1.16857 9.1561 0.593947 1.02276 8.63098 
0.708125 1.16857 9.1561 0.909408 0.998399 9.10975 0.773687 0.892365 8.63215 
0.909408 0.998399 9.10975 1.10395 0.885543 9.2549 0.901642 0.753972 8.61363 
1.15103 -0.042744 8.56591 1.18383 -0.260618 8.71556 1.02016 -0.135386 8.25332 
1.18383 -0.260618 8.71556 1.08709 -0.477504 8.65112 0.911604 -0.372705 8.15782 
1.08709 -0.477504 8.65112 0.855409 -0.642808 8.39426 0.911604 -0.372705 8.15782 
0.713387 -0.757972 8.33779 0.592266 -0.930193 8.46869 0.499064 -0.726287 7.96602 
-0.102179 -1.02528 8.32701 -0.31252 -1.06046 8.47966 -0.207582 -0.879884 8.03199 
-0.496527 -0.915886 8.34279 -0.758889 -0.923337 8.67021 -0.613962 -0.697846 8.07579 
-0.758889 -0.923337 8.67021 -0.899895 -0.815436 8.70994 -0.792167 -0.581112 8.17895 
-0.899895 -0.815436 8.70994 -1.01502 -0.674436 8.72277 -0.792167 -0.581112 8.17895 
-1.01502 -0.674436 8.72277 -1.11457 -0.471567 8.70559 -0.93605 -0.364636 8.21458 
-1.11457 -0.471567 8.70559 -1.17211 -0.269004 8.6947 -0.958244 -0.175207 8.11991 
-1.0702 0.209354 8.39804 -1.15488 0.405897 8.75683 -0.924445 0.298648 8.02204 
-0.758 0.836462 8.46445 -0.616572 1.01241 8.64119 -0.496297 0.917167 8.1485 
-0.616572 1.01241 8.64119 -0.488975 1.13196 8.79452 -0.496297 0.917167 8.1485 
-0.488975 1.13196 8.79452 -0.346337 1.19967 8.84114 -0.30336 1.01844 8.21328 
0.447733 1.15686 8.81736 0.593947 1.02276 8.63098 0.491717 0.939183 8.21763 
0.593947 1.02276 8.63098 0.773687 0.892365 8.63215 0.621043 0.836254 8.16225 
0.773687 0.892365 8.63215 0.901642 0.753972 8.61363 0.750428 0.708673 8.15602 
0.901642 0.753972 8.61363 1.08298 0.588686 8.7812 0.863738 0.536557 8.1342 
1.08298 0.588686 8.7812 1.14654 0.429923 8.76048 0.863738 0.536557 8.1342 
1.14654 0.429923 8.76048 1.21432 0.207937 8.77032 0.940192 0.303314 8.08003 
1.21432 0.207937 8.77032 1.15103 -0.042744 8.56591 1.00239 0.0703268 8.16699 
1.02016 -0.135386 8.25332 0.911604 -0.372705 8.15782 0.805032 -0.25049 7.76929 
0.911604 -0.372705 8.15782 0.855409 -0.642808 8.39426 0.700307 -0.40582 7.72299 
0.855409 -0.642808 8.39426 0.713387 -0.757972 8.33779 0.568017 -0.568222 7.74968 
0.499064 -0.726287 7.96602 0.387035 -0.958154 8.33301 0.291959 -0.721021 7.72475 
0.387035 -0.958154 8.33301 0.237537 -1.01438 8.34987 0.142716 -0.743978 7.68671 
0.237537 -1.01438 8.34987 0.0758263 -1.03868 8.35127 -0.005185 -0.768073 7.71397 
0.0758263 -1.03868 8.35127 -0.102179 -1.02528 8.32701 -0.005185 -0.768073 7.71397 
-0.207582 -0.879884 8.03199 -0.496527 -0.915886 8.34279 -0.238795 -0.715904 7.67066 
-0.613962 -0.697846 8.07579 -0.792167 -0.581112 8.17895 -0.571574 -0.524387 7.65699 
-0.792167 -0.581112 8.17895 -0.93605 -0.364636 8.21458 -0.731708 -0.373454 7.7413 
-1.08083 -0.0285773 8.38608 -1.0702 0.209354 8.39804 -0.92358 0.0674276 7.92539 
-0.924445 0.298648 8.02204 -0.980624 0.534276 8.45478 -0.811581 0.546441 7.97324 
-0.980624 0.534276 8.45478 -0.906571 0.667162 8.47495 -0.811581 0.546441 7.97324 
-0.906571 0.667162 8.47495 -0.758 0.836462 8.46445 -0.63794 0.757473 7.96724 
-0.30336 1.01844 8.21328 -0.150415 1.13671 8.51286 -0.122363 1.00335 7.98362 
-0.150415 1.13671 8.51286 0.0836088 1.15214 8.53677 -0.122363 1.00335 7.98362 
0.0836088 1.15214 8.53677 0.347121 1.06524 8.42453 0.272608 0.977706 8.00526 
0.499064 -0.726287 7.96602 0.291959 -0.721021 7.72475 0.364909 -0.568451 7.42596 
-0.958244 -0.175207 8.11991 -0.92358 0.0674276 7.92539 -0.811325 -0.0252576 7.5867 
-0.92358 0.0674276 7.92539 -0.924445 0.298648 8.02204 -0.818493 0.213567 7.5915 
-0.924445 0.298648 8.02204 -0.811581 0.546441 7.97324 -0.728078 0.491757 7.58879 
-0.811581 0.546441 7.97324 -0.63794 0.757473 7.96724 -0.590969 0.693791 7.63865 
-0.63794 0.757473 7.96724 -0.496297 0.917167 8.1485 -0.42877 0.819972 7.64758 
-0.496297 0.917167 8.1485 -0.30336 1.01844 8.21328 -0.257075 0.901025 7.65178 
-0.30336 1.01844 8.21328 -0.122363 1.00335 7.98362 -0.257075 0.901025 7.65178 
-0.122363 1.00335 7.98362 0.0555328 1.01092 7.99506 -0.083308 0.895696 7.44938 
0.0555328 1.01092 7.99506 0.272608 0.977706 8.00526 0.0771368 0.90141 7.47841 
0.272608 0.977706 8.00526 0.491717 0.939183 8.21763 0.420073 0.8264 7.65394 
0.491717 0.939183 8.21763 0.621043 0.836254 8.16225 0.555316 0.727822 7.64352 
0.621043 0.836254 8.16225 0.750428 0.708673 8.15602 0.555316 0.727822 7.64352 
0.750428 0.708673 8.15602 0.863738 0.536557 8.1342 0.686795 0.569285 7.61271 
0.863738 0.536557 8.1342 0.940192 0.303314 8.08003 0.747127 0.381718 7.48887 
0.940192 0.303314 8.08003 1.00239 0.0703268 8.16699 0.826592 0.168865 7.60566 
0.826592 0.168865 7.60566 0.835844 -0.0829833 7.70414 0.708732 0.171831 7.14253 
0.835844 -0.0829833 7.70414 0.805032 -0.25049 7.76929 0.705883 -0.0425645 7.22879 
0.805032 -0.25049 7.76929 0.700307 -0.40582 7.72299 0.632253 -0.244216 7.25396 
0.700307 -0.40582 7.72299 0.568017 -0.568222 7.74968 0.4617 -0.367849 7.07068 
0.364909 -0.568451 7.42596 0.291959 -0.721021 7.72475 0.125173 -0.571055 7.17619 
0.291959 -0.721021 7.72475 0.142716 -0.743978 7.68671 0.125173 -0.571055 7.17619 
0.142716 -0.743978 7.68671 -0.005185 -0.768073 7.71397 0.125173 -0.571055 7.17619 
-0.005185 -0.768073 7.71397 -0.238795 -0.715904 7.67066 -0.132792 -0.575893 7.20501 
-0.238795 -0.715904 7.67066 -0.390259 -0.665373 7.69204 -0.336734 -0.478221 7.12608 
-0.390259 -0.665373 7.69204 -0.571574 -0.524387 7.65699 -0.336734 -0.478221 7.12608 
-0.571574 -0.524387 7.65699 -0.731708 -0.373454 7.7413 -0.520861 -0.297397 7.05318 
-0.731708 -0.373454 7.7413 -0.798141 -0.215002 7.70994 -0.637889 -0.119345 7.0766 
-0.798141 -0.215002 7.70994 -0.811325 -0.0252576 7.5867 -0.637889 -0.119345 7.0766 
-0.811325 -0.0252576 7.5867 -0.818493 0.213567 7.5915 -0.690286 0.0602169 7.09736 
-0.818493 0.213567 7.5915 -0.728078 0.491757 7.58879 -0.620094 0.476868 7.0994 
-0.728078 0.491757 7.58879 -0.590969 0.693791 7.63865 -0.620094 0.476868 7.0994 
-0.590969 0.693791 7.63865 -0.42877 0.819972 7.64758 -0.467865 0.692501 7.21179 
-0.42877 0.819972 7.64758 -0.257075 0.901025 7.65178 -0.282085 0.826135 7.31566 
0.420073 0.8264 7.65394 0.555316 0.727822 7.64352 0.394459 0.736232 7.17252 
0.555316 0.727822 7.64352 0.686795 0.569285 7.61271 0.578532 0.538982 7.11224 
0.705883 -0.0425645 7.22879 0.632253 -0.244216 7.25396 0.583651 -0.0165658 6.71153 
0.364909 -0.568451 7.42596 0.125173 -0.571055 7.17619 0.277912 -0.382023 6.74949 
0.125173 -0.571055 7.17619 -0.132792 -0.575893 7.20501 -0.0224644 -0.441937 6.73049 
-0.132792 -0.575893 7.20501 -0.336734 -0.478221 7.12608 -0.172699 -0.41486 6.71949 
-0.467865 0.692501 7.21179 -0.282085 0.826135 7.31566 -0.364201 0.691269 6.7871 
-0.282085 0.826135 7.31566 -0.083308 0.895696 7.44938 -0.114835 0.802144 6.83119 
-0.083308 0.895696 7.44938 0.0771368 0.90141 7.47841 0.0230119 0.832304 6.9935 
0.0771368 0.90141 7.47841 0.265326 0.866057 7.49612 0.192405 0.801266 6.95428 
0.578532 0.538982 7.11224 0.747127 0.381718 7.48887 0.599627 0.374967 6.79047 
0.708732 0.171831 7.14253 0.705883 -0.0425645 7.22879 0.600646 0.171457 6.60923 
-0.336734 -0.478221 7.12608 -0.520861 -0.297397 7.05318 -0.351057 -0.287264 6.56069 
-0.520861 -0.297397 7.05318 -0.637889 -0.119345 7.0766 -0.490402 -0.143931 6.57794 
-0.637889 -0.119345 7.0766 -0.690286 0.0602169 7.09736 -0.582466 0.0516839 6.59241 
-0.690286 0.0602169 7.09736 -0.693165 0.244874 7.11181 -0.595126 0.245546 6.6002 
-0.693165 0.244874 7.11181 -0.620094 0.476868 7.0994 -0.558115 0.413449 6.60968 
-0.620094 0.476868 7.0994 -0.467865 0.692501 7.21179 -0.469538 0.564923 6.61661 
-0.114835 0.802144 6.83119 0.0230119 0.832304 6.9935 0.0190862 0.775934 6.44563 
0.0230119 0.832304 6.9935 0.192405 0.801266 6.95428 0.175023 0.75004 6.43054 
0.192405 0.801266 6.95428 0.394459 0.736232 7.17252 0.175023 0.75004 6.43054 
0.394459 0.736232 7.17252 0.493094 0.645077 7.12524 0.341043 0.664982 6.48848 
0.493094 0.645077 7.12524 0.578532 0.538982 7.11224 0.433964 0.574242 6.45576 
0.578532 0.538982 7.11224 0.599627 0.374967 6.79047 0.509545 0.453074 6.41109 
0.600646 0.171457 6.60923 0.583651 -0.0165658 6.71153 0.534463 0.112396 6.26392 
0.583651 -0.0165658 6.71153 0.502934 -0.173187 6.70047 0.475046 -0.00974128 6.15566 
0.502934 -0.173187 6.70047 0.30154 -0.258316 6.35023 0.399908 -0.147176 6.23533 
0.277912 -0.382023 6.74949 0.125063 -0.437764 6.7597 0.137208 -0.300722 6.21813 
0.125063 -0.437764 6.7597 -0.0224644 -0.441937 6.73049 -0.012359 -0.316518 6.21332 
-0.0224644 -0.441937 6.73049 -0.172699 -0.41486 6.71949 -0.173773 -0.290144 6.21297 
-0.172699 -0.41486 6.71949 -0.351057 -0.287264 6.56069 -0.173773 -0.290144 6.21297 
-0.351057 -0.287264 6.56069 -0.490402 -0.143931 6.57794 -0.350515 -0.191368 6.21812 
-0.490402 -0.143931 6.57794 -0.582466 0.0516839 6.59241 -0.455745 -0.0260873 6.10393 
-0.582466 0.0516839 6.59241 -0.595126 0.245546 6.6002 -0.540249 0.267103 6.20508 
-0.595126 0.245546 6.6002 -0.558115 0.413449 6.60968 -0.540249 0.267103 6.20508 
-0.558115 0.413449 6.60968 -0.469538 0.564923 6.61661 -0.472552 0.471648 6.15048 
-0.469538 0.564923 6.61661 -0.364201 0.691269 6.7871 -0.383017 0.592275 6.13163 
-0.364201 0.691269 6.7871 -0.244959 0.75887 6.80084 -0.272712 0.685862 6.19134 
-0.244959 0.75887 6.80084 -0.114835 0.802144 6.83119 -0.139864 0.753146 6.31852 
0.599627 0.374967 6.79047 0.600646 0.171457 6.60923 0.544091 0.277962 6.26078 
0.544091 0.277962 6.26078 0.534463 0.112396 6.26392 0.47708 0.16848 5.75022 
0.399908 -0.147176 6.23533 0.30154 -0.258316 6.35023 0.24378 -0.15579 5.71779 
0.30154 -0.258316 6.35023 0.137208 -0.300722 6.21813 0.102498 -0.20667 5.69673 
0.137208 -0.300722 6.21813 -0.012359 -0.316518 6.21332 0.102498 -0.20667 5.69673 
-0.012359 -0.316518 6.21332 -0.173773 -0.290144 6.21297 -0.0860385 -0.222002 5.75663 
-0.173773 -0.290144 6.21297 -0.350515 -0.191368 6.21812 -0.243622 -0.16386 5.77415 
-0.350515 -0.191368 6.21812 -0.455745 -0.0260873 6.10393 -0.38033 -0.0238287 5.63899 
-0.503965 0.0854418 6.123 -0.540249 0.267103 6.20508 -0.485013 0.235018 5.73909 
-0.139864 0.753146 6.31852 0.0190862 0.775934 6.44563 0.0250206 0.754924 5.84915 
0.0190862 0.775934 6.44563 0.175023 0.75004 6.43054 0.0250206 0.754924 5.84915 
0.175023 0.75004 6.43054 0.341043 0.664982 6.48848 0.217973 0.700212 5.82807 
0.341043 0.664982 6.48848 0.433964 0.574242 6.45576 0.31933 0.633159 5.80096 
0.433964 0.574242 6.45576 0.509545 0.453074 6.41109 0.415963 0.519787 5.77833 
0.509545 0.453074 6.41109 0.544091 0.277962 6.26078 0.487509 0.340645 5.80083 
0.47708 0.16848 5.75022 0.475046 -0.00974128 6.15566 0.422185 0.0609186 5.56002 
-0.455745 -0.0260873 6.10393 -0.503965 0.0854418 6.123 -0.453901 0.142289 5.57425 
-0.472552 0.471648 6.15048 -0.383017 0.592275 6.13163 -0.417497 0.508373 5.6057 
-0.383017 0.592275 6.13163 -0.272712 0.685862 6.19134 -0.301733 0.644031 5.51386 
0.487509 0.340645 5.80083 0.47708 0.16848 5.75022 0.458681 0.341203 5.25137 
0.47708 0.16848 5.75022 0.422185 0.0609186 5.56002 0.443771 0.195161 5.23618 
0.422185 0.0609186 5.56002 0.353442 -0.0677745 5.73368 0.391337 0.067901 5.21329 
0.353442 -0.0677745 5.73368 0.24378 -0.15579 5.71779 0.299871 -0.0403883 5.22457 
0.24378 -0.15579 5.71779 0.102498 -0.20667 5.69673 0.0782662 -0.142428 5.17841 
0.102498 -0.20667 5.69673 -0.0860385 -0.222002 5.75663 0.0782662 -0.142428 5.17841 
-0.0860385 -0.222002 5.75663 -0.243622 -0.16386 5.77415 -0.225185 -0.0914938 5.21243 
-0.243622 -0.16386 5.77415 -0.38033 -0.0238287 5.63899 -0.332979 -0.00651939 5.19768 
-0.38033 -0.0238287 5.63899 -0.453901 0.142289 5.57425 -0.432701 0.151824 5.19737 
-0.453901 0.142289 5.57425 -0.485013 0.235018 5.73909 -0.432701 0.151824 5.19737 
-0.485013 0.235018 5.73909 -0.476987 0.357373 5.75702 -0.457593 0.315568 5.24725 
-0.476987 0.357373 5.75702 -0.417497 0.508373 5.6057 -0.437801 0.436573 5.25356 
-0.417497 0.508373 5.6057 -0.301733 0.644031 5.51386 -0.374568 0.570543 5.24538 
-0.301733 0.644031 5.51386 -0.165442 0.722363 5.76922 -0.156045 0.736988 5.26764 
-0.165442 0.722363 5.76922 0.0250206 0.754924 5.84915 -0.156045 0.736988 5.26764 
0.0250206 0.754924 5.84915 0.217973 0.700212 5.82807 0.0964883 0.751627 5.29496 
0.217973 0.700212 5.82807 0.31933 0.633159 5.80096 0.207917 0.710676 5.27495 
0.31933 0.633159 5.80096 0.415963 0.519787 5.77833 0.309442 0.642297 5.28076 
0.415963 0.519787 5.77833 0.487509 0.340645 5.80083 0.408232 0.517508 5.2532 
0.458681 0.341203 5.25137 0.443771 0.195161 5.23618 0.44692 0.278755 4.90268 
0.441773 0.245394 4.91199 0.44692 0.278755 4.90268 0.443771 0.195161 5.23618 
0.387438 0.10395 4.88698 0.403173 0.133782 4.87604 0.391337 0.067901 5.21329 
0.299871 -0.0403883 5.22457 0.203563 -0.103131 5.22146 0.221852 -0.0578544 4.86523 
0.0719892 -0.111901 4.886 0.104252 -0.103298 4.85837 0.0782662 -0.142428 5.17841 
-0.0811423 -0.109083 4.8707 -0.0486067 -0.113036 4.85956 -0.0859126 -0.146267 5.22745 
-0.0859126 -0.146267 5.22745 -0.225185 -0.0914938 5.21243 -0.206917 -0.0570607 4.7546 
-0.225185 -0.0914938 5.21243 -0.332979 -0.00651939 5.19768 -0.269796 -0.0283937 4.89536 
-0.295412 -0.00683873 4.88583 -0.269796 -0.0283937 4.89536 -0.332979 -0.00651939 5.19768 
-0.392055 0.111923 4.88761 -0.374915 0.0851022 4.87074 -0.332979 -0.00651939 5.19768 
-0.432701 0.151824 5.19737 -0.457593 0.315568 5.24725 -0.448091 0.289307 4.90251 
-0.420749 0.490825 4.92701 -0.431333 0.461405 4.90385 -0.437801 0.436573 5.25356 
-0.437801 0.436573 5.25356 -0.374568 0.570543 5.24538 -0.407292 0.524187 4.90943 
-0.342795 0.622933 4.92831 -0.363218 0.59843 4.91145 -0.374568 0.570543 5.24538 
-0.301733 0.644031 5.51386 -0.156045 0.736988 5.26764 -0.213624 0.725673 4.9597 
0.00461801 0.780916 4.94026 -0.0282704 0.78102 4.92856 -0.0281912 0.759321 5.2863 
-0.0281912 0.759321 5.2863 0.0964883 0.751627 5.29496 0.0391996 0.781107 4.91735 
0.0964883 0.751627 5.29496 0.207917 0.710676 5.27495 0.186867 0.741736 4.92171 
0.207917 0.710676 5.27495 0.309442 0.642297 5.28076 0.272103 0.693765 4.88422 
0.30432 0.662895 4.92896 0.272103 0.693765 4.88422 0.309442 0.642297 5.28076 
0.348775 0.615982 4.92561 0.327087 0.64121 4.92053 0.309442 0.642297 5.28076 
0.309442 0.642297 5.28076 0.408232 0.517508 5.2532 0.369665 0.591598 4.88343 
0.423936 0.482577 4.92048 0.411846 0.514826 4.90023 0.408232 0.517508 5.2532 
0.408232 0.517508 5.2532 0.458681 0.341203 5.25137 0.434324 0.450658 4.90846 
0.45 0.853106 -1.71299 0.444512 0.404504 4.91619 0.448935 0.366259 4.89072 
0.444512 0.404504 4.91619 0.45 0.853106 -1.71299 0.443163 0.931007 -1.70686 
0.448935 0.366259 4.89072 0.450188 0.321697 4.87201 0.45 0.853106 -1.71299 
0.443163 0.931007 -1.70686 0.423936 0.482577 4.92048 0.434324 0.450658 4.90846 
0.434324 0.450658 4.90846 0.444512 0.404504 4.91619 0.443163 0.931007 -1.70686 
0.423936 0.482577 4.92048 0.443163 0.931007 -1.70686 0.422862 1.00654 -1.70092 
0.422862 1.00654 -1.70092 0.394232 0.549175 4.92585 0.411846 0.514826 4.90023 
0.394232 0.549175 4.92585 0.422862 1.00654 -1.70092 0.389711 1.07741 -1.69534 
0.411846 0.514826 4.90023 0.423936 0.482577 4.92048 0.422862 1.00654 -1.70092 
0.389711 1.07741 -1.69534 0.348775 0.615982 4.92561 0.369665 0.591598 4.88343 
0.369665 0.591598 4.88343 0.394232 0.549175 4.92585 0.389711 1.07741 -1.69534 
0.348775 0.615982 4.92561 0.389711 1.07741 -1.69534 0.34472 1.14147 -1.6903 
0.34472 1.14147 -1.6903 0.30432 0.662895 4.92896 0.327087 0.64121 4.92053 
0.30432 0.662895 4.92896 0.34472 1.14147 -1.6903 0.289254 1.19676 -1.68595 
0.289254 1.19676 -1.68595 0.228648 0.718069 4.94952 0.272103 0.693765 4.88422 
0.228648 0.718069 4.94952 0.289254 1.19676 -1.68595 0.225 1.24162 -1.68242 
0.225 1.24162 -1.68242 0.155624 0.753304 4.93669 0.186867 0.741736 4.92171 
0.186867 0.741736 4.92171 0.228648 0.718069 4.94952 0.225 1.24162 -1.68242 
0.153909 1.27466 -1.67982 0.124493 0.764416 4.92726 0.155624 0.753304 4.93669 
0.155624 0.753304 4.93669 0.225 1.24162 -1.68242 0.153909 1.27466 -1.67982 
0.153909 1.27466 -1.67982 0.0850226 0.77149 4.962 0.124493 0.764416 4.92726 
0.0850226 0.77149 4.962 0.153909 1.27466 -1.67982 0.0781417 1.2949 -1.67822 
0.0781417 1.2949 -1.67822 0.00461801 0.780916 4.94026 0.0391996 0.781107 4.91735 
0.0391996 0.781107 4.91735 0.0850226 0.77149 4.962 0.0781417 1.2949 -1.67822 
0.00461801 0.780916 4.94026 0.0781417 1.2949 -1.67822 -8.88178e-11 1.30172 -1.67769 
-8.88178e-11 1.30172 -1.67769 -0.0683429 0.775501 4.94743 -0.0282704 0.78102 4.92856 
-0.0683429 0.775501 4.94743 -8.88178e-11 1.30172 -1.67769 -0.0781417 1.2949 -1.67822 
-0.0781417 1.2949 -1.67822 -0.150125 0.753998 4.95763 -0.113422 0.767429 4.92778 
-0.113422 0.767429 4.92778 -0.0683429 0.775501 4.94743 -0.0781417 1.2949 -1.67822 
-0.150125 0.753998 4.95763 -0.0781417 1.2949 -1.67822 -0.153909 1.27466 -1.67982 
-0.153909 1.27466 -1.67982 -0.213624 0.725673 4.9597 -0.18603 0.740856 4.93571 
-0.213624 0.725673 4.9597 -0.153909 1.27466 -1.67982 -0.225 1.24162 -1.68242 
-0.18603 0.740856 4.93571 -0.150125 0.753998 4.95763 -0.153909 1.27466 -1.67982 
-0.225 1.24162 -1.68242 -0.28538 0.678613 4.94617 -0.252882 0.704338 4.92348 
-0.28538 0.678613 4.94617 -0.225 1.24162 -1.68242 -0.289254 1.19676 -1.68595 
-0.252882 0.704338 4.92348 -0.213624 0.725673 4.9597 -0.225 1.24162 -1.68242 
-0.289254 1.19676 -1.68595 -0.342795 0.622933 4.92831 -0.319585 0.649385 4.91602 
-0.319585 0.649385 4.91602 -0.28538 0.678613 4.94617 -0.289254 1.19676 -1.68595 
-0.342795 0.622933 4.92831 -0.289254 1.19676 -1.68595 -0.34472 1.14147 -1.6903 
-0.34472 1.14147 -1.6903 -0.385806 0.563998 4.92349 -0.363218 0.59843 4.91145 
-0.385806 0.563998 4.92349 -0.34472 1.14147 -1.6903 -0.389711 1.07741 -1.69534 
-0.363218 0.59843 4.91145 -0.342795 0.622933 4.92831 -0.34472 1.14147 -1.6903 
-0.389711 1.07741 -1.69534 -0.420749 0.490825 4.92701 -0.407292 0.524187 4.90943 
-0.407292 0.524187 4.90943 -0.385806 0.563998 4.92349 -0.389711 1.07741 -1.69534 
-0.420749 0.490825 4.92701 -0.389711 1.07741 -1.69534 -0.422862 1.00654 -1.70092 
-0.422862 1.00654 -1.70092 -0.4414 0.421631 4.91138 -0.431333 0.461405 4.90385 
-0.4414 0.421631 4.91138 -0.422862 1.00654 -1.70092 -0.443163 0.931007 -1.70686 
-0.443163 0.931007 -1.70686 -0.450435 0.335111 4.91868 -0.447975 0.377182 4.89567 
-0.447975 0.377182 4.89567 -0.4414 0.421631 4.91138 -0.443163 0.931007 -1.70686 
-0.450435 0.335111 4.91868 -0.443163 0.931007 -1.70686 -0.45 0.853106 -1.71299 
-0.45 0.853106 -1.71299 -0.443477 0.256265 4.89757 -0.448091 0.289307 4.90251 
-0.448091 0.289307 4.90251 -0.450435 0.335111 4.91868 -0.45 0.853106 -1.71299 
-0.443163 0.775205 -1.71912 -0.436864 0.224989 4.88541 -0.443477 0.256265 4.89757 
-0.443477 0.256265 4.89757 -0.45 0.853106 -1.71299 -0.443163 0.775205 -1.71912 
-0.443163 0.775205 -1.71912 -0.425595 0.183905 4.90945 -0.436864 0.224989 4.88541 
-0.425595 0.183905 4.90945 -0.443163 0.775205 -1.71912 -0.422862 0.699671 -1.72507 
-0.422862 0.699671 -1.72507 -0.392055 0.111923 4.88761 -0.407939 0.143398 4.8791 
-0.407939 0.143398 4.8791 -0.425595 0.183905 4.90945 -0.422862 0.699671 -1.72507 
-0.392055 0.111923 4.88761 -0.422862 0.699671 -1.72507 -0.389711 0.628799 -1.73065 
-0.389711 0.628799 -1.73065 -0.351738 0.0531249 4.86658 -0.374915 0.0851022 4.87074 
-0.351738 0.0531249 4.86658 -0.389711 0.628799 -1.73065 -0.34472 0.564743 -1.73569 
-0.34472 0.564743 -1.73569 -0.295412 -0.00683873 4.88583 -0.320872 0.0188693 4.8631 
-0.320872 0.0188693 4.8631 -0.351738 0.0531249 4.86658 -0.34472 0.564743 -1.73569 
-0.295412 -0.00683873 4.88583 -0.34472 0.564743 -1.73569 -0.289254 0.509448 -1.74004 
-0.289254 0.509448 -1.74004 -0.243707 -0.0447568 4.87388 -0.269796 -0.0283937 4.89536 
-0.225 0.464596 -1.74357 -0.206917 -0.0570607 4.7546 -0.243707 -0.0447568 4.87388 
-0.243707 -0.0447568 4.87388 -0.289254 0.509448 -1.74004 -0.225 0.464596 -1.74357 
-0.225 0.464596 -1.74357 -0.159167 -0.0882195 4.87677 -0.206917 -0.0570607 4.7546 
-0.159167 -0.0882195 4.87677 -0.225 0.464596 -1.74357 -0.153909 0.431548 -1.74617 
-0.153909 0.431548 -1.74617 -0.0811423 -0.109083 4.8707 -0.114739 -0.100725 4.85874 
-0.114739 -0.100725 4.85874 -0.159167 -0.0882195 4.87677 -0.153909 0.431548 -1.74617 
-0.0811423 -0.109083 4.8707 -0.153909 0.431548 -1.74617 -0.0781417 0.411308 -1.74776 
-0.0781417 0.411308 -1.74776 -0.00844419 -0.117369 4.87805 -0.0486067 -0.113036 4.85956 
-0.00844419 -0.117369 4.87805 -0.0781417 0.411308 -1.74776 -8.88178e-11 0.404493 -1.7483 
-0.0486067 -0.113036 4.85956 -0.0811423 -0.109083 4.8707 -0.0781417 0.411308 -1.74776 
-8.88178e-11 0.404493 -1.7483 0.0719892 -0.111901 4.886 0.0376113 -0.113076 4.8463 
0.0376113 -0.113076 4.8463 -0.00844419 -0.117369 4.87805 -8.88178e-11 0.404493 -1.7483 
0.0719892 -0.111901 4.886 -8.88178e-11 0.404493 -1.7483 0.0781417 0.411308 -1.74776 
0.0781417 0.411308 -1.74776 0.143095 -0.0940111 4.87809 0.104252 -0.103298 4.85837 
0.143095 -0.0940111 4.87809 0.0781417 0.411308 -1.74776 0.153909 0.431548 -1.74617 
0.153909 0.431548 -1.74617 0.221852 -0.0578544 4.86523 0.185843 -0.0755278 4.86101 
0.185843 -0.0755278 4.86101 0.143095 -0.0940111 4.87809 0.153909 0.431548 -1.74617 
0.221852 -0.0578544 4.86523 0.153909 0.431548 -1.74617 0.225 0.464596 -1.74357 
0.225 0.464596 -1.74357 0.287853 -0.0124533 4.87642 0.261238 -0.0321191 4.86251 
0.261238 -0.0321191 4.86251 0.221852 -0.0578544 4.86523 0.225 0.464596 -1.74357 
0.289254 0.509448 -1.74004 0.312379 0.00996214 4.86943 0.287853 -0.0124533 4.87642 
0.287853 -0.0124533 4.87642 0.225 0.464596 -1.74357 0.289254 0.509448 -1.74004 
0.289254 0.509448 -1.74004 0.340562 0.035978 4.91196 0.312379 0.00996214 4.86943 
0.340562 0.035978 4.91196 0.289254 0.509448 -1.74004 0.34472 0.564743 -1.73569 
0.34472 0.564743 -1.73569 0.387438 0.10395 4.88698 0.36878 0.0758397 4.87307 
0.36878 0.0758397 4.87307 0.340562 0.035978 4.91196 0.34472 0.564743 -1.73569 
0.387438 0.10395 4.88698 0.34472 0.564743 -1.73569 0.389711 0.628799 -1.73065 
0.389711 0.628799 -1.73065 0.419453 0.167934 4.90239 0.403173 0.133782 4.87604 
0.419453 0.167934 4.90239 0.389711 0.628799 -1.73065 0.422862 0.699671 -1.72507 
0.422862 0.699671 -1.72507 0.441773 0.245394 4.91199 0.433861 0.213638 4.88288 
0.433861 0.213638 4.88288 0.419453 0.167934 4.90239 0.422862 0.699671 -1.72507 
0.441773 0.245394 4.91199 0.422862 0.699671 -1.72507 0.443163 0.775205 -1.71912 
0.443163 0.775205 -1.71912 0.450188 0.321697 4.87201 0.44692 0.278755 4.90268 
0.450188 0.321697 4.87201 0.443163 0.775205 -1.71912 0.45 0.853106 -1.71299 
0.44692 0.278755 4.90268 0.441773 0.245394 4.91199 0.443163 0.775205 -1.71912 
0.403173 0.133782 4.87604 0.387438 0.10395 4.88698 0.389711 0.628799 -1.73065 
0.104252 -0.103298 4.85837 0.0719892 -0.111901 4.886 0.0781417 0.411308 -1.74776 
-0.269796 -0.0283937 4.89536 -0.295412 -0.00683873 4.88583 -0.289254 0.509448 -1.74004 
-0.374915 0.0851022 4.87074 -0.392055 0.111923 4.88761 -0.389711 0.628799 -1.73065 
-0.431333 0.461405 4.90385 -0.420749 0.490825 4.92701 -0.422862 1.00654 -1.70092 
-0.0282704 0.78102 4.92856 0.00461801 0.780916 4.94026 -8.88178e-11 1.30172 -1.67769 
0.272103 0.693765 4.88422 0.30432 0.662895 4.92896 0.289254 1.19676 -1.68595 
0.327087 0.64121 4.92053 0.348775 0.615982 4.92561 0.34472 1.14147 -1.6903 
-0.225 1.24162 -1.68242 0.443163 0.775205 -1.71912 0.422862 0.699671 -1.72507 
0.422862 0.699671 -1.72507 0.389711 0.628799 -1.73065 -0.225 1.24162 -1.68242 
0.389711 0.628799 -1.73065 0.34472 0.564743 -1.73569 -0.225 1.24162 -1.68242 
0.34472 0.564743 -1.73569 0.289254 0.509448 -1.74004 -0.225 1.24162 -1.68242 
0.289254 0.509448 -1.74004 0.225 0.464596 -1.74357 -0.225 1.24162 -1.68242 
0.225 0.464596 -1.74357 0.153909 0.431548 -1.74617 -0.225 1.24162 -1.68242 
0.153909 0.431548 -1.74617 0.0781417 0.411308 -1.74776 -0.225 1.24162 -1.68242 
0.0781417 0.411308 -1.74776 -8.88178e-11 0.404493 -1.7483 -0.225 1.24162 -1.68242 
-8.88178e-11 0.404493 -1.7483 -0.0781417 0.411308 -1.74776 -0.225 1.24162 -1.68242 
-0.0781417 0.411308 -1.74776 -0.153909 0.431548 -1.74617 -0.225 1.24162 -1.68242 
-0.153909 0.431548 -1.74617 -0.225 0.464596 -1.74357 -0.225 1.24162 -1.68242 
-0.225 0.464596 -1.74357 -0.289254 0.509448 -1.74004 -0.225 1.24162 -1.68242 
-0.289254 0.509448 -1.74004 -0.34472 0.564743 -1.73569 -0.225 1.24162 -1.68242 
-0.34472 0.564743 -1.73569 -0.389711 0.628799 -1.73065 -0.225 1.24162 -1.68242 
-0.389711 0.628799 -1.73065 -0.422862 0.699671 -1.72507 -0.225 1.24162 -1.68242 
-0.422862 0.699671 -1.72507 -0.443163 0.775205 -1.71912 -0.225 1.24162 -1.68242 
-0.443163 0.775205 -1.71912 -0.45 0.853106 -1.71299 -0.225 1.24162 -1.68242 
-0.45 0.853106 -1.71299 -0.443163 0.931007 -1.70686 -0.225 1.24162 -1.68242 
-0.443163 0.931007 -1.70686 -0.422862 1.00654 -1.70092 -0.225 1.24162 -1.68242 
-0.422862 1.00654 -1.70092 -0.389711 1.07741 -1.69534 -0.225 1.24162 -1.68242 
-0.389711 1.07741 -1.69534 -0.34472 1.14147 -1.6903 -0.225 1.24162 -1.68242 
-0.34472 1.14147 -1.6903 -0.289254 1.19676 -1.68595 -0.225 1.24162 -1.68242 
-0.153909 1.27466 -1.67982 -0.0781417 1.2949 -1.67822 -0.225 1.24162 -1.68242 
-0.0781417 1.2949 -1.67822 -8.88178e-11 1.30172 -1.67769 -0.225 1.24162 -1.68242 
-8.88178e-11 1.30172 -1.67769 0.0781417 1.2949 -1.67822 -0.225 1.24162 -1.68242 
0.0781417 1.2949 -1.67822 0.153909 1.27466 -1.67982 -0.225 1.24162 -1.68242 
0.153909 1.27466 -1.67982 0.225 1.24162 -1.68242 -0.225 1.24162 -1.68242 
0.225 1.24162 -1.68242 0.289254 1.19676 -1.68595 -0.225 1.24162 -1.68242 
0.289254 1.19676 -1.68595 0.34472 1.14147 -1.6903 -0.225 1.24162 -1.68242 
0.34472 1.14147 -1.6903 0.389711 1.07741 -1.69534 -0.225 1.24162 -1.68242 
0.389711 1.07741 -1.69534 0.422862 1.00654 -1.70092 -0.225 1.24162 -1.68242 
0.422862 1.00654 -1.70092 0.443163 0.931007 -1.70686 -0.225 1.24162 -1.68242 
0.443163 0.931007 -1.70686 0.45 0.853106 -1.71299 -0.225 1.24162 -1.68242 
0.45 0.853106 -1.71299 0.443163 0.775205 -1.71912 -0.225 1.24162 -1.68242 
-0.301 0.774647 -0.716076 0.296427 0.826754 -0.711975 0.282847 0.877277 -0.707999 
0.282847 0.877277 -0.707999 0.260674 0.924683 -0.704268 -0.301 0.774647 -0.716076 
0.260674 0.924683 -0.704268 0.230579 0.967529 -0.700896 -0.301 0.774647 -0.716076 
0.230579 0.967529 -0.700896 0.193479 1.00452 -0.697985 -0.301 0.774647 -0.716076 
0.193479 1.00452 -0.697985 0.1505 1.03452 -0.695624 -0.301 0.774647 -0.716076 
0.1505 1.03452 -0.695624 0.102948 1.05662 -0.693884 -0.301 0.774647 -0.716076 
0.102948 1.05662 -0.693884 0.0522681 1.07016 -0.692819 -0.301 0.774647 -0.716076 
0.0522681 1.07016 -0.692819 -8.88178e-11 1.07472 -0.69246 -0.301 0.774647 -0.716076 
-8.88178e-11 1.07472 -0.69246 -0.0522681 1.07016 -0.692819 -0.301 0.774647 -0.716076 
-0.0522681 1.07016 -0.692819 -0.102948 1.05662 -0.693884 -0.301 0.774647 -0.716076 
-0.102948 1.05662 -0.693884 -0.1505 1.03452 -0.695624 -0.301 0.774647 -0.716076 
-0.1505 1.03452 -0.695624 -0.193479 1.00452 -0.697985 -0.301 0.774647 -0.716076 
-0.193479 1.00452 -0.697985 -0.230579 0.967529 -0.700896 -0.301 0.774647 -0.716076 
-0.230579 0.967529 -0.700896 -0.260674 0.924683 -0.704268 -0.301 0.774647 -0.716076 
-0.260674 0.924683 -0.704268 -0.282847 0.877277 -0.707999 -0.301 0.774647 -0.716076 
-0.282847 0.877277 -0.707999 -0.296427 0.826754 -0.711975 -0.301 0.774647 -0.716076 
-0.296427 0.72254 -0.720177 -0.282847 0.672016 -0.724153 -0.301 0.774647 -0.716076 
-0.282847 0.672016 -0.724153 -0.260674 0.624611 -0.727884 -0.301 0.774647 -0.716076 
-0.260674 0.624611 -0.727884 -0.230579 0.581764 -0.731256 -0.301 0.774647 -0.716076 
-0.230579 0.581764 -0.731256 -0.193479 0.544778 -0.734167 -0.301 0.774647 -0.716076 
-0.193479 0.544778 -0.734167 -0.1505 0.514777 -0.736528 -0.301 0.774647 -0.716076 
-0.1505 0.514777 -0.736528 -0.102948 0.492671 -0.738268 -0.301 0.774647 -0.716076 
-0.102948 0.492671 -0.738268 -0.0522681 0.479133 -0.739334 -0.301 0.774647 -0.716076 
-0.0522681 0.479133 -0.739334 -8.88178e-11 0.474575 -0.739692 -0.301 0.774647 -0.716076 
-8.88178e-11 0.474575 -0.739692 0.0522681 0.479133 -0.739334 -0.301 0.774647 -0.716076 
0.0522681 0.479133 -0.739334 0.102948 0.492671 -0.738268 -0.301 0.774647 -0.716076 
0.102948 0.492671 -0.738268 0.1505 0.514777 -0.736528 -0.301 0.774647 -0.716076 
0.1505 0.514777 -0.736528 0.193479 0.544778 -0.734167 -0.301 0.774647 -0.716076 
0.193479 0.544778 -0.734167 0.230579 0.581764 -0.731256 -0.301 0.774647 -0.716076 
0.230579 0.581764 -0.731256 0.260674 0.624611 -0.727884 -0.301 0.774647 -0.716076 
0.260674 0.624611 -0.727884 0.282847 0.672016 -0.724153 -0.301 0.774647 -0.716076 
0.282847 0.672016 -0.724153 0.296427 0.72254 -0.720177 -0.301 0.774647 -0.716076 
0.296427 0.72254 -0.720177 0.301 0.774647 -0.716076 -0.301 0.774647 -0.716076 
0.301 0.774647 -0.716076 0.296427 0.826754 -0.711975 -0.301 0.774647 -0.716076 
-0.296427 0.72254 -0.720177 -0.300117 -0.0398808 9.3398 -0.295717 -0.0724213 9.30179 
-0.301 0.774647 -0.716076 -0.301002 -0.00255331 9.3086 -0.300117 -0.0398808 9.3398 
-0.300117 -0.0398808 9.3398 -0.296427 0.72254 -0.720177 -0.301 0.774647 -0.716076 
-0.282847 0.672016 -0.724153 -0.295717 -0.0724213 9.30179 -0.286972 -0.107448 9.33449 
-0.295717 -0.0724213 9.30179 -0.282847 0.672016 -0.724153 -0.296427 0.72254 -0.720177 
-0.286972 -0.107448 9.33449 -0.280176 -0.127157 9.33585 -0.282847 0.672016 -0.724153 
-0.260674 0.624611 -0.727884 -0.280176 -0.127157 9.33585 -0.269746 -0.150058 9.33113 
-0.280176 -0.127157 9.33585 -0.260674 0.624611 -0.727884 -0.282847 0.672016 -0.724153 
-0.269746 -0.150058 9.33113 -0.259365 -0.169576 9.3326 -0.260674 0.624611 -0.727884 
-0.230579 0.581764 -0.731256 -0.246197 -0.189548 9.32803 -0.231483 -0.208793 9.32656 
-0.230579 0.581764 -0.731256 -0.259365 -0.169576 9.3326 -0.246197 -0.189548 9.32803 
-0.259365 -0.169576 9.3326 -0.230579 0.581764 -0.731256 -0.260674 0.624611 -0.727884 
-0.193479 0.544778 -0.734167 -0.216877 -0.22499 9.32524 -0.190527 -0.247332 9.29154 
-0.230579 0.581764 -0.731256 -0.231483 -0.208793 9.32656 -0.216877 -0.22499 9.32524 
-0.216877 -0.22499 9.32524 -0.193479 0.544778 -0.734167 -0.230579 0.581764 -0.731256 
-0.1505 0.514777 -0.736528 -0.190527 -0.247332 9.29154 -0.163614 -0.268781 9.32179 
-0.190527 -0.247332 9.29154 -0.1505 0.514777 -0.736528 -0.193479 0.544778 -0.734167 
-0.163614 -0.268781 9.32179 -0.145683 -0.279772 9.32261 -0.1505 0.514777 -0.736528 
-0.102948 0.492671 -0.738268 -0.145683 -0.279772 9.32261 -0.12313 -0.290727 9.32006 
-0.145683 -0.279772 9.32261 -0.102948 0.492671 -0.738268 -0.1505 0.514777 -0.736528 
-0.12313 -0.290727 9.32006 -0.102095 -0.299343 9.32089 -0.102948 0.492671 -0.738268 
-0.0522681 0.479133 -0.739334 -0.0797594 -0.306256 9.31884 -0.0449797 -0.313087 9.30619 
-0.0522681 0.479133 -0.739334 -0.102095 -0.299343 9.32089 -0.0797594 -0.306256 9.31884 
-0.102095 -0.299343 9.32089 -0.0522681 0.479133 -0.739334 -0.102948 0.492671 -0.738268 
-8.88178e-11 0.474575 -0.739692 -0.0449797 -0.313087 9.30619 -0.00845798 -0.316725 9.31491 
-0.0449797 -0.313087 9.30619 -8.88178e-11 0.474575 -0.739692 -0.0522681 0.479133 -0.739334 
0.0522681 0.479133 -0.739334 0.0115291 -0.316762 9.31801 0.0345197 -0.315003 9.31815 
-8.88178e-11 0.474575 -0.739692 -0.00845798 -0.316725 9.31491 0.0115291 -0.316762 9.31801 
0.0115291 -0.316762 9.31801 0.0522681 0.479133 -0.739334 -8.88178e-11 0.474575 -0.739692 
0.0345197 -0.315003 9.31815 0.0558809 -0.312598 9.32767 0.0522681 0.479133 -0.739334 
0.102948 0.492671 -0.738268 0.0558809 -0.312598 9.32767 0.0906628 -0.304977 9.34077 
0.0558809 -0.312598 9.32767 0.102948 0.492671 -0.738268 0.0522681 0.479133 -0.739334 
0.1505 0.514777 -0.736528 0.12313 -0.290727 9.32006 0.155215 -0.273185 9.30402 
0.102948 0.492671 -0.738268 0.0906628 -0.304977 9.34077 0.12313 -0.290727 9.32006 
0.12313 -0.290727 9.32006 0.1505 0.514777 -0.736528 0.102948 0.492671 -0.738268 
0.193479 0.544778 -0.734167 0.155215 -0.273185 9.30402 0.182474 -0.255556 9.32283 
0.155215 -0.273185 9.30402 0.193479 0.544778 -0.734167 0.1505 0.514777 -0.736528 
0.182474 -0.255556 9.32283 0.198638 -0.242493 9.3233 0.193479 0.544778 -0.734167 
0.230579 0.581764 -0.731256 0.198638 -0.242493 9.3233 0.216877 -0.22499 9.32524 
0.198638 -0.242493 9.3233 0.230579 0.581764 -0.731256 0.193479 0.544778 -0.734167 
0.216877 -0.22499 9.32524 0.231792 -0.208626 9.32903 0.230579 0.581764 -0.731256 
0.260674 0.624611 -0.727884 0.246197 -0.189548 9.32803 0.265218 -0.156639 9.29248 
0.260674 0.624611 -0.727884 0.231792 -0.208626 9.32903 0.246197 -0.189548 9.32803 
0.231792 -0.208626 9.32903 0.260674 0.624611 -0.727884 0.230579 0.581764 -0.731256 
0.282847 0.672016 -0.724153 0.265218 -0.156639 9.29248 0.280474 -0.12593 9.33034 
0.265218 -0.156639 9.29248 0.282847 0.672016 -0.724153 0.260674 0.624611 -0.727884 
0.296427 0.72254 -0.720177 0.286972 -0.107448 9.33449 0.293082 -0.085283 9.33623 
0.282847 0.672016 -0.724153 0.280474 -0.12593 9.33034 0.286972 -0.107448 9.33449 
0.286972 -0.107448 9.33449 0.296427 0.72254 -0.720177 0.282847 0.672016 -0.724153 
0.293082 -0.085283 9.33623 0.297307 -0.0648506 9.34216 0.296427 0.72254 -0.720177 
0.301 0.774647 -0.716076 0.297307 -0.0648506 9.34216 0.301002 -0.0259271 9.30676 
0.297307 -0.0648506 9.34216 0.301 0.774647 -0.716076 0.296427 0.72254 -0.720177 
0.296427 0.826754 -0.711975 0.300117 0.00605977 9.34342 0.295717 0.0441458 9.31097 
0.301 0.774647 -0.716076 0.301002 -0.0259271 9.30676 0.300117 0.00605977 9.34342 
0.300117 0.00605977 9.34342 0.296427 0.826754 -0.711975 0.301 0.774647 -0.716076 
0.282847 0.877277 -0.707999 0.295717 0.0441458 9.31097 0.286972 0.0736274 9.34874 
0.295717 0.0441458 9.31097 0.282847 0.877277 -0.707999 0.296427 0.826754 -0.711975 
0.286972 0.0736274 9.34874 0.280176 0.0928805 9.35317 0.282847 0.877277 -0.707999 
0.260674 0.924683 -0.704268 0.280176 0.0928805 9.35317 0.269746 0.116237 9.35209 
0.280176 0.0928805 9.35317 0.260674 0.924683 -0.704268 0.282847 0.877277 -0.707999 
0.269746 0.116237 9.35209 0.259365 0.135286 9.35659 0.260674 0.924683 -0.704268 
0.230579 0.967529 -0.700896 0.246197 0.155727 9.3552 0.231483 0.174964 9.35676 
0.230579 0.967529 -0.700896 0.259365 0.135286 9.35659 0.246197 0.155727 9.3552 
0.259365 0.135286 9.35659 0.230579 0.967529 -0.700896 0.260674 0.924683 -0.704268 
0.193479 1.00452 -0.697985 0.216877 0.191169 9.35799 0.190527 0.218507 9.3282 
0.230579 0.967529 -0.700896 0.231483 0.174964 9.35676 0.216877 0.191169 9.35799 
0.216877 0.191169 9.35799 0.193479 1.00452 -0.697985 0.230579 0.967529 -0.700896 
0.1505 1.03452 -0.695624 0.190527 0.218507 9.3282 0.163614 0.23496 9.36143 
0.190527 0.218507 9.3282 0.1505 1.03452 -0.695624 0.193479 1.00452 -0.697985 
0.163614 0.23496 9.36143 0.145683 0.245688 9.36396 0.1505 1.03452 -0.695624 
0.102948 1.05662 -0.693884 0.145683 0.245688 9.36396 0.12313 0.256906 9.36316 
0.145683 0.245688 9.36396 0.102948 1.05662 -0.693884 0.1505 1.03452 -0.695624 
0.12313 0.256906 9.36316 0.102095 0.265286 9.36533 0.102948 1.05662 -0.693884 
0.0522681 1.07016 -0.692819 0.0797594 0.272435 9.36438 0.0449797 0.28116 9.35296 
0.0522681 1.07016 -0.692819 0.102095 0.265286 9.36533 0.0797594 0.272435 9.36438 
0.102095 0.265286 9.36533 0.0522681 1.07016 -0.692819 0.102948 1.05662 -0.693884 
-8.88178e-11 1.07472 -0.69246 0.0449797 0.28116 9.35296 0.00845798 0.28339 9.36214 
0.0449797 0.28116 9.35296 -8.88178e-11 1.07472 -0.69246 0.0522681 1.07016 -0.692819 
-0.0522681 1.07016 -0.692819 -0.0115291 0.282941 9.36521 -0.0345197 0.281182 9.36507 
-8.88178e-11 1.07472 -0.69246 0.00845798 0.28339 9.36214 -0.0115291 0.282941 9.36521 
-0.0115291 0.282941 9.36521 -0.0522681 1.07016 -0.692819 -8.88178e-11 1.07472 -0.69246 
-0.0345197 0.281182 9.36507 -0.0558809 0.277319 9.37409 -0.0522681 1.07016 -0.692819 
-0.102948 1.05662 -0.693884 -0.0558809 0.277319 9.37409 -0.0906628 0.267741 9.38585 
-0.0558809 0.277319 9.37409 -0.102948 1.05662 -0.693884 -0.0522681 1.07016 -0.692819 
-0.1505 1.03452 -0.695624 -0.12313 0.256906 9.36316 -0.155215 0.242089 9.34458 
-0.102948 1.05662 -0.693884 -0.0906628 0.267741 9.38585 -0.12313 0.256906 9.36316 
-0.12313 0.256906 9.36316 -0.1505 1.03452 -0.695624 -0.102948 1.05662 -0.693884 
-0.193479 1.00452 -0.697985 -0.155215 0.242089 9.34458 -0.182474 0.221735 9.36039 
-0.155215 0.242089 9.34458 -0.193479 1.00452 -0.697985 -0.1505 1.03452 -0.695624 
-0.182474 0.221735 9.36039 -0.198638 0.20876 9.35881 -0.193479 1.00452 -0.697985 
-0.230579 0.967529 -0.700896 -0.198638 0.20876 9.35881 -0.216877 0.191169 9.35799 
-0.198638 0.20876 9.35881 -0.230579 0.967529 -0.700896 -0.193479 1.00452 -0.697985 
-0.216877 0.191169 9.35799 -0.231792 0.174413 9.35918 -0.230579 0.967529 -0.700896 
-0.260674 0.924683 -0.704268 -0.246197 0.155727 9.3552 -0.265218 0.128783 9.31495 
-0.260674 0.924683 -0.704268 -0.231792 0.174413 9.35918 -0.246197 0.155727 9.3552 
-0.231792 0.174413 9.35918 -0.260674 0.924683 -0.704268 -0.230579 0.967529 -0.700896 
-0.282847 0.877277 -0.707999 -0.265218 0.128783 9.31495 -0.280474 0.0925301 9.34754 
-0.265218 0.128783 9.31495 -0.282847 0.877277 -0.707999 -0.260674 0.924683 -0.704268 
-0.296427 0.826754 -0.711975 -0.286972 0.0736274 9.34874 -0.293082 0.051462 9.34699 
-0.282847 0.877277 -0.707999 -0.280474 0.0925301 9.34754 -0.286972 0.0736274 9.34874 
-0.286972 0.0736274 9.34874 -0.296427 0.826754 -0.711975 -0.282847 0.877277 -0.707999 
-0.293082 0.051462 9.34699 -0.297307 0.030354 9.34965 -0.296427 0.826754 -0.711975 
-0.301 0.774647 -0.716076 -0.297307 0.030354 9.34965 -0.301002 -0.00255331 9.3086 
-0.297307 0.030354 9.34965 -0.301 0.774647 -0.716076 -0.296427 0.826754 -0.711975 
2.02725 -0.079624 12.0638 1.76869 -0.0257073 11.9348 1.77667 -0.292028 11.9144 
1.77667 -0.292028 11.9144 2.03315 -0.230235 12.0522 2.02725 -0.079624 12.0638 
1.76869 -0.0257073 11.9348 2.02725 -0.079624 12.0638 2.0097 0.0686456 12.075 
1.76869 -0.0257073 11.9348 2.0097 0.0686456 12.075 1.98348 0.218574 12.0877 
1.98348 0.218574 12.0877 1.70876 0.326549 11.9711 1.76869 -0.0257073 11.9348 
1.70876 0.326549 11.9711 1.98348 0.218574 12.0877 1.94186 0.363239 12.0977 
1.70876 0.326549 11.9711 1.94186 0.363239 12.0977 1.89173 0.500453 12.1074 
1.70876 0.326549 11.9711 1.89173 0.500453 12.1074 1.82544 0.642482 12.1164 
1.82544 0.642482 12.1164 1.4756 0.785342 12.0036 1.70876 0.326549 11.9711 
1.4756 0.785342 12.0036 1.82544 0.642482 12.1164 1.75207 0.766314 12.1229 
1.4756 0.785342 12.0036 1.75207 0.766314 12.1229 1.68829 0.897905 12.1403 
1.27359 1.12542 12.0675 1.4756 0.785342 12.0036 1.53859 1.02615 12.1295 
1.4756 0.785342 12.0036 1.68829 0.897905 12.1403 1.53859 1.02615 12.1295 
0.920206 1.39185 12.0918 1.27359 1.12542 12.0675 1.21236 1.39026 12.1769 
0.825732 1.62215 12.1979 0.685361 1.67673 12.2016 0.563004 1.54978 12.1056 
0.563004 1.54978 12.1056 0.685361 1.67673 12.2016 0.541382 1.72332 12.2058 
0.563004 1.54978 12.1056 0.541382 1.72332 12.2058 0.394957 1.75722 12.2081 
0.394957 1.75722 12.2081 0.227119 1.67944 12.1517 0.563004 1.54978 12.1056 
0.227119 1.67944 12.1517 0.0953936 1.7956 12.212 -0.0535274 1.79281 12.2097 
-0.0535274 1.79281 12.2097 -0.0999485 1.56114 12.0656 0.227119 1.67944 12.1517 
-0.0999485 1.56114 12.0656 -0.0535274 1.79281 12.2097 -0.209479 1.78089 12.2078 
-0.0999485 1.56114 12.0656 -0.209479 1.78089 12.2078 -0.351242 1.75798 12.2046 
-0.351242 1.75798 12.2046 -0.429014 1.51973 12.0687 -0.0999485 1.56114 12.0656 
-0.429014 1.51973 12.0687 -0.351242 1.75798 12.2046 -0.496443 1.72524 12.201 
-0.429014 1.51973 12.0687 -0.496443 1.72524 12.201 -0.654576 1.68065 12.1986 
-0.654576 1.68065 12.1986 -0.667326 1.41306 12.0422 -0.429014 1.51973 12.0687 
-0.667326 1.41306 12.0422 -0.654576 1.68065 12.1986 -0.834181 1.60053 12.1881 
-0.978754 1.26756 12.0411 -0.667326 1.41306 12.0422 -0.99791 1.52583 12.186 
-1.24302 1.04592 12.019 -0.978754 1.26756 12.0411 -1.24612 1.36927 12.1771 
-1.56928 1.05593 12.1525 -1.66233 0.93651 12.1439 -1.45401 0.844071 12.0191 
-1.45401 0.844071 12.0191 -1.24302 1.04592 12.019 -1.56928 1.05593 12.1525 
-1.74411 0.810419 12.1337 -1.68819 0.575181 12.03 -1.45401 0.844071 12.0191 
-1.45401 0.844071 12.0191 -1.66233 0.93651 12.1439 -1.74411 0.810419 12.1337 
-1.68819 0.575181 12.03 -1.74411 0.810419 12.1337 -1.81719 0.677382 12.1231 
-1.68819 0.575181 12.03 -1.81719 0.677382 12.1231 -1.88091 0.542216 12.1133 
-1.68819 0.575181 12.03 -1.88091 0.542216 12.1133 -1.92964 0.400768 12.1005 
-1.92964 0.400768 12.1005 -1.82182 0.167154 11.9964 -1.68819 0.575181 12.03 
-1.82182 0.167154 11.9964 -1.92964 0.400768 12.1005 -1.96644 0.256604 12.087 
-1.82182 0.167154 11.9964 -1.96644 0.256604 12.087 -1.97367 0.0754682 12.0588 
-1.97367 0.0754682 12.0588 -1.77358 -0.294026 11.9074 -1.82182 0.167154 11.9964 
-1.84836 -0.698985 11.9567 -1.77358 -0.294026 11.9074 -2.00026 -0.578035 12.0234 
-1.69691 -0.992825 11.9054 -1.84836 -0.698985 11.9567 -1.92961 -0.861043 12.0012 
-1.57074 -1.51662 11.9507 -1.37877 -1.54616 11.8917 -1.56332 -1.32433 11.9096 
-1.37877 -1.54616 11.8917 -1.36358 -1.73493 11.934 -1.24612 -1.8296 11.9253 
-1.24612 -1.8296 11.9253 -1.06601 -1.75454 11.8481 -1.37877 -1.54616 11.8917 
-1.06601 -1.75454 11.8481 -1.24612 -1.8296 11.9253 -1.12456 -1.9156 11.9181 
-1.06601 -1.75454 11.8481 -1.12456 -1.9156 11.9181 -0.997976 -1.98569 11.9097 
-0.997976 -1.98569 11.9097 -0.795108 -1.95652 11.8582 -1.06601 -1.75454 11.8481 
-0.318243 -2.09879 11.8453 -0.609714 -2.04685 11.8585 -0.498536 -2.19415 11.8968 
-0.000761073 -2.08514 11.8204 -0.318243 -2.09879 11.8453 -0.209214 -2.23844 11.8903 
0.238081 -2.1106 11.8444 -0.000761073 -2.08514 11.8204 0.095385 -2.25615 11.8931 
0.562757 -1.9926 11.8252 0.238081 -2.1106 11.8444 0.394992 -2.21764 11.8953 
0.541312 -2.18381 11.8983 0.68538 -2.13815 11.9018 0.562757 -1.9926 11.8252 
0.825782 -2.08199 11.9062 0.917228 -1.74485 11.8006 0.562757 -1.9926 11.8252 
0.562757 -1.9926 11.8252 0.68538 -2.13815 11.9018 0.825782 -2.08199 11.9062 
0.917228 -1.74485 11.8006 0.825782 -2.08199 11.9062 0.959022 -2.01548 11.9107 
0.917228 -1.74485 11.8006 0.959022 -2.01548 11.9107 1.09237 -1.94189 11.9181 
0.917228 -1.74485 11.8006 1.09237 -1.94189 11.9181 1.21229 -1.85024 11.9219 
1.21229 -1.85024 11.9219 1.20406 -1.53033 11.8198 0.917228 -1.74485 11.8006 
1.20406 -1.53033 11.8198 1.21229 -1.85024 11.9219 1.32557 -1.75928 11.9289 
1.20406 -1.53033 11.8198 1.32557 -1.75928 11.9289 1.44419 -1.65563 11.9393 
1.44419 -1.65563 11.9393 1.43103 -1.26933 11.8366 1.20406 -1.53033 11.8198 
1.43103 -1.26933 11.8366 1.44419 -1.65563 11.9393 1.57828 -1.50052 11.9504 
1.64073 -0.885749 11.8618 1.43103 -1.26933 11.8366 1.75737 -1.22884 11.9687 
1.88857 -0.640621 11.9731 1.64073 -0.885749 11.8618 1.93999 -0.822069 12.0034 
1.77667 -0.292028 11.9144 1.88857 -0.640621 11.9731 2.00971 -0.529031 12.028 
2.02728 -0.380858 12.0401 2.03315 -0.230235 12.0522 1.77667 -0.292028 11.9144 
1.34656 0.451112 11.7855 1.70876 0.326549 11.9711 1.4756 0.785342 12.0036 
1.06301 1.01124 11.9156 1.27359 1.12542 12.0675 0.920206 1.39185 12.0918 
0.747948 1.20237 11.9192 0.920206 1.39185 12.0918 0.563004 1.54978 12.1056 
0.328316 1.38533 11.9512 0.563004 1.54978 12.1056 0.227119 1.67944 12.1517 
-1.46823 0.469506 11.868 -1.68819 0.575181 12.03 -1.82182 0.167154 11.9964 
-1.58467 0.0962254 11.8409 -1.82182 0.167154 11.9964 -1.77358 -0.294026 11.9074 
-1.55994 -0.633776 11.7836 -1.84836 -0.698985 11.9567 -1.69691 -0.992825 11.9054 
-1.46091 -0.92693 11.7657 -1.69691 -0.992825 11.9054 -1.56332 -1.32433 11.9096 
-1.28718 -1.19006 11.7414 -1.56332 -1.32433 11.9096 -1.37877 -1.54616 11.8917 
-1.06242 -1.43016 11.7216 -1.37877 -1.54616 11.8917 -1.06601 -1.75454 11.8481 
-0.755903 -1.62896 11.7019 -1.06601 -1.75454 11.8481 -0.795108 -1.95652 11.8582 
-0.755903 -1.62896 11.7019 -0.795108 -1.95652 11.8582 -0.609714 -2.04685 11.8585 
-0.489035 -1.73742 11.6921 -0.609714 -2.04685 11.8585 -0.318243 -2.09879 11.8453 
-0.118773 -1.82214 11.6898 -0.318243 -2.09879 11.8453 -0.000761073 -2.08514 11.8204 
-0.118773 -1.82214 11.6898 -0.000761073 -2.08514 11.8204 0.238081 -2.1106 11.8444 
0.298817 -1.79862 11.6934 0.238081 -2.1106 11.8444 0.562757 -1.9926 11.8252 
0.617445 -1.72742 11.7137 0.562757 -1.9926 11.8252 0.917228 -1.74485 11.8006 
1.58345 -0.520208 11.7918 1.88857 -0.640621 11.9731 1.77667 -0.292028 11.9144 
1.45933 -0.155236 11.7052 1.77667 -0.292028 11.9144 1.76869 -0.0257073 11.9348 
1.45933 -0.155236 11.7052 1.76869 -0.0257073 11.9348 1.70876 0.326549 11.9711 
1.42014 0.18519 11.7445 1.70876 0.326549 11.9711 1.34656 0.451112 11.7855 
1.11541 0.730348 11.7715 1.4756 0.785342 12.0036 1.06301 1.01124 11.9156 
-0.0510425 1.25031 11.8162 -0.0999485 1.56114 12.0656 -0.429014 1.51973 12.0687 
-0.47629 1.18115 11.8149 -0.429014 1.51973 12.0687 -0.667326 1.41306 12.0422 
-0.47629 1.18115 11.8149 -0.667326 1.41306 12.0422 -0.978754 1.26756 12.0411 
-0.855728 0.988009 11.8019 -0.978754 1.26756 12.0411 -1.24302 1.04592 12.019 
-1.13746 0.726647 11.786 -1.24302 1.04592 12.019 -1.45401 0.844071 12.0191 
-1.13746 0.726647 11.786 -1.45401 0.844071 12.0191 -1.46823 0.469506 11.868 
-1.46371 -0.275235 11.6994 -1.77358 -0.294026 11.9074 -1.55994 -0.633776 11.7836 
0.83337 -1.39997 11.6065 0.917228 -1.74485 11.8006 1.20406 -1.53033 11.8198 
1.1278 -1.13053 11.6329 1.20406 -1.53033 11.8198 1.43103 -1.26933 11.8366 
1.33857 -0.79415 11.656 1.43103 -1.26933 11.8366 1.64073 -0.885749 11.8618 
1.33857 -0.79415 11.656 1.64073 -0.885749 11.8618 1.58345 -0.520208 11.7918 
0.782863 0.888896 11.6902 1.06301 1.01124 11.9156 0.747948 1.20237 11.9192 
0.548432 1.01183 11.6894 0.747948 1.20237 11.9192 0.328316 1.38533 11.9512 
0.267858 1.1713 11.7581 0.328316 1.38533 11.9512 -0.0510425 1.25031 11.8162 
-1.13525 0.335559 11.568 -1.46823 0.469506 11.868 -1.58467 0.0962254 11.8409 
-1.21905 -0.0520464 11.5108 -1.58467 0.0962254 11.8409 -1.46371 -0.275235 11.6994 
-1.27698 -0.558845 11.5694 -1.55994 -0.633776 11.7836 -1.46091 -0.92693 11.7657 
-1.13894 -0.755797 11.5049 -1.46091 -0.92693 11.7657 -1.28718 -1.19006 11.7414 
-1.05623 -1.11207 11.5769 -1.28718 -1.19006 11.7414 -1.06242 -1.43016 11.7216 
-0.783375 -1.28451 11.5233 -1.06242 -1.43016 11.7216 -0.755903 -1.62896 11.7019 
-0.548432 -1.40026 11.4996 -0.755903 -1.62896 11.7019 -0.489035 -1.73742 11.6921 
-0.26671 -1.56411 11.5392 -0.489035 -1.73742 11.6921 -0.118773 -1.82214 11.6898 
0.0649912 -1.58811 11.5395 -0.118773 -1.82214 11.6898 0.298817 -1.79862 11.6934 
0.425414 -1.5231 11.5428 0.298817 -1.79862 11.6934 0.617445 -1.72742 11.7137 
0.425414 -1.5231 11.5428 0.617445 -1.72742 11.7137 0.83337 -1.39997 11.6065 
1.20615 -0.297756 11.4762 1.58345 -0.520208 11.7918 1.45933 -0.155236 11.7052 
1.22249 0.0776119 11.5408 1.45933 -0.155236 11.7052 1.42014 0.18519 11.7445 
1.22249 0.0776119 11.5408 1.42014 0.18519 11.7445 1.34656 0.451112 11.7855 
1.05232 0.362449 11.5065 1.34656 0.451112 11.7855 1.11541 0.730348 11.7715 
0.880799 0.612624 11.5252 1.11541 0.730348 11.7715 0.782863 0.888896 11.6902 
0.0416995 0.984717 11.5419 0.267858 1.1713 11.7581 -0.0510425 1.25031 11.8162 
-0.187331 0.978592 11.5516 -0.0510425 1.25031 11.8162 -0.47629 1.18115 11.8149 
-0.442499 0.921949 11.5562 -0.47629 1.18115 11.8149 -0.855728 0.988009 11.8019 
-0.90044 0.588744 11.5233 -0.855728 0.988009 11.8019 -1.13746 0.726647 11.786 
-0.90044 0.588744 11.5233 -1.13746 0.726647 11.786 -1.13525 0.335559 11.568 
-1.10998 -0.361551 11.3867 -1.46371 -0.275235 11.6994 -1.27698 -0.558845 11.5694 
-0.886414 -0.983519 11.4048 -1.05623 -1.11207 11.5769 -0.783375 -1.28451 11.5233 
-0.0420285 -1.34995 11.3577 -0.26671 -1.56411 11.5392 0.0649912 -1.58811 11.5395 
0.266757 -1.33577 11.3697 0.0649912 -1.58811 11.5395 0.425414 -1.5231 11.5428 
0.538275 -1.2534 11.3927 0.425414 -1.5231 11.5428 0.83337 -1.39997 11.6065 
0.748115 -1.11173 11.3945 0.83337 -1.39997 11.6065 1.1278 -1.13053 11.6329 
0.987285 -0.85037 11.4136 1.1278 -1.13053 11.6329 1.33857 -0.79415 11.656 
1.1164 -0.585021 11.4321 1.33857 -0.79415 11.656 1.20615 -0.297756 11.4762 
0.991304 0.183738 11.3528 1.22249 0.0776119 11.5408 1.05232 0.362449 11.5065 
0.522003 0.752749 11.4021 0.782863 0.888896 11.6902 0.548432 1.01183 11.6894 
0.522003 0.752749 11.4021 0.548432 1.01183 11.6894 0.276886 0.949857 11.5354 
-0.991304 -0.529709 11.2967 -1.27698 -0.558845 11.5694 -1.13894 -0.755797 11.5049 
-0.611877 -1.04264 11.2669 -0.783375 -1.28451 11.5233 -0.548432 -1.40026 11.4996 
0.925351 -0.220699 11.167 1.20615 -0.297756 11.4762 0.967778 -0.0189709 11.2505 
0.786328 0.324114 11.2094 1.05232 0.362449 11.5065 0.880799 0.612624 11.5252 
0.167782 0.750426 11.2402 0.276886 0.949857 11.5354 0.0416995 0.984717 11.5419 
-0.134872 0.763144 11.254 0.0416995 0.984717 11.5419 -0.187331 0.978592 11.5516 
-0.134872 0.763144 11.254 -0.187331 0.978592 11.5516 -0.442499 0.921949 11.5562 
-0.407972 0.736353 11.3222 -0.442499 0.921949 11.5562 -0.687791 0.786098 11.5459 
-0.562689 0.55528 11.2099 -0.687791 0.786098 11.5459 -0.90044 0.588744 11.5233 
-0.773604 0.362193 11.2215 -0.90044 0.588744 11.5233 -1.13525 0.335559 11.568 
-0.886552 0.123837 11.2006 -1.13525 0.335559 11.568 -1.21905 -0.0520464 11.5108 
-0.925351 -0.101178 11.1764 -1.21905 -0.0520464 11.5108 -1.10998 -0.361551 11.3867 
-0.786328 -0.645923 11.1331 -1.13894 -0.755797 11.5049 -0.886414 -0.983519 11.4048 
-0.099468 -1.08351 11.1023 -0.345478 -1.26685 11.3295 -0.0420285 -1.34995 11.3577 
0.134869 -1.08653 11.1085 -0.0420285 -1.34995 11.3577 0.266757 -1.33577 11.3697 
0.407972 -1.07072 11.1799 0.266757 -1.33577 11.3697 0.538275 -1.2534 11.3927 
0.407972 -1.07072 11.1799 0.538275 -1.2534 11.3927 0.748115 -1.11173 11.3945 
0.764084 -0.687549 11.1296 0.748115 -1.11173 11.3945 0.987285 -0.85037 11.4136 
0.764084 -0.687549 11.1296 0.987285 -0.85037 11.4136 1.1164 -0.585021 11.4321 
0.886552 -0.446732 11.1557 1.1164 -0.585021 11.4321 1.20615 -0.297756 11.4762 
0.708694 0.153538 10.9717 0.991304 0.183738 11.3528 0.786328 0.324114 11.2094 
-0.303439 0.602302 11.0688 -0.407972 0.736353 11.3222 -0.562689 0.55528 11.2099 
-0.866884 -0.287393 11.0909 -1.10998 -0.361551 11.3867 -0.991304 -0.529709 11.2967 
-0.708694 -0.440268 10.925 -0.991304 -0.529709 11.2967 -0.786328 -0.645923 11.1331 
-0.371856 -0.959352 11.0456 -0.611877 -1.04264 11.2669 -0.345478 -1.26685 11.3295 
0.303439 -0.898694 10.9507 0.407972 -1.07072 11.1799 0.558352 -0.864969 11.0845 
0.717215 -0.048051 10.8738 0.925351 -0.220699 11.167 0.967778 -0.0189709 11.2505 
0.717215 -0.048051 10.8738 0.967778 -0.0189709 11.2505 0.708694 0.153538 10.9717 
0.572251 0.263532 10.8615 0.786328 0.324114 11.2094 0.649845 0.493714 11.2193 
0.455145 0.402205 10.8839 0.649845 0.493714 11.2193 0.417097 0.613775 11.1621 
0.277071 0.528542 10.921 0.417097 0.613775 11.1621 0.167782 0.750426 11.2402 
0.00587748 0.581389 10.917 0.167782 0.750426 11.2402 -0.134872 0.763144 11.254 
-0.613944 0.247703 10.9031 -0.773604 0.362193 11.2215 -0.886552 0.123837 11.2006 
-0.702439 0.0283995 10.8766 -0.886552 0.123837 11.2006 -0.925351 -0.101178 11.1764 
-0.717215 -0.225835 10.8598 -0.925351 -0.101178 11.1764 -0.866884 -0.287393 11.0909 
-0.717215 -0.225835 10.8598 -0.866884 -0.287393 11.0909 -0.708694 -0.440268 10.925 
-0.572251 -0.531662 10.7989 -0.786328 -0.645923 11.1331 -0.649845 -0.814977 11.1163 
-0.455145 -0.67213 10.7993 -0.649845 -0.814977 11.1163 -0.371856 -0.959352 11.0456 
-0.277071 -0.802719 10.8162 -0.371856 -0.959352 11.0456 -0.099468 -1.08351 11.1023 
-0.00746746 -0.855691 10.8053 -0.099468 -1.08351 11.1023 0.134869 -1.08653 11.1085 
0.613944 -0.522543 10.8425 0.764084 -0.687549 11.1296 0.886552 -0.446732 11.1557 
0.702439 -0.301794 10.8507 0.886552 -0.446732 11.1557 0.925351 -0.220699 11.167 
-0.083232 0.441775 10.61 0.00587748 0.581389 10.917 -0.303439 0.602302 11.0688 
-0.289338 0.444291 10.7712 -0.303439 0.602302 11.0688 -0.562689 0.55528 11.2099 
-0.421764 0.348576 10.7441 -0.562689 0.55528 11.2099 -0.613944 0.247703 10.9031 
0.083232 -0.668365 10.5226 -0.00746746 -0.855691 10.8053 0.303439 -0.898694 10.9507 
0.289338 -0.69607 10.6815 0.303439 -0.898694 10.9507 0.558352 -0.864969 11.0845 
0.421764 -0.597291 10.6696 0.558352 -0.864969 11.0845 0.613944 -0.522543 10.8425 
0.533717 0.0747548 10.5841 0.717215 -0.048051 10.8738 0.708694 0.153538 10.9717 
0.352382 0.305781 10.558 0.455145 0.402205 10.8839 0.277071 0.528542 10.921 
0.140543 0.420731 10.5669 0.277071 0.528542 10.921 0.00587748 0.581389 10.917 
-0.457084 0.166132 10.5139 -0.613944 0.247703 10.9031 -0.702439 0.0283995 10.8766 
-0.577802 -0.0538606 10.5984 -0.702439 0.0283995 10.8766 -0.717215 -0.225835 10.8598 
-0.533717 -0.301809 10.5544 -0.717215 -0.225835 10.8598 -0.708694 -0.440268 10.925 
-0.352382 -0.525917 10.4926 -0.455145 -0.67213 10.7993 -0.277071 -0.802719 10.8162 
-0.140543 -0.640845 10.4834 -0.277071 -0.802719 10.8162 -0.00746746 -0.855691 10.8053 
0.457084 -0.381083 10.4708 0.613944 -0.522543 10.8425 0.702439 -0.301794 10.8507 
0.577802 -0.177023 10.5887 0.702439 -0.301794 10.8507 0.717215 -0.048051 10.8738 
-0.13658 0.347064 10.3402 -0.083232 0.441775 10.61 -0.289338 0.444291 10.7712 
-0.13658 0.347064 10.3402 -0.289338 0.444291 10.7712 -0.421764 0.348576 10.7441 
0.13658 -0.532612 10.2709 0.083232 -0.668365 10.5226 0.289338 -0.69607 10.6815 
0.13658 -0.532612 10.2709 0.289338 -0.69607 10.6815 0.421764 -0.597291 10.6696 
0.422514 -0.0103878 10.2019 0.577802 -0.177023 10.5887 0.533717 0.0747548 10.5841 
0.422514 -0.0103878 10.2019 0.533717 0.0747548 10.5841 0.38901 0.178242 10.3745 
0.225113 0.291299 10.2593 0.352382 0.305781 10.558 0.140543 0.420731 10.5669 
0.0338038 0.324874 10.169 0.140543 0.420731 10.5669 -0.083232 0.441775 10.61 
-0.422514 -0.15793 10.1903 -0.577802 -0.0538606 10.5984 -0.533717 -0.301809 10.5544 
-0.422514 -0.15793 10.1903 -0.533717 -0.301809 10.5544 -0.38901 -0.371234 10.3312 
-0.225113 -0.464881 10.1998 -0.352382 -0.525917 10.4926 -0.140543 -0.640845 10.4834 
-0.0338038 -0.483919 10.1053 -0.140543 -0.640845 10.4834 0.083232 -0.668365 10.5226 
0.335559 0.0741035 9.96393 0.422514 -0.0103878 10.2019 0.38901 0.178242 10.3745 
0.217337 0.223947 9.92211 0.38901 0.178242 10.3745 0.225113 0.291299 10.2593 
-0.109011 0.292493 10.0218 0.0338038 0.324874 10.169 -0.13658 0.347064 10.3402 
-0.109011 0.292493 10.0218 -0.13658 0.347064 10.3402 -0.289047 0.285454 10.3925 
-0.291225 0.192364 10.0988 -0.289047 0.285454 10.3925 -0.457084 0.166132 10.5139 
-0.335559 -0.204155 9.94203 -0.422514 -0.15793 10.1903 -0.38901 -0.371234 10.3312 
-0.217337 -0.345612 9.87729 -0.38901 -0.371234 10.3312 -0.225113 -0.464881 10.1998 
0.109011 -0.428914 9.96505 -0.0338038 -0.483919 10.1053 0.13658 -0.532612 10.2709 
0.109011 -0.428914 9.96505 0.13658 -0.532612 10.2709 0.289047 -0.479949 10.3323 
0.291225 -0.342054 10.0567 0.289047 -0.479949 10.3323 0.457084 -0.381083 10.4708 
0.342425 -0.042287 9.83319 0.408907 -0.215838 10.1978 0.422514 -0.0103878 10.2019 
-0.310583 0.0881975 9.82874 -0.291225 0.192364 10.0988 -0.408907 0.0456283 10.2184 
-0.342425 -0.0687458 9.83111 -0.408907 0.0456283 10.2184 -0.422514 -0.15793 10.1903 
0.310583 -0.196927 9.8063 0.291225 -0.342054 10.0567 0.408907 -0.215838 10.1978 
0.072203 0.266895 9.67236 0.217337 0.223947 9.92211 0.0338038 0.324874 10.169 
0.072203 0.266895 9.67236 0.0338038 0.324874 10.169 -0.109011 0.292493 10.0218 
-0.072203 -0.348962 9.62389 -0.217337 -0.345612 9.87729 -0.0338038 -0.483919 10.1053 
-0.072203 -0.348962 9.62389 -0.0338038 -0.483919 10.1053 0.109011 -0.428914 9.96505 
0.287987 0.0980045 9.56488 0.342425 -0.042287 9.83319 0.335559 0.0741035 9.96393 
0.287987 0.0980045 9.56488 0.335559 0.0741035 9.96393 0.217337 0.223947 9.92211 
-0.254711 0.143011 9.54103 -0.193454 0.218752 9.76505 -0.310583 0.0881975 9.82874 
-0.306694 0.0178187 9.53492 -0.310583 0.0881975 9.82874 -0.342425 -0.0687458 9.83111 
-0.287987 -0.165337 9.54415 -0.342425 -0.0687458 9.83111 -0.335559 -0.204155 9.94203 
-0.287987 -0.165337 9.54415 -0.335559 -0.204155 9.94203 -0.217337 -0.345612 9.87729 
0.254711 -0.206059 9.51356 0.193454 -0.315911 9.72297 0.310583 -0.196927 9.8063 
0.306694 -0.0814528 9.52711 0.310583 -0.196927 9.8063 0.342425 -0.042287 9.83319 
0.300117 0.00605977 9.34342 0.306694 -0.0814528 9.52711 0.287987 0.0980045 9.56488 
0.287987 0.0980045 9.56488 0.216877 0.191169 9.35799 0.231483 0.174964 9.35676 
0.216877 0.191169 9.35799 0.287987 0.0980045 9.56488 0.182371 0.217115 9.54854 
0.145683 0.245688 9.36396 0.182371 0.217115 9.54854 0.072203 0.266895 9.67236 
0.0449797 0.28116 9.35296 0.072203 0.266895 9.67236 -0.0508787 0.271819 9.68455 
-0.0508787 0.271819 9.68455 -0.0115291 0.282941 9.36521 0.00845798 0.28339 9.36214 
-0.0906628 0.267741 9.38585 -0.0508787 0.271819 9.68455 -0.193454 0.218752 9.76505 
-0.193454 0.218752 9.76505 -0.12313 0.256906 9.36316 -0.0906628 0.267741 9.38585 
-0.198638 0.20876 9.35881 -0.193454 0.218752 9.76505 -0.254711 0.143011 9.54103 
-0.265218 0.128783 9.31495 -0.254711 0.143011 9.54103 -0.306694 0.0178187 9.53492 
-0.306694 0.0178187 9.53492 -0.286972 0.0736274 9.34874 -0.280474 0.0925301 9.34754 
-0.300117 -0.0398808 9.3398 -0.306694 0.0178187 9.53492 -0.287987 -0.165337 9.54415 
-0.287987 -0.165337 9.54415 -0.216877 -0.22499 9.32524 -0.231483 -0.208793 9.32656 
-0.216877 -0.22499 9.32524 -0.287987 -0.165337 9.54415 -0.182371 -0.280425 9.50938 
-0.145683 -0.279772 9.32261 -0.182371 -0.280425 9.50938 -0.072203 -0.348962 9.62389 
-0.0449797 -0.313087 9.30619 -0.072203 -0.348962 9.62389 0.0508787 -0.355733 9.63516 
0.0508787 -0.355733 9.63516 0.0115291 -0.316762 9.31801 -0.00845798 -0.316725 9.31491 
0.0906628 -0.304977 9.34077 0.0508787 -0.355733 9.63516 0.193454 -0.315911 9.72297 
0.193454 -0.315911 9.72297 0.12313 -0.290727 9.32006 0.0906628 -0.304977 9.34077 
0.198638 -0.242493 9.3233 0.193454 -0.315911 9.72297 0.254711 -0.206059 9.51356 
0.265218 -0.156639 9.29248 0.254711 -0.206059 9.51356 0.306694 -0.0814528 9.52711 
0.306694 -0.0814528 9.52711 0.286972 -0.107448 9.33449 0.280474 -0.12593 9.33034 
0.306694 -0.0814528 9.52711 0.301002 -0.0259271 9.30676 0.297307 -0.0648506 9.34216 
0.297307 -0.0648506 9.34216 0.293082 -0.085283 9.33623 0.306694 -0.0814528 9.52711 
0.306694 -0.0814528 9.52711 0.293082 -0.085283 9.33623 0.286972 -0.107448 9.33449 
0.306694 -0.0814528 9.52711 0.280474 -0.12593 9.33034 0.265218 -0.156639 9.29248 
0.254711 -0.206059 9.51356 0.265218 -0.156639 9.29248 0.246197 -0.189548 9.32803 
0.254711 -0.206059 9.51356 0.246197 -0.189548 9.32803 0.231792 -0.208626 9.32903 
0.231792 -0.208626 9.32903 0.216877 -0.22499 9.32524 0.254711 -0.206059 9.51356 
0.254711 -0.206059 9.51356 0.216877 -0.22499 9.32524 0.198638 -0.242493 9.3233 
0.198638 -0.242493 9.3233 0.182474 -0.255556 9.32283 0.193454 -0.315911 9.72297 
0.193454 -0.315911 9.72297 0.182474 -0.255556 9.32283 0.155215 -0.273185 9.30402 
0.193454 -0.315911 9.72297 0.155215 -0.273185 9.30402 0.12313 -0.290727 9.32006 
0.0508787 -0.355733 9.63516 0.0906628 -0.304977 9.34077 0.0558809 -0.312598 9.32767 
0.0558809 -0.312598 9.32767 0.0345197 -0.315003 9.31815 0.0508787 -0.355733 9.63516 
0.0508787 -0.355733 9.63516 0.0345197 -0.315003 9.31815 0.0115291 -0.316762 9.31801 
0.0508787 -0.355733 9.63516 -0.00845798 -0.316725 9.31491 -0.0449797 -0.313087 9.30619 
-0.072203 -0.348962 9.62389 -0.0449797 -0.313087 9.30619 -0.0797594 -0.306256 9.31884 
-0.072203 -0.348962 9.62389 -0.0797594 -0.306256 9.31884 -0.102095 -0.299343 9.32089 
-0.102095 -0.299343 9.32089 -0.12313 -0.290727 9.32006 -0.072203 -0.348962 9.62389 
-0.072203 -0.348962 9.62389 -0.12313 -0.290727 9.32006 -0.145683 -0.279772 9.32261 
-0.145683 -0.279772 9.32261 -0.163614 -0.268781 9.32179 -0.182371 -0.280425 9.50938 
-0.182371 -0.280425 9.50938 -0.163614 -0.268781 9.32179 -0.190527 -0.247332 9.29154 
-0.182371 -0.280425 9.50938 -0.190527 -0.247332 9.29154 -0.216877 -0.22499 9.32524 
-0.287987 -0.165337 9.54415 -0.231483 -0.208793 9.32656 -0.246197 -0.189548 9.32803 
-0.287987 -0.165337 9.54415 -0.246197 -0.189548 9.32803 -0.259365 -0.169576 9.3326 
-0.259365 -0.169576 9.3326 -0.269746 -0.150058 9.33113 -0.287987 -0.165337 9.54415 
-0.287987 -0.165337 9.54415 -0.269746 -0.150058 9.33113 -0.280176 -0.127157 9.33585 
-0.280176 -0.127157 9.33585 -0.286972 -0.107448 9.33449 -0.287987 -0.165337 9.54415 
-0.287987 -0.165337 9.54415 -0.286972 -0.107448 9.33449 -0.295717 -0.0724213 9.30179 
-0.287987 -0.165337 9.54415 -0.295717 -0.0724213 9.30179 -0.300117 -0.0398808 9.3398 
-0.306694 0.0178187 9.53492 -0.300117 -0.0398808 9.3398 -0.301002 -0.00255331 9.3086 
-0.306694 0.0178187 9.53492 -0.301002 -0.00255331 9.3086 -0.297307 0.030354 9.34965 
-0.297307 0.030354 9.34965 -0.293082 0.051462 9.34699 -0.306694 0.0178187 9.53492 
-0.306694 0.0178187 9.53492 -0.293082 0.051462 9.34699 -0.286972 0.0736274 9.34874 
-0.306694 0.0178187 9.53492 -0.280474 0.0925301 9.34754 -0.265218 0.128783 9.31495 
-0.254711 0.143011 9.54103 -0.265218 0.128783 9.31495 -0.246197 0.155727 9.3552 
-0.254711 0.143011 9.54103 -0.246197 0.155727 9.3552 -0.231792 0.174413 9.35918 
-0.231792 0.174413 9.35918 -0.216877 0.191169 9.35799 -0.254711 0.143011 9.54103 
-0.254711 0.143011 9.54103 -0.216877 0.191169 9.35799 -0.198638 0.20876 9.35881 
-0.198638 0.20876 9.35881 -0.182474 0.221735 9.36039 -0.193454 0.218752 9.76505 
-0.193454 0.218752 9.76505 -0.182474 0.221735 9.36039 -0.155215 0.242089 9.34458 
-0.193454 0.218752 9.76505 -0.155215 0.242089 9.34458 -0.12313 0.256906 9.36316 
-0.0508787 0.271819 9.68455 -0.0906628 0.267741 9.38585 -0.0558809 0.277319 9.37409 
-0.0558809 0.277319 9.37409 -0.0345197 0.281182 9.36507 -0.0508787 0.271819 9.68455 
-0.0508787 0.271819 9.68455 -0.0345197 0.281182 9.36507 -0.0115291 0.282941 9.36521 
-0.0508787 0.271819 9.68455 0.00845798 0.28339 9.36214 0.0449797 0.28116 9.35296 
0.072203 0.266895 9.67236 0.0449797 0.28116 9.35296 0.0797594 0.272435 9.36438 
0.072203 0.266895 9.67236 0.0797594 0.272435 9.36438 0.102095 0.265286 9.36533 
0.102095 0.265286 9.36533 0.12313 0.256906 9.36316 0.072203 0.266895 9.67236 
0.072203 0.266895 9.67236 0.12313 0.256906 9.36316 0.145683 0.245688 9.36396 
0.145683 0.245688 9.36396 0.163614 0.23496 9.36143 0.182371 0.217115 9.54854 
0.182371 0.217115 9.54854 0.163614 0.23496 9.36143 0.190527 0.218507 9.3282 
0.182371 0.217115 9.54854 0.190527 0.218507 9.3282 0.216877 0.191169 9.35799 
0.287987 0.0980045 9.56488 0.231483 0.174964 9.35676 0.246197 0.155727 9.3552 
0.287987 0.0980045 9.56488 0.246197 0.155727 9.3552 0.259365 0.135286 9.35659 
0.259365 0.135286 9.35659 0.269746 0.116237 9.35209 0.287987 0.0980045 9.56488 
0.287987 0.0980045 9.56488 0.269746 0.116237 9.35209 0.280176 0.0928805 9.35317 
0.280176 0.0928805 9.35317 0.286972 0.0736274 9.34874 0.287987 0.0980045 9.56488 
0.287987 0.0980045 9.56488 0.286972 0.0736274 9.34874 0.295717 0.0441458 9.31097 
0.287987 0.0980045 9.56488 0.295717 0.0441458 9.31097 0.300117 0.00605977 9.34342 
0.306694 -0.0814528 9.52711 0.300117 0.00605977 9.34342 0.301002 -0.0259271 9.30676 
0.310583 -0.196927 9.8063 0.306694 -0.0814528 9.52711 0.254711 -0.206059 9.51356 
-0.217337 -0.345612 9.87729 -0.072203 -0.348962 9.62389 -0.182371 -0.280425 9.50938 
-0.217337 -0.345612 9.87729 -0.182371 -0.280425 9.50938 -0.287987 -0.165337 9.54415 
-0.342425 -0.0687458 9.83111 -0.287987 -0.165337 9.54415 -0.306694 0.0178187 9.53492 
-0.310583 0.0881975 9.82874 -0.306694 0.0178187 9.53492 -0.254711 0.143011 9.54103 
0.217337 0.223947 9.92211 0.072203 0.266895 9.67236 0.182371 0.217115 9.54854 
0.217337 0.223947 9.92211 0.182371 0.217115 9.54854 0.287987 0.0980045 9.56488 
0.342425 -0.042287 9.83319 0.287987 0.0980045 9.56488 0.306694 -0.0814528 9.52711 
0.109011 -0.428914 9.96505 0.193454 -0.315911 9.72297 0.0508787 -0.355733 9.63516 
0.109011 -0.428914 9.96505 0.0508787 -0.355733 9.63516 -0.072203 -0.348962 9.62389 
-0.109011 0.292493 10.0218 -0.193454 0.218752 9.76505 -0.0508787 0.271819 9.68455 
-0.109011 0.292493 10.0218 -0.0508787 0.271819 9.68455 0.072203 0.266895 9.67236 
0.408907 -0.215838 10.1978 0.342425 -0.042287 9.83319 0.310583 -0.196927 9.8063 
0.291225 -0.342054 10.0567 0.310583 -0.196927 9.8063 0.193454 -0.315911 9.72297 
0.291225 -0.342054 10.0567 0.193454 -0.315911 9.72297 0.109011 -0.428914 9.96505 
-0.225113 -0.464881 10.1998 -0.0338038 -0.483919 10.1053 -0.217337 -0.345612 9.87729 
-0.422514 -0.15793 10.1903 -0.335559 -0.204155 9.94203 -0.342425 -0.0687458 9.83111 
-0.408907 0.0456283 10.2184 -0.342425 -0.0687458 9.83111 -0.310583 0.0881975 9.82874 
-0.291225 0.192364 10.0988 -0.310583 0.0881975 9.82874 -0.193454 0.218752 9.76505 
-0.291225 0.192364 10.0988 -0.193454 0.218752 9.76505 -0.109011 0.292493 10.0218 
0.225113 0.291299 10.2593 0.0338038 0.324874 10.169 0.217337 0.223947 9.92211 
0.422514 -0.0103878 10.2019 0.335559 0.0741035 9.96393 0.342425 -0.042287 9.83319 
0.457084 -0.381083 10.4708 0.408907 -0.215838 10.1978 0.291225 -0.342054 10.0567 
0.289047 -0.479949 10.3323 0.291225 -0.342054 10.0567 0.109011 -0.428914 9.96505 
-0.38901 -0.371234 10.3312 -0.217337 -0.345612 9.87729 -0.335559 -0.204155 9.94203 
-0.457084 0.166132 10.5139 -0.408907 0.0456283 10.2184 -0.291225 0.192364 10.0988 
-0.289047 0.285454 10.3925 -0.291225 0.192364 10.0988 -0.109011 0.292493 10.0218 
0.38901 0.178242 10.3745 0.217337 0.223947 9.92211 0.335559 0.0741035 9.96393 
0.577802 -0.177023 10.5887 0.422514 -0.0103878 10.2019 0.408907 -0.215838 10.1978 
0.083232 -0.668365 10.5226 0.13658 -0.532612 10.2709 -0.0338038 -0.483919 10.1053 
-0.140543 -0.640845 10.4834 -0.0338038 -0.483919 10.1053 -0.225113 -0.464881 10.1998 
-0.352382 -0.525917 10.4926 -0.225113 -0.464881 10.1998 -0.38901 -0.371234 10.3312 
-0.577802 -0.0538606 10.5984 -0.422514 -0.15793 10.1903 -0.408907 0.0456283 10.2184 
-0.083232 0.441775 10.61 -0.13658 0.347064 10.3402 0.0338038 0.324874 10.169 
0.140543 0.420731 10.5669 0.0338038 0.324874 10.169 0.225113 0.291299 10.2593 
0.352382 0.305781 10.558 0.225113 0.291299 10.2593 0.38901 0.178242 10.3745 
0.577802 -0.177023 10.5887 0.408907 -0.215838 10.1978 0.457084 -0.381083 10.4708 
0.421764 -0.597291 10.6696 0.457084 -0.381083 10.4708 0.289047 -0.479949 10.3323 
0.421764 -0.597291 10.6696 0.289047 -0.479949 10.3323 0.13658 -0.532612 10.2709 
-0.572251 -0.531662 10.7989 -0.352382 -0.525917 10.4926 -0.38901 -0.371234 10.3312 
-0.572251 -0.531662 10.7989 -0.38901 -0.371234 10.3312 -0.533717 -0.301809 10.5544 
-0.577802 -0.0538606 10.5984 -0.408907 0.0456283 10.2184 -0.457084 0.166132 10.5139 
-0.421764 0.348576 10.7441 -0.457084 0.166132 10.5139 -0.289047 0.285454 10.3925 
-0.421764 0.348576 10.7441 -0.289047 0.285454 10.3925 -0.13658 0.347064 10.3402 
0.572251 0.263532 10.8615 0.352382 0.305781 10.558 0.38901 0.178242 10.3745 
0.572251 0.263532 10.8615 0.38901 0.178242 10.3745 0.533717 0.0747548 10.5841 
0.702439 -0.301794 10.8507 0.577802 -0.177023 10.5887 0.457084 -0.381083 10.4708 
0.613944 -0.522543 10.8425 0.457084 -0.381083 10.4708 0.421764 -0.597291 10.6696 
-0.00746746 -0.855691 10.8053 0.083232 -0.668365 10.5226 -0.140543 -0.640845 10.4834 
-0.277071 -0.802719 10.8162 -0.140543 -0.640845 10.4834 -0.352382 -0.525917 10.4926 
-0.455145 -0.67213 10.7993 -0.352382 -0.525917 10.4926 -0.572251 -0.531662 10.7989 
-0.708694 -0.440268 10.925 -0.572251 -0.531662 10.7989 -0.533717 -0.301809 10.5544 
-0.717215 -0.225835 10.8598 -0.533717 -0.301809 10.5544 -0.577802 -0.0538606 10.5984 
-0.702439 0.0283995 10.8766 -0.577802 -0.0538606 10.5984 -0.457084 0.166132 10.5139 
-0.613944 0.247703 10.9031 -0.457084 0.166132 10.5139 -0.421764 0.348576 10.7441 
0.00587748 0.581389 10.917 -0.083232 0.441775 10.61 0.140543 0.420731 10.5669 
0.277071 0.528542 10.921 0.140543 0.420731 10.5669 0.352382 0.305781 10.558 
0.455145 0.402205 10.8839 0.352382 0.305781 10.558 0.572251 0.263532 10.8615 
0.708694 0.153538 10.9717 0.572251 0.263532 10.8615 0.533717 0.0747548 10.5841 
0.717215 -0.048051 10.8738 0.533717 0.0747548 10.5841 0.577802 -0.177023 10.5887 
0.558352 -0.864969 11.0845 0.421764 -0.597291 10.6696 0.289338 -0.69607 10.6815 
0.303439 -0.898694 10.9507 0.289338 -0.69607 10.6815 0.083232 -0.668365 10.5226 
-0.562689 0.55528 11.2099 -0.421764 0.348576 10.7441 -0.289338 0.444291 10.7712 
-0.303439 0.602302 11.0688 -0.289338 0.444291 10.7712 -0.083232 0.441775 10.61 
0.925351 -0.220699 11.167 0.717215 -0.048051 10.8738 0.702439 -0.301794 10.8507 
0.886552 -0.446732 11.1557 0.702439 -0.301794 10.8507 0.613944 -0.522543 10.8425 
0.764084 -0.687549 11.1296 0.613944 -0.522543 10.8425 0.558352 -0.864969 11.0845 
0.134869 -1.08653 11.1085 0.303439 -0.898694 10.9507 -0.00746746 -0.855691 10.8053 
-0.099468 -1.08351 11.1023 -0.00746746 -0.855691 10.8053 -0.277071 -0.802719 10.8162 
-0.371856 -0.959352 11.0456 -0.277071 -0.802719 10.8162 -0.455145 -0.67213 10.7993 
-0.649845 -0.814977 11.1163 -0.455145 -0.67213 10.7993 -0.572251 -0.531662 10.7989 
-0.786328 -0.645923 11.1331 -0.572251 -0.531662 10.7989 -0.708694 -0.440268 10.925 
-0.925351 -0.101178 11.1764 -0.717215 -0.225835 10.8598 -0.702439 0.0283995 10.8766 
-0.886552 0.123837 11.2006 -0.702439 0.0283995 10.8766 -0.613944 0.247703 10.9031 
-0.773604 0.362193 11.2215 -0.613944 0.247703 10.9031 -0.562689 0.55528 11.2099 
-0.134872 0.763144 11.254 -0.303439 0.602302 11.0688 0.00587748 0.581389 10.917 
0.167782 0.750426 11.2402 0.00587748 0.581389 10.917 0.277071 0.528542 10.921 
0.417097 0.613775 11.1621 0.277071 0.528542 10.921 0.455145 0.402205 10.8839 
0.649845 0.493714 11.2193 0.455145 0.402205 10.8839 0.572251 0.263532 10.8615 
0.786328 0.324114 11.2094 0.572251 0.263532 10.8615 0.708694 0.153538 10.9717 
0.407972 -1.07072 11.1799 0.303439 -0.898694 10.9507 0.134869 -1.08653 11.1085 
-0.611877 -1.04264 11.2669 -0.371856 -0.959352 11.0456 -0.649845 -0.814977 11.1163 
-0.991304 -0.529709 11.2967 -0.708694 -0.440268 10.925 -0.866884 -0.287393 11.0909 
-1.10998 -0.361551 11.3867 -0.866884 -0.287393 11.0909 -0.925351 -0.101178 11.1764 
-0.407972 0.736353 11.3222 -0.303439 0.602302 11.0688 -0.134872 0.763144 11.254 
0.522003 0.752749 11.4021 0.167782 0.750426 11.2402 0.417097 0.613775 11.1621 
0.522003 0.752749 11.4021 0.417097 0.613775 11.1621 0.649845 0.493714 11.2193 
0.991304 0.183738 11.3528 0.708694 0.153538 10.9717 0.967778 -0.0189709 11.2505 
1.20615 -0.297756 11.4762 0.925351 -0.220699 11.167 0.886552 -0.446732 11.1557 
1.1164 -0.585021 11.4321 0.886552 -0.446732 11.1557 0.764084 -0.687549 11.1296 
0.748115 -1.11173 11.3945 0.764084 -0.687549 11.1296 0.558352 -0.864969 11.0845 
0.748115 -1.11173 11.3945 0.558352 -0.864969 11.0845 0.407972 -1.07072 11.1799 
0.266757 -1.33577 11.3697 0.407972 -1.07072 11.1799 0.134869 -1.08653 11.1085 
-0.0420285 -1.34995 11.3577 0.134869 -1.08653 11.1085 -0.099468 -1.08351 11.1023 
-0.345478 -1.26685 11.3295 -0.099468 -1.08351 11.1023 -0.371856 -0.959352 11.0456 
-0.886414 -0.983519 11.4048 -0.611877 -1.04264 11.2669 -0.649845 -0.814977 11.1163 
-0.886414 -0.983519 11.4048 -0.649845 -0.814977 11.1163 -0.786328 -0.645923 11.1331 
-1.13894 -0.755797 11.5049 -0.786328 -0.645923 11.1331 -0.991304 -0.529709 11.2967 
-1.21905 -0.0520464 11.5108 -0.925351 -0.101178 11.1764 -0.886552 0.123837 11.2006 
-1.13525 0.335559 11.568 -0.886552 0.123837 11.2006 -0.773604 0.362193 11.2215 
-0.90044 0.588744 11.5233 -0.773604 0.362193 11.2215 -0.562689 0.55528 11.2099 
-0.687791 0.786098 11.5459 -0.562689 0.55528 11.2099 -0.407972 0.736353 11.3222 
-0.442499 0.921949 11.5562 -0.407972 0.736353 11.3222 -0.134872 0.763144 11.254 
0.0416995 0.984717 11.5419 -0.134872 0.763144 11.254 0.167782 0.750426 11.2402 
0.276886 0.949857 11.5354 0.167782 0.750426 11.2402 0.522003 0.752749 11.4021 
0.880799 0.612624 11.5252 0.522003 0.752749 11.4021 0.649845 0.493714 11.2193 
0.880799 0.612624 11.5252 0.649845 0.493714 11.2193 0.786328 0.324114 11.2094 
1.05232 0.362449 11.5065 0.786328 0.324114 11.2094 0.991304 0.183738 11.3528 
-0.548432 -1.40026 11.4996 -0.345478 -1.26685 11.3295 -0.611877 -1.04264 11.2669 
-0.783375 -1.28451 11.5233 -0.611877 -1.04264 11.2669 -0.886414 -0.983519 11.4048 
-1.27698 -0.558845 11.5694 -0.991304 -0.529709 11.2967 -1.10998 -0.361551 11.3867 
0.782863 0.888896 11.6902 0.522003 0.752749 11.4021 0.880799 0.612624 11.5252 
1.22249 0.0776119 11.5408 0.991304 0.183738 11.3528 0.967778 -0.0189709 11.2505 
1.22249 0.0776119 11.5408 0.967778 -0.0189709 11.2505 1.20615 -0.297756 11.4762 
1.33857 -0.79415 11.656 1.1164 -0.585021 11.4321 0.987285 -0.85037 11.4136 
1.1278 -1.13053 11.6329 0.987285 -0.85037 11.4136 0.748115 -1.11173 11.3945 
0.83337 -1.39997 11.6065 0.748115 -1.11173 11.3945 0.538275 -1.2534 11.3927 
0.425414 -1.5231 11.5428 0.538275 -1.2534 11.3927 0.266757 -1.33577 11.3697 
0.0649912 -1.58811 11.5395 0.266757 -1.33577 11.3697 -0.0420285 -1.34995 11.3577 
-0.26671 -1.56411 11.5392 -0.0420285 -1.34995 11.3577 -0.345478 -1.26685 11.3295 
-0.26671 -1.56411 11.5392 -0.345478 -1.26685 11.3295 -0.548432 -1.40026 11.4996 
-1.05623 -1.11207 11.5769 -0.886414 -0.983519 11.4048 -1.13894 -0.755797 11.5049 
-1.46371 -0.275235 11.6994 -1.10998 -0.361551 11.3867 -1.21905 -0.0520464 11.5108 
-0.855728 0.988009 11.8019 -0.90044 0.588744 11.5233 -0.687791 0.786098 11.5459 
-0.855728 0.988009 11.8019 -0.687791 0.786098 11.5459 -0.442499 0.921949 11.5562 
-0.47629 1.18115 11.8149 -0.442499 0.921949 11.5562 -0.187331 0.978592 11.5516 
-0.0510425 1.25031 11.8162 -0.187331 0.978592 11.5516 0.0416995 0.984717 11.5419 
0.267858 1.1713 11.7581 0.0416995 0.984717 11.5419 0.276886 0.949857 11.5354 
0.267858 1.1713 11.7581 0.276886 0.949857 11.5354 0.548432 1.01183 11.6894 
1.11541 0.730348 11.7715 0.880799 0.612624 11.5252 1.05232 0.362449 11.5065 
1.34656 0.451112 11.7855 1.05232 0.362449 11.5065 1.22249 0.0776119 11.5408 
1.45933 -0.155236 11.7052 1.22249 0.0776119 11.5408 1.20615 -0.297756 11.4762 
1.58345 -0.520208 11.7918 1.20615 -0.297756 11.4762 1.33857 -0.79415 11.656 
0.298817 -1.79862 11.6934 0.425414 -1.5231 11.5428 0.0649912 -1.58811 11.5395 
-0.118773 -1.82214 11.6898 0.0649912 -1.58811 11.5395 -0.26671 -1.56411 11.5392 
-0.489035 -1.73742 11.6921 -0.26671 -1.56411 11.5392 -0.548432 -1.40026 11.4996 
-0.755903 -1.62896 11.7019 -0.548432 -1.40026 11.4996 -0.783375 -1.28451 11.5233 
-1.06242 -1.43016 11.7216 -0.783375 -1.28451 11.5233 -1.05623 -1.11207 11.5769 
-1.28718 -1.19006 11.7414 -1.05623 -1.11207 11.5769 -1.13894 -0.755797 11.5049 
-1.46091 -0.92693 11.7657 -1.13894 -0.755797 11.5049 -1.27698 -0.558845 11.5694 
-1.55994 -0.633776 11.7836 -1.27698 -0.558845 11.5694 -1.46371 -0.275235 11.6994 
-1.58467 0.0962254 11.8409 -1.21905 -0.0520464 11.5108 -1.13525 0.335559 11.568 
-1.46823 0.469506 11.868 -1.13525 0.335559 11.568 -1.13746 0.726647 11.786 
0.328316 1.38533 11.9512 0.267858 1.1713 11.7581 0.548432 1.01183 11.6894 
0.747948 1.20237 11.9192 0.548432 1.01183 11.6894 0.782863 0.888896 11.6902 
1.06301 1.01124 11.9156 0.782863 0.888896 11.6902 1.11541 0.730348 11.7715 
1.77667 -0.292028 11.9144 1.45933 -0.155236 11.7052 1.58345 -0.520208 11.7918 
1.43103 -1.26933 11.8366 1.33857 -0.79415 11.656 1.1278 -1.13053 11.6329 
1.20406 -1.53033 11.8198 1.1278 -1.13053 11.6329 0.83337 -1.39997 11.6065 
0.917228 -1.74485 11.8006 0.83337 -1.39997 11.6065 0.617445 -1.72742 11.7137 
-1.77358 -0.294026 11.9074 -1.46371 -0.275235 11.6994 -1.58467 0.0962254 11.8409 
-1.24302 1.04592 12.019 -1.13746 0.726647 11.786 -0.855728 0.988009 11.8019 
-0.978754 1.26756 12.0411 -0.855728 0.988009 11.8019 -0.47629 1.18115 11.8149 
-0.429014 1.51973 12.0687 -0.47629 1.18115 11.8149 -0.0510425 1.25031 11.8162 
-0.0999485 1.56114 12.0656 -0.0510425 1.25031 11.8162 0.328316 1.38533 11.9512 
1.4756 0.785342 12.0036 1.11541 0.730348 11.7715 1.34656 0.451112 11.7855 
1.70876 0.326549 11.9711 1.42014 0.18519 11.7445 1.45933 -0.155236 11.7052 
1.88857 -0.640621 11.9731 1.58345 -0.520208 11.7918 1.64073 -0.885749 11.8618 
0.562757 -1.9926 11.8252 0.617445 -1.72742 11.7137 0.298817 -1.79862 11.6934 
0.238081 -2.1106 11.8444 0.298817 -1.79862 11.6934 -0.118773 -1.82214 11.6898 
-0.318243 -2.09879 11.8453 -0.118773 -1.82214 11.6898 -0.489035 -1.73742 11.6921 
-0.609714 -2.04685 11.8585 -0.489035 -1.73742 11.6921 -0.755903 -1.62896 11.7019 
-1.06601 -1.75454 11.8481 -0.755903 -1.62896 11.7019 -1.06242 -1.43016 11.7216 
-1.37877 -1.54616 11.8917 -1.06242 -1.43016 11.7216 -1.28718 -1.19006 11.7414 
-1.56332 -1.32433 11.9096 -1.28718 -1.19006 11.7414 -1.46091 -0.92693 11.7657 
-1.69691 -0.992825 11.9054 -1.46091 -0.92693 11.7657 -1.55994 -0.633776 11.7836 
-1.84836 -0.698985 11.9567 -1.55994 -0.633776 11.7836 -1.77358 -0.294026 11.9074 
-1.82182 0.167154 11.9964 -1.58467 0.0962254 11.8409 -1.46823 0.469506 11.868 
-1.68819 0.575181 12.03 -1.46823 0.469506 11.868 -1.45401 0.844071 12.0191 
0.227119 1.67944 12.1517 -0.0999485 1.56114 12.0656 0.328316 1.38533 11.9512 
0.563004 1.54978 12.1056 0.328316 1.38533 11.9512 0.747948 1.20237 11.9192 
0.920206 1.39185 12.0918 0.747948 1.20237 11.9192 1.06301 1.01124 11.9156 
1.27359 1.12542 12.0675 1.06301 1.01124 11.9156 1.4756 0.785342 12.0036 
2.00971 -0.529031 12.028 2.02728 -0.380858 12.0401 1.77667 -0.292028 11.9144 
1.89174 -0.960572 11.9924 1.93999 -0.822069 12.0034 1.64073 -0.885749 11.8618 
1.83384 -1.10644 11.9831 1.89174 -0.960572 11.9924 1.64073 -0.885749 11.8618 
1.75737 -1.22884 11.9687 1.83384 -1.10644 11.9831 1.64073 -0.885749 11.8618 
1.68175 -1.35373 11.9595 1.75737 -1.22884 11.9687 1.43103 -1.26933 11.8366 
1.57828 -1.50052 11.9504 1.68175 -1.35373 11.9595 1.43103 -1.26933 11.8366 
0.394992 -2.21764 11.8953 0.541312 -2.18381 11.8983 0.562757 -1.9926 11.8252 
-0.0535005 -2.25299 11.8912 0.095385 -2.25615 11.8931 -0.000761073 -2.08514 11.8204 
-0.209214 -2.23844 11.8903 -0.0535005 -2.25299 11.8912 -0.000761073 -2.08514 11.8204 
-1.56332 -1.32433 11.9096 -1.69691 -0.992825 11.9054 -1.74355 -1.26912 11.9694 
-1.81761 -1.1388 11.9806 -1.74355 -1.26912 11.9694 -1.69691 -0.992825 11.9054 
-1.88088 -1.00275 11.9917 -1.81761 -1.1388 11.9806 -1.69691 -0.992825 11.9054 
-1.92961 -0.861043 12.0012 -1.88088 -1.00275 11.9917 -1.69691 -0.992825 11.9054 
-2.01495 -0.418753 12.0327 -2.00026 -0.578035 12.0234 -1.77358 -0.294026 11.9074 
-2.02106 -0.187784 12.0494 -2.01495 -0.418753 12.0327 -1.77358 -0.294026 11.9074 
-1.97367 0.0754682 12.0588 -2.02106 -0.187784 12.0494 -1.77358 -0.294026 11.9074 
-1.47069 1.16945 12.1622 -1.56928 1.05593 12.1525 -1.24302 1.04592 12.019 
-1.36358 1.27445 12.1709 -1.47069 1.16945 12.1622 -1.24302 1.04592 12.019 
-1.24612 1.36927 12.1771 -1.36358 1.27445 12.1709 -1.24302 1.04592 12.019 
-1.12457 1.45535 12.1834 -1.24612 1.36927 12.1771 -0.978754 1.26756 12.0411 
-0.99791 1.52583 12.186 -1.12457 1.45535 12.1834 -0.978754 1.26756 12.0411 
-0.834181 1.60053 12.1881 -0.99791 1.52583 12.186 -0.667326 1.41306 12.0422 
0.563004 1.54978 12.1056 0.920206 1.39185 12.0918 0.825732 1.62215 12.1979 
0.959018 1.55516 12.1918 0.825732 1.62215 12.1979 0.920206 1.39185 12.0918 
1.09116 1.47868 12.1859 0.959018 1.55516 12.1918 0.920206 1.39185 12.0918 
1.21236 1.39026 12.1769 1.09116 1.47868 12.1859 0.920206 1.39185 12.0918 
1.32553 1.29926 12.1696 1.21236 1.39026 12.1769 1.27359 1.12542 12.0675 
1.43917 1.19051 12.16 1.32553 1.29926 12.1696 1.27359 1.12542 12.0675 
1.53859 1.02615 12.1295 1.43917 1.19051 12.16 1.27359 1.12542 12.0675 
4.57933 -0.115564 13.2544 2.02725 -0.079624 12.0638 2.03315 -0.230235 12.0522 
2.03315 -0.230235 12.0522 4.58408 -0.323564 13.238 4.57933 -0.115564 13.2544 
4.56651 0.0633697 13.2676 4.53998 0.314907 13.2885 2.0097 0.0686456 12.075 
2.0097 0.0686456 12.075 2.02725 -0.079624 12.0638 4.56651 0.0633697 13.2676 
4.50827 0.504129 13.3032 4.47099 0.687211 13.3175 1.98348 0.218574 12.0877 
2.0097 0.0686456 12.075 4.53998 0.314907 13.2885 4.50827 0.504129 13.3032 
1.98348 0.218574 12.0877 2.0097 0.0686456 12.075 4.50827 0.504129 13.3032 
4.40675 0.936357 13.337 1.94186 0.363239 12.0977 1.98348 0.218574 12.0877 
1.98348 0.218574 12.0877 4.47099 0.687211 13.3175 4.40675 0.936357 13.337 
4.40675 0.936357 13.337 4.35323 1.1084 13.3507 1.94186 0.363239 12.0977 
4.35323 1.1084 13.3507 4.28596 1.29795 13.3656 1.89173 0.500453 12.1074 
1.89173 0.500453 12.1074 1.94186 0.363239 12.0977 4.35323 1.1084 13.3507 
4.28596 1.29795 13.3656 4.20457 1.49711 13.3813 1.89173 0.500453 12.1074 
4.20457 1.49711 13.3813 4.12941 1.66176 13.3942 1.82544 0.642482 12.1164 
1.82544 0.642482 12.1164 1.89173 0.500453 12.1074 4.20457 1.49711 13.3813 
4.01634 1.87989 13.4114 1.75207 0.766314 12.1229 1.82544 0.642482 12.1164 
1.82544 0.642482 12.1164 4.12941 1.66176 13.3942 4.01634 1.87989 13.4114 
4.01634 1.87989 13.4114 3.91673 2.05091 13.4249 1.75207 0.766314 12.1229 
3.91673 2.05091 13.4249 3.81648 2.20394 13.4356 1.68829 0.897905 12.1403 
1.68829 0.897905 12.1403 1.75207 0.766314 12.1229 3.91673 2.05091 13.4249 
3.62588 2.46223 13.4534 1.53859 1.02615 12.1295 1.68829 0.897905 12.1403 
1.68829 0.897905 12.1403 3.81648 2.20394 13.4356 3.62588 2.46223 13.4534 
1.53859 1.02615 12.1295 3.62588 2.46223 13.4534 3.42976 2.70895 13.4767 
3.42976 2.70895 13.4767 3.26084 2.8931 13.4925 1.43917 1.19051 12.16 
3.12888 3.01632 13.5009 1.32553 1.29926 12.1696 1.43917 1.19051 12.16 
1.32553 1.29926 12.1696 3.12888 3.01632 13.5009 2.97051 3.1572 13.512 
2.81127 3.28613 13.5221 1.21236 1.39026 12.1769 1.32553 1.29926 12.1696 
1.21236 1.39026 12.1769 2.81127 3.28613 13.5221 2.66726 3.39372 13.5305 
2.66726 3.39372 13.5305 2.45438 3.53654 13.5417 1.09116 1.47868 12.1859 
2.29204 3.63413 13.5495 0.959018 1.55516 12.1918 1.09116 1.47868 12.1859 
1.09116 1.47868 12.1859 2.45438 3.53654 13.5417 2.29204 3.63413 13.5495 
1.88305 3.84242 13.5651 0.825732 1.62215 12.1979 0.959018 1.55516 12.1918 
0.685361 1.67673 12.2016 1.88305 3.84242 13.5651 1.73012 3.90841 13.5711 
0.685361 1.67673 12.2016 1.73012 3.90841 13.5711 1.53848 3.9814 13.5768 
0.685361 1.67673 12.2016 0.825732 1.62215 12.1979 1.88305 3.84242 13.5651 
1.33693 4.04772 13.582 0.541382 1.72332 12.2058 0.685361 1.67673 12.2016 
0.685361 1.67673 12.2016 1.53848 3.9814 13.5768 1.33693 4.04772 13.582 
1.16394 4.09638 13.5855 0.919594 4.15372 13.5903 0.394957 1.75722 12.2081 
0.394957 1.75722 12.2081 0.541382 1.72332 12.2058 1.16394 4.09638 13.5855 
0.727414 4.18849 13.5931 0.227119 1.67944 12.1517 0.394957 1.75722 12.2081 
0.394957 1.75722 12.2081 0.919594 4.15372 13.5903 0.727414 4.18849 13.5931 
0.727414 4.18849 13.5931 0.544466 4.21401 13.5948 0.227119 1.67944 12.1517 
0.287115 4.23955 13.5979 0.0953936 1.7956 12.212 0.227119 1.67944 12.1517 
0.227119 1.67944 12.1517 0.544466 4.21401 13.5948 0.287115 4.23955 13.5979 
0.287115 4.23955 13.5979 0.104348 4.2452 13.5976 0.0953936 1.7956 12.212 
0.104348 4.2452 13.5976 -0.0940894 4.24562 13.5976 -0.0535274 1.79281 12.2097 
-0.0535274 1.79281 12.2097 0.0953936 1.7956 12.212 0.104348 4.2452 13.5976 
-0.341367 4.23782 13.5987 -0.209479 1.78089 12.2078 -0.0535274 1.79281 12.2097 
-0.0535274 1.79281 12.2097 -0.0940894 4.24562 13.5976 -0.341367 4.23782 13.5987 
-0.734276 4.18755 13.593 -0.351242 1.75798 12.2046 -0.209479 1.78089 12.2078 
-0.209479 1.78089 12.2078 -0.520661 4.21682 13.5953 -0.734276 4.18755 13.593 
-0.734276 4.18755 13.593 -0.932659 4.1508 13.5901 -0.351242 1.75798 12.2046 
-0.932659 4.1508 13.5901 -1.10939 4.10794 13.5853 -0.496443 1.72524 12.201 
-0.496443 1.72524 12.201 -0.351242 1.75798 12.2046 -0.932659 4.1508 13.5901 
-1.35829 4.04234 13.5819 -0.654576 1.68065 12.1986 -0.496443 1.72524 12.201 
-0.496443 1.72524 12.201 -1.10939 4.10794 13.5853 -1.35829 4.04234 13.5819 
-1.65544 3.93926 13.5735 -0.834181 1.60053 12.1881 -0.654576 1.68065 12.1986 
-1.65544 3.93926 13.5735 -1.94931 3.81663 13.5653 -0.834181 1.60053 12.1881 
-2.10898 3.73403 13.5573 -0.99791 1.52583 12.186 -0.834181 1.60053 12.1881 
-0.99791 1.52583 12.186 -2.10898 3.73403 13.5573 -2.29204 3.63413 13.5495 
-2.47036 3.52603 13.541 -1.12457 1.45535 12.1834 -0.99791 1.52583 12.186 
-1.12457 1.45535 12.1834 -2.47036 3.52603 13.541 -2.62072 3.42792 13.5338 
-2.62072 3.42792 13.5338 -2.82471 3.2768 13.5216 -1.24612 1.36927 12.1771 
-2.97315 3.15483 13.5118 -1.36358 1.27445 12.1709 -1.24612 1.36927 12.1771 
-1.36358 1.27445 12.1709 -2.97315 3.15483 13.5118 -3.11304 3.03108 13.5018 
-3.11304 3.03108 13.5018 -3.30557 2.84408 13.4874 -1.47069 1.16945 12.1622 
-1.56928 1.05593 12.1525 -3.30557 2.84408 13.4874 -3.49838 2.60767 13.4615 
-1.56928 1.05593 12.1525 -1.47069 1.16945 12.1622 -3.30557 2.84408 13.4874 
-3.68391 2.39614 13.4521 -1.66233 0.93651 12.1439 -1.56928 1.05593 12.1525 
-1.56928 1.05593 12.1525 -3.49838 2.60767 13.4615 -3.68391 2.39614 13.4521 
-3.78843 2.24977 13.4403 -3.92219 2.04228 13.4242 -1.74411 0.810419 12.1337 
-1.74411 0.810419 12.1337 -1.66233 0.93651 12.1439 -3.78843 2.24977 13.4403 
-4.02108 1.87073 13.4107 -1.81719 0.677382 12.1231 -1.74411 0.810419 12.1337 
-1.74411 0.810419 12.1337 -3.92219 2.04228 13.4242 -4.02108 1.87073 13.4107 
-4.02108 1.87073 13.4107 -4.10539 1.70912 13.3976 -1.81719 0.677382 12.1231 
-4.21571 1.4759 13.3802 -1.88091 0.542216 12.1133 -1.81719 0.677382 12.1231 
-1.81719 0.677382 12.1231 -4.10539 1.70912 13.3976 -4.21571 1.4759 13.3802 
-4.21571 1.4759 13.3802 -4.28334 1.30444 13.3661 -1.88091 0.542216 12.1133 
-4.28334 1.30444 13.3661 -4.34919 1.12115 13.3517 -1.92964 0.400768 12.1005 
-1.92964 0.400768 12.1005 -1.88091 0.542216 12.1133 -4.28334 1.30444 13.3661 
-4.4259 0.882699 13.3347 -1.96644 0.256604 12.087 -1.92964 0.400768 12.1005 
-1.92964 0.400768 12.1005 -4.34919 1.12115 13.3517 -4.4259 0.882699 13.3347 
-4.4259 0.882699 13.3347 -4.46581 0.707831 13.3192 -1.96644 0.256604 12.087 
-4.46581 0.707831 13.3192 -4.51822 0.42069 13.2939 -1.97367 0.0754682 12.0588 
-1.97367 0.0754682 12.0588 -1.96644 0.256604 12.087 -4.46581 0.707831 13.3192 
-4.51822 0.42069 13.2939 -4.56348 0.120361 13.2732 -1.97367 0.0754682 12.0588 
-4.56348 0.120361 13.2732 -2.02106 -0.187784 12.0494 -1.97367 0.0754682 12.0588 
-2.02106 -0.187784 12.0494 -4.56348 0.120361 13.2732 -4.58065 -0.134903 13.2529 
-4.57322 -0.445128 13.2233 -4.56262 -0.766649 13.2029 -2.01495 -0.418753 12.0327 
-4.54139 -0.945839 13.189 -2.00026 -0.578035 12.0234 -2.01495 -0.418753 12.0327 
-2.00026 -0.578035 12.0234 -4.54139 -0.945839 13.189 -4.50898 -1.14784 13.1731 
-4.46581 -1.35496 13.1568 -1.84836 -0.698985 11.9567 -2.00026 -0.578035 12.0234 
-1.84836 -0.698985 11.9567 -4.46581 -1.35496 13.1568 -4.42262 -1.52913 13.1433 
-4.42262 -1.52913 13.1433 -4.34928 -1.76826 13.1243 -1.92961 -0.861043 12.0012 
-4.28334 -1.95157 13.1099 -1.88088 -1.00275 11.9917 -1.92961 -0.861043 12.0012 
-1.88088 -1.00275 11.9917 -4.28334 -1.95157 13.1099 -4.21424 -2.12208 13.0962 
-4.21424 -2.12208 13.0962 -4.10297 -2.3642 13.0776 -1.81761 -1.1388 11.9806 
-1.74355 -1.26912 11.9694 -4.10297 -2.3642 13.0776 -4.02108 -2.51786 13.0653 
-1.74355 -1.26912 11.9694 -4.02108 -2.51786 13.0653 -3.92442 -2.68436 13.0519 
-1.74355 -1.26912 11.9694 -1.81761 -1.1388 11.9806 -4.10297 -2.3642 13.0776 
-1.56332 -1.32433 11.9096 -3.92442 -2.68436 13.0519 -3.78917 -2.89598 13.0354 
-1.56332 -1.32433 11.9096 -1.74355 -1.26912 11.9694 -3.92442 -2.68436 13.0519 
-3.68391 -3.04327 13.024 -3.55161 -3.2131 13.0106 -1.57074 -1.51662 11.9507 
-1.56332 -1.32433 11.9096 -3.78917 -2.89598 13.0354 -3.68391 -3.04327 13.024 
-1.57074 -1.51662 11.9507 -1.56332 -1.32433 11.9096 -3.68391 -3.04327 13.024 
-3.42057 -3.36596 12.9986 -1.37877 -1.54616 11.8917 -1.57074 -1.51662 11.9507 
-1.57074 -1.51662 11.9507 -3.55161 -3.2131 13.0106 -3.42057 -3.36596 12.9986 
-3.42057 -3.36596 12.9986 -3.2969 -3.49777 12.9876 -1.37877 -1.54616 11.8917 
-3.11341 -3.67832 12.9739 -1.36358 -1.73493 11.934 -1.37877 -1.54616 11.8917 
-1.37877 -1.54616 11.8917 -3.2969 -3.49777 12.9876 -3.11341 -3.67832 12.9739 
-3.11341 -3.67832 12.9739 -2.97315 -3.80196 12.9643 -1.36358 -1.73493 11.934 
-2.97315 -3.80196 12.9643 -2.82483 -3.92411 12.955 -1.24612 -1.8296 11.9253 
-1.24612 -1.8296 11.9253 -1.36358 -1.73493 11.934 -2.97315 -3.80196 12.9643 
-2.62038 -4.07459 12.943 -1.12456 -1.9156 11.9181 -1.24612 -1.8296 11.9253 
-1.24612 -1.8296 11.9253 -2.82483 -3.92411 12.955 -2.62038 -4.07459 12.943 
-2.62038 -4.07459 12.943 -2.47036 -4.17316 12.935 -1.12456 -1.9156 11.9181 
-2.47036 -4.17316 12.935 -2.29204 -4.28126 12.9265 -0.997976 -1.98569 11.9097 
-0.997976 -1.98569 11.9097 -1.12456 -1.9156 11.9181 -2.47036 -4.17316 12.935 
-2.29204 -4.28126 12.9265 -2.10898 -4.38116 12.9187 -0.997976 -1.98569 11.9097 
-2.10898 -4.38116 12.9187 -1.9479 -4.46114 12.9124 -0.795108 -1.95652 11.8582 
-0.795108 -1.95652 11.8582 -0.997976 -1.98569 11.9097 -2.10898 -4.38116 12.9187 
-0.795108 -1.95652 11.8582 -1.9479 -4.46114 12.9124 -1.71488 -4.56214 12.9044 
-1.71488 -4.56214 12.9044 -1.53512 -4.62965 12.8991 -0.609714 -2.04685 11.8585 
-1.53512 -4.62965 12.8991 -1.35843 -4.69004 12.8949 -0.609714 -2.04685 11.8585 
-1.35843 -4.69004 12.8949 -1.10999 -4.7576 12.8888 -0.498536 -2.19415 11.8968 
-0.932659 -4.79793 12.8859 -0.318243 -2.09879 11.8453 -0.498536 -2.19415 11.8968 
-0.318243 -2.09879 11.8453 -0.932659 -4.79793 12.8859 -0.7343 -4.83466 12.883 
-0.7343 -4.83466 12.883 -0.493913 -4.86746 12.8804 -0.209214 -2.23844 11.8903 
-0.312829 -4.88286 12.8792 -0.0940996 -4.89276 12.8784 -0.0535005 -2.25299 11.8912 
-0.209214 -2.23844 11.8903 -0.493913 -4.86746 12.8804 -0.312829 -4.88286 12.8792 
0.104348 -4.89233 12.8784 0.095385 -2.25615 11.8931 -0.0535005 -2.25299 11.8912 
0.095385 -2.25615 11.8931 0.104348 -4.89233 12.8784 0.286778 -4.882 12.8778 
0.286778 -4.882 12.8778 0.544612 -4.86224 12.881 0.238081 -2.1106 11.8444 
0.727414 -4.83561 12.8829 0.919586 -4.80077 12.8856 0.394992 -2.21764 11.8953 
0.238081 -2.1106 11.8444 0.544612 -4.86224 12.881 0.727414 -4.83561 12.8829 
1.16479 -4.74672 12.891 0.541312 -2.18381 11.8983 0.394992 -2.21764 11.8953 
1.33693 -4.69484 12.894 1.53848 -4.62854 12.8992 0.68538 -2.13815 11.9018 
0.541312 -2.18381 11.8983 1.16479 -4.74672 12.891 1.33693 -4.69484 12.894 
0.68538 -2.13815 11.9018 0.541312 -2.18381 11.8983 1.33693 -4.69484 12.894 
1.73012 -4.55553 12.9049 0.825782 -2.08199 11.9062 0.68538 -2.13815 11.9018 
0.68538 -2.13815 11.9018 1.53848 -4.62854 12.8992 1.73012 -4.55553 12.9049 
1.73012 -4.55553 12.9049 1.89577 -4.48349 12.9099 0.825782 -2.08199 11.9062 
1.89577 -4.48349 12.9099 2.12608 -4.37254 12.9192 0.959022 -2.01548 11.9107 
0.959022 -2.01548 11.9107 0.825782 -2.08199 11.9062 1.89577 -4.48349 12.9099 
2.29204 -4.28126 12.9265 2.45485 -4.18453 12.9345 1.09237 -1.94189 11.9181 
0.959022 -2.01548 11.9107 2.12608 -4.37254 12.9192 2.29204 -4.28126 12.9265 
1.09237 -1.94189 11.9181 0.959022 -2.01548 11.9107 2.29204 -4.28126 12.9265 
2.6673 -4.04076 12.9454 1.21229 -1.85024 11.9219 1.09237 -1.94189 11.9181 
1.09237 -1.94189 11.9181 2.45485 -4.18453 12.9345 2.6673 -4.04076 12.9454 
2.6673 -4.04076 12.9454 2.81127 -3.93326 12.9539 1.21229 -1.85024 11.9219 
2.81127 -3.93326 12.9539 2.97052 -3.80432 12.9641 1.32557 -1.75928 11.9289 
1.32557 -1.75928 11.9289 1.21229 -1.85024 11.9219 2.81127 -3.93326 12.9539 
2.97052 -3.80432 12.9641 3.12888 -3.66345 12.9752 1.32557 -1.75928 11.9289 
3.12888 -3.66345 12.9752 3.25865 -3.53804 12.9848 1.44419 -1.65563 11.9393 
1.44419 -1.65563 11.9393 1.32557 -1.75928 11.9289 3.12888 -3.66345 12.9752 
3.47251 -3.30524 13.0022 1.57828 -1.50052 11.9504 1.44419 -1.65563 11.9393 
1.44419 -1.65563 11.9393 3.25865 -3.53804 12.9848 3.47251 -3.30524 13.0022 
3.47251 -3.30524 13.0022 3.66974 -3.06283 13.0223 1.57828 -1.50052 11.9504 
3.66974 -3.06283 13.0223 3.81919 -2.85269 13.0391 1.68175 -1.35373 11.9595 
3.91673 -2.69804 13.0511 1.75737 -1.22884 11.9687 1.68175 -1.35373 11.9595 
1.75737 -1.22884 11.9687 3.91673 -2.69804 13.0511 4.01637 -2.5269 13.0646 
4.01637 -2.5269 13.0646 4.12995 -2.3091 13.082 1.83384 -1.10644 11.9831 
4.20457 -2.14424 13.0947 1.89174 -0.960572 11.9924 1.83384 -1.10644 11.9831 
1.89174 -0.960572 11.9924 4.20457 -2.14424 13.0947 4.28599 -1.94511 13.1104 
4.35323 -1.75553 13.1253 1.93999 -0.822069 12.0034 1.89174 -0.960572 11.9924 
1.93999 -0.822069 12.0034 4.35323 -1.75553 13.1253 4.40742 -1.58331 13.139 
4.40742 -1.58331 13.139 4.47048 -1.33381 13.1582 1.88857 -0.640621 11.9731 
4.50827 -1.15126 13.1729 2.00971 -0.529031 12.028 1.88857 -0.640621 11.9731 
1.88857 -0.640621 11.9731 4.47048 -1.33381 13.1582 4.50827 -1.15126 13.1729 
4.56699 -0.710477 13.207 2.02728 -0.380858 12.0401 2.00971 -0.529031 12.028 
4.57933 -0.531563 13.2216 4.58408 -0.323564 13.238 2.03315 -0.230235 12.0522 
2.02728 -0.380858 12.0401 4.56699 -0.710477 13.207 4.57933 -0.531563 13.2216 
2.03315 -0.230235 12.0522 2.02728 -0.380858 12.0401 4.57933 -0.531563 13.2216 
2.00971 -0.529031 12.028 4.54012 -0.962224 13.188 4.56699 -0.710477 13.207 
4.50827 -1.15126 13.1729 4.54012 -0.962224 13.188 2.00971 -0.529031 12.028 
1.88857 -0.640621 11.9731 1.93999 -0.822069 12.0034 4.40742 -1.58331 13.139 
1.89174 -0.960572 11.9924 4.28599 -1.94511 13.1104 4.35323 -1.75553 13.1253 
1.83384 -1.10644 11.9831 4.12995 -2.3091 13.082 4.20457 -2.14424 13.0947 
1.83384 -1.10644 11.9831 1.75737 -1.22884 11.9687 4.01637 -2.5269 13.0646 
1.68175 -1.35373 11.9595 3.81919 -2.85269 13.0391 3.91673 -2.69804 13.0511 
1.68175 -1.35373 11.9595 1.57828 -1.50052 11.9504 3.66974 -3.06283 13.0223 
0.394992 -2.21764 11.8953 0.919586 -4.80077 12.8856 1.16479 -4.74672 12.891 
0.394992 -2.21764 11.8953 0.238081 -2.1106 11.8444 0.727414 -4.83561 12.8829 
0.238081 -2.1106 11.8444 0.095385 -2.25615 11.8931 0.286778 -4.882 12.8778 
-0.0535005 -2.25299 11.8912 -0.0940996 -4.89276 12.8784 0.104348 -4.89233 12.8784 
-0.0535005 -2.25299 11.8912 -0.209214 -2.23844 11.8903 -0.312829 -4.88286 12.8792 
-0.209214 -2.23844 11.8903 -0.318243 -2.09879 11.8453 -0.7343 -4.83466 12.883 
-0.498536 -2.19415 11.8968 -1.10999 -4.7576 12.8888 -0.932659 -4.79793 12.8859 
-0.498536 -2.19415 11.8968 -0.609714 -2.04685 11.8585 -1.35843 -4.69004 12.8949 
-0.609714 -2.04685 11.8585 -0.795108 -1.95652 11.8582 -1.71488 -4.56214 12.9044 
-1.81761 -1.1388 11.9806 -1.88088 -1.00275 11.9917 -4.21424 -2.12208 13.0962 
-1.92961 -0.861043 12.0012 -4.34928 -1.76826 13.1243 -4.28334 -1.95157 13.1099 
-1.92961 -0.861043 12.0012 -1.84836 -0.698985 11.9567 -4.42262 -1.52913 13.1433 
-2.00026 -0.578035 12.0234 -4.50898 -1.14784 13.1731 -4.46581 -1.35496 13.1568 
-2.01495 -0.418753 12.0327 -4.56262 -0.766649 13.2029 -4.54139 -0.945839 13.189 
-2.01495 -0.418753 12.0327 -2.02106 -0.187784 12.0494 -4.57322 -0.445128 13.2233 
-2.02106 -0.187784 12.0494 -4.58065 -0.134903 13.2529 -4.57322 -0.445128 13.2233 
-3.68391 2.39614 13.4521 -3.78843 2.24977 13.4403 -1.66233 0.93651 12.1439 
-1.47069 1.16945 12.1622 -1.36358 1.27445 12.1709 -3.11304 3.03108 13.5018 
-1.24612 1.36927 12.1771 -2.82471 3.2768 13.5216 -2.97315 3.15483 13.5118 
-1.24612 1.36927 12.1771 -1.12457 1.45535 12.1834 -2.62072 3.42792 13.5338 
-0.99791 1.52583 12.186 -2.29204 3.63413 13.5495 -2.47036 3.52603 13.541 
-0.834181 1.60053 12.1881 -1.94931 3.81663 13.5653 -2.10898 3.73403 13.5573 
-0.654576 1.68065 12.1986 -1.35829 4.04234 13.5819 -1.65544 3.93926 13.5735 
-0.209479 1.78089 12.2078 -0.341367 4.23782 13.5987 -0.520661 4.21682 13.5953 
1.33693 4.04772 13.582 1.16394 4.09638 13.5855 0.541382 1.72332 12.2058 
0.959018 1.55516 12.1918 2.12602 3.72528 13.5565 1.88305 3.84242 13.5651 
2.29204 3.63413 13.5495 2.12602 3.72528 13.5565 0.959018 1.55516 12.1918 
1.09116 1.47868 12.1859 1.21236 1.39026 12.1769 2.66726 3.39372 13.5305 
1.32553 1.29926 12.1696 2.97051 3.1572 13.512 2.81127 3.28613 13.5221 
1.43917 1.19051 12.16 3.26084 2.8931 13.4925 3.12888 3.01632 13.5009 
1.43917 1.19051 12.16 1.53859 1.02615 12.1295 3.42976 2.70895 13.4767 
4.57933 -0.115564 13.2544 4.56651 0.0633697 13.2676 2.02725 -0.079624 12.0638 
-4.78814 -0.22852 13.3541 -4.57322 -0.445128 13.2233 -4.58065 -0.134903 13.2529 
-4.58065 -0.134903 13.2529 -4.56348 0.120361 13.2732 -4.75437 0.215375 13.3857 
-4.51822 0.42069 13.2939 -4.67792 0.788833 13.4452 -4.75437 0.215375 13.3857 
-4.51822 0.42069 13.2939 -4.46581 0.707831 13.3192 -4.67792 0.788833 13.4452 
-4.67792 0.788833 13.4452 -4.46581 0.707831 13.3192 -4.4259 0.882699 13.3347 
-4.4259 0.882699 13.3347 -4.34919 1.12115 13.3517 -4.46846 1.36146 13.4722 
-4.46846 1.36146 13.4722 -4.28334 1.30444 13.3661 -4.21571 1.4759 13.3802 
-4.21571 1.4759 13.3802 -4.10539 1.70912 13.3976 -4.25578 1.85364 13.5163 
-4.25578 1.85364 13.5163 -4.02108 1.87073 13.4107 -3.92219 2.04228 13.4242 
-3.92219 2.04228 13.4242 -4.03966 2.24251 13.5518 -4.25578 1.85364 13.5163 
-3.92219 2.04228 13.4242 -3.78843 2.24977 13.4403 -4.03966 2.24251 13.5518 
-3.76359 2.62583 13.5798 -4.03966 2.24251 13.5518 -3.78843 2.24977 13.4403 
-3.68391 2.39614 13.4521 -3.49838 2.60767 13.4615 -3.76359 2.62583 13.5798 
-3.49094 2.9362 13.6029 -3.76359 2.62583 13.5798 -3.49838 2.60767 13.4615 
-3.49094 2.9362 13.6029 -3.49838 2.60767 13.4615 -3.30557 2.84408 13.4874 
-3.30557 2.84408 13.4874 -3.11304 3.03108 13.5018 -3.0917 3.32154 13.6344 
-3.0917 3.32154 13.6344 -2.97315 3.15483 13.5118 -2.82471 3.2768 13.5216 
-2.82471 3.2768 13.5216 -2.62072 3.42792 13.5338 -2.66673 3.63311 13.6574 
-2.47036 3.52603 13.541 -2.29204 3.63413 13.5495 -2.19756 3.91361 13.6796 
-2.29204 3.63413 13.5495 -2.10898 3.73403 13.5573 -2.19756 3.91361 13.6796 
-2.19756 3.91361 13.6796 -2.10898 3.73403 13.5573 -1.94931 3.81663 13.5653 
-1.94931 3.81663 13.5653 -1.65544 3.93926 13.5735 -1.68797 4.13675 13.6976 
-1.68797 4.13675 13.6976 -1.65544 3.93926 13.5735 -1.35829 4.04234 13.5819 
-1.35829 4.04234 13.5819 -1.17228 4.2972 13.7082 -1.68797 4.13675 13.6976 
-1.35829 4.04234 13.5819 -1.10939 4.10794 13.5853 -1.17228 4.2972 13.7082 
-1.17228 4.2972 13.7082 -0.932659 4.1508 13.5901 -0.734276 4.18755 13.593 
-0.734276 4.18755 13.593 -0.636799 4.40814 13.724 -1.17228 4.2972 13.7082 
-0.734276 4.18755 13.593 -0.520661 4.21682 13.5953 -0.636799 4.40814 13.724 
-0.636799 4.40814 13.724 -0.520661 4.21682 13.5953 -0.341367 4.23782 13.5987 
-0.341367 4.23782 13.5987 -0.100402 4.44895 13.7254 -0.636799 4.40814 13.724 
-0.341367 4.23782 13.5987 -0.0940894 4.24562 13.5976 -0.100402 4.44895 13.7254 
-0.100402 4.44895 13.7254 0.104348 4.2452 13.5976 0.287115 4.23955 13.5979 
0.287115 4.23955 13.5979 0.560501 4.40733 13.7147 -0.100402 4.44895 13.7254 
0.287115 4.23955 13.5979 0.544466 4.21401 13.5948 0.560501 4.40733 13.7147 
0.560501 4.40733 13.7147 0.727414 4.18849 13.5931 0.919594 4.15372 13.5903 
0.919594 4.15372 13.5903 1.32872 4.24511 13.696 0.560501 4.40733 13.7147 
0.919594 4.15372 13.5903 1.16394 4.09638 13.5855 1.32872 4.24511 13.696 
1.33693 4.04772 13.582 1.53848 3.9814 13.5768 1.32872 4.24511 13.696 
1.97 4.01469 13.6837 1.32872 4.24511 13.696 1.53848 3.9814 13.5768 
1.97 4.01469 13.6837 1.73012 3.90841 13.5711 1.88305 3.84242 13.5651 
1.88305 3.84242 13.5651 2.12602 3.72528 13.5565 1.97 4.01469 13.6837 
2.49878 3.76072 13.6787 1.97 4.01469 13.6837 2.12602 3.72528 13.5565 
2.49878 3.76072 13.6787 2.29204 3.63413 13.5495 2.45438 3.53654 13.5417 
2.45438 3.53654 13.5417 2.66726 3.39372 13.5305 2.87934 3.49921 13.654 
2.87934 3.49921 13.654 2.81127 3.28613 13.5221 2.97051 3.1572 13.512 
2.97051 3.1572 13.512 3.29173 3.23385 13.6707 2.87934 3.49921 13.654 
2.97051 3.1572 13.512 3.12888 3.01632 13.5009 3.29173 3.23385 13.6707 
3.29173 3.23385 13.6707 3.12888 3.01632 13.5009 3.26084 2.8931 13.4925 
3.26084 2.8931 13.4925 3.42976 2.70895 13.4767 3.65003 2.75362 13.5863 
3.62588 2.46223 13.4534 3.99076 2.31597 13.5548 3.65003 2.75362 13.5863 
3.62588 2.46223 13.4534 3.81648 2.20394 13.4356 3.99076 2.31597 13.5548 
3.99076 2.31597 13.5548 3.91673 2.05091 13.4249 4.01634 1.87989 13.4114 
4.01634 1.87989 13.4114 4.25994 1.87838 13.528 3.99076 2.31597 13.5548 
4.01634 1.87989 13.4114 4.12941 1.66176 13.3942 4.25994 1.87838 13.528 
4.46128 1.43498 13.4907 4.25994 1.87838 13.528 4.12941 1.66176 13.3942 
4.20457 1.49711 13.3813 4.28596 1.29795 13.3656 4.46128 1.43498 13.4907 
4.58419 1.04792 13.4541 4.46128 1.43498 13.4907 4.28596 1.29795 13.3656 
4.58419 1.04792 13.4541 4.35323 1.1084 13.3507 4.40675 0.936357 13.337 
4.40675 0.936357 13.337 4.47099 0.687211 13.3175 4.72598 0.466696 13.4087 
4.72598 0.466696 13.4087 4.50827 0.504129 13.3032 4.53998 0.314907 13.2885 
4.53998 0.314907 13.2885 4.56651 0.0633697 13.2676 4.79129 -0.145329 13.3618 
4.57933 -0.115564 13.2544 4.58408 -0.323564 13.238 4.79129 -0.145329 13.3618 
4.58408 -0.323564 13.238 4.57933 -0.531563 13.2216 4.76296 -0.764187 13.3064 
4.76296 -0.764187 13.3064 4.57933 -0.531563 13.2216 4.56699 -0.710477 13.207 
4.56699 -0.710477 13.207 4.54012 -0.962224 13.188 4.76296 -0.764187 13.3064 
4.69774 -1.2884 13.2735 4.76296 -0.764187 13.3064 4.54012 -0.962224 13.188 
4.69774 -1.2884 13.2735 4.50827 -1.15126 13.1729 4.47048 -1.33381 13.1582 
4.47048 -1.33381 13.1582 4.40742 -1.58331 13.139 4.57835 -1.742 13.2358 
4.57835 -1.742 13.2358 4.35323 -1.75553 13.1253 4.28599 -1.94511 13.1104 
4.28599 -1.94511 13.1104 4.33266 -2.39259 13.1874 4.57835 -1.742 13.2358 
4.28599 -1.94511 13.1104 4.20457 -2.14424 13.0947 4.33266 -2.39259 13.1874 
4.33266 -2.39259 13.1874 4.20457 -2.14424 13.0947 4.12995 -2.3091 13.082 
4.12995 -2.3091 13.082 4.01637 -2.5269 13.0646 4.33266 -2.39259 13.1874 
4.09687 -2.96953 13.1912 4.33266 -2.39259 13.1874 4.01637 -2.5269 13.0646 
4.09687 -2.96953 13.1912 3.91673 -2.69804 13.0511 3.81919 -2.85269 13.0391 
3.81919 -2.85269 13.0391 3.66974 -3.06283 13.0223 3.76225 -3.28854 13.113 
3.47251 -3.30524 13.0022 3.3084 -3.79736 13.0756 3.76225 -3.28854 13.113 
3.47251 -3.30524 13.0022 3.25865 -3.53804 12.9848 3.3084 -3.79736 13.0756 
3.12888 -3.66345 12.9752 2.97052 -3.80432 12.9641 3.3084 -3.79736 13.0756 
2.8437 -4.17744 13.045 3.3084 -3.79736 13.0756 2.97052 -3.80432 12.9641 
2.8437 -4.17744 13.045 2.81127 -3.93326 12.9539 2.6673 -4.04076 12.9454 
2.6673 -4.04076 12.9454 2.45485 -4.18453 12.9345 2.39922 -4.46248 13.0181 
2.39922 -4.46248 13.0181 2.29204 -4.28126 12.9265 2.12608 -4.37254 12.9192 
2.12608 -4.37254 12.9192 1.89577 -4.48349 12.9099 1.88831 -4.72066 13 
1.88831 -4.72066 13 1.73012 -4.55553 12.9049 1.53848 -4.62854 12.8992 
1.53848 -4.62854 12.8992 1.46023 -4.88952 12.9925 1.88831 -4.72066 13 
1.53848 -4.62854 12.8992 1.33693 -4.69484 12.894 1.46023 -4.88952 12.9925 
1.46023 -4.88952 12.9925 1.33693 -4.69484 12.894 1.16479 -4.74672 12.891 
1.16479 -4.74672 12.891 0.930312 -5.02296 12.9791 1.46023 -4.88952 12.9925 
1.16479 -4.74672 12.891 0.919586 -4.80077 12.8856 0.930312 -5.02296 12.9791 
0.930312 -5.02296 12.9791 0.727414 -4.83561 12.8829 0.544612 -4.86224 12.881 
0.544612 -4.86224 12.881 0.327826 -5.09812 12.9701 0.930312 -5.02296 12.9791 
0.544612 -4.86224 12.881 0.286778 -4.882 12.8778 0.327826 -5.09812 12.9701 
0.327826 -5.09812 12.9701 0.104348 -4.89233 12.8784 -0.0940996 -4.89276 12.8784 
-0.0940996 -4.89276 12.8784 -0.467051 -5.10669 12.9782 0.327826 -5.09812 12.9701 
-0.0940996 -4.89276 12.8784 -0.312829 -4.88286 12.8792 -0.467051 -5.10669 12.9782 
-0.467051 -5.10669 12.9782 -0.312829 -4.88286 12.8792 -0.493913 -4.86746 12.8804 
-0.493913 -4.86746 12.8804 -0.7343 -4.83466 12.883 -0.467051 -5.10669 12.9782 
-1.18718 -4.97252 12.9868 -0.467051 -5.10669 12.9782 -0.7343 -4.83466 12.883 
-1.18718 -4.97252 12.9868 -0.932659 -4.79793 12.8859 -1.10999 -4.7576 12.8888 
-1.10999 -4.7576 12.8888 -1.35843 -4.69004 12.8949 -1.18718 -4.97252 12.9868 
-1.70931 -4.79177 12.9947 -1.18718 -4.97252 12.9868 -1.35843 -4.69004 12.8949 
-1.70931 -4.79177 12.9947 -1.53512 -4.62965 12.8991 -1.71488 -4.56214 12.9044 
-1.71488 -4.56214 12.9044 -1.9479 -4.46114 12.9124 -2.19386 -4.57184 13.0079 
-2.10898 -4.38116 12.9187 -2.29204 -4.28126 12.9265 -2.19386 -4.57184 13.0079 
-2.29204 -4.28126 12.9265 -2.47036 -4.17316 12.935 -2.67893 -4.29835 13.0378 
-2.67893 -4.29835 13.0378 -2.47036 -4.17316 12.935 -2.62038 -4.07459 12.943 
-2.62038 -4.07459 12.943 -2.82483 -3.92411 12.955 -3.11932 -3.96015 13.0604 
-3.11932 -3.96015 13.0604 -2.97315 -3.80196 12.9643 -3.11341 -3.67832 12.9739 
-3.11341 -3.67832 12.9739 -3.2969 -3.49777 12.9876 -3.51404 -3.56799 13.0874 
-3.51404 -3.56799 13.0874 -3.42057 -3.36596 12.9986 -3.55161 -3.2131 13.0106 
-3.55161 -3.2131 13.0106 -3.93969 -3.06566 13.134 -3.51404 -3.56799 13.0874 
-3.55161 -3.2131 13.0106 -3.68391 -3.04327 13.024 -3.93969 -3.06566 13.134 
-3.93969 -3.06566 13.134 -3.68391 -3.04327 13.024 -3.78917 -2.89598 13.0354 
-3.78917 -2.89598 13.0354 -3.92442 -2.68436 13.0519 -3.93969 -3.06566 13.134 
-4.25495 -2.52862 13.1746 -3.93969 -3.06566 13.134 -3.92442 -2.68436 13.0519 
-4.25495 -2.52862 13.1746 -4.02108 -2.51786 13.0653 -4.10297 -2.3642 13.0776 
-4.10297 -2.3642 13.0776 -4.21424 -2.12208 13.0962 -4.45889 -2.10081 13.2112 
-4.45889 -2.10081 13.2112 -4.28334 -1.95157 13.1099 -4.34928 -1.76826 13.1243 
-4.34928 -1.76826 13.1243 -4.66667 -1.44466 13.2601 -4.45889 -2.10081 13.2112 
-4.34928 -1.76826 13.1243 -4.42262 -1.52913 13.1433 -4.66667 -1.44466 13.2601 
-4.46581 -1.35496 13.1568 -4.50898 -1.14784 13.1731 -4.66667 -1.44466 13.2601 
-4.77147 -0.772086 13.3109 -4.66667 -1.44466 13.2601 -4.50898 -1.14784 13.1731 
-4.77147 -0.772086 13.3109 -4.54139 -0.945839 13.189 -4.56262 -0.766649 13.2029 
-4.56262 -0.766649 13.2029 -4.57322 -0.445128 13.2233 -4.77147 -0.772086 13.3109 
-4.78814 -0.22852 13.3541 -4.77147 -0.772086 13.3109 -4.57322 -0.445128 13.2233 
-4.78814 -0.22852 13.3541 -4.75437 0.215375 13.3857 -4.95914 -0.000908491 13.5003 
-4.75437 0.215375 13.3857 -4.67792 0.788833 13.4452 -4.97154 0.428624 13.5808 
-4.67792 0.788833 13.4452 -4.46846 1.36146 13.4722 -4.77761 1.10082 13.6005 
-4.46846 1.36146 13.4722 -4.25578 1.85364 13.5163 -4.51186 1.73294 13.6342 
-4.25578 1.85364 13.5163 -4.03966 2.24251 13.5518 -4.23537 2.25838 13.6779 
-4.03966 2.24251 13.5518 -3.76359 2.62583 13.5798 -3.91122 2.71259 13.7111 
-3.76359 2.62583 13.5798 -3.49094 2.9362 13.6029 -3.54424 3.13924 13.7486 
-3.49094 2.9362 13.6029 -3.0917 3.32154 13.6344 -3.54424 3.13924 13.7486 
-3.0917 3.32154 13.6344 -2.66673 3.63311 13.6574 -2.77096 3.77218 13.7973 
-2.66673 3.63311 13.6574 -2.19756 3.91361 13.6796 -2.28373 4.04754 13.8072 
-2.19756 3.91361 13.6796 -1.68797 4.13675 13.6976 -1.78871 4.2784 13.834 
-1.68797 4.13675 13.6976 -1.17228 4.2972 13.7082 -1.45244 4.44818 13.8882 
-1.17228 4.2972 13.7082 -0.636799 4.40814 13.724 -0.89736 4.53211 13.8571 
-0.636799 4.40814 13.724 -0.100402 4.44895 13.7254 -0.459311 4.6337 13.8983 
-0.100402 4.44895 13.7254 0.560501 4.40733 13.7147 0.151378 4.61307 13.8636 
0.560501 4.40733 13.7147 1.32872 4.24511 13.696 1.10489 4.48246 13.8468 
1.32872 4.24511 13.696 1.97 4.01469 13.6837 1.73037 4.34534 13.8717 
2.49878 3.76072 13.6787 2.87934 3.49921 13.654 2.9229 3.73837 13.8398 
3.29173 3.23385 13.6707 3.65003 2.75362 13.5863 3.68758 2.97842 13.7316 
3.65003 2.75362 13.5863 3.99076 2.31597 13.5548 4.07 2.48785 13.6886 
3.99076 2.31597 13.5548 4.25994 1.87838 13.528 4.37101 2.13309 13.7134 
4.25994 1.87838 13.528 4.46128 1.43498 13.4907 4.60736 1.60886 13.6517 
4.46128 1.43498 13.4907 4.58419 1.04792 13.4541 4.78136 0.996296 13.5728 
4.58419 1.04792 13.4541 4.72598 0.466696 13.4087 4.78136 0.996296 13.5728 
4.72598 0.466696 13.4087 4.79129 -0.145329 13.3618 5.01856 -0.114332 13.5294 
4.79129 -0.145329 13.3618 4.76296 -0.764187 13.3064 4.95914 -0.683281 13.4466 
4.76296 -0.764187 13.3064 4.69774 -1.2884 13.2735 4.93297 -1.26361 13.4339 
4.69774 -1.2884 13.2735 4.57835 -1.742 13.2358 4.74612 -1.80682 13.3554 
4.57835 -1.742 13.2358 4.33266 -2.39259 13.1874 4.60217 -2.21522 13.3261 
4.09687 -2.96953 13.1912 3.76225 -3.28854 13.113 3.92561 -3.38447 13.2339 
3.76225 -3.28854 13.113 3.3084 -3.79736 13.0756 3.55128 -3.8071 13.1973 
3.3084 -3.79736 13.0756 2.8437 -4.17744 13.045 3.13292 -4.25879 13.204 
2.8437 -4.17744 13.045 2.39922 -4.46248 13.0181 2.69234 -4.57297 13.1783 
2.39922 -4.46248 13.0181 1.88831 -4.72066 13 2.1832 -4.79419 13.1231 
1.88831 -4.72066 13 1.46023 -4.88952 12.9925 1.72745 -5.06559 13.1523 
1.46023 -4.88952 12.9925 0.930312 -5.02296 12.9791 1.06616 -5.18377 13.0901 
0.930312 -5.02296 12.9791 0.327826 -5.09812 12.9701 0.449023 -5.27746 13.0851 
0.327826 -5.09812 12.9701 -0.467051 -5.10669 12.9782 -0.225675 -5.29627 13.0822 
-0.467051 -5.10669 12.9782 -1.18718 -4.97252 12.9868 -0.920531 -5.28078 13.134 
-1.18718 -4.97252 12.9868 -1.70931 -4.79177 12.9947 -1.48689 -5.15997 13.1579 
-1.70931 -4.79177 12.9947 -2.19386 -4.57184 13.0079 -1.9832 -4.88625 13.1158 
-2.19386 -4.57184 13.0079 -2.67893 -4.29835 13.0378 -2.48983 -4.63444 13.136 
-2.67893 -4.29835 13.0378 -3.11932 -3.96015 13.0604 -3.00259 -4.36502 13.199 
-3.11932 -3.96015 13.0604 -3.51404 -3.56799 13.0874 -3.635 -3.72237 13.2074 
-3.51404 -3.56799 13.0874 -3.93969 -3.06566 13.134 -4.01281 -3.28071 13.2456 
-3.93969 -3.06566 13.134 -4.25495 -2.52862 13.1746 -4.31963 -2.79759 13.2811 
-4.25495 -2.52862 13.1746 -4.45889 -2.10081 13.2112 -4.60522 -2.37124 13.3587 
-4.45889 -2.10081 13.2112 -4.66667 -1.44466 13.2601 -4.78404 -1.67878 13.3641 
-4.66667 -1.44466 13.2601 -4.77147 -0.772086 13.3109 -4.97301 -1.12534 13.4603 
-4.77147 -0.772086 13.3109 -4.78814 -0.22852 13.3541 -5.01353 -0.575229 13.4899 
-5.01353 -0.575229 13.4899 -4.95914 -0.000908491 13.5003 -5.13292 -0.00936036 13.6502 
-4.97154 0.428624 13.5808 -4.77761 1.10082 13.6005 -5.04495 0.684653 13.7109 
-4.77761 1.10082 13.6005 -4.51186 1.73294 13.6342 -4.76057 1.58503 13.7739 
-4.51186 1.73294 13.6342 -4.23537 2.25838 13.6779 -4.56221 1.99809 13.7994 
-4.23537 2.25838 13.6779 -3.91122 2.71259 13.7111 -4.06554 2.78542 13.8678 
-3.91122 2.71259 13.7111 -3.54424 3.13924 13.7486 -3.68237 3.23634 13.9078 
-3.54424 3.13924 13.7486 -3.1115 3.52296 13.7773 -3.24193 3.62535 13.9331 
-3.1115 3.52296 13.7773 -2.77096 3.77218 13.7973 -2.84954 3.91525 13.9575 
-2.77096 3.77218 13.7973 -2.28373 4.04754 13.8072 -2.38905 4.18413 13.9746 
-2.28373 4.04754 13.8072 -1.78871 4.2784 13.834 -1.94916 4.38652 13.9921 
-1.45244 4.44818 13.8882 -0.89736 4.53211 13.8571 -1.03828 4.67893 14.0255 
-0.459311 4.6337 13.8983 0.151378 4.61307 13.8636 -0.197985 4.76609 14.02 
0.151378 4.61307 13.8636 0.679877 4.56696 13.8598 0.370993 4.77064 14.0332 
0.679877 4.56696 13.8598 1.10489 4.48246 13.8468 0.934268 4.69257 14.0229 
1.10489 4.48246 13.8468 1.73037 4.34534 13.8717 1.39989 4.58735 14.0161 
1.73037 4.34534 13.8717 2.35317 4.05166 13.8365 2.16706 4.2999 13.9917 
2.9229 3.73837 13.8398 3.29173 3.23385 13.6707 3.49061 3.41742 13.9203 
3.29173 3.23385 13.6707 3.68758 2.97842 13.7316 3.49061 3.41742 13.9203 
3.68758 2.97842 13.7316 4.07 2.48785 13.6886 4.16511 2.6526 13.8545 
4.37101 2.13309 13.7134 4.60736 1.60886 13.6517 4.71228 1.72047 13.7902 
4.60736 1.60886 13.6517 4.78136 0.996296 13.5728 4.95373 1.02173 13.7262 
5.01856 -0.114332 13.5294 4.95914 -0.683281 13.4466 5.15535 -0.557286 13.6204 
4.95914 -0.683281 13.4466 4.93297 -1.26361 13.4339 5.18386 -0.991483 13.6512 
4.93297 -1.26361 13.4339 4.74612 -1.80682 13.3554 4.92685 -1.8786 13.5157 
4.74612 -1.80682 13.3554 4.60217 -2.21522 13.3261 4.76231 -2.2863 13.4684 
4.60217 -2.21522 13.3261 4.41342 -2.62539 13.2936 4.56483 -2.69518 13.4282 
4.41342 -2.62539 13.2936 4.09687 -2.96953 13.1912 4.33438 -3.11458 13.405 
4.09687 -2.96953 13.1912 3.92561 -3.38447 13.2339 4.06865 -3.48174 13.3697 
3.92561 -3.38447 13.2339 3.55128 -3.8071 13.1973 3.66912 -3.95393 13.3388 
2.69234 -4.57297 13.1783 2.1832 -4.79419 13.1231 2.26719 -4.95767 13.2608 
1.06616 -5.18377 13.0901 0.449023 -5.27746 13.0851 0.582276 -5.44681 13.2201 
0.449023 -5.27746 13.0851 -0.225675 -5.29627 13.0822 0.213184 -5.47433 13.2162 
-1.48689 -5.15997 13.1579 -1.9832 -4.88625 13.1158 -2.05318 -5.05304 13.2504 
-1.9832 -4.88625 13.1158 -2.48983 -4.63444 13.136 -2.58278 -4.783 13.2654 
-3.34424 -4.07827 13.2176 -3.635 -3.72237 13.2074 -3.83207 -3.78688 13.3554 
-3.635 -3.72237 13.2074 -4.01281 -3.28071 13.2456 -3.83207 -3.78688 13.3554 
-4.01281 -3.28071 13.2456 -4.31963 -2.79759 13.2811 -4.45173 -2.94732 13.4304 
-4.60522 -2.37124 13.3587 -4.78404 -1.67878 13.3641 -4.95511 -1.7314 13.5117 
-5.13292 -0.00936036 13.6502 -4.97154 0.428624 13.5808 -5.2129 0.268978 13.7866 
-1.94916 4.38652 13.9921 -1.45244 4.44818 13.8882 -1.68338 4.58617 14.1149 
-1.03828 4.67893 14.0255 -0.459311 4.6337 13.8983 -0.589889 4.78598 14.0816 
1.39989 4.58735 14.0161 1.73037 4.34534 13.8717 1.85278 4.47977 14.057 
2.16706 4.2999 13.9917 2.35317 4.05166 13.8365 2.64292 4.11104 14.0363 
2.35317 4.05166 13.8365 2.9229 3.73837 13.8398 2.64292 4.11104 14.0363 
4.16511 2.6526 13.8545 4.37101 2.13309 13.7134 4.51539 2.28206 13.9284 
4.95373 1.02173 13.7262 4.96386 0.433358 13.5748 5.12728 0.452887 13.7352 
4.96386 0.433358 13.5748 5.01856 -0.114332 13.5294 5.17529 -0.0115042 13.6952 
5.18386 -0.991483 13.6512 4.93297 -1.26361 13.4339 5.14065 -1.61614 13.6797 
3.66912 -3.95393 13.3388 3.13292 -4.25879 13.204 3.25413 -4.39162 13.3561 
3.13292 -4.25879 13.204 2.69234 -4.57297 13.1783 2.80739 -4.70898 13.326 
2.26719 -4.95767 13.2608 1.72745 -5.06559 13.1523 2.05691 -5.1796 13.3578 
-0.395144 -5.47074 13.2213 -0.920531 -5.28078 13.134 -1.05872 -5.49093 13.3271 
-0.920531 -5.28078 13.134 -1.48689 -5.15997 13.1579 -1.05872 -5.49093 13.3271 
-2.58278 -4.783 13.2654 -3.00259 -4.36502 13.199 -3.12747 -4.5644 13.4015 
-3.00259 -4.36502 13.199 -3.34424 -4.07827 13.2176 -3.48748 -4.27293 13.4237 
-4.45173 -2.94732 13.4304 -4.60522 -2.37124 13.3587 -4.67812 -2.7452 13.5514 
-4.95511 -1.7314 13.5117 -4.97301 -1.12534 13.4603 -5.12728 -1.16824 13.6077 
-4.97301 -1.12534 13.4603 -5.01353 -0.575229 13.4899 -5.15729 -0.56546 13.6215 
-5.15729 -0.56546 13.6215 -5.13292 -0.00936036 13.6502 -5.28765 -0.126856 13.8092 
-5.2129 0.268978 13.7866 -5.04495 0.684653 13.7109 -5.20623 0.829925 13.9419 
-5.04495 0.684653 13.7109 -4.92327 1.16914 13.7513 -5.20623 0.829925 13.9419 
-4.92327 1.16914 13.7513 -4.76057 1.58503 13.7739 -4.99576 1.53887 14.0077 
-4.76057 1.58503 13.7739 -4.56221 1.99809 13.7994 -4.66791 2.12325 13.98 
-4.56221 1.99809 13.7994 -4.33518 2.41501 13.8456 -4.66791 2.12325 13.98 
-4.33518 2.41501 13.8456 -4.06554 2.78542 13.8678 -4.32381 2.67838 14.0294 
-4.06554 2.78542 13.8678 -3.68237 3.23634 13.9078 -4.02812 3.05773 14.0592 
-3.68237 3.23634 13.9078 -3.24193 3.62535 13.9331 -3.67099 3.51289 14.163 
-3.24193 3.62535 13.9331 -2.84954 3.91525 13.9575 -3.17243 3.91686 14.1884 
-2.84954 3.91525 13.9575 -2.38905 4.18413 13.9746 -2.63919 4.25137 14.1983 
-2.38905 4.18413 13.9746 -1.94916 4.38652 13.9921 -2.10714 4.47469 14.1708 
-1.68338 4.58617 14.1149 -1.03828 4.67893 14.0255 -1.42942 4.80637 14.3192 
-1.03828 4.67893 14.0255 -0.589889 4.78598 14.0816 -0.737467 4.93617 14.3133 
-0.589889 4.78598 14.0816 -0.197985 4.76609 14.02 -0.131787 4.95999 14.2736 
-0.197985 4.76609 14.02 0.370993 4.77064 14.0332 -0.131787 4.95999 14.2736 
0.370993 4.77064 14.0332 0.934268 4.69257 14.0229 0.853674 4.88313 14.2581 
0.934268 4.69257 14.0229 1.39989 4.58735 14.0161 1.2284 4.8033 14.2442 
1.39989 4.58735 14.0161 1.85278 4.47977 14.057 1.69422 4.72968 14.3174 
1.85278 4.47977 14.057 2.16706 4.2999 13.9917 2.13891 4.50502 14.2285 
2.16706 4.2999 13.9917 2.64292 4.11104 14.0363 2.66599 4.23734 14.199 
2.64292 4.11104 14.0363 3.09251 3.79395 13.9947 3.08412 3.97136 14.1861 
3.09251 3.79395 13.9947 3.49061 3.41742 13.9203 3.50499 3.64681 14.1604 
3.49061 3.41742 13.9203 3.84082 3.05526 13.8913 3.8706 3.23374 14.0731 
3.84082 3.05526 13.8913 4.16511 2.6526 13.8545 4.24773 2.76846 14.0211 
4.51539 2.28206 13.9284 4.71228 1.72047 13.7902 4.80485 1.96412 14.0319 
4.71228 1.72047 13.7902 4.95373 1.02173 13.7262 4.98912 1.39834 13.9286 
4.95373 1.02173 13.7262 5.12728 0.452887 13.7352 5.13333 0.892197 13.8776 
5.12728 0.452887 13.7352 5.17529 -0.0115042 13.6952 5.31717 0.0496571 13.8717 
5.17529 -0.0115042 13.6952 5.15535 -0.557286 13.6204 5.33491 -0.476018 13.8301 
4.92685 -1.8786 13.5157 4.76231 -2.2863 13.4684 4.99515 -2.28318 13.706 
4.76231 -2.2863 13.4684 4.56483 -2.69518 13.4282 4.668 -2.85657 13.5883 
4.56483 -2.69518 13.4282 4.33438 -3.11458 13.405 4.668 -2.85657 13.5883 
4.33438 -3.11458 13.405 4.06865 -3.48174 13.3697 4.32381 -3.41235 13.55 
4.06865 -3.48174 13.3697 3.66912 -3.95393 13.3388 4.02812 -3.7917 13.5202 
3.66912 -3.95393 13.3388 3.25413 -4.39162 13.3561 3.6715 -4.25551 13.5509 
3.25413 -4.39162 13.3561 2.80739 -4.70898 13.326 3.17243 -4.66046 13.5134 
2.80739 -4.70898 13.326 2.26719 -4.95767 13.2608 2.64631 -4.99581 13.4794 
1.68 -5.31051 13.3352 1.10366 -5.37565 13.2358 1.21707 -5.50715 13.3883 
1.10366 -5.37565 13.2358 0.582276 -5.44681 13.2201 0.679264 -5.60825 13.3853 
0.582276 -5.44681 13.2201 0.213184 -5.47433 13.2162 0.307554 -5.68484 13.4254 
0.213184 -5.47433 13.2162 -0.395144 -5.47074 13.2213 -0.336037 -5.6474 13.3832 
-1.65287 -5.32853 13.3413 -2.05318 -5.05304 13.2504 -2.09084 -5.20486 13.3969 
-2.05318 -5.05304 13.2504 -2.58278 -4.783 13.2654 -2.65066 -4.93092 13.4219 
-3.48748 -4.27293 13.4237 -3.83207 -3.78688 13.3554 -3.819 -4.08787 13.5516 
-3.83207 -3.78688 13.3554 -4.21943 -3.31369 13.4029 -4.32579 -3.47571 13.5891 
-4.21943 -3.31369 13.4029 -4.45173 -2.94732 13.4304 -4.60924 -3.09515 13.6529 
-4.67812 -2.7452 13.5514 -4.91814 -2.20738 13.5926 -4.9373 -2.5769 13.7627 
-4.95511 -1.7314 13.5117 -5.12728 -1.16824 13.6077 -5.13334 -1.62443 13.6796 
-5.12728 -1.16824 13.6077 -5.15729 -0.56546 13.6215 -5.33513 -0.637644 13.8232 
-5.33513 -0.637644 13.8232 -5.28765 -0.126856 13.8092 -5.43741 -0.356198 13.9871 
-5.28765 -0.126856 13.8092 -5.2129 0.268978 13.7866 -5.39619 0.236461 14.0238 
-4.99576 1.53887 14.0077 -4.66791 2.12325 13.98 -4.8277 2.12697 14.1933 
-4.66791 2.12325 13.98 -4.32381 2.67838 14.0294 -4.56596 2.55632 14.2121 
-4.32381 2.67838 14.0294 -4.02812 3.05773 14.0592 -4.21786 3.03618 14.2497 
-2.63919 4.25137 14.1983 -2.10714 4.47469 14.1708 -2.27906 4.54696 14.3842 
-2.10714 4.47469 14.1708 -1.68338 4.58617 14.1149 -1.84129 4.71233 14.3775 
3.50499 3.64681 14.1604 3.8706 3.23374 14.0731 4.05388 3.23081 14.2662 
3.8706 3.23374 14.0731 4.24773 2.76846 14.0211 4.05388 3.23081 14.2662 
4.24773 2.76846 14.0211 4.51539 2.28206 13.9284 4.57199 2.53824 14.2016 
4.80485 1.96412 14.0319 4.98912 1.39834 13.9286 5.08314 1.54899 14.1448 
4.98912 1.39834 13.9286 5.13333 0.892197 13.8776 5.25966 1.01265 14.0997 
5.33491 -0.476018 13.8301 5.18386 -0.991483 13.6512 5.39317 -1.11196 13.9303 
5.18386 -0.991483 13.6512 5.14065 -1.61614 13.6797 5.39317 -1.11196 13.9303 
4.99515 -2.28318 13.706 4.668 -2.85657 13.5883 4.8277 -2.89338 13.7982 
4.668 -2.85657 13.5883 4.32381 -3.41235 13.55 4.56596 -3.32038 13.7496 
4.32381 -3.41235 13.55 4.02812 -3.7917 13.5202 4.21193 -3.80545 13.7089 
2.64631 -4.99581 13.4794 2.05691 -5.1796 13.3578 2.15676 -5.34926 13.5816 
2.05691 -5.1796 13.3578 1.68 -5.31051 13.3352 1.81973 -5.48056 13.5708 
1.68 -5.31051 13.3352 1.21707 -5.50715 13.3883 1.46677 -5.59832 13.5695 
1.21707 -5.50715 13.3883 0.679264 -5.60825 13.3853 0.87182 -5.7396 13.5719 
0.307554 -5.68484 13.4254 -0.336037 -5.6474 13.3832 -0.0152766 -5.80235 13.5586 
-0.336037 -5.6474 13.3832 -1.05872 -5.49093 13.3271 -0.65408 -5.77206 13.5707 
-1.05872 -5.49093 13.3271 -1.65287 -5.32853 13.3413 -1.47158 -5.59843 13.5714 
-1.65287 -5.32853 13.3413 -2.09084 -5.20486 13.3969 -1.95466 -5.43812 13.5838 
-2.09084 -5.20486 13.3969 -2.65066 -4.93092 13.4219 -2.41733 -5.2455 13.6113 
-2.65066 -4.93092 13.4219 -3.12747 -4.5644 13.4015 -3.12842 -4.81407 13.6364 
-3.12747 -4.5644 13.4015 -3.48748 -4.27293 13.4237 -3.443 -4.57134 13.648 
-4.9373 -2.5769 13.7627 -4.91814 -2.20738 13.5926 -5.16799 -2.08065 13.8549 
-4.91814 -2.20738 13.5926 -5.13334 -1.62443 13.6796 -5.16799 -2.08065 13.8549 
-5.39619 0.236461 14.0238 -5.20623 0.829925 13.9419 -5.38993 0.835368 14.2393 
-5.20623 0.829925 13.9419 -4.99576 1.53887 14.0077 -5.18983 1.32063 14.1724 
-4.21786 3.03618 14.2497 -3.67099 3.51289 14.163 -3.93489 3.44432 14.4057 
-3.67099 3.51289 14.163 -3.17243 3.91686 14.1884 -3.24751 3.98445 14.3596 
-3.17243 3.91686 14.1884 -2.63919 4.25137 14.1983 -2.82993 4.26778 14.3901 
-0.737467 4.93617 14.3133 -0.131787 4.95999 14.2736 -0.374458 5.08221 14.5346 
0.465991 4.98595 14.3488 0.853674 4.88313 14.2581 0.874436 5.02523 14.5302 
0.853674 4.88313 14.2581 1.2284 4.8033 14.2442 1.239 4.91418 14.441 
1.69422 4.72968 14.3174 2.13891 4.50502 14.2285 2.18132 4.60283 14.4165 
2.13891 4.50502 14.2285 2.66599 4.23734 14.199 2.73472 4.31517 14.3722 
2.66599 4.23734 14.199 3.08412 3.97136 14.1861 3.24517 3.99435 14.3743 
3.08412 3.97136 14.1861 3.50499 3.64681 14.1604 3.24517 3.99435 14.3743 
4.57199 2.53824 14.2016 4.80485 1.96412 14.0319 4.91269 2.01283 14.2305 
5.34313 0.444578 14.0003 5.31717 0.0496571 13.8717 5.52129 0.0572915 14.2057 
5.31717 0.0496571 13.8717 5.33491 -0.476018 13.8301 5.44863 -0.394931 14.0038 
5.39317 -1.11196 13.9303 5.14065 -1.61614 13.6797 5.25979 -1.91044 13.9324 
5.14065 -1.61614 13.6797 4.99515 -2.28318 13.706 5.25979 -1.91044 13.9324 
4.21193 -3.80545 13.7089 3.6715 -4.25551 13.5509 3.93489 -4.22774 13.8019 
3.6715 -4.25551 13.5509 3.17243 -4.66046 13.5134 3.24751 -4.75398 13.6718 
3.17243 -4.66046 13.5134 2.64631 -4.99581 13.4794 2.69039 -5.11244 13.6339 
0.87182 -5.7396 13.5719 0.307554 -5.68484 13.4254 0.374458 -5.86563 13.673 
-0.0152766 -5.80235 13.5586 -0.336037 -5.6474 13.3832 -0.65408 -5.77206 13.5707 
-4.1181 -3.85344 13.645 -4.32579 -3.47571 13.5891 -4.50461 -3.46572 13.7856 
-4.32579 -3.47571 13.5891 -4.60924 -3.09515 13.6529 -4.50461 -3.46572 13.7856 
-5.33943 -1.18915 13.8632 -5.33513 -0.637644 13.8232 -5.44241 -0.881963 13.9991 
-5.43741 -0.356198 13.9871 -5.39619 0.236461 14.0238 -5.55723 -0.0210156 14.2646 
-5.39619 0.236461 14.0238 -5.38993 0.835368 14.2393 -5.50133 0.494525 14.3187 
-5.38993 0.835368 14.2393 -5.18983 1.32063 14.1724 -5.36571 1.22267 14.4523 
-5.18983 1.32063 14.1724 -5.05203 1.67506 14.1861 -5.15428 1.69988 14.3985 
-5.05203 1.67506 14.1861 -4.8277 2.12697 14.1933 -4.94485 2.15561 14.436 
-4.8277 2.12697 14.1933 -4.56596 2.55632 14.2121 -4.68719 2.59577 14.469 
-4.56596 2.55632 14.2121 -4.21786 3.03618 14.2497 -4.47556 2.9029 14.4995 
-3.93489 3.44432 14.4057 -3.6285 3.67986 14.3438 -3.7228 3.73219 14.5681 
-3.6285 3.67986 14.3438 -3.24751 3.98445 14.3596 -3.41509 3.9841 14.5846 
-3.24751 3.98445 14.3596 -2.82993 4.26778 14.3901 -3.10845 4.2076 14.6039 
-2.82993 4.26778 14.3901 -2.27906 4.54696 14.3842 -2.67419 4.47773 14.6381 
-2.27906 4.54696 14.3842 -1.84129 4.71233 14.3775 -1.86439 4.83 14.6511 
-1.84129 4.71233 14.3775 -1.42942 4.80637 14.3192 -1.35152 4.98542 14.6537 
-1.42942 4.80637 14.3192 -1.07132 4.89671 14.3395 -1.35152 4.98542 14.6537 
-1.07132 4.89671 14.3395 -0.737467 4.93617 14.3133 -0.741509 5.0984 14.6604 
-0.374458 5.08221 14.5346 0.00725762 5.05622 14.4522 -0.0166685 5.15348 14.6799 
0.00725762 5.05622 14.4522 0.465991 4.98595 14.3488 0.487217 5.12892 14.6687 
0.874436 5.02523 14.5302 1.239 4.91418 14.441 1.24258 5.01085 14.662 
1.239 4.91418 14.441 1.69422 4.72968 14.3174 1.62528 4.90865 14.6573 
1.69422 4.72968 14.3174 2.18132 4.60283 14.4165 1.98539 4.78773 14.6496 
2.18132 4.60283 14.4165 2.73472 4.31517 14.3722 2.46353 4.58525 14.6433 
2.73472 4.31517 14.3722 3.24517 3.99435 14.3743 3.21275 4.13349 14.5963 
3.24517 3.99435 14.3743 3.63933 3.67023 14.3431 3.51675 3.90616 14.5802 
3.63933 3.67023 14.3431 4.05388 3.23081 14.2662 3.90678 3.56724 14.5667 
4.05388 3.23081 14.2662 4.37179 2.84453 14.2467 4.47663 2.90146 14.4994 
4.37179 2.84453 14.2467 4.57199 2.53824 14.2016 4.69475 2.58399 14.4681 
4.57199 2.53824 14.2016 4.91269 2.01283 14.2305 4.97942 2.06219 14.3969 
4.91269 2.01283 14.2305 5.08314 1.54899 14.1448 5.20475 1.57488 14.395 
5.08314 1.54899 14.1448 5.25966 1.01265 14.0997 5.37565 1.07153 14.3576 
5.25966 1.01265 14.0997 5.34313 0.444578 14.0003 5.49933 0.47216 14.3019 
5.52129 0.0572915 14.2057 5.44863 -0.394931 14.0038 5.56749 -0.282499 14.2425 
5.44863 -0.394931 14.0038 5.39317 -1.11196 13.9303 5.55672 -0.788569 14.2035 
5.39317 -1.11196 13.9303 5.25979 -1.91044 13.9324 5.47536 -1.44899 14.1595 
5.25979 -1.91044 13.9324 5.05203 -2.44589 13.8617 5.15428 -2.50364 14.0677 
5.05203 -2.44589 13.8617 4.8277 -2.89338 13.7982 4.94485 -2.95962 14.0334 
4.8277 -2.89338 13.7982 4.56596 -3.32038 13.7496 4.68719 -3.39953 13.9972 
4.56596 -3.32038 13.7496 4.21193 -3.80545 13.7089 4.47556 -3.70764 13.9792 
3.93489 -4.22774 13.8019 3.6285 -4.45069 13.7039 3.7228 -4.53745 13.9172 
3.6285 -4.45069 13.7039 3.24751 -4.75398 13.6718 3.41509 -4.78885 13.8941 
3.24751 -4.75398 13.6718 2.69039 -5.11244 13.6339 3.10845 -5.01261 13.8783 
2.69039 -5.11244 13.6339 2.15676 -5.34926 13.5816 2.21218 -5.49666 13.8321 
2.15676 -5.34926 13.5816 1.81973 -5.48056 13.5708 1.86439 -5.63474 13.8276 
1.81973 -5.48056 13.5708 1.46677 -5.59832 13.5695 1.49568 -5.74951 13.8122 
1.46677 -5.59832 13.5695 0.87182 -5.7396 13.5719 1.13234 -5.83909 13.8115 
0.374458 -5.86563 13.673 -0.0152766 -5.80235 13.5586 0.255641 -5.97908 13.854 
-0.0152766 -5.80235 13.5586 -0.65408 -5.77206 13.5707 -0.271007 -5.95303 13.8098 
-0.65408 -5.77206 13.5707 -1.09599 -5.69172 13.5704 -1.25499 -5.81433 13.8123 
-1.09599 -5.69172 13.5704 -1.47158 -5.59843 13.5714 -1.25499 -5.81433 13.8123 
-1.47158 -5.59843 13.5714 -1.95466 -5.43812 13.5838 -1.76158 -5.67645 13.8346 
-1.95466 -5.43812 13.5838 -2.41733 -5.2455 13.6113 -2.20258 -5.50745 13.8439 
-2.41733 -5.2455 13.6113 -2.82808 -5.01136 13.6204 -2.89944 -5.14165 13.8601 
-2.82808 -5.01136 13.6204 -3.12842 -4.81407 13.6364 -3.21275 -4.93823 13.8824 
-3.12842 -4.81407 13.6364 -3.443 -4.57134 13.648 -3.51982 -4.70392 13.8945 
-3.443 -4.57134 13.648 -3.81451 -4.27187 13.7079 -3.89782 -4.3745 13.9283 
-3.81451 -4.27187 13.7079 -4.1181 -3.85344 13.645 -4.2432 -3.99723 13.9501 
-4.1181 -3.85344 13.645 -4.50461 -3.46572 13.7856 -4.47663 -3.70621 13.9793 
-4.8282 -3.02517 13.8966 -4.9373 -2.5769 13.7627 -5.05303 -2.74671 14.0582 
-4.9373 -2.5769 13.7627 -5.16799 -2.08065 13.8549 -5.27375 -2.16772 14.0759 
-5.16799 -2.08065 13.8549 -5.29998 -1.60745 13.897 -5.42634 -1.65468 14.1408 
-5.29998 -1.60745 13.897 -5.33943 -1.18915 13.8632 -5.51477 -1.13103 14.1591 
-5.33943 -1.18915 13.8632 -5.44241 -0.881963 13.9991 -5.51477 -1.13103 14.1591 
-5.44241 -0.881963 13.9991 -5.43741 -0.356198 13.9871 -5.56749 -0.52126 14.2237 
-4.21921 3.21805 14.5119 -3.93489 3.44432 14.4057 -4.02247 3.50737 14.6881 
-0.741509 5.0984 14.6604 -0.374458 5.08221 14.5346 -0.383217 5.18187 14.8198 
0.487217 5.12892 14.6687 0.874436 5.02523 14.5302 0.92186 5.1462 14.9068 
4.21921 -4.02085 13.9421 3.93489 -4.22774 13.8019 4.02247 -4.33416 14.0709 
0.741674 -5.90111 13.7945 0.374458 -5.86563 13.673 0.255641 -5.97908 13.854 
-4.6977 -3.37822 13.9932 -4.8282 -3.02517 13.8966 -4.93505 -3.10566 14.1676 
-5.56749 -0.52126 14.2237 -5.55723 -0.0210156 14.2646 -5.6682 -0.190245 14.5288 
-5.55723 -0.0210156 14.2646 -5.50133 0.494525 14.3187 -5.59542 0.347672 14.5114 
-5.50133 0.494525 14.3187 -5.38993 0.835368 14.2393 -5.54094 0.803693 14.627 
-5.36571 1.22267 14.4523 -5.15428 1.69988 14.3985 -5.26584 1.66952 14.6734 
-5.15428 1.69988 14.3985 -4.94485 2.15561 14.436 -5.06171 2.13871 14.7314 
-4.94485 2.15561 14.436 -4.68719 2.59577 14.469 -4.77187 2.6302 14.7493 
-4.68719 2.59577 14.469 -4.47556 2.9029 14.4995 -4.43373 3.10643 14.7921 
-4.47556 2.9029 14.4995 -4.21921 3.21805 14.5119 -4.43373 3.10643 14.7921 
-4.02247 3.50737 14.6881 -3.7228 3.73219 14.5681 -3.65338 3.90865 14.8722 
-3.7228 3.73219 14.5681 -3.41509 3.9841 14.5846 -3.65338 3.90865 14.8722 
-3.41509 3.9841 14.5846 -3.10845 4.2076 14.6039 -3.19179 4.25055 14.8854 
-3.10845 4.2076 14.6039 -2.67419 4.47773 14.6381 -2.81956 4.47832 14.8939 
-2.67419 4.47773 14.6381 -2.21218 4.6929 14.6341 -2.53366 4.64754 14.9678 
-2.21218 4.6929 14.6341 -1.86439 4.83 14.6511 -2.06918 4.83664 14.9181 
-1.86439 4.83 14.6511 -1.35152 4.98542 14.6537 -1.79859 4.95195 15.0031 
-1.35152 4.98542 14.6537 -0.741509 5.0984 14.6604 -1.14315 5.12099 14.9732 
-0.383217 5.18187 14.8198 -0.0166685 5.15348 14.6799 -0.0597739 5.24594 15.0376 
-0.0166685 5.15348 14.6799 0.487217 5.12892 14.6687 0.476249 5.2103 14.9571 
0.92186 5.1462 14.9068 1.24258 5.01085 14.662 1.28171 5.085 14.9576 
1.24258 5.01085 14.662 1.62528 4.90865 14.6573 1.69887 4.98158 14.9927 
1.62528 4.90865 14.6573 1.98539 4.78773 14.6496 2.11749 4.82175 14.9301 
1.98539 4.78773 14.6496 2.46353 4.58525 14.6433 2.47054 4.64164 14.8303 
2.46353 4.58525 14.6433 2.89944 4.33789 14.6061 2.91765 4.42066 14.885 
2.89944 4.33789 14.6061 3.21275 4.13349 14.5963 3.19685 4.2518 14.9069 
3.21275 4.13349 14.5963 3.51675 3.90616 14.5802 3.60663 3.94675 14.876 
3.51675 3.90616 14.5802 3.90678 3.56724 14.5667 3.92118 3.62837 14.7493 
3.90678 3.56724 14.5667 4.2432 3.19347 14.5161 4.24536 3.32512 14.8165 
4.2432 3.19347 14.5161 4.47663 2.90146 14.4994 4.48359 3.0415 14.7935 
4.47663 2.90146 14.4994 4.69475 2.58399 14.4681 4.70807 2.72872 14.7698 
4.69475 2.58399 14.4681 4.97942 2.06219 14.3969 4.91073 2.40929 14.7467 
4.97942 2.06219 14.3969 5.20475 1.57488 14.395 5.18476 1.87881 14.7034 
5.20475 1.57488 14.395 5.37565 1.07153 14.3576 5.39382 1.34615 14.6871 
5.37565 1.07153 14.3576 5.49933 0.47216 14.3019 5.57585 0.486139 14.5219 
5.49933 0.47216 14.3019 5.52129 0.0572915 14.2057 5.66301 -0.041251 14.5563 
5.52129 0.0572915 14.2057 5.56749 -0.282499 14.2425 5.66301 -0.041251 14.5563 
5.56749 -0.282499 14.2425 5.55672 -0.788569 14.2035 5.669 -0.654001 14.4956 
5.55672 -0.788569 14.2035 5.47536 -1.44899 14.1595 5.62125 -1.21968 14.4788 
5.3658 -2.04637 14.2001 5.15428 -2.50364 14.0677 5.26584 -2.51665 14.344 
5.15428 -2.50364 14.0677 4.94485 -2.95962 14.0334 5.06171 -2.98913 14.3278 
4.94485 -2.95962 14.0334 4.68719 -3.39953 13.9972 4.77187 -3.47738 14.2687 
4.68719 -3.39953 13.9972 4.47556 -3.70764 13.9792 4.43373 -3.95444 14.2364 
4.47556 -3.70764 13.9792 4.21921 -4.02085 13.9421 4.43373 -3.95444 14.2364 
4.02247 -4.33416 14.0709 3.7228 -4.53745 13.9172 3.65338 -4.75931 14.19 
3.7228 -4.53745 13.9172 3.41509 -4.78885 13.8941 3.65338 -4.75931 14.19 
3.41509 -4.78885 13.8941 3.10845 -5.01261 13.8783 3.19179 -5.09906 14.1496 
3.10845 -5.01261 13.8783 2.66905 -5.28677 13.8682 2.81916 -5.32541 14.1218 
2.66905 -5.28677 13.8682 2.21218 -5.49666 13.8321 2.5337 -5.50404 14.1688 
2.21218 -5.49666 13.8321 1.86439 -5.63474 13.8276 2.06918 -5.68306 14.0902 
1.86439 -5.63474 13.8276 1.49568 -5.74951 13.8122 1.79859 -5.81024 14.1561 
1.49568 -5.74951 13.8122 1.13234 -5.83909 13.8115 1.33269 -5.92013 14.0869 
1.13234 -5.83909 13.8115 0.741674 -5.90111 13.7945 0.992613 -5.99582 14.0925 
0.255641 -5.97908 13.854 -0.271007 -5.95303 13.8098 0.0592456 -6.10368 14.1356 
-0.271007 -5.95303 13.8098 -0.765239 -5.90083 13.8003 -0.496743 -6.05698 14.0729 
-0.765239 -5.90083 13.8003 -1.25499 -5.81433 13.8123 -0.965678 -5.99572 14.0776 
-1.25499 -5.81433 13.8123 -1.76158 -5.67645 13.8346 -1.52391 -5.83761 14.0115 
-1.76158 -5.67645 13.8346 -2.20258 -5.50745 13.8439 -2.10758 -5.67517 14.1064 
-2.20258 -5.50745 13.8439 -2.56329 -5.3321 13.8514 -2.57177 -5.46674 14.127 
-2.56329 -5.3321 13.8514 -2.89944 -5.14165 13.8601 -2.91765 -5.26702 14.1225 
-2.89944 -5.14165 13.8601 -3.21275 -4.93823 13.8824 -3.19685 -5.10366 14.1706 
-3.21275 -4.93823 13.8824 -3.51982 -4.70392 13.8945 -3.60586 -4.79815 14.1876 
-3.51982 -4.70392 13.8945 -3.89782 -4.3745 13.9283 -3.97776 -4.44383 14.1775 
-3.89782 -4.3745 13.9283 -4.2432 -3.99723 13.9501 -4.2932 -4.1116 14.2134 
-4.2432 -3.99723 13.9501 -4.47663 -3.70621 13.9793 -4.50807 -3.86464 14.2652 
-4.47663 -3.70621 13.9793 -4.6977 -3.37822 13.9932 -4.78018 -3.4733 14.2821 
-4.93505 -3.10566 14.1676 -5.05303 -2.74671 14.0582 -5.21549 -2.64796 14.3411 
-5.05303 -2.74671 14.0582 -5.27375 -2.16772 14.0759 -5.21549 -2.64796 14.3411 
-5.27375 -2.16772 14.0759 -5.42634 -1.65468 14.1408 -5.5022 -1.81125 14.418 
-5.42634 -1.65468 14.1408 -5.51477 -1.13103 14.1591 -5.57585 -1.32415 14.3795 
-5.51477 -1.13103 14.1591 -5.56749 -0.52126 14.2237 -5.66108 -0.818871 14.4918 
-5.6682 -0.190245 14.5288 -5.59542 0.347672 14.5114 -5.6604 0.359658 14.7952 
-4.43373 3.10643 14.7921 -4.02247 3.50737 14.6881 -4.08347 3.52879 14.9533 
-0.666966 5.19122 14.9672 -0.383217 5.18187 14.8198 -0.0597739 5.24594 15.0376 
5.5022 0.961216 14.6362 5.57585 0.486139 14.5219 5.63851 0.486064 14.7838 
4.43373 -3.95444 14.2364 4.02247 -4.33416 14.0709 4.08347 -4.39681 14.3295 
0.666966 -6.04096 14.0832 0.255641 -5.97908 13.854 0.0592456 -6.10368 14.1356 
-0.965678 -5.99572 14.0776 -1.52391 -5.83761 14.0115 -1.26367 -6.0058 14.3121 
-1.52391 -5.83761 14.0115 -2.10758 -5.67517 14.1064 -1.761 -5.84368 14.2303 
-4.78018 -3.4733 14.2821 -4.93505 -3.10566 14.1676 -5.07544 -3.0656 14.516 
-4.93505 -3.10566 14.1676 -5.21549 -2.64796 14.3411 -5.07544 -3.0656 14.516 
-5.5022 -1.81125 14.418 -5.57585 -1.32415 14.3795 -5.63836 -1.36545 14.6378 
-5.6604 0.359658 14.7952 -5.54094 0.803693 14.627 -5.611 0.704705 14.9092 
-5.42106 1.32469 14.7951 -5.26584 1.66952 14.6734 -5.323 1.67348 15.0071 
-5.26584 1.66952 14.6734 -5.06171 2.13871 14.7314 -5.323 1.67348 15.0071 
-5.06171 2.13871 14.7314 -4.77187 2.6302 14.7493 -4.89932 2.5086 15.0485 
-4.77187 2.6302 14.7493 -4.43373 3.10643 14.7921 -4.7052 2.80933 15.0687 
-4.08347 3.52879 14.9533 -3.65338 3.90865 14.8722 -3.80983 3.81762 15.1535 
-3.65338 3.90865 14.8722 -3.19179 4.25055 14.8854 -3.43682 4.12086 15.1819 
-3.19179 4.25055 14.8854 -2.81956 4.47832 14.8939 -3.00873 4.41338 15.2009 
-2.53366 4.64754 14.9678 -2.06918 4.83664 14.9181 -2.26117 4.80006 15.2357 
-1.79859 4.95195 15.0031 -1.14315 5.12099 14.9732 -1.43536 5.07931 15.2513 
-1.14315 5.12099 14.9732 -0.666966 5.19122 14.9672 -0.524763 5.24035 15.265 
-0.666966 5.19122 14.9672 -0.0597739 5.24594 15.0376 -0.524763 5.24035 15.265 
-0.0597739 5.24594 15.0376 0.476249 5.2103 14.9571 0.376066 5.2492 15.2644 
0.476249 5.2103 14.9571 0.92186 5.1462 14.9068 0.73477 5.21584 15.2587 
0.92186 5.1462 14.9068 1.28171 5.085 14.9576 1.26621 5.12326 15.2588 
1.69887 4.98158 14.9927 2.11749 4.82175 14.9301 2.0323 4.89186 15.239 
2.60327 4.62138 15.0546 2.91765 4.42066 14.885 2.95415 4.44574 15.2156 
2.91765 4.42066 14.885 3.19685 4.2518 14.9069 2.95415 4.44574 15.2156 
3.19685 4.2518 14.9069 3.60663 3.94675 14.876 3.59896 3.99487 15.159 
4.01327 3.62492 15.0953 4.24536 3.32512 14.8165 4.35095 3.26804 15.1199 
4.24536 3.32512 14.8165 4.48359 3.0415 14.7935 4.35095 3.26804 15.1199 
4.48359 3.0415 14.7935 4.70807 2.72872 14.7698 4.80122 2.66724 15.0611 
4.70807 2.72872 14.7698 4.91073 2.40929 14.7467 4.80122 2.66724 15.0611 
4.91073 2.40929 14.7467 5.18476 1.87881 14.7034 5.19075 1.96641 14.9985 
5.39382 1.34615 14.6871 5.5022 0.961216 14.6362 5.55156 0.959126 14.9195 
5.63851 0.486064 14.7838 5.66301 -0.041251 14.5563 5.71585 -0.0157122 14.8702 
5.66301 -0.041251 14.5563 5.669 -0.654001 14.4956 5.72748 -0.547621 14.8044 
5.62125 -1.21968 14.4788 5.54094 -1.65422 14.4335 5.611 -1.6006 14.7278 
5.42106 -2.19511 14.5181 5.26584 -2.51665 14.344 5.323 -2.57277 14.6729 
5.26584 -2.51665 14.344 5.06171 -2.98913 14.3278 5.323 -2.57277 14.6729 
5.06171 -2.98913 14.3278 4.77187 -3.47738 14.2687 4.89932 -3.40407 14.5831 
4.77187 -3.47738 14.2687 4.43373 -3.95444 14.2364 4.7052 -3.70427 14.5561 
4.08347 -4.39681 14.3295 3.65338 -4.75931 14.19 3.80983 -4.71341 14.4821 
3.65338 -4.75931 14.19 3.19179 -5.09906 14.1496 3.43682 -5.01735 14.4627 
3.19179 -5.09906 14.1496 2.81916 -5.32541 14.1218 3.00873 -5.30925 14.4357 
2.5337 -5.50404 14.1688 2.06918 -5.68306 14.0902 2.26117 -5.69662 14.4096 
1.79859 -5.81024 14.1561 1.33269 -5.92013 14.0869 1.43536 -5.97486 14.3813 
1.33269 -5.92013 14.0869 0.992613 -5.99582 14.0925 1.0207 -6.06751 14.372 
0.992613 -5.99582 14.0925 0.666966 -6.04096 14.0832 0.524763 -6.13606 14.3696 
0.666966 -6.04096 14.0832 0.0592456 -6.10368 14.1356 0.524763 -6.13606 14.3696 
0.0592456 -6.10368 14.1356 -0.496743 -6.05698 14.0729 -0.376066 -6.14471 14.3677 
-0.496743 -6.05698 14.0729 -0.965678 -5.99572 14.0776 -0.73477 -6.11088 14.3673 
-1.761 -5.84368 14.2303 -2.10758 -5.67517 14.1064 -2.0323 -5.7878 14.3985 
-2.57177 -5.46674 14.127 -2.91765 -5.26702 14.1225 -2.95415 -5.34351 14.4451 
-2.91765 -5.26702 14.1225 -3.19685 -5.10366 14.1706 -2.95415 -5.34351 14.4451 
-3.19685 -5.10366 14.1706 -3.60586 -4.79815 14.1876 -3.59896 -4.88934 14.4598 
-3.97776 -4.44383 14.1775 -4.2932 -4.1116 14.2134 -4.2345 -4.29555 14.5228 
-4.2932 -4.1116 14.2134 -4.50807 -3.86464 14.2652 -4.53339 -3.93884 14.5352 
-4.50807 -3.86464 14.2652 -4.78018 -3.4733 14.2821 -4.80534 -3.55637 14.5689 
-5.07544 -3.0656 14.516 -5.21549 -2.64796 14.3411 -5.19879 -2.84412 14.6238 
-5.39614 -2.19028 14.4073 -5.5022 -1.81125 14.418 -5.55156 -1.85351 14.6982 
-5.63836 -1.36545 14.6378 -5.66108 -0.818871 14.4918 -5.69607 -1.06283 14.782 
-5.66108 -0.818871 14.4918 -5.6682 -0.190245 14.5288 -5.72945 -0.562702 14.8103 
-5.51399 1.09555 14.9392 -5.42106 1.32469 14.7951 -5.323 1.67348 15.0071 
-4.38943 3.22384 15.1099 -4.08347 3.52879 14.9533 -4.11224 3.53283 15.263 
-3.00873 4.41338 15.2009 -2.53366 4.64754 14.9678 -2.64564 4.61885 15.3495 
-2.26117 4.80006 15.2357 -1.79859 4.95195 15.0031 -1.80932 4.97053 15.3238 
-0.524763 5.24035 15.265 -0.0597739 5.24594 15.0376 -0.0095616 5.26255 15.3465 
1.26621 5.12326 15.2588 1.69887 4.98158 14.9927 1.67204 5.01306 15.3246 
5.51399 -1.99134 14.6963 5.42106 -2.19511 14.5181 5.323 -2.57277 14.6729 
4.38943 -4.12012 14.5319 4.08347 -4.39681 14.3295 4.11224 -4.44926 14.6348 
3.00873 -5.30925 14.4357 2.5337 -5.50404 14.1688 2.64564 -5.53545 14.5504 
2.26117 -5.69662 14.4096 1.79859 -5.81024 14.1561 1.80932 -5.87877 14.47 
0.524763 -6.13606 14.3696 0.0592456 -6.10368 14.1356 0.0095616 -6.17073 14.4466 
-1.26367 -6.0058 14.3121 -1.761 -5.84368 14.2303 -1.67204 -5.92091 14.4641 
-3.91148 -4.61844 14.4894 -3.97776 -4.44383 14.1775 -4.2345 -4.29555 14.5228 
-5.72945 -0.562702 14.8103 -5.71325 -0.0464489 14.8371 -5.7329 -0.205384 15.0655 
-5.71325 -0.0464489 14.8371 -5.71507 0.0544728 15.086 -5.72706 -0.0992241 15.0739 
-5.71325 -0.0464489 14.8371 -5.6604 0.359658 14.7952 -5.68882 0.291956 15.1038 
-5.6604 0.359658 14.7952 -5.611 0.704705 14.9092 -5.63985 0.59532 15.1324 
-5.611 0.704705 14.9092 -5.59078 0.82543 15.1467 -5.63985 0.59532 15.1324 
-5.611 0.704705 14.9092 -5.51399 1.09555 14.9392 -5.53648 1.04347 15.1571 
-5.51399 1.09555 14.9392 -5.323 1.67348 15.0071 -5.44816 1.33196 15.1865 
-5.323 1.67348 15.0071 -5.36234 1.57233 15.2054 -5.44816 1.33196 15.1865 
-5.323 1.67348 15.0071 -5.26374 1.81353 15.2244 -5.31943 1.68118 15.214 
-5.323 1.67348 15.0071 -5.09707 2.15841 15.0241 -5.16218 2.0346 15.2427 
-4.89932 2.5086 15.0485 -4.90338 2.50684 15.279 -5.02031 2.30699 15.2697 
-5.02031 2.30699 15.2697 -5.09707 2.15841 15.0241 -4.89932 2.5086 15.0485 
-4.89932 2.5086 15.0485 -4.7052 2.80933 15.0687 -4.78239 2.6979 15.2955 
-4.38943 3.22384 15.1099 -4.45169 3.14477 15.3292 -4.60602 2.94735 15.3138 
-4.60602 2.94735 15.3138 -4.7052 2.80933 15.0687 -4.38943 3.22384 15.1099 
-4.38943 3.22384 15.1099 -4.28223 3.34302 15.3448 -4.36982 3.24284 15.3369 
-4.11224 3.53283 15.263 -3.80983 3.81762 15.1535 -3.89332 3.73786 15.3831 
-3.80983 3.81762 15.1535 -3.72211 3.88885 15.3878 -3.89332 3.73786 15.3831 
-3.80983 3.81762 15.1535 -3.43682 4.12086 15.1819 -3.54466 4.03443 15.4 
-3.00873 4.41338 15.2009 -3.09266 4.35355 15.4243 -3.29739 4.21712 15.414 
-3.29739 4.21712 15.414 -3.43682 4.12086 15.1819 -3.00873 4.41338 15.2009 
-3.00873 4.41338 15.2009 -2.86942 4.48889 15.435 -2.97498 4.42663 15.4301 
-2.64564 4.61885 15.3495 -2.26117 4.80006 15.2357 -2.37433 4.74253 15.469 
-2.26117 4.80006 15.2357 -2.16595 4.83225 15.462 -2.37433 4.74253 15.469 
-2.26117 4.80006 15.2357 -1.80932 4.97053 15.3238 -1.94818 4.91608 15.4716 
-1.43536 5.07931 15.2513 -1.42213 5.07693 15.4813 -1.63286 5.01891 15.4767 
-1.63286 5.01891 15.4767 -1.80932 4.97053 15.3238 -1.43536 5.07931 15.2513 
-1.43536 5.07931 15.2513 -1.0207 5.17227 15.2566 -1.27701 5.11193 15.484 
-1.0207 5.17227 15.2566 -1.1676 5.13571 15.4859 -1.27701 5.11193 15.484 
-1.0207 5.17227 15.2566 -0.524763 5.24035 15.265 -0.616074 5.2231 15.4931 
-0.524763 5.24035 15.265 -0.391633 5.24204 15.4943 -0.616074 5.2231 15.4931 
-0.524763 5.24035 15.265 -0.0095616 5.26255 15.3465 -0.183939 5.25244 15.4951 
-0.0095616 5.26255 15.3465 -0.130635 5.25389 15.4952 -0.183939 5.25244 15.4951 
0.376066 5.2492 15.2644 0.391633 5.24204 15.4943 0.183939 5.25244 15.4951 
0.183939 5.25244 15.4951 -0.0095616 5.26255 15.3465 0.376066 5.2492 15.2644 
0.376066 5.2492 15.2644 0.73477 5.21584 15.2587 0.614585 5.22329 15.4918 
1.26621 5.12326 15.2588 1.1676 5.13571 15.4859 0.913282 5.18253 15.4896 
0.913282 5.18253 15.4896 0.73477 5.21584 15.2587 1.26621 5.12326 15.2588 
1.26621 5.12326 15.2588 1.42213 5.07693 15.4813 1.27701 5.11193 15.484 
1.26621 5.12326 15.2588 1.67204 5.01306 15.3246 1.63286 5.01891 15.4767 
1.67204 5.01306 15.3246 1.67371 5.00666 15.4757 1.63286 5.01891 15.4767 
1.67204 5.01306 15.3246 2.0323 4.89186 15.239 1.94819 4.91601 15.4725 
2.0323 4.89186 15.239 2.16595 4.83225 15.462 1.94819 4.91601 15.4725 
2.0323 4.89186 15.239 2.47481 4.7037 15.2402 2.37379 4.74427 15.4494 
2.95415 4.44574 15.2156 2.86942 4.48889 15.435 2.64734 4.61027 15.4445 
2.64734 4.61027 15.4445 2.47481 4.7037 15.2402 2.95415 4.44574 15.2156 
2.95415 4.44574 15.2156 3.09266 4.35355 15.4243 2.97498 4.42663 15.4301 
2.95415 4.44574 15.2156 3.30492 4.21601 15.1849 3.29739 4.21711 15.4142 
3.30492 4.21601 15.1849 3.59896 3.99487 15.159 3.54467 4.03434 15.4011 
3.59896 3.99487 15.159 3.72211 3.88885 15.3878 3.54467 4.03434 15.4011 
3.59896 3.99487 15.159 4.01327 3.62492 15.0953 3.89323 3.73884 15.3716 
4.35095 3.26804 15.1199 4.28223 3.34302 15.3448 4.1132 3.52385 15.359 
4.1132 3.52385 15.359 4.01327 3.62492 15.0953 4.35095 3.26804 15.1199 
4.35095 3.26804 15.1199 4.45169 3.14477 15.3292 4.36982 3.24284 15.3369 
4.35095 3.26804 15.1199 4.60449 2.94852 15.0844 4.60656 2.94688 15.3108 
4.60449 2.94852 15.0844 4.80122 2.66724 15.0611 4.78189 2.69857 15.2975 
4.80122 2.66724 15.0611 4.90338 2.50684 15.279 4.78189 2.69857 15.2975 
4.80122 2.66724 15.0611 5.02678 2.28955 15.0326 5.02033 2.30782 15.2588 
5.02678 2.28955 15.0326 5.19075 1.96641 14.9985 5.16218 2.03462 15.2424 
5.19075 1.96641 14.9985 5.26374 1.81353 15.2244 5.16218 2.03462 15.2424 
5.19075 1.96641 14.9985 5.39137 1.492 14.9959 5.31943 1.68118 15.214 
5.39137 1.492 14.9959 5.36234 1.57233 15.2054 5.31943 1.68118 15.214 
5.39137 1.492 14.9959 5.55156 0.959126 14.9195 5.53616 1.04427 15.165 
5.55156 0.959126 14.9195 5.59078 0.82543 15.1467 5.53616 1.04427 15.165 
5.55156 0.959126 14.9195 5.63851 0.486064 14.7838 5.63985 0.595798 15.1259 
5.63851 0.486064 14.7838 5.71585 -0.0157122 14.8702 5.68882 0.291914 15.1041 
5.71585 -0.0157122 14.8702 5.71507 0.0544728 15.086 5.68882 0.291914 15.1041 
5.71585 -0.0157122 14.8702 5.7329 -0.205384 15.0655 5.72706 -0.0992241 15.0739 
5.71585 -0.0157122 14.8702 5.72748 -0.547621 14.8044 5.73885 -0.46578 15.045 
5.69873 -1.06552 14.7892 5.71507 -0.986032 15.0041 5.72706 -0.832335 15.0162 
5.72706 -0.832335 15.0162 5.72748 -0.547621 14.8044 5.69873 -1.06552 14.7892 
5.69873 -1.06552 14.7892 5.611 -1.6006 14.7278 5.63985 -1.52749 14.9654 
5.611 -1.6006 14.7278 5.59078 -1.75699 14.9434 5.63985 -1.52749 14.9654 
5.611 -1.6006 14.7278 5.51399 -1.99134 14.6963 5.53648 -1.97398 14.9196 
5.51399 -1.99134 14.6963 5.323 -2.57277 14.6729 5.44816 -2.26352 14.9036 
5.323 -2.57277 14.6729 5.36234 -2.50389 14.8846 5.44816 -2.26352 14.9036 
5.323 -2.57277 14.6729 5.26374 -2.74509 14.8657 5.31943 -2.61274 14.8761 
5.323 -2.57277 14.6729 5.09707 -3.05438 14.6138 5.16218 -2.9663 14.8491 
4.89932 -3.40407 14.5831 4.90338 -3.4384 14.8111 5.02031 -3.23956 14.8332 
5.02031 -3.23956 14.8332 5.09707 -3.05438 14.6138 4.89932 -3.40407 14.5831 
4.89932 -3.40407 14.5831 4.7052 -3.70427 14.5561 4.78239 -3.6297 14.7976 
4.38943 -4.12012 14.5319 4.45169 -4.07633 14.7609 4.60602 -3.87894 14.7766 
4.60602 -3.87894 14.7766 4.7052 -3.70427 14.5561 4.38943 -4.12012 14.5319 
4.38943 -4.12012 14.5319 4.28223 -4.27458 14.7453 4.36982 -4.1744 14.7532 
4.11224 -4.44926 14.6348 3.80983 -4.71341 14.4821 3.89332 -4.67055 14.7213 
3.80983 -4.71341 14.4821 3.72211 -4.82041 14.7023 3.89332 -4.67055 14.7213 
3.80983 -4.71341 14.4821 3.43682 -5.01735 14.4627 3.54466 -4.96611 14.6916 
3.00873 -5.30925 14.4357 3.09266 -5.28511 14.6657 3.29739 -5.14874 14.6769 
3.29739 -5.14874 14.6769 3.43682 -5.01735 14.4627 3.00873 -5.30925 14.4357 
3.00873 -5.30925 14.4357 2.86942 -5.42045 14.6551 2.97498 -5.35818 14.66 
2.64564 -5.53545 14.5504 2.26117 -5.69662 14.4096 2.37433 -5.67629 14.649 
2.26117 -5.69662 14.4096 2.16595 -5.76381 14.6281 2.37433 -5.67629 14.649 
2.26117 -5.69662 14.4096 1.80932 -5.87877 14.47 1.94818 -5.84812 14.6245 
1.43536 -5.97486 14.3813 1.42213 -6.00849 14.6088 1.63286 -5.95047 14.6134 
1.63286 -5.95047 14.6134 1.80932 -5.87877 14.47 1.43536 -5.97486 14.3813 
1.43536 -5.97486 14.3813 1.0207 -6.06751 14.372 1.27701 -6.04349 14.6061 
1.0207 -6.06751 14.372 1.1676 -6.06727 14.6042 1.27701 -6.04349 14.6061 
1.0207 -6.06751 14.372 0.524763 -6.13606 14.3696 0.616074 -6.15471 14.5976 
0.524763 -6.13606 14.3696 0.391633 -6.1736 14.5958 0.616074 -6.15471 14.5976 
0.524763 -6.13606 14.3696 0.0095616 -6.17073 14.4466 0.183939 -6.184 14.595 
0.0095616 -6.17073 14.4466 0.130635 -6.18545 14.5949 0.183939 -6.184 14.595 
-0.376066 -6.14471 14.3677 -0.391633 -6.1736 14.5958 -0.183939 -6.184 14.595 
-0.183939 -6.184 14.595 0.0095616 -6.17073 14.4466 -0.376066 -6.14471 14.3677 
-0.376066 -6.14471 14.3677 -0.73477 -6.11088 14.3673 -0.614585 -6.1547 14.5963 
-1.26367 -6.0058 14.3121 -1.1676 -6.06727 14.6042 -0.913282 -6.11409 14.6005 
-0.913282 -6.11409 14.6005 -0.73477 -6.11088 14.3673 -1.26367 -6.0058 14.3121 
-1.26367 -6.0058 14.3121 -1.42213 -6.00849 14.6088 -1.27701 -6.04349 14.6061 
-1.26367 -6.0058 14.3121 -1.67204 -5.92091 14.4641 -1.63286 -5.95047 14.6134 
-1.67204 -5.92091 14.4641 -1.67371 -5.93822 14.6143 -1.63286 -5.95047 14.6134 
-1.67204 -5.92091 14.4641 -2.0323 -5.7878 14.3985 -1.94819 -5.84818 14.6253 
-2.0323 -5.7878 14.3985 -2.16595 -5.76381 14.6281 -1.94819 -5.84818 14.6253 
-2.0323 -5.7878 14.3985 -2.47481 -5.60214 14.4291 -2.37379 -5.67494 14.6294 
-2.95415 -5.34351 14.4451 -2.86942 -5.42045 14.6551 -2.64734 -5.54183 14.6455 
-2.64734 -5.54183 14.6455 -2.47481 -5.60214 14.4291 -2.95415 -5.34351 14.4451 
-2.95415 -5.34351 14.4451 -3.09266 -5.28511 14.6657 -2.97498 -5.35818 14.66 
-2.95415 -5.34351 14.4451 -3.30492 -5.11181 14.4508 -3.29739 -5.14876 14.6771 
-3.30492 -5.11181 14.4508 -3.59896 -4.88934 14.4598 -3.54467 -4.96619 14.6927 
-3.59896 -4.88934 14.4598 -3.72211 -4.82041 14.7023 -3.54467 -4.96619 14.6927 
-3.59896 -4.88934 14.4598 -3.91148 -4.61844 14.4894 -3.89377 -4.66915 14.7089 
-3.91148 -4.61844 14.4894 -4.2345 -4.29555 14.5228 -4.1132 -4.45541 14.731 
-4.2345 -4.29555 14.5228 -4.28223 -4.27458 14.7453 -4.1132 -4.45541 14.731 
-4.2345 -4.29555 14.5228 -4.53339 -3.93884 14.5352 -4.36982 -4.1744 14.7532 
-4.53339 -3.93884 14.5352 -4.45169 -4.07633 14.7609 -4.36982 -4.1744 14.7532 
-4.53339 -3.93884 14.5352 -4.80534 -3.55637 14.5689 -4.78186 -3.63042 14.7957 
-4.80534 -3.55637 14.5689 -4.90338 -3.4384 14.8111 -4.78186 -3.63042 14.7957 
-4.80534 -3.55637 14.5689 -5.07544 -3.0656 14.516 -5.02033 -3.23871 14.8228 
-5.07544 -3.0656 14.516 -5.19879 -2.84412 14.6238 -5.16218 -2.96628 14.8489 
-5.19879 -2.84412 14.6238 -5.26374 -2.74509 14.8657 -5.16218 -2.96628 14.8489 
-5.19879 -2.84412 14.6238 -5.39215 -2.3893 14.6903 -5.31943 -2.61274 14.8761 
-5.39215 -2.3893 14.6903 -5.36234 -2.50389 14.8846 -5.31943 -2.61274 14.8761 
-5.39215 -2.3893 14.6903 -5.55156 -1.85351 14.6982 -5.53616 -1.97602 14.9274 
-5.55156 -1.85351 14.6982 -5.59078 -1.75699 14.9434 -5.53616 -1.97602 14.9274 
-5.55156 -1.85351 14.6982 -5.63836 -1.36545 14.6378 -5.63985 -1.52694 14.9588 
-5.63836 -1.36545 14.6378 -5.69607 -1.06283 14.782 -5.68882 -1.22338 14.9848 
-5.69607 -1.06283 14.782 -5.71507 -0.986032 15.0041 -5.68882 -1.22338 14.9848 
-5.69607 -1.06283 14.782 -5.72945 -0.562702 14.8103 -5.72706 -0.832335 15.0162 
-5.72945 -0.562702 14.8103 -5.7329 -0.726176 15.0245 -5.72706 -0.832335 15.0162 
-5.73885 -0.46578 15.045 -5.7329 -0.726176 15.0245 -5.72945 -0.562702 14.8103 
-5.72706 -0.832335 15.0162 -5.71507 -0.986032 15.0041 -5.69607 -1.06283 14.782 
-5.68882 -1.22338 14.9848 -5.63985 -1.52694 14.9588 -5.63836 -1.36545 14.6378 
-5.63985 -1.52694 14.9588 -5.59078 -1.75699 14.9434 -5.55156 -1.85351 14.6982 
-5.53616 -1.97602 14.9274 -5.44816 -2.26352 14.9036 -5.39215 -2.3893 14.6903 
-5.44816 -2.26352 14.9036 -5.36234 -2.50389 14.8846 -5.39215 -2.3893 14.6903 
-5.31943 -2.61274 14.8761 -5.26374 -2.74509 14.8657 -5.19879 -2.84412 14.6238 
-5.16218 -2.96628 14.8489 -5.02033 -3.23871 14.8228 -5.07544 -3.0656 14.516 
-5.02033 -3.23871 14.8228 -4.90338 -3.4384 14.8111 -4.80534 -3.55637 14.5689 
-4.78186 -3.63042 14.7957 -4.60656 -3.878 14.7736 -4.53339 -3.93884 14.5352 
-4.60656 -3.878 14.7736 -4.45169 -4.07633 14.7609 -4.53339 -3.93884 14.5352 
-4.36982 -4.1744 14.7532 -4.28223 -4.27458 14.7453 -4.2345 -4.29555 14.5228 
-4.1132 -4.45541 14.731 -3.89377 -4.66915 14.7089 -3.91148 -4.61844 14.4894 
-3.89377 -4.66915 14.7089 -3.72211 -4.82041 14.7023 -3.59896 -4.88934 14.4598 
-3.54467 -4.96619 14.6927 -3.29739 -5.14876 14.6771 -3.30492 -5.11181 14.4508 
-3.29739 -5.14876 14.6771 -3.09266 -5.28511 14.6657 -2.95415 -5.34351 14.4451 
-2.97498 -5.35818 14.66 -2.86942 -5.42045 14.6551 -2.95415 -5.34351 14.4451 
-2.64734 -5.54183 14.6455 -2.37379 -5.67494 14.6294 -2.47481 -5.60214 14.4291 
-2.37379 -5.67494 14.6294 -2.16595 -5.76381 14.6281 -2.0323 -5.7878 14.3985 
-1.94819 -5.84818 14.6253 -1.67371 -5.93822 14.6143 -1.67204 -5.92091 14.4641 
-1.63286 -5.95047 14.6134 -1.42213 -6.00849 14.6088 -1.26367 -6.0058 14.3121 
-1.27701 -6.04349 14.6061 -1.1676 -6.06727 14.6042 -1.26367 -6.0058 14.3121 
-0.913282 -6.11409 14.6005 -0.614585 -6.1547 14.5963 -0.73477 -6.11088 14.3673 
-0.614585 -6.1547 14.5963 -0.391633 -6.1736 14.5958 -0.376066 -6.14471 14.3677 
-0.183939 -6.184 14.595 -0.130635 -6.18545 14.5949 0.0095616 -6.17073 14.4466 
-0.130635 -6.18545 14.5949 0.130635 -6.18545 14.5949 0.0095616 -6.17073 14.4466 
0.183939 -6.184 14.595 0.391633 -6.1736 14.5958 0.524763 -6.13606 14.3696 
0.616074 -6.15471 14.5976 0.912935 -6.11401 14.5988 1.0207 -6.06751 14.372 
0.912935 -6.11401 14.5988 1.1676 -6.06727 14.6042 1.0207 -6.06751 14.372 
1.27701 -6.04349 14.6061 1.42213 -6.00849 14.6088 1.43536 -5.97486 14.3813 
1.63286 -5.95047 14.6134 1.67371 -5.93822 14.6143 1.80932 -5.87877 14.47 
1.67371 -5.93822 14.6143 1.94818 -5.84812 14.6245 1.80932 -5.87877 14.47 
1.94818 -5.84812 14.6245 2.16595 -5.76381 14.6281 2.26117 -5.69662 14.4096 
2.64564 -5.53545 14.5504 2.86942 -5.42045 14.6551 3.00873 -5.30925 14.4357 
2.97498 -5.35818 14.66 3.09266 -5.28511 14.6657 3.00873 -5.30925 14.4357 
3.29739 -5.14874 14.6769 3.54466 -4.96611 14.6916 3.43682 -5.01735 14.4627 
3.54466 -4.96611 14.6916 3.72211 -4.82041 14.7023 3.80983 -4.71341 14.4821 
4.11224 -4.44926 14.6348 4.28223 -4.27458 14.7453 4.38943 -4.12012 14.5319 
4.36982 -4.1744 14.7532 4.45169 -4.07633 14.7609 4.38943 -4.12012 14.5319 
4.60602 -3.87894 14.7766 4.78239 -3.6297 14.7976 4.7052 -3.70427 14.5561 
4.78239 -3.6297 14.7976 4.90338 -3.4384 14.8111 4.89932 -3.40407 14.5831 
5.02031 -3.23956 14.8332 5.16218 -2.9663 14.8491 5.09707 -3.05438 14.6138 
5.16218 -2.9663 14.8491 5.26374 -2.74509 14.8657 5.323 -2.57277 14.6729 
5.31943 -2.61274 14.8761 5.36234 -2.50389 14.8846 5.323 -2.57277 14.6729 
5.44816 -2.26352 14.9036 5.53648 -1.97398 14.9196 5.51399 -1.99134 14.6963 
5.53648 -1.97398 14.9196 5.59078 -1.75699 14.9434 5.611 -1.6006 14.7278 
5.63985 -1.52749 14.9654 5.68882 -1.22338 14.9845 5.69873 -1.06552 14.7892 
5.68882 -1.22338 14.9845 5.71507 -0.986032 15.0041 5.69873 -1.06552 14.7892 
5.72706 -0.832335 15.0162 5.7329 -0.726176 15.0245 5.72748 -0.547621 14.8044 
5.7329 -0.726176 15.0245 5.73885 -0.46578 15.045 5.72748 -0.547621 14.8044 
5.73885 -0.46578 15.045 5.7329 -0.205384 15.0655 5.71585 -0.0157122 14.8702 
5.72706 -0.0992241 15.0739 5.71507 0.0544728 15.086 5.71585 -0.0157122 14.8702 
5.68882 0.291914 15.1041 5.63985 0.595798 15.1259 5.63851 0.486064 14.7838 
5.63985 0.595798 15.1259 5.59078 0.82543 15.1467 5.55156 0.959126 14.9195 
5.53616 1.04427 15.165 5.44816 1.33196 15.1865 5.39137 1.492 14.9959 
5.44816 1.33196 15.1865 5.36234 1.57233 15.2054 5.39137 1.492 14.9959 
5.31943 1.68118 15.214 5.26374 1.81353 15.2244 5.19075 1.96641 14.9985 
5.16218 2.03462 15.2424 5.02033 2.30782 15.2588 5.02678 2.28955 15.0326 
5.02033 2.30782 15.2588 4.90338 2.50684 15.279 4.80122 2.66724 15.0611 
4.78189 2.69857 15.2975 4.60656 2.94688 15.3108 4.60449 2.94852 15.0844 
4.60656 2.94688 15.3108 4.45169 3.14477 15.3292 4.35095 3.26804 15.1199 
4.36982 3.24284 15.3369 4.28223 3.34302 15.3448 4.35095 3.26804 15.1199 
4.1132 3.52385 15.359 3.89323 3.73884 15.3716 4.01327 3.62492 15.0953 
3.89323 3.73884 15.3716 3.72211 3.88885 15.3878 3.59896 3.99487 15.159 
3.54467 4.03434 15.4011 3.29739 4.21711 15.4142 3.30492 4.21601 15.1849 
3.29739 4.21711 15.4142 3.09266 4.35355 15.4243 2.95415 4.44574 15.2156 
2.97498 4.42663 15.4301 2.86942 4.48889 15.435 2.95415 4.44574 15.2156 
2.64734 4.61027 15.4445 2.37379 4.74427 15.4494 2.47481 4.7037 15.2402 
2.37379 4.74427 15.4494 2.16595 4.83225 15.462 2.0323 4.89186 15.239 
1.94819 4.91601 15.4725 1.67371 5.00666 15.4757 1.67204 5.01306 15.3246 
1.63286 5.01891 15.4767 1.42213 5.07693 15.4813 1.26621 5.12326 15.2588 
1.27701 5.11193 15.484 1.1676 5.13571 15.4859 1.26621 5.12326 15.2588 
0.913282 5.18253 15.4896 0.614585 5.22329 15.4918 0.73477 5.21584 15.2587 
0.614585 5.22329 15.4918 0.391633 5.24204 15.4943 0.376066 5.2492 15.2644 
0.183939 5.25244 15.4951 0.130635 5.25389 15.4952 -0.0095616 5.26255 15.3465 
0.130635 5.25389 15.4952 -0.130635 5.25389 15.4952 -0.0095616 5.26255 15.3465 
-0.183939 5.25244 15.4951 -0.391633 5.24204 15.4943 -0.524763 5.24035 15.265 
-0.616074 5.2231 15.4931 -0.912935 5.18272 15.4879 -1.0207 5.17227 15.2566 
-0.912935 5.18272 15.4879 -1.1676 5.13571 15.4859 -1.0207 5.17227 15.2566 
-1.27701 5.11193 15.484 -1.42213 5.07693 15.4813 -1.43536 5.07931 15.2513 
-1.63286 5.01891 15.4767 -1.67371 5.00666 15.4757 -1.80932 4.97053 15.3238 
-1.67371 5.00666 15.4757 -1.94818 4.91608 15.4716 -1.80932 4.97053 15.3238 
-1.94818 4.91608 15.4716 -2.16595 4.83225 15.462 -2.26117 4.80006 15.2357 
-2.64564 4.61885 15.3495 -2.86942 4.48889 15.435 -3.00873 4.41338 15.2009 
-2.97498 4.42663 15.4301 -3.09266 4.35355 15.4243 -3.00873 4.41338 15.2009 
-3.29739 4.21712 15.414 -3.54466 4.03443 15.4 -3.43682 4.12086 15.1819 
-3.54466 4.03443 15.4 -3.72211 3.88885 15.3878 -3.80983 3.81762 15.1535 
-4.11224 3.53283 15.263 -4.28223 3.34302 15.3448 -4.38943 3.22384 15.1099 
-4.36982 3.24284 15.3369 -4.45169 3.14477 15.3292 -4.38943 3.22384 15.1099 
-4.60602 2.94735 15.3138 -4.78239 2.6979 15.2955 -4.7052 2.80933 15.0687 
-4.78239 2.6979 15.2955 -4.90338 2.50684 15.279 -4.89932 2.5086 15.0485 
-5.02031 2.30699 15.2697 -5.16218 2.0346 15.2427 -5.09707 2.15841 15.0241 
-5.16218 2.0346 15.2427 -5.26374 1.81353 15.2244 -5.323 1.67348 15.0071 
-5.31943 1.68118 15.214 -5.36234 1.57233 15.2054 -5.323 1.67348 15.0071 
-5.44816 1.33196 15.1865 -5.53648 1.04347 15.1571 -5.51399 1.09555 14.9392 
-5.53648 1.04347 15.1571 -5.59078 0.82543 15.1467 -5.611 0.704705 14.9092 
-5.63985 0.59532 15.1324 -5.68882 0.291956 15.1038 -5.6604 0.359658 14.7952 
-5.68882 0.291956 15.1038 -5.71507 0.0544728 15.086 -5.71325 -0.0464489 14.8371 
-5.72706 -0.0992241 15.0739 -5.7329 -0.205384 15.0655 -5.71325 -0.0464489 14.8371 
-5.7329 -0.205384 15.0655 -5.73885 -0.46578 15.045 -5.72945 -0.562702 14.8103 
-5.55156 -1.85351 14.6982 -5.39215 -2.3893 14.6903 -5.39614 -2.19028 14.4073 
-2.95415 -5.34351 14.4451 -2.47481 -5.60214 14.4291 -2.57177 -5.46674 14.127 
-2.0323 -5.7878 14.3985 -1.67204 -5.92091 14.4641 -1.761 -5.84368 14.2303 
-0.376066 -6.14471 14.3677 0.0095616 -6.17073 14.4466 0.0592456 -6.10368 14.1356 
1.43536 -5.97486 14.3813 1.80932 -5.87877 14.47 1.79859 -5.81024 14.1561 
2.26117 -5.69662 14.4096 2.64564 -5.53545 14.5504 2.5337 -5.50404 14.1688 
3.80983 -4.71341 14.4821 4.11224 -4.44926 14.6348 4.08347 -4.39681 14.3295 
5.611 -1.6006 14.7278 5.69873 -1.06552 14.7892 5.62125 -1.21968 14.4788 
5.55156 0.959126 14.9195 5.39137 1.492 14.9959 5.39382 1.34615 14.6871 
2.95415 4.44574 15.2156 2.47481 4.7037 15.2402 2.60327 4.62138 15.0546 
2.0323 4.89186 15.239 1.67204 5.01306 15.3246 1.69887 4.98158 14.9927 
0.376066 5.2492 15.2644 -0.0095616 5.26255 15.3465 -0.0597739 5.24594 15.0376 
-1.43536 5.07931 15.2513 -1.80932 4.97053 15.3238 -1.79859 4.95195 15.0031 
-2.26117 4.80006 15.2357 -2.64564 4.61885 15.3495 -2.53366 4.64754 14.9678 
-3.80983 3.81762 15.1535 -4.11224 3.53283 15.263 -4.08347 3.52879 14.9533 
-5.72945 -0.562702 14.8103 -5.69607 -1.06283 14.782 -5.66108 -0.818871 14.4918 
-5.63836 -1.36545 14.6378 -5.55156 -1.85351 14.6982 -5.5022 -1.81125 14.418 
-5.39614 -2.19028 14.4073 -5.39215 -2.3893 14.6903 -5.21549 -2.64796 14.3411 
-5.39215 -2.3893 14.6903 -5.19879 -2.84412 14.6238 -5.21549 -2.64796 14.3411 
-5.07544 -3.0656 14.516 -4.80534 -3.55637 14.5689 -4.78018 -3.4733 14.2821 
-4.80534 -3.55637 14.5689 -4.53339 -3.93884 14.5352 -4.50807 -3.86464 14.2652 
-4.53339 -3.93884 14.5352 -4.2345 -4.29555 14.5228 -4.2932 -4.1116 14.2134 
-3.97776 -4.44383 14.1775 -3.91148 -4.61844 14.4894 -3.60586 -4.79815 14.1876 
-3.91148 -4.61844 14.4894 -3.59896 -4.88934 14.4598 -3.60586 -4.79815 14.1876 
-3.59896 -4.88934 14.4598 -3.30492 -5.11181 14.4508 -3.19685 -5.10366 14.1706 
-3.30492 -5.11181 14.4508 -2.95415 -5.34351 14.4451 -3.19685 -5.10366 14.1706 
-2.57177 -5.46674 14.127 -2.47481 -5.60214 14.4291 -2.10758 -5.67517 14.1064 
-2.47481 -5.60214 14.4291 -2.0323 -5.7878 14.3985 -2.10758 -5.67517 14.1064 
-1.26367 -6.0058 14.3121 -0.73477 -6.11088 14.3673 -0.965678 -5.99572 14.0776 
-0.73477 -6.11088 14.3673 -0.376066 -6.14471 14.3677 -0.496743 -6.05698 14.0729 
0.524763 -6.13606 14.3696 1.0207 -6.06751 14.372 0.992613 -5.99582 14.0925 
1.0207 -6.06751 14.372 1.43536 -5.97486 14.3813 1.33269 -5.92013 14.0869 
1.79859 -5.81024 14.1561 2.26117 -5.69662 14.4096 2.06918 -5.68306 14.0902 
2.5337 -5.50404 14.1688 3.00873 -5.30925 14.4357 2.81916 -5.32541 14.1218 
3.00873 -5.30925 14.4357 3.43682 -5.01735 14.4627 3.19179 -5.09906 14.1496 
3.43682 -5.01735 14.4627 3.80983 -4.71341 14.4821 3.65338 -4.75931 14.19 
4.08347 -4.39681 14.3295 4.38943 -4.12012 14.5319 4.43373 -3.95444 14.2364 
4.38943 -4.12012 14.5319 4.7052 -3.70427 14.5561 4.43373 -3.95444 14.2364 
4.7052 -3.70427 14.5561 4.89932 -3.40407 14.5831 4.77187 -3.47738 14.2687 
4.89932 -3.40407 14.5831 5.09707 -3.05438 14.6138 5.06171 -2.98913 14.3278 
5.09707 -3.05438 14.6138 5.323 -2.57277 14.6729 5.06171 -2.98913 14.3278 
5.42106 -2.19511 14.5181 5.51399 -1.99134 14.6963 5.54094 -1.65422 14.4335 
5.51399 -1.99134 14.6963 5.611 -1.6006 14.7278 5.54094 -1.65422 14.4335 
5.62125 -1.21968 14.4788 5.69873 -1.06552 14.7892 5.669 -0.654001 14.4956 
5.69873 -1.06552 14.7892 5.72748 -0.547621 14.8044 5.669 -0.654001 14.4956 
5.72748 -0.547621 14.8044 5.71585 -0.0157122 14.8702 5.66301 -0.041251 14.5563 
5.63851 0.486064 14.7838 5.55156 0.959126 14.9195 5.5022 0.961216 14.6362 
5.39382 1.34615 14.6871 5.39137 1.492 14.9959 5.18476 1.87881 14.7034 
5.39137 1.492 14.9959 5.19075 1.96641 14.9985 5.18476 1.87881 14.7034 
5.19075 1.96641 14.9985 5.02678 2.28955 15.0326 4.91073 2.40929 14.7467 
5.02678 2.28955 15.0326 4.80122 2.66724 15.0611 4.91073 2.40929 14.7467 
4.80122 2.66724 15.0611 4.60449 2.94852 15.0844 4.48359 3.0415 14.7935 
4.60449 2.94852 15.0844 4.35095 3.26804 15.1199 4.48359 3.0415 14.7935 
4.01327 3.62492 15.0953 3.59896 3.99487 15.159 3.60663 3.94675 14.876 
3.59896 3.99487 15.159 3.30492 4.21601 15.1849 3.19685 4.2518 14.9069 
3.30492 4.21601 15.1849 2.95415 4.44574 15.2156 3.19685 4.2518 14.9069 
2.60327 4.62138 15.0546 2.47481 4.7037 15.2402 2.11749 4.82175 14.9301 
2.47481 4.7037 15.2402 2.0323 4.89186 15.239 2.11749 4.82175 14.9301 
1.69887 4.98158 14.9927 1.26621 5.12326 15.2588 1.28171 5.085 14.9576 
1.26621 5.12326 15.2588 0.73477 5.21584 15.2587 0.92186 5.1462 14.9068 
0.73477 5.21584 15.2587 0.376066 5.2492 15.2644 0.476249 5.2103 14.9571 
-0.524763 5.24035 15.265 -1.0207 5.17227 15.2566 -1.14315 5.12099 14.9732 
-1.0207 5.17227 15.2566 -1.43536 5.07931 15.2513 -1.14315 5.12099 14.9732 
-1.79859 4.95195 15.0031 -2.26117 4.80006 15.2357 -2.06918 4.83664 14.9181 
-2.53366 4.64754 14.9678 -3.00873 4.41338 15.2009 -2.81956 4.47832 14.8939 
-3.00873 4.41338 15.2009 -3.43682 4.12086 15.1819 -3.19179 4.25055 14.8854 
-3.43682 4.12086 15.1819 -3.80983 3.81762 15.1535 -3.65338 3.90865 14.8722 
-4.08347 3.52879 14.9533 -4.38943 3.22384 15.1099 -4.43373 3.10643 14.7921 
-4.38943 3.22384 15.1099 -4.7052 2.80933 15.0687 -4.43373 3.10643 14.7921 
-4.7052 2.80933 15.0687 -4.89932 2.5086 15.0485 -4.77187 2.6302 14.7493 
-4.89932 2.5086 15.0485 -5.09707 2.15841 15.0241 -5.06171 2.13871 14.7314 
-5.09707 2.15841 15.0241 -5.323 1.67348 15.0071 -5.06171 2.13871 14.7314 
-5.42106 1.32469 14.7951 -5.51399 1.09555 14.9392 -5.54094 0.803693 14.627 
-5.51399 1.09555 14.9392 -5.611 0.704705 14.9092 -5.54094 0.803693 14.627 
-5.6604 0.359658 14.7952 -5.71325 -0.0464489 14.8371 -5.6682 -0.190245 14.5288 
-5.71325 -0.0464489 14.8371 -5.72945 -0.562702 14.8103 -5.6682 -0.190245 14.5288 
-5.66108 -0.818871 14.4918 -5.63836 -1.36545 14.6378 -5.57585 -1.32415 14.3795 
-1.761 -5.84368 14.2303 -1.26367 -6.0058 14.3121 -1.52391 -5.83761 14.0115 
3.65338 -4.75931 14.19 4.08347 -4.39681 14.3295 4.02247 -4.33416 14.0709 
5.26584 -2.51665 14.344 5.42106 -2.19511 14.5181 5.3658 -2.04637 14.2001 
5.42106 -2.19511 14.5181 5.54094 -1.65422 14.4335 5.3658 -2.04637 14.2001 
5.66301 -0.041251 14.5563 5.63851 0.486064 14.7838 5.57585 0.486139 14.5219 
4.24536 3.32512 14.8165 4.01327 3.62492 15.0953 3.92118 3.62837 14.7493 
4.01327 3.62492 15.0953 3.60663 3.94675 14.876 3.92118 3.62837 14.7493 
2.91765 4.42066 14.885 2.60327 4.62138 15.0546 2.47054 4.64164 14.8303 
2.60327 4.62138 15.0546 2.11749 4.82175 14.9301 2.47054 4.64164 14.8303 
-3.65338 3.90865 14.8722 -4.08347 3.52879 14.9533 -4.02247 3.50737 14.6881 
-5.26584 1.66952 14.6734 -5.42106 1.32469 14.7951 -5.36571 1.22267 14.4523 
-5.42106 1.32469 14.7951 -5.54094 0.803693 14.627 -5.36571 1.22267 14.4523 
-5.54094 0.803693 14.627 -5.6604 0.359658 14.7952 -5.59542 0.347672 14.5114 
-5.6682 -0.190245 14.5288 -5.66108 -0.818871 14.4918 -5.56749 -0.52126 14.2237 
-5.66108 -0.818871 14.4918 -5.57585 -1.32415 14.3795 -5.51477 -1.13103 14.1591 
-5.57585 -1.32415 14.3795 -5.5022 -1.81125 14.418 -5.42634 -1.65468 14.1408 
-5.5022 -1.81125 14.418 -5.39614 -2.19028 14.4073 -5.27375 -2.16772 14.0759 
-5.39614 -2.19028 14.4073 -5.21549 -2.64796 14.3411 -5.27375 -2.16772 14.0759 
-4.93505 -3.10566 14.1676 -4.78018 -3.4733 14.2821 -4.6977 -3.37822 13.9932 
-4.78018 -3.4733 14.2821 -4.50807 -3.86464 14.2652 -4.47663 -3.70621 13.9793 
-4.50807 -3.86464 14.2652 -4.2932 -4.1116 14.2134 -4.2432 -3.99723 13.9501 
-4.2932 -4.1116 14.2134 -3.97776 -4.44383 14.1775 -3.89782 -4.3745 13.9283 
-3.97776 -4.44383 14.1775 -3.60586 -4.79815 14.1876 -3.51982 -4.70392 13.8945 
-3.60586 -4.79815 14.1876 -3.19685 -5.10366 14.1706 -3.21275 -4.93823 13.8824 
-3.19685 -5.10366 14.1706 -2.91765 -5.26702 14.1225 -2.89944 -5.14165 13.8601 
-2.91765 -5.26702 14.1225 -2.57177 -5.46674 14.127 -2.56329 -5.3321 13.8514 
-2.57177 -5.46674 14.127 -2.10758 -5.67517 14.1064 -2.20258 -5.50745 13.8439 
-2.10758 -5.67517 14.1064 -1.52391 -5.83761 14.0115 -1.76158 -5.67645 13.8346 
-1.52391 -5.83761 14.0115 -0.965678 -5.99572 14.0776 -1.25499 -5.81433 13.8123 
-0.965678 -5.99572 14.0776 -0.496743 -6.05698 14.0729 -0.765239 -5.90083 13.8003 
-0.496743 -6.05698 14.0729 0.0592456 -6.10368 14.1356 -0.271007 -5.95303 13.8098 
0.255641 -5.97908 13.854 0.666966 -6.04096 14.0832 0.741674 -5.90111 13.7945 
0.666966 -6.04096 14.0832 0.992613 -5.99582 14.0925 0.741674 -5.90111 13.7945 
0.992613 -5.99582 14.0925 1.33269 -5.92013 14.0869 1.13234 -5.83909 13.8115 
1.33269 -5.92013 14.0869 1.79859 -5.81024 14.1561 1.49568 -5.74951 13.8122 
1.79859 -5.81024 14.1561 2.06918 -5.68306 14.0902 1.86439 -5.63474 13.8276 
2.06918 -5.68306 14.0902 2.5337 -5.50404 14.1688 2.21218 -5.49666 13.8321 
2.5337 -5.50404 14.1688 2.81916 -5.32541 14.1218 2.66905 -5.28677 13.8682 
2.81916 -5.32541 14.1218 3.19179 -5.09906 14.1496 3.10845 -5.01261 13.8783 
3.19179 -5.09906 14.1496 3.65338 -4.75931 14.19 3.41509 -4.78885 13.8941 
4.02247 -4.33416 14.0709 4.43373 -3.95444 14.2364 4.21921 -4.02085 13.9421 
4.43373 -3.95444 14.2364 4.77187 -3.47738 14.2687 4.68719 -3.39953 13.9972 
4.77187 -3.47738 14.2687 5.06171 -2.98913 14.3278 4.94485 -2.95962 14.0334 
5.06171 -2.98913 14.3278 5.26584 -2.51665 14.344 5.15428 -2.50364 14.0677 
5.3658 -2.04637 14.2001 5.54094 -1.65422 14.4335 5.47536 -1.44899 14.1595 
5.54094 -1.65422 14.4335 5.62125 -1.21968 14.4788 5.47536 -1.44899 14.1595 
5.62125 -1.21968 14.4788 5.669 -0.654001 14.4956 5.55672 -0.788569 14.2035 
5.669 -0.654001 14.4956 5.66301 -0.041251 14.5563 5.56749 -0.282499 14.2425 
5.66301 -0.041251 14.5563 5.57585 0.486139 14.5219 5.49933 0.47216 14.3019 
5.57585 0.486139 14.5219 5.5022 0.961216 14.6362 5.37565 1.07153 14.3576 
5.5022 0.961216 14.6362 5.39382 1.34615 14.6871 5.37565 1.07153 14.3576 
5.39382 1.34615 14.6871 5.18476 1.87881 14.7034 5.20475 1.57488 14.395 
5.18476 1.87881 14.7034 4.91073 2.40929 14.7467 4.97942 2.06219 14.3969 
4.91073 2.40929 14.7467 4.70807 2.72872 14.7698 4.69475 2.58399 14.4681 
4.70807 2.72872 14.7698 4.48359 3.0415 14.7935 4.47663 2.90146 14.4994 
4.48359 3.0415 14.7935 4.24536 3.32512 14.8165 4.2432 3.19347 14.5161 
4.24536 3.32512 14.8165 3.92118 3.62837 14.7493 3.90678 3.56724 14.5667 
3.92118 3.62837 14.7493 3.60663 3.94675 14.876 3.51675 3.90616 14.5802 
3.60663 3.94675 14.876 3.19685 4.2518 14.9069 3.21275 4.13349 14.5963 
3.19685 4.2518 14.9069 2.91765 4.42066 14.885 2.89944 4.33789 14.6061 
2.91765 4.42066 14.885 2.47054 4.64164 14.8303 2.46353 4.58525 14.6433 
2.47054 4.64164 14.8303 2.11749 4.82175 14.9301 1.98539 4.78773 14.6496 
2.11749 4.82175 14.9301 1.69887 4.98158 14.9927 1.62528 4.90865 14.6573 
1.69887 4.98158 14.9927 1.28171 5.085 14.9576 1.24258 5.01085 14.662 
0.92186 5.1462 14.9068 0.476249 5.2103 14.9571 0.487217 5.12892 14.6687 
0.476249 5.2103 14.9571 -0.0597739 5.24594 15.0376 -0.0166685 5.15348 14.6799 
-0.383217 5.18187 14.8198 -0.666966 5.19122 14.9672 -0.741509 5.0984 14.6604 
-0.666966 5.19122 14.9672 -1.14315 5.12099 14.9732 -0.741509 5.0984 14.6604 
-1.14315 5.12099 14.9732 -1.79859 4.95195 15.0031 -1.35152 4.98542 14.6537 
-1.79859 4.95195 15.0031 -2.06918 4.83664 14.9181 -1.86439 4.83 14.6511 
-2.06918 4.83664 14.9181 -2.53366 4.64754 14.9678 -2.21218 4.6929 14.6341 
-2.53366 4.64754 14.9678 -2.81956 4.47832 14.8939 -2.67419 4.47773 14.6381 
-2.81956 4.47832 14.8939 -3.19179 4.25055 14.8854 -3.10845 4.2076 14.6039 
-3.19179 4.25055 14.8854 -3.65338 3.90865 14.8722 -3.41509 3.9841 14.5846 
-4.02247 3.50737 14.6881 -4.43373 3.10643 14.7921 -4.21921 3.21805 14.5119 
-4.43373 3.10643 14.7921 -4.77187 2.6302 14.7493 -4.68719 2.59577 14.469 
-4.77187 2.6302 14.7493 -5.06171 2.13871 14.7314 -4.94485 2.15561 14.436 
-5.06171 2.13871 14.7314 -5.26584 1.66952 14.6734 -5.15428 1.69988 14.3985 
-5.36571 1.22267 14.4523 -5.54094 0.803693 14.627 -5.38993 0.835368 14.2393 
-5.54094 0.803693 14.627 -5.59542 0.347672 14.5114 -5.50133 0.494525 14.3187 
-5.59542 0.347672 14.5114 -5.6682 -0.190245 14.5288 -5.55723 -0.0210156 14.2646 
-5.05303 -2.74671 14.0582 -4.93505 -3.10566 14.1676 -4.8282 -3.02517 13.8966 
3.7228 -4.53745 13.9172 4.02247 -4.33416 14.0709 3.93489 -4.22774 13.8019 
1.24258 5.01085 14.662 0.92186 5.1462 14.9068 0.874436 5.02523 14.5302 
-0.0166685 5.15348 14.6799 -0.383217 5.18187 14.8198 -0.374458 5.08221 14.5346 
-3.7228 3.73219 14.5681 -4.02247 3.50737 14.6881 -3.93489 3.44432 14.4057 
-5.56749 -0.52126 14.2237 -5.51477 -1.13103 14.1591 -5.44241 -0.881963 13.9991 
-5.51477 -1.13103 14.1591 -5.42634 -1.65468 14.1408 -5.29998 -1.60745 13.897 
-5.42634 -1.65468 14.1408 -5.27375 -2.16772 14.0759 -5.16799 -2.08065 13.8549 
-5.27375 -2.16772 14.0759 -5.05303 -2.74671 14.0582 -4.9373 -2.5769 13.7627 
-4.8282 -3.02517 13.8966 -4.6977 -3.37822 13.9932 -4.50461 -3.46572 13.7856 
-4.6977 -3.37822 13.9932 -4.47663 -3.70621 13.9793 -4.50461 -3.46572 13.7856 
-4.47663 -3.70621 13.9793 -4.2432 -3.99723 13.9501 -4.1181 -3.85344 13.645 
-4.2432 -3.99723 13.9501 -3.89782 -4.3745 13.9283 -3.81451 -4.27187 13.7079 
-3.89782 -4.3745 13.9283 -3.51982 -4.70392 13.8945 -3.443 -4.57134 13.648 
-3.51982 -4.70392 13.8945 -3.21275 -4.93823 13.8824 -3.12842 -4.81407 13.6364 
-3.21275 -4.93823 13.8824 -2.89944 -5.14165 13.8601 -2.82808 -5.01136 13.6204 
-2.89944 -5.14165 13.8601 -2.56329 -5.3321 13.8514 -2.41733 -5.2455 13.6113 
-2.56329 -5.3321 13.8514 -2.20258 -5.50745 13.8439 -2.41733 -5.2455 13.6113 
-2.20258 -5.50745 13.8439 -1.76158 -5.67645 13.8346 -1.95466 -5.43812 13.5838 
-1.76158 -5.67645 13.8346 -1.25499 -5.81433 13.8123 -1.47158 -5.59843 13.5714 
-1.25499 -5.81433 13.8123 -0.765239 -5.90083 13.8003 -0.65408 -5.77206 13.5707 
-0.765239 -5.90083 13.8003 -0.271007 -5.95303 13.8098 -0.65408 -5.77206 13.5707 
-0.271007 -5.95303 13.8098 0.255641 -5.97908 13.854 -0.0152766 -5.80235 13.5586 
0.374458 -5.86563 13.673 0.741674 -5.90111 13.7945 0.87182 -5.7396 13.5719 
0.741674 -5.90111 13.7945 1.13234 -5.83909 13.8115 0.87182 -5.7396 13.5719 
1.13234 -5.83909 13.8115 1.49568 -5.74951 13.8122 1.46677 -5.59832 13.5695 
1.49568 -5.74951 13.8122 1.86439 -5.63474 13.8276 1.81973 -5.48056 13.5708 
1.86439 -5.63474 13.8276 2.21218 -5.49666 13.8321 2.15676 -5.34926 13.5816 
2.21218 -5.49666 13.8321 2.66905 -5.28677 13.8682 2.69039 -5.11244 13.6339 
2.66905 -5.28677 13.8682 3.10845 -5.01261 13.8783 2.69039 -5.11244 13.6339 
3.10845 -5.01261 13.8783 3.41509 -4.78885 13.8941 3.24751 -4.75398 13.6718 
3.41509 -4.78885 13.8941 3.7228 -4.53745 13.9172 3.6285 -4.45069 13.7039 
3.93489 -4.22774 13.8019 4.21921 -4.02085 13.9421 4.21193 -3.80545 13.7089 
4.21921 -4.02085 13.9421 4.47556 -3.70764 13.9792 4.21193 -3.80545 13.7089 
4.47556 -3.70764 13.9792 4.68719 -3.39953 13.9972 4.56596 -3.32038 13.7496 
4.68719 -3.39953 13.9972 4.94485 -2.95962 14.0334 4.8277 -2.89338 13.7982 
4.94485 -2.95962 14.0334 5.15428 -2.50364 14.0677 5.05203 -2.44589 13.8617 
5.15428 -2.50364 14.0677 5.3658 -2.04637 14.2001 5.25979 -1.91044 13.9324 
5.3658 -2.04637 14.2001 5.47536 -1.44899 14.1595 5.25979 -1.91044 13.9324 
5.47536 -1.44899 14.1595 5.55672 -0.788569 14.2035 5.39317 -1.11196 13.9303 
5.55672 -0.788569 14.2035 5.56749 -0.282499 14.2425 5.44863 -0.394931 14.0038 
5.52129 0.0572915 14.2057 5.49933 0.47216 14.3019 5.34313 0.444578 14.0003 
5.49933 0.47216 14.3019 5.37565 1.07153 14.3576 5.25966 1.01265 14.0997 
5.37565 1.07153 14.3576 5.20475 1.57488 14.395 5.08314 1.54899 14.1448 
5.20475 1.57488 14.395 4.97942 2.06219 14.3969 4.91269 2.01283 14.2305 
4.97942 2.06219 14.3969 4.69475 2.58399 14.4681 4.57199 2.53824 14.2016 
4.69475 2.58399 14.4681 4.47663 2.90146 14.4994 4.37179 2.84453 14.2467 
4.47663 2.90146 14.4994 4.2432 3.19347 14.5161 4.05388 3.23081 14.2662 
4.2432 3.19347 14.5161 3.90678 3.56724 14.5667 4.05388 3.23081 14.2662 
3.90678 3.56724 14.5667 3.51675 3.90616 14.5802 3.63933 3.67023 14.3431 
3.51675 3.90616 14.5802 3.21275 4.13349 14.5963 3.24517 3.99435 14.3743 
3.21275 4.13349 14.5963 2.89944 4.33789 14.6061 2.73472 4.31517 14.3722 
2.89944 4.33789 14.6061 2.46353 4.58525 14.6433 2.73472 4.31517 14.3722 
2.46353 4.58525 14.6433 1.98539 4.78773 14.6496 2.18132 4.60283 14.4165 
1.98539 4.78773 14.6496 1.62528 4.90865 14.6573 1.69422 4.72968 14.3174 
1.62528 4.90865 14.6573 1.24258 5.01085 14.662 1.239 4.91418 14.441 
0.874436 5.02523 14.5302 0.487217 5.12892 14.6687 0.465991 4.98595 14.3488 
0.487217 5.12892 14.6687 -0.0166685 5.15348 14.6799 0.00725762 5.05622 14.4522 
-0.374458 5.08221 14.5346 -0.741509 5.0984 14.6604 -0.737467 4.93617 14.3133 
-0.741509 5.0984 14.6604 -1.35152 4.98542 14.6537 -1.07132 4.89671 14.3395 
-1.35152 4.98542 14.6537 -1.86439 4.83 14.6511 -1.84129 4.71233 14.3775 
-1.86439 4.83 14.6511 -2.21218 4.6929 14.6341 -2.27906 4.54696 14.3842 
-2.21218 4.6929 14.6341 -2.67419 4.47773 14.6381 -2.27906 4.54696 14.3842 
-2.67419 4.47773 14.6381 -3.10845 4.2076 14.6039 -2.82993 4.26778 14.3901 
-3.10845 4.2076 14.6039 -3.41509 3.9841 14.5846 -3.24751 3.98445 14.3596 
-3.41509 3.9841 14.5846 -3.7228 3.73219 14.5681 -3.6285 3.67986 14.3438 
-3.93489 3.44432 14.4057 -4.21921 3.21805 14.5119 -4.21786 3.03618 14.2497 
-4.21921 3.21805 14.5119 -4.47556 2.9029 14.4995 -4.21786 3.03618 14.2497 
-4.47556 2.9029 14.4995 -4.68719 2.59577 14.469 -4.56596 2.55632 14.2121 
-4.68719 2.59577 14.469 -4.94485 2.15561 14.436 -4.8277 2.12697 14.1933 
-4.94485 2.15561 14.436 -5.15428 1.69988 14.3985 -5.05203 1.67506 14.1861 
-5.15428 1.69988 14.3985 -5.36571 1.22267 14.4523 -5.18983 1.32063 14.1724 
-5.50133 0.494525 14.3187 -5.55723 -0.0210156 14.2646 -5.39619 0.236461 14.0238 
-5.55723 -0.0210156 14.2646 -5.56749 -0.52126 14.2237 -5.43741 -0.356198 13.9871 
-5.43741 -0.356198 13.9871 -5.44241 -0.881963 13.9991 -5.33513 -0.637644 13.8232 
-4.9373 -2.5769 13.7627 -4.8282 -3.02517 13.8966 -4.60924 -3.09515 13.6529 
-4.8282 -3.02517 13.8966 -4.50461 -3.46572 13.7856 -4.60924 -3.09515 13.6529 
-4.1181 -3.85344 13.645 -3.81451 -4.27187 13.7079 -3.819 -4.08787 13.5516 
-0.0152766 -5.80235 13.5586 0.374458 -5.86563 13.673 0.307554 -5.68484 13.4254 
2.69039 -5.11244 13.6339 3.24751 -4.75398 13.6718 3.17243 -4.66046 13.5134 
3.24751 -4.75398 13.6718 3.6285 -4.45069 13.7039 3.6715 -4.25551 13.5509 
3.6285 -4.45069 13.7039 3.93489 -4.22774 13.8019 3.6715 -4.25551 13.5509 
4.8277 -2.89338 13.7982 5.05203 -2.44589 13.8617 4.99515 -2.28318 13.706 
5.05203 -2.44589 13.8617 5.25979 -1.91044 13.9324 4.99515 -2.28318 13.706 
5.39317 -1.11196 13.9303 5.44863 -0.394931 14.0038 5.33491 -0.476018 13.8301 
5.44863 -0.394931 14.0038 5.52129 0.0572915 14.2057 5.31717 0.0496571 13.8717 
5.08314 1.54899 14.1448 4.91269 2.01283 14.2305 4.80485 1.96412 14.0319 
4.05388 3.23081 14.2662 3.63933 3.67023 14.3431 3.50499 3.64681 14.1604 
3.63933 3.67023 14.3431 3.24517 3.99435 14.3743 3.50499 3.64681 14.1604 
3.24517 3.99435 14.3743 2.73472 4.31517 14.3722 2.66599 4.23734 14.199 
2.73472 4.31517 14.3722 2.18132 4.60283 14.4165 2.13891 4.50502 14.2285 
1.69422 4.72968 14.3174 1.239 4.91418 14.441 1.2284 4.8033 14.2442 
1.239 4.91418 14.441 0.874436 5.02523 14.5302 0.853674 4.88313 14.2581 
0.465991 4.98595 14.3488 0.00725762 5.05622 14.4522 -0.131787 4.95999 14.2736 
0.00725762 5.05622 14.4522 -0.374458 5.08221 14.5346 -0.131787 4.95999 14.2736 
-2.27906 4.54696 14.3842 -2.82993 4.26778 14.3901 -2.63919 4.25137 14.1983 
-2.82993 4.26778 14.3901 -3.24751 3.98445 14.3596 -3.17243 3.91686 14.1884 
-3.24751 3.98445 14.3596 -3.6285 3.67986 14.3438 -3.67099 3.51289 14.163 
-3.6285 3.67986 14.3438 -3.93489 3.44432 14.4057 -3.67099 3.51289 14.163 
-4.8277 2.12697 14.1933 -5.05203 1.67506 14.1861 -4.99576 1.53887 14.0077 
-5.05203 1.67506 14.1861 -5.18983 1.32063 14.1724 -4.99576 1.53887 14.0077 
-5.18983 1.32063 14.1724 -5.38993 0.835368 14.2393 -5.20623 0.829925 13.9419 
-5.33943 -1.18915 13.8632 -5.29998 -1.60745 13.897 -5.13334 -1.62443 13.6796 
-5.29998 -1.60745 13.897 -5.16799 -2.08065 13.8549 -5.13334 -1.62443 13.6796 
-4.9373 -2.5769 13.7627 -4.60924 -3.09515 13.6529 -4.67812 -2.7452 13.5514 
-3.819 -4.08787 13.5516 -3.81451 -4.27187 13.7079 -3.48748 -4.27293 13.4237 
-3.81451 -4.27187 13.7079 -3.443 -4.57134 13.648 -3.48748 -4.27293 13.4237 
-3.443 -4.57134 13.648 -3.12842 -4.81407 13.6364 -3.12747 -4.5644 13.4015 
-3.12842 -4.81407 13.6364 -2.82808 -5.01136 13.6204 -2.65066 -4.93092 13.4219 
-2.82808 -5.01136 13.6204 -2.41733 -5.2455 13.6113 -2.65066 -4.93092 13.4219 
-2.41733 -5.2455 13.6113 -1.95466 -5.43812 13.5838 -2.09084 -5.20486 13.3969 
-1.95466 -5.43812 13.5838 -1.47158 -5.59843 13.5714 -1.65287 -5.32853 13.3413 
-1.47158 -5.59843 13.5714 -1.09599 -5.69172 13.5704 -1.05872 -5.49093 13.3271 
-1.09599 -5.69172 13.5704 -0.65408 -5.77206 13.5707 -1.05872 -5.49093 13.3271 
0.307554 -5.68484 13.4254 0.87182 -5.7396 13.5719 0.679264 -5.60825 13.3853 
0.87182 -5.7396 13.5719 1.46677 -5.59832 13.5695 1.21707 -5.50715 13.3883 
1.46677 -5.59832 13.5695 1.81973 -5.48056 13.5708 1.68 -5.31051 13.3352 
1.81973 -5.48056 13.5708 2.15676 -5.34926 13.5816 2.05691 -5.1796 13.3578 
2.15676 -5.34926 13.5816 2.69039 -5.11244 13.6339 2.64631 -4.99581 13.4794 
3.6715 -4.25551 13.5509 4.21193 -3.80545 13.7089 4.02812 -3.7917 13.5202 
4.21193 -3.80545 13.7089 4.56596 -3.32038 13.7496 4.32381 -3.41235 13.55 
4.56596 -3.32038 13.7496 4.8277 -2.89338 13.7982 4.668 -2.85657 13.5883 
5.34313 0.444578 14.0003 5.25966 1.01265 14.0997 5.13333 0.892197 13.8776 
5.25966 1.01265 14.0997 5.08314 1.54899 14.1448 4.98912 1.39834 13.9286 
4.80485 1.96412 14.0319 4.57199 2.53824 14.2016 4.51539 2.28206 13.9284 
4.57199 2.53824 14.2016 4.37179 2.84453 14.2467 4.24773 2.76846 14.0211 
4.37179 2.84453 14.2467 4.05388 3.23081 14.2662 4.24773 2.76846 14.0211 
-1.42942 4.80637 14.3192 -1.84129 4.71233 14.3775 -1.68338 4.58617 14.1149 
-1.84129 4.71233 14.3775 -2.27906 4.54696 14.3842 -2.10714 4.47469 14.1708 
-3.67099 3.51289 14.163 -4.21786 3.03618 14.2497 -4.02812 3.05773 14.0592 
-4.21786 3.03618 14.2497 -4.56596 2.55632 14.2121 -4.32381 2.67838 14.0294 
-4.56596 2.55632 14.2121 -4.8277 2.12697 14.1933 -4.66791 2.12325 13.98 
-5.20623 0.829925 13.9419 -5.39619 0.236461 14.0238 -5.2129 0.268978 13.7866 
-5.39619 0.236461 14.0238 -5.43741 -0.356198 13.9871 -5.28765 -0.126856 13.8092 
-5.33513 -0.637644 13.8232 -5.33943 -1.18915 13.8632 -5.12728 -1.16824 13.6077 
-5.33943 -1.18915 13.8632 -5.13334 -1.62443 13.6796 -5.12728 -1.16824 13.6077 
-5.13334 -1.62443 13.6796 -4.91814 -2.20738 13.5926 -4.95511 -1.7314 13.5117 
-4.67812 -2.7452 13.5514 -4.60924 -3.09515 13.6529 -4.45173 -2.94732 13.4304 
-4.60924 -3.09515 13.6529 -4.32579 -3.47571 13.5891 -4.21943 -3.31369 13.4029 
-4.32579 -3.47571 13.5891 -4.1181 -3.85344 13.645 -3.83207 -3.78688 13.3554 
-4.1181 -3.85344 13.645 -3.819 -4.08787 13.5516 -3.83207 -3.78688 13.3554 
-3.12747 -4.5644 13.4015 -2.65066 -4.93092 13.4219 -2.58278 -4.783 13.2654 
-2.65066 -4.93092 13.4219 -2.09084 -5.20486 13.3969 -2.05318 -5.05304 13.2504 
-1.05872 -5.49093 13.3271 -0.336037 -5.6474 13.3832 -0.395144 -5.47074 13.2213 
-0.336037 -5.6474 13.3832 0.307554 -5.68484 13.4254 0.213184 -5.47433 13.2162 
0.307554 -5.68484 13.4254 0.679264 -5.60825 13.3853 0.582276 -5.44681 13.2201 
0.679264 -5.60825 13.3853 1.21707 -5.50715 13.3883 1.10366 -5.37565 13.2358 
2.05691 -5.1796 13.3578 2.64631 -4.99581 13.4794 2.26719 -4.95767 13.2608 
2.64631 -4.99581 13.4794 3.17243 -4.66046 13.5134 2.80739 -4.70898 13.326 
3.17243 -4.66046 13.5134 3.6715 -4.25551 13.5509 3.25413 -4.39162 13.3561 
3.6715 -4.25551 13.5509 4.02812 -3.7917 13.5202 3.66912 -3.95393 13.3388 
4.02812 -3.7917 13.5202 4.32381 -3.41235 13.55 4.06865 -3.48174 13.3697 
4.32381 -3.41235 13.55 4.668 -2.85657 13.5883 4.33438 -3.11458 13.405 
4.668 -2.85657 13.5883 4.99515 -2.28318 13.706 4.76231 -2.2863 13.4684 
4.99515 -2.28318 13.706 5.14065 -1.61614 13.6797 4.92685 -1.8786 13.5157 
5.18386 -0.991483 13.6512 5.33491 -0.476018 13.8301 5.15535 -0.557286 13.6204 
5.33491 -0.476018 13.8301 5.31717 0.0496571 13.8717 5.17529 -0.0115042 13.6952 
5.31717 0.0496571 13.8717 5.34313 0.444578 14.0003 5.12728 0.452887 13.7352 
5.34313 0.444578 14.0003 5.13333 0.892197 13.8776 5.12728 0.452887 13.7352 
5.13333 0.892197 13.8776 4.98912 1.39834 13.9286 4.95373 1.02173 13.7262 
4.98912 1.39834 13.9286 4.80485 1.96412 14.0319 4.71228 1.72047 13.7902 
4.51539 2.28206 13.9284 4.24773 2.76846 14.0211 4.16511 2.6526 13.8545 
4.24773 2.76846 14.0211 3.8706 3.23374 14.0731 3.84082 3.05526 13.8913 
3.8706 3.23374 14.0731 3.50499 3.64681 14.1604 3.49061 3.41742 13.9203 
3.50499 3.64681 14.1604 3.08412 3.97136 14.1861 3.09251 3.79395 13.9947 
3.08412 3.97136 14.1861 2.66599 4.23734 14.199 2.64292 4.11104 14.0363 
2.66599 4.23734 14.199 2.13891 4.50502 14.2285 2.16706 4.2999 13.9917 
2.13891 4.50502 14.2285 1.69422 4.72968 14.3174 1.85278 4.47977 14.057 
1.69422 4.72968 14.3174 1.2284 4.8033 14.2442 1.39989 4.58735 14.0161 
1.2284 4.8033 14.2442 0.853674 4.88313 14.2581 0.934268 4.69257 14.0229 
0.853674 4.88313 14.2581 0.465991 4.98595 14.3488 0.370993 4.77064 14.0332 
0.465991 4.98595 14.3488 -0.131787 4.95999 14.2736 0.370993 4.77064 14.0332 
-0.131787 4.95999 14.2736 -0.737467 4.93617 14.3133 -0.589889 4.78598 14.0816 
-0.737467 4.93617 14.3133 -1.07132 4.89671 14.3395 -1.03828 4.67893 14.0255 
-1.07132 4.89671 14.3395 -1.42942 4.80637 14.3192 -1.03828 4.67893 14.0255 
-1.68338 4.58617 14.1149 -2.10714 4.47469 14.1708 -1.94916 4.38652 13.9921 
-2.10714 4.47469 14.1708 -2.63919 4.25137 14.1983 -2.38905 4.18413 13.9746 
-2.63919 4.25137 14.1983 -3.17243 3.91686 14.1884 -2.84954 3.91525 13.9575 
-3.17243 3.91686 14.1884 -3.67099 3.51289 14.163 -3.24193 3.62535 13.9331 
-3.67099 3.51289 14.163 -4.02812 3.05773 14.0592 -3.68237 3.23634 13.9078 
-4.02812 3.05773 14.0592 -4.32381 2.67838 14.0294 -4.06554 2.78542 13.8678 
-4.32381 2.67838 14.0294 -4.66791 2.12325 13.98 -4.33518 2.41501 13.8456 
-4.66791 2.12325 13.98 -4.99576 1.53887 14.0077 -4.76057 1.58503 13.7739 
-4.99576 1.53887 14.0077 -5.20623 0.829925 13.9419 -4.92327 1.16914 13.7513 
-5.2129 0.268978 13.7866 -5.28765 -0.126856 13.8092 -5.13292 -0.00936036 13.6502 
-5.28765 -0.126856 13.8092 -5.33513 -0.637644 13.8232 -5.15729 -0.56546 13.6215 
-5.15729 -0.56546 13.6215 -5.12728 -1.16824 13.6077 -4.97301 -1.12534 13.4603 
-4.95511 -1.7314 13.5117 -4.91814 -2.20738 13.5926 -4.60522 -2.37124 13.3587 
-4.91814 -2.20738 13.5926 -4.67812 -2.7452 13.5514 -4.60522 -2.37124 13.3587 
-3.83207 -3.78688 13.3554 -3.48748 -4.27293 13.4237 -3.34424 -4.07827 13.2176 
-3.48748 -4.27293 13.4237 -3.12747 -4.5644 13.4015 -3.00259 -4.36502 13.199 
-2.05318 -5.05304 13.2504 -1.65287 -5.32853 13.3413 -1.48689 -5.15997 13.1579 
-1.65287 -5.32853 13.3413 -1.05872 -5.49093 13.3271 -1.48689 -5.15997 13.1579 
1.10366 -5.37565 13.2358 1.68 -5.31051 13.3352 1.72745 -5.06559 13.1523 
1.68 -5.31051 13.3352 2.05691 -5.1796 13.3578 1.72745 -5.06559 13.1523 
2.26719 -4.95767 13.2608 2.80739 -4.70898 13.326 2.69234 -4.57297 13.1783 
2.80739 -4.70898 13.326 3.25413 -4.39162 13.3561 3.13292 -4.25879 13.204 
4.92685 -1.8786 13.5157 5.14065 -1.61614 13.6797 4.93297 -1.26361 13.4339 
5.15535 -0.557286 13.6204 5.17529 -0.0115042 13.6952 5.01856 -0.114332 13.5294 
5.17529 -0.0115042 13.6952 5.12728 0.452887 13.7352 4.96386 0.433358 13.5748 
4.95373 1.02173 13.7262 4.71228 1.72047 13.7902 4.60736 1.60886 13.6517 
4.71228 1.72047 13.7902 4.51539 2.28206 13.9284 4.37101 2.13309 13.7134 
3.49061 3.41742 13.9203 3.09251 3.79395 13.9947 2.9229 3.73837 13.8398 
3.09251 3.79395 13.9947 2.64292 4.11104 14.0363 2.9229 3.73837 13.8398 
2.16706 4.2999 13.9917 1.85278 4.47977 14.057 1.73037 4.34534 13.8717 
-0.197985 4.76609 14.02 -0.589889 4.78598 14.0816 -0.459311 4.6337 13.8983 
-1.03828 4.67893 14.0255 -1.68338 4.58617 14.1149 -1.45244 4.44818 13.8882 
-5.04495 0.684653 13.7109 -5.2129 0.268978 13.7866 -4.97154 0.428624 13.5808 
-4.97301 -1.12534 13.4603 -4.95511 -1.7314 13.5117 -4.78404 -1.67878 13.3641 
-4.60522 -2.37124 13.3587 -4.45173 -2.94732 13.4304 -4.31963 -2.79759 13.2811 
-4.45173 -2.94732 13.4304 -4.21943 -3.31369 13.4029 -4.01281 -3.28071 13.2456 
-4.21943 -3.31369 13.4029 -3.83207 -3.78688 13.3554 -4.01281 -3.28071 13.2456 
-3.00259 -4.36502 13.199 -2.58278 -4.783 13.2654 -2.48983 -4.63444 13.136 
-2.58278 -4.783 13.2654 -2.05318 -5.05304 13.2504 -1.9832 -4.88625 13.1158 
-0.920531 -5.28078 13.134 -0.395144 -5.47074 13.2213 -0.225675 -5.29627 13.0822 
-0.395144 -5.47074 13.2213 0.213184 -5.47433 13.2162 -0.225675 -5.29627 13.0822 
0.213184 -5.47433 13.2162 0.582276 -5.44681 13.2201 0.449023 -5.27746 13.0851 
0.582276 -5.44681 13.2201 1.10366 -5.37565 13.2358 1.06616 -5.18377 13.0901 
1.10366 -5.37565 13.2358 1.72745 -5.06559 13.1523 1.06616 -5.18377 13.0901 
1.72745 -5.06559 13.1523 2.26719 -4.95767 13.2608 2.1832 -4.79419 13.1231 
3.13292 -4.25879 13.204 3.66912 -3.95393 13.3388 3.55128 -3.8071 13.1973 
3.66912 -3.95393 13.3388 4.06865 -3.48174 13.3697 3.92561 -3.38447 13.2339 
4.06865 -3.48174 13.3697 4.33438 -3.11458 13.405 4.09687 -2.96953 13.1912 
4.33438 -3.11458 13.405 4.56483 -2.69518 13.4282 4.41342 -2.62539 13.2936 
4.56483 -2.69518 13.4282 4.76231 -2.2863 13.4684 4.60217 -2.21522 13.3261 
4.76231 -2.2863 13.4684 4.92685 -1.8786 13.5157 4.74612 -1.80682 13.3554 
5.18386 -0.991483 13.6512 5.15535 -0.557286 13.6204 4.95914 -0.683281 13.4466 
4.96386 0.433358 13.5748 4.95373 1.02173 13.7262 4.78136 0.996296 13.5728 
4.37101 2.13309 13.7134 4.16511 2.6526 13.8545 4.07 2.48785 13.6886 
4.16511 2.6526 13.8545 3.84082 3.05526 13.8913 3.68758 2.97842 13.7316 
3.84082 3.05526 13.8913 3.49061 3.41742 13.9203 3.68758 2.97842 13.7316 
1.39989 4.58735 14.0161 0.934268 4.69257 14.0229 1.10489 4.48246 13.8468 
0.934268 4.69257 14.0229 0.370993 4.77064 14.0332 0.679877 4.56696 13.8598 
0.370993 4.77064 14.0332 -0.197985 4.76609 14.02 0.151378 4.61307 13.8636 
-0.459311 4.6337 13.8983 -1.03828 4.67893 14.0255 -0.89736 4.53211 13.8571 
-1.45244 4.44818 13.8882 -1.94916 4.38652 13.9921 -1.78871 4.2784 13.834 
-1.94916 4.38652 13.9921 -2.38905 4.18413 13.9746 -2.28373 4.04754 13.8072 
-2.38905 4.18413 13.9746 -2.84954 3.91525 13.9575 -2.77096 3.77218 13.7973 
-2.84954 3.91525 13.9575 -3.24193 3.62535 13.9331 -3.1115 3.52296 13.7773 
-3.24193 3.62535 13.9331 -3.68237 3.23634 13.9078 -3.54424 3.13924 13.7486 
-3.68237 3.23634 13.9078 -4.06554 2.78542 13.8678 -3.91122 2.71259 13.7111 
-4.06554 2.78542 13.8678 -4.33518 2.41501 13.8456 -4.23537 2.25838 13.6779 
-4.33518 2.41501 13.8456 -4.56221 1.99809 13.7994 -4.23537 2.25838 13.6779 
-4.56221 1.99809 13.7994 -4.76057 1.58503 13.7739 -4.51186 1.73294 13.6342 
-4.76057 1.58503 13.7739 -4.92327 1.16914 13.7513 -4.77761 1.10082 13.6005 
-4.92327 1.16914 13.7513 -5.04495 0.684653 13.7109 -4.77761 1.10082 13.6005 
-4.97154 0.428624 13.5808 -5.13292 -0.00936036 13.6502 -4.95914 -0.000908491 13.5003 
-5.13292 -0.00936036 13.6502 -5.15729 -0.56546 13.6215 -5.01353 -0.575229 13.4899 
-5.01353 -0.575229 13.4899 -4.97301 -1.12534 13.4603 -4.77147 -0.772086 13.3109 
-4.97301 -1.12534 13.4603 -4.78404 -1.67878 13.3641 -4.66667 -1.44466 13.2601 
-4.78404 -1.67878 13.3641 -4.60522 -2.37124 13.3587 -4.45889 -2.10081 13.2112 
-4.60522 -2.37124 13.3587 -4.31963 -2.79759 13.2811 -4.25495 -2.52862 13.1746 
-4.31963 -2.79759 13.2811 -4.01281 -3.28071 13.2456 -3.93969 -3.06566 13.134 
-4.01281 -3.28071 13.2456 -3.635 -3.72237 13.2074 -3.51404 -3.56799 13.0874 
-3.635 -3.72237 13.2074 -3.34424 -4.07827 13.2176 -3.11932 -3.96015 13.0604 
-3.34424 -4.07827 13.2176 -3.00259 -4.36502 13.199 -3.11932 -3.96015 13.0604 
-3.00259 -4.36502 13.199 -2.48983 -4.63444 13.136 -2.67893 -4.29835 13.0378 
-2.48983 -4.63444 13.136 -1.9832 -4.88625 13.1158 -2.19386 -4.57184 13.0079 
-1.9832 -4.88625 13.1158 -1.48689 -5.15997 13.1579 -1.70931 -4.79177 12.9947 
-1.48689 -5.15997 13.1579 -0.920531 -5.28078 13.134 -1.18718 -4.97252 12.9868 
-0.920531 -5.28078 13.134 -0.225675 -5.29627 13.0822 -0.467051 -5.10669 12.9782 
-0.225675 -5.29627 13.0822 0.449023 -5.27746 13.0851 0.327826 -5.09812 12.9701 
0.449023 -5.27746 13.0851 1.06616 -5.18377 13.0901 0.930312 -5.02296 12.9791 
1.06616 -5.18377 13.0901 1.72745 -5.06559 13.1523 1.46023 -4.88952 12.9925 
1.72745 -5.06559 13.1523 2.1832 -4.79419 13.1231 1.88831 -4.72066 13 
2.1832 -4.79419 13.1231 2.69234 -4.57297 13.1783 2.39922 -4.46248 13.0181 
2.69234 -4.57297 13.1783 3.13292 -4.25879 13.204 2.8437 -4.17744 13.045 
3.13292 -4.25879 13.204 3.55128 -3.8071 13.1973 3.3084 -3.79736 13.0756 
3.55128 -3.8071 13.1973 3.92561 -3.38447 13.2339 3.76225 -3.28854 13.113 
4.09687 -2.96953 13.1912 4.41342 -2.62539 13.2936 4.33266 -2.39259 13.1874 
4.41342 -2.62539 13.2936 4.60217 -2.21522 13.3261 4.33266 -2.39259 13.1874 
4.60217 -2.21522 13.3261 4.74612 -1.80682 13.3554 4.57835 -1.742 13.2358 
4.74612 -1.80682 13.3554 4.93297 -1.26361 13.4339 4.69774 -1.2884 13.2735 
4.93297 -1.26361 13.4339 4.95914 -0.683281 13.4466 4.76296 -0.764187 13.3064 
4.95914 -0.683281 13.4466 5.01856 -0.114332 13.5294 4.79129 -0.145329 13.3618 
5.01856 -0.114332 13.5294 4.96386 0.433358 13.5748 4.72598 0.466696 13.4087 
4.96386 0.433358 13.5748 4.78136 0.996296 13.5728 4.72598 0.466696 13.4087 
4.78136 0.996296 13.5728 4.60736 1.60886 13.6517 4.46128 1.43498 13.4907 
4.60736 1.60886 13.6517 4.37101 2.13309 13.7134 4.25994 1.87838 13.528 
4.37101 2.13309 13.7134 4.07 2.48785 13.6886 3.99076 2.31597 13.5548 
4.07 2.48785 13.6886 3.68758 2.97842 13.7316 3.65003 2.75362 13.5863 
3.29173 3.23385 13.6707 2.9229 3.73837 13.8398 2.87934 3.49921 13.654 
2.9229 3.73837 13.8398 2.35317 4.05166 13.8365 2.49878 3.76072 13.6787 
2.35317 4.05166 13.8365 1.73037 4.34534 13.8717 1.97 4.01469 13.6837 
1.73037 4.34534 13.8717 1.10489 4.48246 13.8468 1.32872 4.24511 13.696 
1.10489 4.48246 13.8468 0.679877 4.56696 13.8598 0.560501 4.40733 13.7147 
0.679877 4.56696 13.8598 0.151378 4.61307 13.8636 0.560501 4.40733 13.7147 
0.151378 4.61307 13.8636 -0.459311 4.6337 13.8983 -0.100402 4.44895 13.7254 
-0.459311 4.6337 13.8983 -0.89736 4.53211 13.8571 -0.636799 4.40814 13.724 
-0.89736 4.53211 13.8571 -1.45244 4.44818 13.8882 -1.17228 4.2972 13.7082 
-1.45244 4.44818 13.8882 -1.78871 4.2784 13.834 -1.68797 4.13675 13.6976 
-1.78871 4.2784 13.834 -2.28373 4.04754 13.8072 -2.19756 3.91361 13.6796 
-2.28373 4.04754 13.8072 -2.77096 3.77218 13.7973 -2.66673 3.63311 13.6574 
-2.77096 3.77218 13.7973 -3.1115 3.52296 13.7773 -3.0917 3.32154 13.6344 
-3.1115 3.52296 13.7773 -3.54424 3.13924 13.7486 -3.0917 3.32154 13.6344 
-3.54424 3.13924 13.7486 -3.91122 2.71259 13.7111 -3.76359 2.62583 13.5798 
-3.91122 2.71259 13.7111 -4.23537 2.25838 13.6779 -4.03966 2.24251 13.5518 
-4.23537 2.25838 13.6779 -4.51186 1.73294 13.6342 -4.25578 1.85364 13.5163 
-4.51186 1.73294 13.6342 -4.77761 1.10082 13.6005 -4.46846 1.36146 13.4722 
-4.77761 1.10082 13.6005 -4.97154 0.428624 13.5808 -4.67792 0.788833 13.4452 
-4.97154 0.428624 13.5808 -4.95914 -0.000908491 13.5003 -4.75437 0.215375 13.3857 
-4.95914 -0.000908491 13.5003 -5.01353 -0.575229 13.4899 -4.78814 -0.22852 13.3541 
2.49878 3.76072 13.6787 2.35317 4.05166 13.8365 1.97 4.01469 13.6837 
-4.50898 -1.14784 13.1731 -4.54139 -0.945839 13.189 -4.77147 -0.772086 13.3109 
-4.42262 -1.52913 13.1433 -4.46581 -1.35496 13.1568 -4.66667 -1.44466 13.2601 
-4.21424 -2.12208 13.0962 -4.28334 -1.95157 13.1099 -4.45889 -2.10081 13.2112 
-4.45889 -2.10081 13.2112 -4.25495 -2.52862 13.1746 -4.10297 -2.3642 13.0776 
-3.92442 -2.68436 13.0519 -4.02108 -2.51786 13.0653 -4.25495 -2.52862 13.1746 
-3.2969 -3.49777 12.9876 -3.42057 -3.36596 12.9986 -3.51404 -3.56799 13.0874 
-3.51404 -3.56799 13.0874 -3.11932 -3.96015 13.0604 -3.11341 -3.67832 12.9739 
-2.82483 -3.92411 12.955 -2.97315 -3.80196 12.9643 -3.11932 -3.96015 13.0604 
-3.11932 -3.96015 13.0604 -2.67893 -4.29835 13.0378 -2.62038 -4.07459 12.943 
-2.67893 -4.29835 13.0378 -2.19386 -4.57184 13.0079 -2.29204 -4.28126 12.9265 
-1.9479 -4.46114 12.9124 -2.10898 -4.38116 12.9187 -2.19386 -4.57184 13.0079 
-2.19386 -4.57184 13.0079 -1.70931 -4.79177 12.9947 -1.71488 -4.56214 12.9044 
-1.35843 -4.69004 12.8949 -1.53512 -4.62965 12.8991 -1.70931 -4.79177 12.9947 
-0.7343 -4.83466 12.883 -0.932659 -4.79793 12.8859 -1.18718 -4.97252 12.9868 
0.286778 -4.882 12.8778 0.104348 -4.89233 12.8784 0.327826 -5.09812 12.9701 
0.919586 -4.80077 12.8856 0.727414 -4.83561 12.8829 0.930312 -5.02296 12.9791 
1.89577 -4.48349 12.9099 1.73012 -4.55553 12.9049 1.88831 -4.72066 13 
1.88831 -4.72066 13 2.39922 -4.46248 13.0181 2.12608 -4.37254 12.9192 
2.45485 -4.18453 12.9345 2.29204 -4.28126 12.9265 2.39922 -4.46248 13.0181 
2.39922 -4.46248 13.0181 2.8437 -4.17744 13.045 2.6673 -4.04076 12.9454 
2.97052 -3.80432 12.9641 2.81127 -3.93326 12.9539 2.8437 -4.17744 13.045 
3.25865 -3.53804 12.9848 3.12888 -3.66345 12.9752 3.3084 -3.79736 13.0756 
3.66974 -3.06283 13.0223 3.47251 -3.30524 13.0022 3.76225 -3.28854 13.113 
3.76225 -3.28854 13.113 4.09687 -2.96953 13.1912 3.81919 -2.85269 13.0391 
4.01637 -2.5269 13.0646 3.91673 -2.69804 13.0511 4.09687 -2.96953 13.1912 
4.40742 -1.58331 13.139 4.35323 -1.75553 13.1253 4.57835 -1.742 13.2358 
4.57835 -1.742 13.2358 4.69774 -1.2884 13.2735 4.47048 -1.33381 13.1582 
4.54012 -0.962224 13.188 4.50827 -1.15126 13.1729 4.69774 -1.2884 13.2735 
4.76296 -0.764187 13.3064 4.79129 -0.145329 13.3618 4.58408 -0.323564 13.238 
4.56651 0.0633697 13.2676 4.57933 -0.115564 13.2544 4.79129 -0.145329 13.3618 
4.79129 -0.145329 13.3618 4.72598 0.466696 13.4087 4.53998 0.314907 13.2885 
4.47099 0.687211 13.3175 4.50827 0.504129 13.3032 4.72598 0.466696 13.4087 
4.72598 0.466696 13.4087 4.58419 1.04792 13.4541 4.40675 0.936357 13.337 
4.28596 1.29795 13.3656 4.35323 1.1084 13.3507 4.58419 1.04792 13.4541 
4.12941 1.66176 13.3942 4.20457 1.49711 13.3813 4.46128 1.43498 13.4907 
3.81648 2.20394 13.4356 3.91673 2.05091 13.4249 3.99076 2.31597 13.5548 
3.42976 2.70895 13.4767 3.62588 2.46223 13.4534 3.65003 2.75362 13.5863 
3.65003 2.75362 13.5863 3.29173 3.23385 13.6707 3.26084 2.8931 13.4925 
2.66726 3.39372 13.5305 2.81127 3.28613 13.5221 2.87934 3.49921 13.654 
2.87934 3.49921 13.654 2.49878 3.76072 13.6787 2.45438 3.53654 13.5417 
2.12602 3.72528 13.5565 2.29204 3.63413 13.5495 2.49878 3.76072 13.6787 
1.53848 3.9814 13.5768 1.73012 3.90841 13.5711 1.97 4.01469 13.6837 
1.16394 4.09638 13.5855 1.33693 4.04772 13.582 1.32872 4.24511 13.696 
0.544466 4.21401 13.5948 0.727414 4.18849 13.5931 0.560501 4.40733 13.7147 
-0.0940894 4.24562 13.5976 0.104348 4.2452 13.5976 -0.100402 4.44895 13.7254 
-1.10939 4.10794 13.5853 -0.932659 4.1508 13.5901 -1.17228 4.2972 13.7082 
-1.68797 4.13675 13.6976 -2.19756 3.91361 13.6796 -1.94931 3.81663 13.5653 
-2.19756 3.91361 13.6796 -2.66673 3.63311 13.6574 -2.47036 3.52603 13.541 
-2.62072 3.42792 13.5338 -2.47036 3.52603 13.541 -2.66673 3.63311 13.6574 
-2.66673 3.63311 13.6574 -3.0917 3.32154 13.6344 -2.82471 3.2768 13.5216 
-3.11304 3.03108 13.5018 -2.97315 3.15483 13.5118 -3.0917 3.32154 13.6344 
-3.0917 3.32154 13.6344 -3.49094 2.9362 13.6029 -3.30557 2.84408 13.4874 
-3.78843 2.24977 13.4403 -3.68391 2.39614 13.4521 -3.76359 2.62583 13.5798 
-4.10539 1.70912 13.3976 -4.02108 1.87073 13.4107 -4.25578 1.85364 13.5163 
-4.25578 1.85364 13.5163 -4.46846 1.36146 13.4722 -4.21571 1.4759 13.3802 
-4.34919 1.12115 13.3517 -4.28334 1.30444 13.3661 -4.46846 1.36146 13.4722 
-4.46846 1.36146 13.4722 -4.67792 0.788833 13.4452 -4.4259 0.882699 13.3347 
-4.56348 0.120361 13.2732 -4.51822 0.42069 13.2939 -4.75437 0.215375 13.3857 
-4.75437 0.215375 13.3857 -4.78814 -0.22852 13.3541 -4.58065 -0.134903 13.2529 
-5.73885 -0.836566 19.7563 -5.72706 -1.20312 19.7275 -5.7329 -0.726176 15.0245 
-5.72706 -1.20312 19.7275 -5.72706 -0.832335 15.0162 -5.7329 -0.726176 15.0245 
-5.69173 -1.56817 19.6987 -5.68882 -1.22338 14.9848 -5.71507 -0.986032 15.0041 
-5.71507 -0.986032 15.0041 -5.72706 -1.20312 19.7275 -5.69173 -1.56817 19.6987 
-5.69173 -1.56817 19.6987 -5.63302 -1.93021 19.6703 -5.63985 -1.52694 14.9588 
-5.63985 -1.52694 14.9588 -5.68882 -1.22338 14.9848 -5.69173 -1.56817 19.6987 
-5.63302 -1.93021 19.6703 -5.55116 -2.28776 19.6421 -5.59078 -1.75699 14.9434 
-5.55116 -2.28776 19.6421 -5.53616 -1.97602 14.9274 -5.59078 -1.75699 14.9434 
-5.55116 -2.28776 19.6421 -5.44816 -2.26352 14.9036 -5.53616 -1.97602 14.9274 
-5.44816 -2.26352 14.9036 -5.55116 -2.28776 19.6421 -5.44649 -2.63935 19.6144 
-5.44649 -2.63935 19.6144 -5.31943 -2.98353 19.5874 -5.36234 -2.50389 14.8846 
-5.31943 -2.98353 19.5874 -5.31943 -2.61274 14.8761 -5.36234 -2.50389 14.8846 
-5.17052 -3.31888 19.561 -5.16218 -2.96628 14.8489 -5.26374 -2.74509 14.8657 
-5.26374 -2.74509 14.8657 -5.31943 -2.98353 19.5874 -5.17052 -3.31888 19.561 
-5.17052 -3.31888 19.561 -5.00036 -3.64404 19.5354 -5.02033 -3.23871 14.8228 
-5.02033 -3.23871 14.8228 -5.16218 -2.96628 14.8489 -5.17052 -3.31888 19.561 
-5.00036 -3.64404 19.5354 -4.80966 -3.95766 19.5107 -4.90338 -3.4384 14.8111 
-4.80966 -3.95766 19.5107 -4.78186 -3.63042 14.7957 -4.90338 -3.4384 14.8111 
-4.80966 -3.95766 19.5107 -4.60656 -3.878 14.7736 -4.78186 -3.63042 14.7957 
-4.60656 -3.878 14.7736 -4.80966 -3.95766 19.5107 -4.59919 -4.25845 19.487 
-4.59919 -4.25845 19.487 -4.36982 -4.54518 19.4645 -4.45169 -4.07633 14.7609 
-4.36982 -4.54518 19.4645 -4.36982 -4.1744 14.7532 -4.45169 -4.07633 14.7609 
-4.1225 -4.81667 19.4431 -4.1132 -4.45541 14.731 -4.28223 -4.27458 14.7453 
-4.28223 -4.27458 14.7453 -4.36982 -4.54518 19.4645 -4.1225 -4.81667 19.4431 
-4.1225 -4.81667 19.4431 -3.85823 -5.07181 19.423 -3.89377 -4.66915 14.7089 
-3.89377 -4.66915 14.7089 -4.1132 -4.45541 14.731 -4.1225 -4.81667 19.4431 
-3.57811 -5.30955 19.4043 -3.54467 -4.96619 14.6927 -3.72211 -4.82041 14.7023 
-3.72211 -4.82041 14.7023 -3.85823 -5.07181 19.423 -3.57811 -5.30955 19.4043 
-3.28329 -5.5289 19.387 -3.29739 -5.14876 14.6771 -3.54467 -4.96619 14.6927 
-3.54467 -4.96619 14.6927 -3.57811 -5.30955 19.4043 -3.28329 -5.5289 19.387 
-3.28329 -5.5289 19.387 -2.97498 -5.72897 19.3713 -3.09266 -5.28511 14.6657 
-2.97498 -5.72897 19.3713 -2.97498 -5.35818 14.66 -3.09266 -5.28511 14.6657 
-2.65444 -5.90894 19.3571 -2.64734 -5.54183 14.6455 -2.86942 -5.42045 14.6551 
-2.86942 -5.42045 14.6551 -2.97498 -5.72897 19.3713 -2.65444 -5.90894 19.3571 
-2.65444 -5.90894 19.3571 -2.32299 -6.06806 19.3446 -2.37379 -5.67494 14.6294 
-2.37379 -5.67494 14.6294 -2.64734 -5.54183 14.6455 -2.65444 -5.90894 19.3571 
-1.982 -6.20569 19.3338 -1.94819 -5.84818 14.6253 -2.16595 -5.76381 14.6281 
-2.16595 -5.76381 14.6281 -2.32299 -6.06806 19.3446 -1.982 -6.20569 19.3338 
-1.63286 -6.32125 19.3247 -1.67371 -5.93822 14.6143 -1.94819 -5.84818 14.6253 
-1.94819 -5.84818 14.6253 -1.982 -6.20569 19.3338 -1.63286 -6.32125 19.3247 
-1.63286 -6.32125 19.3247 -1.63286 -5.95047 14.6134 -1.67371 -5.93822 14.6143 
-1.63286 -6.32125 19.3247 -1.27701 -6.41428 19.3174 -1.42213 -6.00849 14.6088 
-1.27701 -6.41428 19.3174 -1.27701 -6.04349 14.6061 -1.42213 -6.00849 14.6088 
-0.915919 -6.48439 19.3118 -0.913282 -6.11409 14.6005 -1.1676 -6.06727 14.6042 
-1.1676 -6.06727 14.6042 -1.27701 -6.41428 19.3174 -0.915919 -6.48439 19.3118 
-0.915919 -6.48439 19.3118 -0.551061 -6.53129 19.3081 -0.614585 -6.1547 14.5963 
-0.614585 -6.1547 14.5963 -0.913282 -6.11409 14.6005 -0.915919 -6.48439 19.3118 
-0.183939 -6.55478 19.3063 -0.183939 -6.184 14.595 -0.391633 -6.1736 14.5958 
-0.391633 -6.1736 14.5958 -0.551061 -6.53129 19.3081 -0.183939 -6.55478 19.3063 
0.183939 -6.55478 19.3063 0.130635 -6.18545 14.5949 -0.130635 -6.18545 14.5949 
-0.130635 -6.18545 14.5949 -0.183939 -6.55478 19.3063 0.183939 -6.55478 19.3063 
0.183939 -6.55478 19.3063 0.183939 -6.184 14.595 0.130635 -6.18545 14.5949 
0.183939 -6.55478 19.3063 0.551061 -6.53129 19.3081 0.391633 -6.1736 14.5958 
0.551061 -6.53129 19.3081 0.616074 -6.15471 14.5976 0.391633 -6.1736 14.5958 
0.551061 -6.53129 19.3081 0.912935 -6.11401 14.5988 0.616074 -6.15471 14.5976 
0.912935 -6.11401 14.5988 0.551061 -6.53129 19.3081 0.915919 -6.48439 19.3118 
0.915919 -6.48439 19.3118 1.27701 -6.41428 19.3174 1.1676 -6.06727 14.6042 
1.27701 -6.41428 19.3174 1.27701 -6.04349 14.6061 1.1676 -6.06727 14.6042 
1.63286 -6.32125 19.3247 1.63286 -5.95047 14.6134 1.42213 -6.00849 14.6088 
1.42213 -6.00849 14.6088 1.27701 -6.41428 19.3174 1.63286 -6.32125 19.3247 
1.63286 -6.32125 19.3247 1.982 -6.20569 19.3338 1.94818 -5.84812 14.6245 
1.94818 -5.84812 14.6245 1.67371 -5.93822 14.6143 1.63286 -6.32125 19.3247 
1.982 -6.20569 19.3338 2.32299 -6.06806 19.3446 2.16595 -5.76381 14.6281 
2.32299 -6.06806 19.3446 2.37433 -5.67629 14.649 2.16595 -5.76381 14.6281 
2.32299 -6.06806 19.3446 2.64564 -5.53545 14.5504 2.37433 -5.67629 14.649 
2.64564 -5.53545 14.5504 2.32299 -6.06806 19.3446 2.65444 -5.90894 19.3571 
2.65444 -5.90894 19.3571 2.97498 -5.72897 19.3713 2.86942 -5.42045 14.6551 
2.97498 -5.72897 19.3713 2.97498 -5.35818 14.66 2.86942 -5.42045 14.6551 
3.28329 -5.5289 19.387 3.29739 -5.14874 14.6769 3.09266 -5.28511 14.6657 
3.09266 -5.28511 14.6657 2.97498 -5.72897 19.3713 3.28329 -5.5289 19.387 
3.28329 -5.5289 19.387 3.57811 -5.30955 19.4043 3.54466 -4.96611 14.6916 
3.54466 -4.96611 14.6916 3.29739 -5.14874 14.6769 3.28329 -5.5289 19.387 
3.57811 -5.30955 19.4043 3.85823 -5.07181 19.423 3.72211 -4.82041 14.7023 
3.85823 -5.07181 19.423 3.89332 -4.67055 14.7213 3.72211 -4.82041 14.7023 
4.1225 -4.81667 19.4431 4.11224 -4.44926 14.6348 3.89332 -4.67055 14.7213 
3.89332 -4.67055 14.7213 3.85823 -5.07181 19.423 4.1225 -4.81667 19.4431 
4.1225 -4.81667 19.4431 4.36982 -4.54518 19.4645 4.28223 -4.27458 14.7453 
4.36982 -4.54518 19.4645 4.36982 -4.1744 14.7532 4.28223 -4.27458 14.7453 
4.59919 -4.25845 19.487 4.60602 -3.87894 14.7766 4.45169 -4.07633 14.7609 
4.45169 -4.07633 14.7609 4.36982 -4.54518 19.4645 4.59919 -4.25845 19.487 
4.59919 -4.25845 19.487 4.80966 -3.95766 19.5107 4.78239 -3.6297 14.7976 
4.78239 -3.6297 14.7976 4.60602 -3.87894 14.7766 4.59919 -4.25845 19.487 
5.00036 -3.64404 19.5354 5.02031 -3.23956 14.8332 4.90338 -3.4384 14.8111 
4.90338 -3.4384 14.8111 4.80966 -3.95766 19.5107 5.00036 -3.64404 19.5354 
5.17052 -3.31888 19.561 5.16218 -2.9663 14.8491 5.02031 -3.23956 14.8332 
5.02031 -3.23956 14.8332 5.00036 -3.64404 19.5354 5.17052 -3.31888 19.561 
5.17052 -3.31888 19.561 5.31943 -2.98353 19.5874 5.26374 -2.74509 14.8657 
5.31943 -2.98353 19.5874 5.31943 -2.61274 14.8761 5.26374 -2.74509 14.8657 
5.44649 -2.63935 19.6144 5.44816 -2.26352 14.9036 5.36234 -2.50389 14.8846 
5.36234 -2.50389 14.8846 5.31943 -2.98353 19.5874 5.44649 -2.63935 19.6144 
5.44649 -2.63935 19.6144 5.55116 -2.28776 19.6421 5.53648 -1.97398 14.9196 
5.53648 -1.97398 14.9196 5.44816 -2.26352 14.9036 5.44649 -2.63935 19.6144 
5.63302 -1.93021 19.6703 5.63985 -1.52749 14.9654 5.59078 -1.75699 14.9434 
5.59078 -1.75699 14.9434 5.55116 -2.28776 19.6421 5.63302 -1.93021 19.6703 
5.69173 -1.56817 19.6987 5.68882 -1.22338 14.9845 5.63985 -1.52749 14.9654 
5.63985 -1.52749 14.9654 5.63302 -1.93021 19.6703 5.69173 -1.56817 19.6987 
5.69173 -1.56817 19.6987 5.72706 -1.20312 19.7275 5.71507 -0.986032 15.0041 
5.72706 -1.20312 19.7275 5.72706 -0.832335 15.0162 5.71507 -0.986032 15.0041 
5.73885 -0.836566 19.7563 5.73885 -0.46578 15.045 5.7329 -0.726176 15.0245 
5.7329 -0.726176 15.0245 5.72706 -1.20312 19.7275 5.73885 -0.836566 19.7563 
5.73885 -0.836566 19.7563 5.72706 -0.470011 19.7852 5.7329 -0.205384 15.0655 
5.72706 -0.470011 19.7852 5.72706 -0.0992241 15.0739 5.7329 -0.205384 15.0655 
5.69173 -0.104961 19.8139 5.68882 0.291914 15.1041 5.71507 0.0544728 15.086 
5.71507 0.0544728 15.086 5.72706 -0.470011 19.7852 5.69173 -0.104961 19.8139 
5.69173 -0.104961 19.8139 5.63302 0.257082 19.8424 5.63985 0.595798 15.1259 
5.63985 0.595798 15.1259 5.68882 0.291914 15.1041 5.69173 -0.104961 19.8139 
5.63302 0.257082 19.8424 5.55116 0.614631 19.8705 5.59078 0.82543 15.1467 
5.55116 0.614631 19.8705 5.53616 1.04427 15.165 5.59078 0.82543 15.1467 
5.55116 0.614631 19.8705 5.44816 1.33196 15.1865 5.53616 1.04427 15.165 
5.44816 1.33196 15.1865 5.55116 0.614631 19.8705 5.44649 0.966217 19.8982 
5.44649 0.966217 19.8982 5.31943 1.31039 19.9253 5.36234 1.57233 15.2054 
5.31943 1.31039 19.9253 5.31943 1.68118 15.214 5.36234 1.57233 15.2054 
5.17052 1.64575 19.9517 5.16218 2.03462 15.2424 5.26374 1.81353 15.2244 
5.26374 1.81353 15.2244 5.31943 1.31039 19.9253 5.17052 1.64575 19.9517 
5.17052 1.64575 19.9517 5.00036 1.97091 19.9773 5.02033 2.30782 15.2588 
5.02033 2.30782 15.2588 5.16218 2.03462 15.2424 5.17052 1.64575 19.9517 
5.00036 1.97091 19.9773 4.80966 2.28452 20.002 4.90338 2.50684 15.279 
4.80966 2.28452 20.002 4.78189 2.69857 15.2975 4.90338 2.50684 15.279 
4.80966 2.28452 20.002 4.60656 2.94688 15.3108 4.78189 2.69857 15.2975 
4.60656 2.94688 15.3108 4.80966 2.28452 20.002 4.59919 2.58532 20.0256 
4.59919 2.58532 20.0256 4.36982 2.87205 20.0482 4.45169 3.14477 15.3292 
4.36982 2.87205 20.0482 4.36982 3.24284 15.3369 4.45169 3.14477 15.3292 
4.1225 3.14354 20.0696 4.1132 3.52385 15.359 4.28223 3.34302 15.3448 
4.28223 3.34302 15.3448 4.36982 2.87205 20.0482 4.1225 3.14354 20.0696 
4.1225 3.14354 20.0696 3.85823 3.39868 20.0896 3.89323 3.73884 15.3716 
3.89323 3.73884 15.3716 4.1132 3.52385 15.359 4.1225 3.14354 20.0696 
3.57811 3.63641 20.1084 3.54467 4.03434 15.4011 3.72211 3.88885 15.3878 
3.72211 3.88885 15.3878 3.85823 3.39868 20.0896 3.57811 3.63641 20.1084 
3.28329 3.85577 20.1256 3.29739 4.21711 15.4142 3.54467 4.03434 15.4011 
3.54467 4.03434 15.4011 3.57811 3.63641 20.1084 3.28329 3.85577 20.1256 
3.28329 3.85577 20.1256 2.97498 4.05584 20.1414 3.09266 4.35355 15.4243 
2.97498 4.05584 20.1414 2.97498 4.42663 15.4301 3.09266 4.35355 15.4243 
2.65444 4.23581 20.1555 2.64734 4.61027 15.4445 2.86942 4.48889 15.435 
2.86942 4.48889 15.435 2.97498 4.05584 20.1414 2.65444 4.23581 20.1555 
2.65444 4.23581 20.1555 2.32299 4.39493 20.1681 2.37379 4.74427 15.4494 
2.37379 4.74427 15.4494 2.64734 4.61027 15.4445 2.65444 4.23581 20.1555 
1.982 4.53256 20.1789 1.94819 4.91601 15.4725 2.16595 4.83225 15.462 
2.16595 4.83225 15.462 2.32299 4.39493 20.1681 1.982 4.53256 20.1789 
1.63286 4.64812 20.188 1.67371 5.00666 15.4757 1.94819 4.91601 15.4725 
1.94819 4.91601 15.4725 1.982 4.53256 20.1789 1.63286 4.64812 20.188 
1.63286 4.64812 20.188 1.63286 5.01891 15.4767 1.67371 5.00666 15.4757 
1.63286 4.64812 20.188 1.27701 4.74115 20.1953 1.42213 5.07693 15.4813 
1.27701 4.74115 20.1953 1.27701 5.11193 15.484 1.42213 5.07693 15.4813 
0.915919 4.81125 20.2008 0.913282 5.18253 15.4896 1.1676 5.13571 15.4859 
1.1676 5.13571 15.4859 1.27701 4.74115 20.1953 0.915919 4.81125 20.2008 
0.915919 4.81125 20.2008 0.551061 4.85815 20.2045 0.614585 5.22329 15.4918 
0.614585 5.22329 15.4918 0.913282 5.18253 15.4896 0.915919 4.81125 20.2008 
0.183939 4.88165 20.2064 0.183939 5.25244 15.4951 0.391633 5.24204 15.4943 
0.391633 5.24204 15.4943 0.551061 4.85815 20.2045 0.183939 4.88165 20.2064 
0.183939 4.88165 20.2064 -0.183939 4.88165 20.2064 -0.130635 5.25389 15.4952 
-0.130635 5.25389 15.4952 0.130635 5.25389 15.4952 0.183939 4.88165 20.2064 
-0.183939 4.88165 20.2064 -0.183939 5.25244 15.4951 -0.130635 5.25389 15.4952 
-0.183939 4.88165 20.2064 -0.551061 4.85815 20.2045 -0.391633 5.24204 15.4943 
-0.551061 4.85815 20.2045 -0.616074 5.2231 15.4931 -0.391633 5.24204 15.4943 
-0.551061 4.85815 20.2045 -0.912935 5.18272 15.4879 -0.616074 5.2231 15.4931 
-0.912935 5.18272 15.4879 -0.551061 4.85815 20.2045 -0.915919 4.81125 20.2008 
-0.915919 4.81125 20.2008 -1.27701 4.74115 20.1953 -1.1676 5.13571 15.4859 
-1.27701 4.74115 20.1953 -1.27701 5.11193 15.484 -1.1676 5.13571 15.4859 
-1.63286 4.64812 20.188 -1.63286 5.01891 15.4767 -1.42213 5.07693 15.4813 
-1.42213 5.07693 15.4813 -1.27701 4.74115 20.1953 -1.63286 4.64812 20.188 
-1.63286 4.64812 20.188 -1.982 4.53256 20.1789 -1.94818 4.91608 15.4716 
-1.94818 4.91608 15.4716 -1.67371 5.00666 15.4757 -1.63286 4.64812 20.188 
-1.982 4.53256 20.1789 -2.32299 4.39493 20.1681 -2.16595 4.83225 15.462 
-2.32299 4.39493 20.1681 -2.37433 4.74253 15.469 -2.16595 4.83225 15.462 
-2.32299 4.39493 20.1681 -2.64564 4.61885 15.3495 -2.37433 4.74253 15.469 
-2.64564 4.61885 15.3495 -2.32299 4.39493 20.1681 -2.65444 4.23581 20.1555 
-2.65444 4.23581 20.1555 -2.97498 4.05584 20.1414 -2.86942 4.48889 15.435 
-2.97498 4.05584 20.1414 -2.97498 4.42663 15.4301 -2.86942 4.48889 15.435 
-3.28329 3.85577 20.1256 -3.29739 4.21712 15.414 -3.09266 4.35355 15.4243 
-3.09266 4.35355 15.4243 -2.97498 4.05584 20.1414 -3.28329 3.85577 20.1256 
-3.28329 3.85577 20.1256 -3.57811 3.63641 20.1084 -3.54466 4.03443 15.4 
-3.54466 4.03443 15.4 -3.29739 4.21712 15.414 -3.28329 3.85577 20.1256 
-3.57811 3.63641 20.1084 -3.85823 3.39868 20.0896 -3.72211 3.88885 15.3878 
-3.85823 3.39868 20.0896 -3.89332 3.73786 15.3831 -3.72211 3.88885 15.3878 
-4.1225 3.14354 20.0696 -4.11224 3.53283 15.263 -3.89332 3.73786 15.3831 
-3.89332 3.73786 15.3831 -3.85823 3.39868 20.0896 -4.1225 3.14354 20.0696 
-4.1225 3.14354 20.0696 -4.36982 2.87205 20.0482 -4.28223 3.34302 15.3448 
-4.36982 2.87205 20.0482 -4.36982 3.24284 15.3369 -4.28223 3.34302 15.3448 
-4.59919 2.58532 20.0256 -4.60602 2.94735 15.3138 -4.45169 3.14477 15.3292 
-4.45169 3.14477 15.3292 -4.36982 2.87205 20.0482 -4.59919 2.58532 20.0256 
-4.59919 2.58532 20.0256 -4.80966 2.28452 20.002 -4.78239 2.6979 15.2955 
-4.78239 2.6979 15.2955 -4.60602 2.94735 15.3138 -4.59919 2.58532 20.0256 
-5.00036 1.97091 19.9773 -5.02031 2.30699 15.2697 -4.90338 2.50684 15.279 
-4.90338 2.50684 15.279 -4.80966 2.28452 20.002 -5.00036 1.97091 19.9773 
-5.17052 1.64575 19.9517 -5.16218 2.0346 15.2427 -5.02031 2.30699 15.2697 
-5.02031 2.30699 15.2697 -5.00036 1.97091 19.9773 -5.17052 1.64575 19.9517 
-5.17052 1.64575 19.9517 -5.31943 1.31039 19.9253 -5.26374 1.81353 15.2244 
-5.31943 1.31039 19.9253 -5.31943 1.68118 15.214 -5.26374 1.81353 15.2244 
-5.44649 0.966217 19.8982 -5.44816 1.33196 15.1865 -5.36234 1.57233 15.2054 
-5.36234 1.57233 15.2054 -5.31943 1.31039 19.9253 -5.44649 0.966217 19.8982 
-5.44649 0.966217 19.8982 -5.55116 0.614631 19.8705 -5.53648 1.04347 15.1571 
-5.53648 1.04347 15.1571 -5.44816 1.33196 15.1865 -5.44649 0.966217 19.8982 
-5.63302 0.257082 19.8424 -5.63985 0.59532 15.1324 -5.59078 0.82543 15.1467 
-5.59078 0.82543 15.1467 -5.55116 0.614631 19.8705 -5.63302 0.257082 19.8424 
-5.69173 -0.104961 19.8139 -5.68882 0.291956 15.1038 -5.63985 0.59532 15.1324 
-5.63985 0.59532 15.1324 -5.63302 0.257082 19.8424 -5.69173 -0.104961 19.8139 
-5.69173 -0.104961 19.8139 -5.72706 -0.470011 19.7852 -5.71507 0.0544728 15.086 
-5.72706 -0.470011 19.7852 -5.72706 -0.0992241 15.0739 -5.71507 0.0544728 15.086 
-5.73885 -0.836566 19.7563 -5.73885 -0.46578 15.045 -5.7329 -0.205384 15.0655 
-5.7329 -0.205384 15.0655 -5.72706 -0.470011 19.7852 -5.73885 -0.836566 19.7563 
-5.7329 -0.205384 15.0655 -5.72706 -0.0992241 15.0739 -5.72706 -0.470011 19.7852 
-5.71507 0.0544728 15.086 -5.68882 0.291956 15.1038 -5.69173 -0.104961 19.8139 
-5.59078 0.82543 15.1467 -5.53648 1.04347 15.1571 -5.55116 0.614631 19.8705 
-5.36234 1.57233 15.2054 -5.31943 1.68118 15.214 -5.31943 1.31039 19.9253 
-5.26374 1.81353 15.2244 -5.16218 2.0346 15.2427 -5.17052 1.64575 19.9517 
-4.90338 2.50684 15.279 -4.78239 2.6979 15.2955 -4.80966 2.28452 20.002 
-4.45169 3.14477 15.3292 -4.36982 3.24284 15.3369 -4.36982 2.87205 20.0482 
-4.28223 3.34302 15.3448 -4.11224 3.53283 15.263 -4.1225 3.14354 20.0696 
-3.72211 3.88885 15.3878 -3.54466 4.03443 15.4 -3.57811 3.63641 20.1084 
-3.09266 4.35355 15.4243 -2.97498 4.42663 15.4301 -2.97498 4.05584 20.1414 
-2.86942 4.48889 15.435 -2.64564 4.61885 15.3495 -2.65444 4.23581 20.1555 
-2.16595 4.83225 15.462 -1.94818 4.91608 15.4716 -1.982 4.53256 20.1789 
-1.67371 5.00666 15.4757 -1.63286 5.01891 15.4767 -1.63286 4.64812 20.188 
-1.42213 5.07693 15.4813 -1.27701 5.11193 15.484 -1.27701 4.74115 20.1953 
-1.1676 5.13571 15.4859 -0.912935 5.18272 15.4879 -0.915919 4.81125 20.2008 
-0.391633 5.24204 15.4943 -0.183939 5.25244 15.4951 -0.183939 4.88165 20.2064 
0.130635 5.25389 15.4952 0.183939 5.25244 15.4951 0.183939 4.88165 20.2064 
0.391633 5.24204 15.4943 0.614585 5.22329 15.4918 0.551061 4.85815 20.2045 
1.1676 5.13571 15.4859 1.27701 5.11193 15.484 1.27701 4.74115 20.1953 
1.42213 5.07693 15.4813 1.63286 5.01891 15.4767 1.63286 4.64812 20.188 
2.16595 4.83225 15.462 2.37379 4.74427 15.4494 2.32299 4.39493 20.1681 
2.86942 4.48889 15.435 2.97498 4.42663 15.4301 2.97498 4.05584 20.1414 
3.09266 4.35355 15.4243 3.29739 4.21711 15.4142 3.28329 3.85577 20.1256 
3.72211 3.88885 15.3878 3.89323 3.73884 15.3716 3.85823 3.39868 20.0896 
4.28223 3.34302 15.3448 4.36982 3.24284 15.3369 4.36982 2.87205 20.0482 
4.45169 3.14477 15.3292 4.60656 2.94688 15.3108 4.59919 2.58532 20.0256 
4.90338 2.50684 15.279 5.02033 2.30782 15.2588 5.00036 1.97091 19.9773 
5.26374 1.81353 15.2244 5.31943 1.68118 15.214 5.31943 1.31039 19.9253 
5.36234 1.57233 15.2054 5.44816 1.33196 15.1865 5.44649 0.966217 19.8982 
5.59078 0.82543 15.1467 5.63985 0.595798 15.1259 5.63302 0.257082 19.8424 
5.71507 0.0544728 15.086 5.72706 -0.0992241 15.0739 5.72706 -0.470011 19.7852 
5.7329 -0.205384 15.0655 5.73885 -0.46578 15.045 5.73885 -0.836566 19.7563 
5.7329 -0.726176 15.0245 5.72706 -0.832335 15.0162 5.72706 -1.20312 19.7275 
5.71507 -0.986032 15.0041 5.68882 -1.22338 14.9845 5.69173 -1.56817 19.6987 
5.59078 -1.75699 14.9434 5.53648 -1.97398 14.9196 5.55116 -2.28776 19.6421 
5.36234 -2.50389 14.8846 5.31943 -2.61274 14.8761 5.31943 -2.98353 19.5874 
5.26374 -2.74509 14.8657 5.16218 -2.9663 14.8491 5.17052 -3.31888 19.561 
4.90338 -3.4384 14.8111 4.78239 -3.6297 14.7976 4.80966 -3.95766 19.5107 
4.45169 -4.07633 14.7609 4.36982 -4.1744 14.7532 4.36982 -4.54518 19.4645 
4.28223 -4.27458 14.7453 4.11224 -4.44926 14.6348 4.1225 -4.81667 19.4431 
3.72211 -4.82041 14.7023 3.54466 -4.96611 14.6916 3.57811 -5.30955 19.4043 
3.09266 -5.28511 14.6657 2.97498 -5.35818 14.66 2.97498 -5.72897 19.3713 
2.86942 -5.42045 14.6551 2.64564 -5.53545 14.5504 2.65444 -5.90894 19.3571 
2.16595 -5.76381 14.6281 1.94818 -5.84812 14.6245 1.982 -6.20569 19.3338 
1.67371 -5.93822 14.6143 1.63286 -5.95047 14.6134 1.63286 -6.32125 19.3247 
1.42213 -6.00849 14.6088 1.27701 -6.04349 14.6061 1.27701 -6.41428 19.3174 
1.1676 -6.06727 14.6042 0.912935 -6.11401 14.5988 0.915919 -6.48439 19.3118 
0.391633 -6.1736 14.5958 0.183939 -6.184 14.595 0.183939 -6.55478 19.3063 
-0.130635 -6.18545 14.5949 -0.183939 -6.184 14.595 -0.183939 -6.55478 19.3063 
-0.391633 -6.1736 14.5958 -0.614585 -6.1547 14.5963 -0.551061 -6.53129 19.3081 
-1.1676 -6.06727 14.6042 -1.27701 -6.04349 14.6061 -1.27701 -6.41428 19.3174 
-1.42213 -6.00849 14.6088 -1.63286 -5.95047 14.6134 -1.63286 -6.32125 19.3247 
-2.16595 -5.76381 14.6281 -2.37379 -5.67494 14.6294 -2.32299 -6.06806 19.3446 
-2.86942 -5.42045 14.6551 -2.97498 -5.35818 14.66 -2.97498 -5.72897 19.3713 
-3.09266 -5.28511 14.6657 -3.29739 -5.14876 14.6771 -3.28329 -5.5289 19.387 
-3.72211 -4.82041 14.7023 -3.89377 -4.66915 14.7089 -3.85823 -5.07181 19.423 
-4.28223 -4.27458 14.7453 -4.36982 -4.1744 14.7532 -4.36982 -4.54518 19.4645 
-4.45169 -4.07633 14.7609 -4.60656 -3.878 14.7736 -4.59919 -4.25845 19.487 
-4.90338 -3.4384 14.8111 -5.02033 -3.23871 14.8228 -5.00036 -3.64404 19.5354 
-5.26374 -2.74509 14.8657 -5.31943 -2.61274 14.8761 -5.31943 -2.98353 19.5874 
-5.36234 -2.50389 14.8846 -5.44816 -2.26352 14.9036 -5.44649 -2.63935 19.6144 
-5.59078 -1.75699 14.9434 -5.63985 -1.52694 14.9588 -5.63302 -1.93021 19.6703 
-5.71507 -0.986032 15.0041 -5.72706 -0.832335 15.0162 -5.72706 -1.20312 19.7275 
-5.7329 -0.726176 15.0245 -5.73885 -0.46578 15.045 -5.73885 -0.836566 19.7563 
1.27701 4.74115 20.1953 5.72706 -1.20312 19.7275 5.69173 -1.56817 19.6987 
5.69173 -1.56817 19.6987 5.63302 -1.93021 19.6703 1.27701 4.74115 20.1953 
5.63302 -1.93021 19.6703 5.55116 -2.28776 19.6421 1.27701 4.74115 20.1953 
5.55116 -2.28776 19.6421 5.44649 -2.63935 19.6144 1.27701 4.74115 20.1953 
5.44649 -2.63935 19.6144 5.31943 -2.98353 19.5874 1.27701 4.74115 20.1953 
5.31943 -2.98353 19.5874 5.17052 -3.31888 19.561 1.27701 4.74115 20.1953 
5.17052 -3.31888 19.561 5.00036 -3.64404 19.5354 1.27701 4.74115 20.1953 
5.00036 -3.64404 19.5354 4.80966 -3.95766 19.5107 1.27701 4.74115 20.1953 
4.80966 -3.95766 19.5107 4.59919 -4.25845 19.487 1.27701 4.74115 20.1953 
4.59919 -4.25845 19.487 4.36982 -4.54518 19.4645 1.27701 4.74115 20.1953 
4.36982 -4.54518 19.4645 4.1225 -4.81667 19.4431 1.27701 4.74115 20.1953 
4.1225 -4.81667 19.4431 3.85823 -5.07181 19.423 1.27701 4.74115 20.1953 
3.85823 -5.07181 19.423 3.57811 -5.30955 19.4043 1.27701 4.74115 20.1953 
3.57811 -5.30955 19.4043 3.28329 -5.5289 19.387 1.27701 4.74115 20.1953 
3.28329 -5.5289 19.387 2.97498 -5.72897 19.3713 1.27701 4.74115 20.1953 
2.97498 -5.72897 19.3713 2.65444 -5.90894 19.3571 1.27701 4.74115 20.1953 
2.65444 -5.90894 19.3571 2.32299 -6.06806 19.3446 1.27701 4.74115 20.1953 
2.32299 -6.06806 19.3446 1.982 -6.20569 19.3338 1.27701 4.74115 20.1953 
1.982 -6.20569 19.3338 1.63286 -6.32125 19.3247 1.27701 4.74115 20.1953 
1.63286 -6.32125 19.3247 1.27701 -6.41428 19.3174 1.27701 4.74115 20.1953 
1.27701 -6.41428 19.3174 0.915919 -6.48439 19.3118 1.27701 4.74115 20.1953 
0.915919 -6.48439 19.3118 0.551061 -6.53129 19.3081 1.27701 4.74115 20.1953 
0.551061 -6.53129 19.3081 0.183939 -6.55478 19.3063 1.27701 4.74115 20.1953 
0.183939 -6.55478 19.3063 -0.183939 -6.55478 19.3063 1.27701 4.74115 20.1953 
-0.183939 -6.55478 19.3063 -0.551061 -6.53129 19.3081 1.27701 4.74115 20.1953 
-0.551061 -6.53129 19.3081 -0.915919 -6.48439 19.3118 1.27701 4.74115 20.1953 
-0.915919 -6.48439 19.3118 -1.27701 -6.41428 19.3174 1.27701 4.74115 20.1953 
-1.27701 -6.41428 19.3174 -1.63286 -6.32125 19.3247 1.27701 4.74115 20.1953 
-1.63286 -6.32125 19.3247 -1.982 -6.20569 19.3338 1.27701 4.74115 20.1953 
-1.982 -6.20569 19.3338 -2.32299 -6.06806 19.3446 1.27701 4.74115 20.1953 
-2.32299 -6.06806 19.3446 -2.65444 -5.90894 19.3571 1.27701 4.74115 20.1953 
-2.65444 -5.90894 19.3571 -2.97498 -5.72897 19.3713 1.27701 4.74115 20.1953 
-2.97498 -5.72897 19.3713 -3.28329 -5.5289 19.387 1.27701 4.74115 20.1953 
-3.28329 -5.5289 19.387 -3.57811 -5.30955 19.4043 1.27701 4.74115 20.1953 
-3.57811 -5.30955 19.4043 -3.85823 -5.07181 19.423 1.27701 4.74115 20.1953 
-3.85823 -5.07181 19.423 -4.1225 -4.81667 19.4431 1.27701 4.74115 20.1953 
-4.1225 -4.81667 19.4431 -4.36982 -4.54518 19.4645 1.27701 4.74115 20.1953 
-4.36982 -4.54518 19.4645 -4.59919 -4.25845 19.487 1.27701 4.74115 20.1953 
-4.59919 -4.25845 19.487 -4.80966 -3.95766 19.5107 1.27701 4.74115 20.1953 
-4.80966 -3.95766 19.5107 -5.00036 -3.64404 19.5354 1.27701 4.74115 20.1953 
-5.00036 -3.64404 19.5354 -5.17052 -3.31888 19.561 1.27701 4.74115 20.1953 
-5.17052 -3.31888 19.561 -5.31943 -2.98353 19.5874 1.27701 4.74115 20.1953 
-5.31943 -2.98353 19.5874 -5.44649 -2.63935 19.6144 1.27701 4.74115 20.1953 
-5.44649 -2.63935 19.6144 -5.55116 -2.28776 19.6421 1.27701 4.74115 20.1953 
-5.55116 -2.28776 19.6421 -5.63302 -1.93021 19.6703 1.27701 4.74115 20.1953 
-5.63302 -1.93021 19.6703 -5.69173 -1.56817 19.6987 1.27701 4.74115 20.1953 
-5.69173 -1.56817 19.6987 -5.72706 -1.20312 19.7275 1.27701 4.74115 20.1953 
-5.72706 -1.20312 19.7275 -5.73885 -0.836566 19.7563 1.27701 4.74115 20.1953 
-5.73885 -0.836566 19.7563 -5.72706 -0.470011 19.7852 1.27701 4.74115 20.1953 
-5.72706 -0.470011 19.7852 -5.69173 -0.104961 19.8139 1.27701 4.74115 20.1953 
-5.69173 -0.104961 19.8139 -5.63302 0.257082 19.8424 1.27701 4.74115 20.1953 
-5.63302 0.257082 19.8424 -5.55116 0.614631 19.8705 1.27701 4.74115 20.1953 
-5.55116 0.614631 19.8705 -5.44649 0.966217 19.8982 1.27701 4.74115 20.1953 
-5.44649 0.966217 19.8982 -5.31943 1.31039 19.9253 1.27701 4.74115 20.1953 
-5.31943 1.31039 19.9253 -5.17052 1.64575 19.9517 1.27701 4.74115 20.1953 
-5.17052 1.64575 19.9517 -5.00036 1.97091 19.9773 1.27701 4.74115 20.1953 
-5.00036 1.97091 19.9773 -4.80966 2.28452 20.002 1.27701 4.74115 20.1953 
-4.80966 2.28452 20.002 -4.59919 2.58532 20.0256 1.27701 4.74115 20.1953 
-4.59919 2.58532 20.0256 -4.36982 2.87205 20.0482 1.27701 4.74115 20.1953 
-4.36982 2.87205 20.0482 -4.1225 3.14354 20.0696 1.27701 4.74115 20.1953 
-4.1225 3.14354 20.0696 -3.85823 3.39868 20.0896 1.27701 4.74115 20.1953 
-3.85823 3.39868 20.0896 -3.57811 3.63641 20.1084 1.27701 4.74115 20.1953 
-3.57811 3.63641 20.1084 -3.28329 3.85577 20.1256 1.27701 4.74115 20.1953 
-3.28329 3.85577 20.1256 -2.97498 4.05584 20.1414 1.27701 4.74115 20.1953 
-2.97498 4.05584 20.1414 -2.65444 4.23581 20.1555 1.27701 4.74115 20.1953 
-2.65444 4.23581 20.1555 -2.32299 4.39493 20.1681 1.27701 4.74115 20.1953 
-2.32299 4.39493 20.1681 -1.982 4.53256 20.1789 1.27701 4.74115 20.1953 
-1.982 4.53256 20.1789 -1.63286 4.64812 20.188 1.27701 4.74115 20.1953 
-1.63286 4.64812 20.188 -1.27701 4.74115 20.1953 1.27701 4.74115 20.1953 
-1.27701 4.74115 20.1953 -0.915919 4.81125 20.2008 1.27701 4.74115 20.1953 
-0.915919 4.81125 20.2008 -0.551061 4.85815 20.2045 1.27701 4.74115 20.1953 
-0.551061 4.85815 20.2045 -0.183939 4.88165 20.2064 1.27701 4.74115 20.1953 
-0.183939 4.88165 20.2064 0.183939 4.88165 20.2064 1.27701 4.74115 20.1953 
0.183939 4.88165 20.2064 0.551061 4.85815 20.2045 1.27701 4.74115 20.1953 
0.551061 4.85815 20.2045 0.915919 4.81125 20.2008 1.27701 4.74115 20.1953 
1.63286 4.64812 20.188 1.982 4.53256 20.1789 1.27701 4.74115 20.1953 
1.982 4.53256 20.1789 2.32299 4.39493 20.1681 1.27701 4.74115 20.1953 
2.32299 4.39493 20.1681 2.65444 4.23581 20.1555 1.27701 4.74115 20.1953 
2.65444 4.23581 20.1555 2.97498 4.05584 20.1414 1.27701 4.74115 20.1953 
2.97498 4.05584 20.1414 3.28329 3.85577 20.1256 1.27701 4.74115 20.1953 
3.28329 3.85577 20.1256 3.57811 3.63641 20.1084 1.27701 4.74115 20.1953 
3.57811 3.63641 20.1084 3.85823 3.39868 20.0896 1.27701 4.74115 20.1953 
3.85823 3.39868 20.0896 4.1225 3.14354 20.0696 1.27701 4.74115 20.1953 
4.1225 3.14354 20.0696 4.36982 2.87205 20.0482 1.27701 4.74115 20.1953 
4.36982 2.87205 20.0482 4.59919 2.58532 20.0256 1.27701 4.74115 20.1953 
4.59919 2.58532 20.0256 4.80966 2.28452 20.002 1.27701 4.74115 20.1953 
4.80966 2.28452 20.002 5.00036 1.97091 19.9773 1.27701 4.74115 20.1953 
5.00036 1.97091 19.9773 5.17052 1.64575 19.9517 1.27701 4.74115 20.1953 
5.17052 1.64575 19.9517 5.31943 1.31039 19.9253 1.27701 4.74115 20.1953 
5.31943 1.31039 19.9253 5.44649 0.966217 19.8982 1.27701 4.74115 20.1953 
5.44649 0.966217 19.8982 5.55116 0.614631 19.8705 1.27701 4.74115 20.1953 
5.55116 0.614631 19.8705 5.63302 0.257082 19.8424 1.27701 4.74115 20.1953 
5.63302 0.257082 19.8424 5.69173 -0.104961 19.8139 1.27701 4.74115 20.1953 
5.69173 -0.104961 19.8139 5.72706 -0.470011 19.7852 1.27701 4.74115 20.1953 
5.72706 -0.470011 19.7852 5.73885 -0.836566 19.7563 1.27701 4.74115 20.1953 
5.73885 -0.836566 19.7563 5.72706 -1.20312 19.7275 1.27701 4.74115 20.1953 

POLYGONS 5744 22976
3 0 1 2 
3 3 4 5 
3 6 7 8 
3 9 10 11 
3 12 13 14 
3 15 16 17 
3 18 19 20 
3 21 22 23 
3 24 25 26 
3 27 28 29 
3 30 31 32 
3 33 34 35 
3 36 37 38 
3 39 40 41 
3 42 43 44 
3 45 46 47 
3 48 49 50 
3 51 52 53 
3 54 55 56 
3 57 58 59 
3 60 61 62 
3 63 64 65 
3 66 67 68 
3 69 70 71 
3 72 73 74 
3 75 76 77 
3 78 79 80 
3 81 82 83 
3 84 85 86 
3 87 88 89 
3 90 91 92 
3 93 94 95 
3 96 97 98 
3 99 100 101 
3 102 103 104 
3 105 106 107 
3 108 109 110 
3 111 112 113 
3 114 115 116 
3 117 118 119 
3 120 121 122 
3 123 124 125 
3 126 127 128 
3 129 130 131 
3 132 133 134 
3 135 136 137 
3 138 139 140 
3 141 142 143 
3 144 145 146 
3 147 148 149 
3 150 151 152 
3 153 154 155 
3 156 157 158 
3 159 160 161 
3 162 163 164 
3 165 166 167 
3 168 169 170 
3 171 172 173 
3 174 175 176 
3 177 178 179 
3 180 181 182 
3 183 184 185 
3 186 187 188 
3 189 190 191 
3 192 193 194 
3 195 196 197 
3 198 199 200 
3 201 202 203 
3 204 205 206 
3 207 208 209 
3 210 211 212 
3 213 214 215 
3 216 217 218 
3 219 220 221 
3 222 223 224 
3 225 226 227 
3 228 229 230 
3 231 232 233 
3 234 235 236 
3 237 238 239 
3 240 241 242 
3 243 244 245 
3 246 247 248 
3 249 250 251 
3 252 253 254 
3 255 256 257 
3 258 259 260 
3 261 262 263 
3 264 265 266 
3 267 268 269 
3 270 271 272 
3 273 274 275 
3 276 277 278 
3 279 280 281 
3 282 283 284 
3 285 286 287 
3 288 289 290 
3 291 292 293 
3 294 295 296 
3 297 298 299 
3 300 301 302 
3 303 304 305 
3 306 307 308 
3 309 310 311 
3 312 313 314 
3 315 316 317 
3 318 319 320 
3 321 322 323 
3 324 325 326 
3 327 328 329 
3 330 331 332 
3 333 334 335 
3 336 337 338 
3 339 340 341 
3 342 343 344 
3 345 346 347 
3 348 349 350 
3 351 352 353 
3 354 355 356 
3 357 358 359 
3 360 361 362 
3 363 364 365 
3 366 367 368 
3 369 370 371 
3 372 373 374 
3 375 376 377 
3 378 379 380 
3 381 382 383 
3 384 385 386 
3 387 388 389 
3 390 391 392 
3 393 394 395 
3 396 397 398 
3 399 400 401 
3 402 403 404 
3 405 406 407 
3 408 409 410 
3 411 412 413 
3 414 415 416 
3 417 418 419 
3 420 421 422 
3 423 424 425 
3 426 427 428 
3 429 430 431 
3 432 433 434 
3 435 436 437 
3 438 439 440 
3 441 442 443 
3 444 445 446 
3 447 448 449 
3 450 451 452 
3 453 454 455 
3 456 457 458 
3 459 460 461 
3 462 463 464 
3 465 466 467 
3 468 469 470 
3 471 472 473 
3 474 475 476 
3 477 478 479 
3 480 481 482 
3 483 484 485 
3 486 487 488 
3 489 490 491 
3 492 493 494 
3 495 496 497 
3 498 499 500 
3 501 502 503 
3 504 505 506 
3 507 508 509 
3 510 511 512 
3 513 514 515 
3 516 517 518 
3 519 520 521 
3 522 523 524 
3 525 526 527 
3 528 529 530 
3 531 532 533 
3 534 535 536 
3 537 538 539 
3 540 541 542 
3 543 544 545 
3 546 547 548 
3 549 550 551 
3 552 553 554 
3 555 556 557 
3 558 559 560 
3 561 562 563 
3 564 565 566 
3 567 568 569 
3 570 571 572 
3 573 574 575 
3 576 577 578 
3 579 580 581 
3 582 583 584 
3 585 586 587 
3 588 589 590 
3 591 592 593 
3 594 595 596 
3 597 598 599 
3 600 601 602 
3 603 604 605 
3 606 607 608 
3 609 610 611 
3 612 613 614 
3 615 616 617 
3 618 619 620 
3 621 622 623 
3 624 625 626 
3 627 628 629 
3 630 631 632 
3 633 634 635 
3 636 637 638 
3 639 640 641 
3 642 643 644 
3 645 646 647 
3 648 649 650 
3 651 652 653 
3 654 655 656 
3 657 658 659 
3 660 661 662 
3 663 664 665 
3 666 667 668 
3 669 670 671 
3 672 673 674 
3 675 676 677 
3 678 679 680 
3 681 682 683 
3 684 685 686 
3 687 688 689 
3 690 691 692 
3 693 694 695 
3 696 697 698 
3 699 700 701 
3 702 703 704 
3 705 706 707 
3 708 709 710 
3 711 712 713 
3 714 715 716 
3 717 718 719 
3 720 721 722 
3 723 724 725 
3 726 727 728 
3 729 730 731 
3 732 733 734 
3 735 736 737 
3 738 739 740 
3 741 742 743 
3 744 745 746 
3 747 748 749 
3 750 751 752 
3 753 754 755 
3 756 757 758 
3 759 760 761 
3 762 763 764 
3 765 766 767 
3 768 769 770 
3 771 772 773 
3 774 775 776 
3 777 778 779 
3 780 781 782 
3 783 784 785 
3 786 787 788 
3 789 790 791 
3 792 793 794 
3 795 796 797 
3 798 799 800 
3 801 802 803 
3 804 805 806 
3 807 808 809 
3 810 811 812 
3 813 814 815 
3 816 817 818 
3 819 820 821 
3 822 823 824 
3 825 826 827 
3 828 829 830 
3 831 832 833 
3 834 835 836 
3 837 838 839 
3 840 841 842 
3 843 844 845 
3 846 847 848 
3 849 850 851 
3 852 853 854 
3 855 856 857 
3 858 859 860 
3 861 862 863 
3 864 865 866 
3 867 868 869 
3 870 871 872 
3 873 874 875 
3 876 877 878 
3 879 880 881 
3 882 883 884 
3 885 886 887 
3 888 889 890 
3 891 892 893 
3 894 895 896 
3 897 898 899 
3 900 901 902 
3 903 904 905 
3 906 907 908 
3 909 910 911 
3 912 913 914 
3 915 916 917 
3 918 919 920 
3 921 922 923 
3 924 925 926 
3 927 928 929 
3 930 931 932 
3 933 934 935 
3 936 937 938 
3 939 940 941 
3 942 943 944 
3 945 946 947 
3 948 949 950 
3 951 952 953 
3 954 955 956 
3 957 958 959 
3 960 961 962 
3 963 964 965 
3 966 967 968 
3 969 970 971 
3 972 973 974 
3 975 976 977 
3 978 979 980 
3 981 982 983 
3 984 985 986 
3 987 988 989 
3 990 991 992 
3 993 994 995 
3 996 997 998 
3 999 1000 1001 
3 1002 1003 1004 
3 1005 1006 1007 
3 1008 1009 1010 
3 1011 1012 1013 
3 1014 1015 1016 
3 1017 1018 1019 
3 1020 1021 1022 
3 1023 1024 1025 
3 1026 1027 1028 
3 1029 1030 1031 
3 1032 1033 1034 
3 1035 1036 1037 
3 1038 1039 1040 
3 1041 1042 1043 
3 1044 1045 1046 
3 1047 1048 1049 
3 1050 1051 1052 
3 1053 1054 1055 
3 1056 1057 1058 
3 1059 1060 1061 
3 1062 1063 1064 
3 1065 1066 1067 
3 1068 1069 1070 
3 1071 1072 1073 
3 1074 1075 1076 
3 1077 1078 1079 
3 1080 1081 1082 
3 1083 1084 1085 
3 1086 1087 1088 
3 1089 1090 1091 
3 1092 1093 1094 
3 1095 1096 1097 
3 1098 1099 1100 
3 1101 1102 1103 
3 1104 1105 1106 
3 1107 1108 1109 
3 1110 1111 1112 
3 1113 1114 1115 
3 1116 1117 1118 
3 1119 1120 1121 
3 1122 1123 1124 
3 1125 1126 1127 
3 1128 1129 1130 
3 1131 1132 1133 
3 1134 1135 1136 
3 1137 1138 1139 
3 1140 1141 1142 
3 1143 1144 1145 
3 1146 1147 1148 
3 1149 1150 1151 
3 1152 1153 1154 
3 1155 1156 1157 
3 1158 1159 1160 
3 1161 1162 1163 
3 1164 1165 1166 
3 1167 1168 1169 
3 1170 1171 1172 
3 1173 1174 1175 
3 1176 1177 1178 
3 1179 1180 1181 
3 1182 1183 1184 
3 1185 1186 1187 
3 1188 1189 1190 
3 1191 1192 1193 
3 1194 1195 1196 
3 1197 1198 1199 
3 1200 1201 1202 
3 1203 1204 1205 
3 1206 1207 1208 
3 1209 1210 1211 
3 1212 1213 1214 
3 1215 1216 1217 
3 1218 1219 1220 
3 1221 1222 1223 
3 1224 1225 1226 
3 1227 1228 1229 
3 1230 1231 1232 
3 1233 1234 1235 
3 1236 1237 1238 
3 1239 1240 1241 
3 1242 1243 1244 
3 1245 1246 1247 
3 1248 1249 1250 
3 1251 1252 1253 
3 1254 1255 1256 
3 1257 1258 1259 
3 1260 1261 1262 
3 1263 1264 1265 
3 1266 1267 1268 
3 1269 1270 1271 
3 1272 1273 1274 
3 1275 1276 1277 
3 1278 1279 1280 
3 1281 1282 1283 
3 1284 1285 1286 
3 1287 1288 1289 
3 1290 1291 1292 
3 1293 1294 1295 
3 1296 1297 1298 
3 1299 1300 1301 
3 1302 1303 1304 
3 1305 1306 1307 
3 1308 1309 1310 
3 1311 1312 1313 
3 1314 1315 1316 
3 1317 1318 1319 
3 1320 1321 1322 
3 1323 1324 1325 
3 1326 1327 1328 
3 1329 1330 1331 
3 1332 1333 1334 
3 1335 1336 1337 
3 1338 1339 1340 
3 1341 1342 1343 
3 1344 1345 1346 
3 1347 1348 1349 
3 1350 1351 1352 
3 1353 1354 1355 
3 1356 1357 1358 
3 1359 1360 1361 
3 1362 1363 1364 
3 1365 1366 1367 
3 1368 1369 1370 
3 1371 1372 1373 
3 1374 1375 1376 
3 1377 1378 1379 
3 1380 1381 1382 
3 1383 1384 1385 
3 1386 1387 1388 
3 1389 1390 1391 
3 1392 1393 1394 
3 1395 1396 1397 
3 1398 1399 1400 
3 1401 1402 1403 
3 1404 1405 1406 
3 1407 1408 1409 
3 1410 1411 1412 
3 1413 1414 1415 
3 1416 1417 1418 
3 1419 1420 1421 
3 1422 1423 1424 
3 1425 1426 1427 
3 1428 1429 1430 
3 1431 1432 1433 
3 1434 1435 1436 
3 1437 1438 1439 
3 1440 1441 1442 
3 1443 1444 1445 
3 1446 1447 1448 
3 1449 1450 1451 
3 1452 1453 1454 
3 1455 1456 1457 
3 1458 1459 1460 
3 1461 1462 1463 
3 1464 1465 1466 
3 1467 1468 1469 
3 1470 1471 1472 
3 1473 1474 1475 
3 1476 1477 1478 
3 1479 1480 1481 
3 1482 1483 1484 
3 1485 1486 1487 
3 1488 1489 1490 
3 1491 1492 1493 
3 1494 1495 1496 
3 1497 1498 1499 
3 1500 1501 1502 
3 1503 1504 1505 
3 1506 1507 1508 
3 1509 1510 1511 
3 1512 1513 1514 
3 1515 1516 1517 
3 1518 1519 1520 
3 1521 1522 1523 
3 1524 1525 1526 
3 1527 1528 1529 
3 1530 1531 1532 
3 1533 1534 1535 
3 1536 1537 1538 
3 1539 1540 1541 
3 1542 1543 1544 
3 1545 1546 1547 
3 1548 1549 1550 
3 1551 1552 1553 
3 1554 1555 1556 
3 1557 1558 1559 
3 1560 1561 1562 
3 1563 1564 1565 
3 1566 1567 1568 
3 1569 1570 1571 
3 1572 1573 1574 
3 1575 1576 1577 
3 1578 1579 1580 
3 1581 1582 1583 
3 1584 1585 1586 
3 1587 1588 1589 
3 1590 1591 1592 
3 1593 1594 1595 
3 1596 1597 1598 
3 1599 1600 1601 
3 1602 1603 1604 
3 1605 1606 1607 
3 1608 1609 1610 
3 1611 1612 1613 
3 1614 1615 1616 
3 1617 1618 1619 
3 1620 1621 1622 
3 1623 1624 1625 
3 1626 1627 1628 
3 1629 1630 1631 
3 1632 1633 1634 
3 1635 1636 1637 
3 1638 1639 1640 
3 1641 1642 1643 
3 1644 1645 1646 
3 1647 1648 1649 
3 1650 1651 1652 
3 1653 1654 1655 
3 1656 1657 1658 
3 1659 1660 1661 
3 1662 1663 1664 
3 1665 1666 1667 
3 1668 1669 1670 
3 1671 1672 1673 
3 1674 1675 1676 
3 1677 1678 1679 
3 1680 1681 1682 
3 1683 1684 1685 
3 1686 1687 1688 
3 1689 1690 1691 
3 1692 1693 1694 
3 1695 1696 1697 
3 1698 1699 1700 
3 1701 1702 1703 
3 1704 1705 1706 
3 1707 1708 1709 
3 1710 1711 1712 
3 1713 1714 1715 
3 1716 1717 1718 
3 1719 1720 1721 
3 1722 1723 1724 
3 1725 1726 1727 
3 1728 1729 1730 
3 1731 1732 1733 
3 1734 1735 1736 
3 1737 1738 1739 
3 1740 1741 1742 
3 1743 1744 1745 
3 1746 1747 1748 
3 1749 1750 1751 
3 1752 1753 1754 
3 1755 1756 1757 
3 1758 1759 1760 
3 1761 1762 1763 
3 1764 1765 1766 
3 1767 1768 1769 
3 1770 1771 1772 
3 1773 1774 1775 
3 1776 1777 1778 
3 1779 1780 1781 
3 1782 1783 1784 
3 1785 1786 1787 
3 1788 1789 1790 
3 1791 1792 1793 
3 1794 1795 1796 
3 1797 1798 1799 
3 1800 1801 1802 
3 1803 1804 1805 
3 1806 1807 1808 
3 1809 1810 1811 
3 1812 1813 1814 
3 1815 1816 1817 
3 1818 1819 1820 
3 1821 1822 1823 
3 1824 1825 1826 
3 1827 1828 1829 
3 1830 1831 1832 
3 1833 1834 1835 
3 1836 1837 1838 
3 1839 1840 1841 
3 1842 1843 1844 
3 1845 1846 1847 
3 1848 1849 1850 
3 1851 1852 1853 
3 1854 1855 1856 
3 1857 1858 1859 
3 1860 1861 1862 
3 1863 1864 1865 
3 1866 1867 1868 
3 1869 1870 1871 
3 1872 1873 1874 
3 1875 1876 1877 
3 1878 1879 1880 
3 1881 1882 1883 
3 1884 1885 1886 
3 1887 1888 1889 
3 1890 1891 1892 
3 1893 1894 1895 
3 1896 1897 1898 
3 1899 1900 1901 
3 1902 1903 1904 
3 1905 1906 1907 
3 1908 1909 1910 
3 1911 1912 1913 
3 1914 1915 1916 
3 1917 1918 1919 
3 1920 1921 1922 
3 1923 1924 1925 
3 1926 1927 1928 
3 1929 1930 1931 
3 1932 1933 1934 
3 1935 1936 1937 
3 1938 1939 1940 
3 1941 1942 1943 
3 1944 1945 1946 
3 1947 1948 1949 
3 1950 1951 1952 
3 1953 1954 1955 
3 1956 1957 1958 
3 1959 1960 1961 
3 1962 1963 1964 
3 1965 1966 1967 
3 1968 1969 1970 
3 1971 1972 1973 
3 1974 1975 1976 
3 1977 1978 1979 
3 1980 1981 1982 
3 1983 1984 1985 
3 1986 1987 1988 
3 1989 1990 1991 
3 1992 1993 1994 
3 1995 1996 1997 
3 1998 1999 2000 
3 2001 2002 2003 
3 2004 2005 2006 
3 2007 2008 2009 
3 2010 2011 2012 
3 2013 2014 2015 
3 2016 2017 2018 
3 2019 2020 2021 
3 2022 2023 2024 
3 2025 2026 2027 
3 2028 2029 2030 
3 2031 2032 2033 
3 2034 2035 2036 
3 2037 2038 2039 
3 2040 2041 2042 
3 2043 2044 2045 
3 2046 2047 2048 
3 2049 2050 2051 
3 2052 2053 2054 
3 2055 2056 2057 
3 2058 2059 2060 
3 2061 2062 2063 
3 2064 2065 2066 
3 2067 2068 2069 
3 2070 2071 2072 
3 2073 2074 2075 
3 2076 2077 2078 
3 2079 2080 2081 
3 2082 2083 2084 
3 2085 2086 2087 
3 2088 2089 2090 
3 2091 2092 2093 
3 2094 2095 2096 
3 2097 2098 2099 
3 2100 2101 2102 
3 2103 2104 2105 
3 2106 2107 2108 
3 2109 2110 2111 
3 2112 2113 2114 
3 2115 2116 2117 
3 2118 2119 2120 
3 2121 2122 2123 
3 2124 2125 2126 
3 2127 2128 2129 
3 2130 2131 2132 
3 2133 2134 2135 
3 2136 2137 2138 
3 2139 2140 2141 
3 2142 2143 2144 
3 2145 2146 2147 
3 2148 2149 2150 
3 2151 2152 2153 
3 2154 2155 2156 
3 2157 2158 2159 
3 2160 2161 2162 
3 2163 2164 2165 
3 2166 2167 2168 
3 2169 2170 2171 
3 2172 2173 2174 
3 2175 2176 2177 
3 2178 2179 2180 
3 2181 2182 2183 
3 2184 2185 2186 
3 2187 2188 2189 
3 2190 2191 2192 
3 2193 2194 2195 
3 2196 2197 2198 
3 2199 2200 2201 
3 2202 2203 2204 
3 2205 2206 2207 
3 2208 2209 2210 
3 2211 2212 2213 
3 2214 2215 2216 
3 2217 2218 2219 
3 2220 2221 2222 
3 2223 2224 2225 
3 2226 2227 2228 
3 2229 2230 2231 
3 2232 2233 2234 
3 2235 2236 2237 
3 2238 2239 2240 
3 2241 2242 2243 
3 2244 2245 2246 
3 2247 2248 2249 
3 2250 2251 2252 
3 2253 2254 2255 
3 2256 2257 2258 
3 2259 2260 2261 
3 2262 2263 2264 
3 2265 2266 2267 
3 2268 2269 2270 
3 2271 2272 2273 
3 2274 2275 2276 
3 2277 2278 2279 
3 2280 2281 2282 
3 2283 2284 2285 
3 2286 2287 2288 
3 2289 2290 2291 
3 2292 2293 2294 
3 2295 2296 2297 
3 2298 2299 2300 
3 2301 2302 2303 
3 2304 2305 2306 
3 2307 2308 2309 
3 2310 2311 2312 
3 2313 2314 2315 
3 2316 2317 2318 
3 2319 2320 2321 
3 2322 2323 2324 
3 2325 2326 2327 
3 2328 2329 2330 
3 2331 2332 2333 
3 2334 2335 2336 
3 2337 2338 2339 
3 2340 2341 2342 
3 2343 2344 2345 
3 2346 2347 2348 
3 2349 2350 2351 
3 2352 2353 2354 
3 2355 2356 2357 
3 2358 2359 2360 
3 2361 2362 2363 
3 2364 2365 2366 
3 2367 2368 2369 
3 2370 2371 2372 
3 2373 2374 2375 
3 2376 2377 2378 
3 2379 2380 2381 
3 2382 2383 2384 
3 2385 2386 2387 
3 2388 2389 2390 
3 2391 2392 2393 
3 2394 2395 2396 
3 2397 2398 2399 
3 2400 2401 2402 
3 2403 2404 2405 
3 2406 2407 2408 
3 2409 2410 2411 
3 2412 2413 2414 
3 2415 2416 2417 
3 2418 2419 2420 
3 2421 2422 2423 
3 2424 2425 2426 
3 2427 2428 2429 
3 2430 2431 2432 
3 2433 2434 2435 
3 2436 2437 2438 
3 2439 2440 2441 
3 2442 2443 2444 
3 2445 2446 2447 
3 2448 2449 2450 
3 2451 2452 2453 
3 2454 2455 2456 
3 2457 2458 2459 
3 2460 2461 2462 
3 2463 2464 2465 
3 2466 2467 2468 
3 2469 2470 2471 
3 2472 2473 2474 
3 2475 2476 2477 
3 2478 2479 2480 
3 2481 2482 2483 
3 2484 2485 2486 
3 2487 2488 2489 
3 2490 2491 2492 
3 2493 2494 2495 
3 2496 2497 2498 
3 2499 2500 2501 
3 2502 2503 2504 
3 2505 2506 2507 
3 2508 2509 2510 
3 2511 2512 2513 
3 2514 2515 2516 
3 2517 2518 2519 
3 2520 2521 2522 
3 2523 2524 2525 
3 2526 2527 2528 
3 2529 2530 2531 
3 2532 2533 2534 
3 2535 2536 2537 
3 2538 2539 2540 
3 2541 2542 2543 
3 2544 2545 2546 
3 2547 2548 2549 
3 2550 2551 2552 
3 2553 2554 2555 
3 2556 2557 2558 
3 2559 2560 2561 
3 2562 2563 2564 
3 2565 2566 2567 
3 2568 2569 2570 
3 2571 2572 2573 
3 2574 2575 2576 
3 2577 2578 2579 
3 2580 2581 2582 
3 2583 2584 2585 
3 2586 2587 2588 
3 2589 2590 2591 
3 2592 2593 2594 
3 2595 2596 2597 
3 2598 2599 2600 
3 2601 2602 2603 
3 2604 2605 2606 
3 2607 2608 2609 
3 2610 2611 2612 
3 2613 2614 2615 
3 2616 2617 2618 
3 2619 2620 2621 
3 2622 2623 2624 
3 2625 2626 2627 
3 2628 2629 2630 
3 2631 2632 2633 
3 2634 2635 2636 
3 2637 2638 2639 
3 2640 2641 2642 
3 2643 2644 2645 
3 2646 2647 2648 
3 2649 2650 2651 
3 2652 2653 2654 
3 2655 2656 2657 
3 2658 2659 2660 
3 2661 2662 2663 
3 2664 2665 2666 
3 2667 2668 2669 
3 2670 2671 2672 
3 2673 2674 2675 
3 2676 2677 2678 
3 2679 2680 2681 
3 2682 2683 2684 
3 2685 2686 2687 
3 2688 2689 2690 
3 2691 2692 2693 
3 2694 2695 2696 
3 2697 2698 2699 
3 2700 2701 2702 
3 2703 2704 2705 
3 2706 2707 2708 
3 2709 2710 2711 
3 2712 2713 2714 
3 2715 2716 2717 
3 2718 2719 2720 
3 2721 2722 2723 
3 2724 2725 2726 
3 2727 2728 2729 
3 2730 2731 2732 
3 2733 2734 2735 
3 2736 2737 2738 
3 2739 2740 2741 
3 2742 2743 2744 
3 2745 2746 2747 
3 2748 2749 2750 
3 2751 2752 2753 
3 2754 2755 2756 
3 2757 2758 2759 
3 2760 2761 2762 
3 2763 2764 2765 
3 2766 2767 2768 
3 2769 2770 2771 
3 2772 2773 2774 
3 2775 2776 2777 
3 2778 2779 2780 
3 2781 2782 2783 
3 2784 2785 2786 
3 2787 2788 2789 
3 2790 2791 2792 
3 2793 2794 2795 
3 2796 2797 2798 
3 2799 2800 2801 
3 2802 2803 2804 
3 2805 2806 2807 
3 2808 2809 2810 
3 2811 2812 2813 
3 2814 2815 2816 
3 2817 2818 2819 
3 2820 2821 2822 
3 2823 2824 2825 
3 2826 2827 2828 
3 2829 2830 2831 
3 2832 2833 2834 
3 2835 2836 2837 
3 2838 2839 2840 
3 2841 2842 2843 
3 2844 2845 2846 
3 2847 2848 2849 
3 2850 2851 2852 
3 2853 2854 2855 
3 2856 2857 2858 
3 2859 2860 2861 
3 2862 2863 2864 
3 2865 2866 2867 
3 2868 2869 2870 
3 2871 2872 2873 
3 2874 2875 2876 
3 2877 2878 2879 
3 2880 2881 2882 
3 2883 2884 2885 
3 2886 2887 2888 
3 2889 2890 2891 
3 2892 2893 2894 
3 2895 2896 2897 
3 2898 2899 2900 
3 2901 2902 2903 
3 2904 2905 2906 
3 2907 2908 2909 
3 2910 2911 2912 
3 2913 2914 2915 
3 2916 2917 2918 
3 2919 2920 2921 
3 2922 2923 2924 
3 2925 2926 2927 
3 2928 2929 2930 
3 2931 2932 2933 
3 2934 2935 2936 
3 2937 2938 2939 
3 2940 2941 2942 
3 2943 2944 2945 
3 2946 2947 2948 
3 2949 2950 2951 
3 2952 2953 2954 
3 2955 2956 2957 
3 2958 2959 2960 
3 2961 2962 2963 
3 2964 2965 2966 
3 2967 2968 2969 
3 2970 2971 2972 
3 2973 2974 2975 
3 2976 2977 2978 
3 2979 2980 2981 
3 2982 2983 2984 
3 2985 2986 2987 
3 2988 2989 2990 
3 2991 2992 2993 
3 2994 2995 2996 
3 2997 2998 2999 
3 3000 3001 3002 
3 3003 3004 3005 
3 3006 3007 3008 
3 3009 3010 3011 
3 3012 3013 3014 
3 3015 3016 3017 
3 3018 3019 3020 
3 3021 3022 3023 
3 3024 3025 3026 
3 3027 3028 3029 
3 3030 3031 3032 
3 3033 3034 3035 
3 3036 3037 3038 
3 3039 3040 3041 
3 3042 3043 3044 
3 3045 3046 3047 
3 3048 3049 3050 
3 3051 3052 3053 
3 3054 3055 3056 
3 3057 3058 3059 
3 3060 3061 3062 
3 3063 3064 3065 
3 3066 3067 3068 
3 3069 3070 3071 
3 3072 3073 3074 
3 3075 3076 3077 
3 3078 3079 3080 
3 3081 3082 3083 
3 3084 3085 3086 
3 3087 3088 3089 
3 3090 3091 3092 
3 3093 3094 3095 
3 3096 3097 3098 
3 3099 3100 3101 
3 3102 3103 3104 
3 3105 3106 3107 
3 3108 3109 3110 
3 3111 3112 3113 
3 3114 3115 3116 
3 3117 3118 3119 
3 3120 3121 3122 
3 3123 3124 3125 
3 3126 3127 3128 
3 3129 3130 3131 
3 3132 3133 3134 
3 3135 3136 3137 
3 3138 3139 3140 
3 3141 3142 3143 
3 3144 3145 3146 
3 3147 3148 3149 
3 3150 3151 3152 
3 3153 3154 3155 
3 3156 3157 3158 
3 3159 3160 3161 
3 3162 3163 3164 
3 3165 3166 3167 
3 3168 3169 3170 
3 3171 3172 3173 
3 3174 3175 3176 
3 3177 3178 3179 
3 3180 3181 3182 
3 3183 3184 3185 
3 3186 3187 3188 
3 3189 3190 3191 
3 3192 3193 3194 
3 3195 3196 3197 
3 3198 3199 3200 
3 3201 3202 3203 
3 3204 3205 3206 
3 3207 3208 3209 
3 3210 3211 3212 
3 3213 3214 3215 
3 3216 3217 3218 
3 3219 3220 3221 
3 3222 3223 3224 
3 3225 3226 3227 
3 3228 3229 3230 
3 3231 3232 3233 
3 3234 3235 3236 
3 3237 3238 3239 
3 3240 3241 3242 
3 3243 3244 3245 
3 3246 3247 3248 
3 3249 3250 3251 
3 3252 3253 3254 
3 3255 3256 3257 
3 3258 3259 3260 
3 3261 3262 3263 
3 3264 3265 3266 
3 3267 3268 3269 
3 3270 3271 3272 
3 3273 3274 3275 
3 3276 3277 3278 
3 3279 3280 3281 
3 3282 3283 3284 
3 3285 3286 3287 
3 3288 3289 3290 
3 3291 3292 3293 
3 3294 3295 3296 
3 3297 3298 3299 
3 3300 3301 3302 
3 3303 3304 3305 
3 3306 3307 3308 
3 3309 3310 3311 
3 3312 3313 3314 
3 3315 3316 3317 
3 3318 3319 3320 
3 3321 3322 3323 
3 3324 3325 3326 
3 3327 3328 3329 
3 3330 3331 3332 
3 3333 3334 3335 
3 3336 3337 3338 
3 3339 3340 3341 
3 3342 3343 3344 
3 3345 3346 3347 
3 3348 3349 3350 
3 3351 3352 3353 
3 3354 3355 3356 
3 3357 3358 3359 
3 3360 3361 3362 
3 3363 3364 3365 
3 3366 3367 3368 
3 3369 3370 3371 
3 3372 3373 3374 
3 3375 3376 3377 
3 3378 3379 3380 
3 3381 3382 3383 
3 3384 3385 3386 
3 3387 3388 3389 
3 3390 3391 3392 
3 3393 3394 3395 
3 3396 3397 3398 
3 3399 3400 3401 
3 3402 3403 3404 
3 3405 3406 3407 
3 3408 3409 3410 
3 3411 3412 3413 
3 3414 3415 3416 
3 3417 3418 3419 
3 3420 3421 3422 
3 3423 3424 3425 
3 3426 3427 3428 
3 3429 3430 3431 
3 3432 3433 3434 
3 3435 3436 3437 
3 3438 3439 3440 
3 3441 3442 3443 
3 3444 3445 3446 
3 3447 3448 3449 
3 3450 3451 3452 
3 3453 3454 3455 
3 3456 3457 3458 
3 3459 3460 3461 
3 3462 3463 3464 
3 3465 3466 3467 
3 3468 3469 3470 
3 3471 3472 3473 
3 3474 3475 3476 
3 3477 3478 3479 
3 3480 3481 3482 
3 3483 3484 3485 
3 3486 3487 3488 
3 3489 3490 3491 
3 3492 3493 3494 
3 3495 3496 3497 
3 3498 3499 3500 
3 3501 3502 3503 
3 3504 3505 3506 
3 3507 3508 3509 
3 3510 3511 3512 
3 3513 3514 3515 
3 3516 3517 3518 
3 3519 3520 3521 
3 3522 3523 3524 
3 3525 3526 3527 
3 3528 3529 3530 
3 3531 3532 3533 
3 3534 3535 3536 
3 3537 3538 3539 
3 3540 3541 3542 
3 3543 3544 3545 
3 3546 3547 3548 
3 3549 3550 3551 
3 3552 3553 3554 
3 3555 3556 3557 
3 3558 3559 3560 
3 3561 3562 3563 
3 3564 3565 3566 
3 3567 3568 3569 
3 3570 3571 3572 
3 3573 3574 3575 
3 3576 3577 3578 
3 3579 3580 3581 
3 3582 3583 3584 
3 3585 3586 3587 
3 3588 3589 3590 
3 3591 3592 3593 
3 3594 3595 3596 
3 3597 3598 3599 
3 3600 3601 3602 
3 3603 3604 3605 
3 3606 3607 3608 
3 3609 3610 3611 
3 3612 3613 3614 
3 3615 3616 3617 
3 3618 3619 3620 
3 3621 3622 3623 
3 3624 3625 3626 
3 3627 3628 3629 
3 3630 3631 3632 
3 3633 3634 3635 
3 3636 3637 3638 
3 3639 3640 3641 
3 3642 3643 3644 
3 3645 3646 3647 
3 3648 3649 3650 
3 3651 3652 3653 
3 3654 3655 3656 
3 3657 3658 3659 
3 3660 3661 3662 
3 3663 3664 3665 
3 3666 3667 3668 
3 3669 3670 3671 
3 3672 3673 3674 
3 3675 3676 3677 
3 3678 3679 3680 
3 3681 3682 3683 
3 3684 3685 3686 
3 3687 3688 3689 
3 3690 3691 3692 
3 3693 3694 3695 
3 3696 3697 3698 
3 3699 3700 3701 
3 3702 3703 3704 
3 3705 3706 3707 
3 3708 3709 3710 
3 3711 3712 3713 
3 3714 3715 3716 
3 3717 3718 3719 
3 3720 3721 3722 
3 3723 3724 3725 
3 3726 3727 3728 
3 3729 3730 3731 
3 3732 3733 3734 
3 3735 3736 3737 
3 3738 3739 3740 
3 3741 3742 3743 
3 3744 3745 3746 
3 3747 3748 3749 
3 3750 3751 3752 
3 3753 3754 3755 
3 3756 3757 3758 
3 3759 3760 3761 
3 3762 3763 3764 
3 3765 3766 3767 
3 3768 3769 3770 
3 3771 3772 3773 
3 3774 3775 3776 
3 3777 3778 3779 
3 3780 3781 3782 
3 3783 3784 3785 
3 3786 3787 3788 
3 3789 3790 3791 
3 3792 3793 3794 
3 3795 3796 3797 
3 3798 3799 3800 
3 3801 3802 3803 
3 3804 3805 3806 
3 3807 3808 3809 
3 3810 3811 3812 
3 3813 3814 3815 
3 3816 3817 3818 
3 3819 3820 3821 
3 3822 3823 3824 
3 3825 3826 3827 
3 3828 3829 3830 
3 3831 3832 3833 
3 3834 3835 3836 
3 3837 3838 3839 
3 3840 3841 3842 
3 3843 3844 3845 
3 3846 3847 3848 
3 3849 3850 3851 
3 3852 3853 3854 
3 3855 3856 3857 
3 3858 3859 3860 
3 3861 3862 3863 
3 3864 3865 3866 
3 3867 3868 3869 
3 3870 3871 3872 
3 3873 3874 3875 
3 3876 3877 3878 
3 3879 3880 3881 
3 3882 3883 3884 
3 3885 3886 3887 
3 3888 3889 3890 
3 3891 3892 3893 
3 3894 3895 3896 
3 3897 3898 3899 
3 3900 3901 3902 
3 3903 3904 3905 
3 3906 3907 3908 
3 3909 3910 3911 
3 3912 3913 3914 
3 3915 3916 3917 
3 3918 3919 3920 
3 3921 3922 3923 
3 3924 3925 3926 
3 3927 3928 3929 
3 3930 3931 3932 
3 3933 3934 3935 
3 3936 3937 3938 
3 3939 3940 3941 
3 3942 3943 3944 
3 3945 3946 3947 
3 3948 3949 3950 
3 3951 3952 3953 
3 3954 3955 3956 
3 3957 3958 3959 
3 3960 3961 3962 
3 3963 3964 3965 
3 3966 3967 3968 
3 3969 3970 3971 
3 3972 3973 3974 
3 3975 3976 3977 
3 3978 3979 3980 
3 3981 3982 3983 
3 3984 3985 3986 
3 3987 3988 3989 
3 3990 3991 3992 
3 3993 3994 3995 
3 3996 3997 3998 
3 3999 4000 4001 
3 4002 4003 4004 
3 4005 4006 4007 
3 4008 4009 4010 
3 4011 4012 4013 
3 4014 4015 4016 
3 4017 4018 4019 
3 4020 4021 4022 
3 4023 4024 4025 
3 4026 4027 4028 
3 4029 4030 4031 
3 4032 4033 4034 
3 4035 4036 4037 
3 4038 4039 4040 
3 4041 4042 4043 
3 4044 4045 4046 
3 4047 4048 4049 
3 4050 4051 4052 
3 4053 4054 4055 
3 4056 4057 4058 
3 4059 4060 4061 
3 4062 4063 4064 
3 4065 4066 4067 
3 4068 4069 4070 
3 4071 4072 4073 
3 4074 4075 4076 
3 4077 4078 4079 
3 4080 4081 4082 
3 4083 4084 4085 
3 4086 4087 4088 
3 4089 4090 4091 
3 4092 4093 4094 
3 4095 4096 4097 
3 4098 4099 4100 
3 4101 4102 4103 
3 4104 4105 4106 
3 4107 4108 4109 
3 4110 4111 4112 
3 4113 4114 4115 
3 4116 4117 4118 
3 4119 4120 4121 
3 4122 4123 4124 
3 4125 4126 4127 
3 4128 4129 4130 
3 4131 4132 4133 
3 4134 4135 4136 
3 4137 4138 4139 
3 4140 4141 4142 
3 4143 4144 4145 
3 4146 4147 4148 
3 4149 4150 4151 
3 4152 4153 4154 
3 4155 4156 4157 
3 4158 4159 4160 
3 4161 4162 4163 
3 4164 4165 4166 
3 4167 4168 4169 
3 4170 4171 4172 
3 4173 4174 4175 
3 4176 4177 4178 
3 4179 4180 4181 
3 4182 4183 4184 
3 4185 4186 4187 
3 4188 4189 4190 
3 4191 4192 4193 
3 4194 4195 4196 
3 4197 4198 4199 
3 4200 4201 4202 
3 4203 4204 4205 
3 4206 4207 4208 
3 4209 4210 4211 
3 4212 4213 4214 
3 4215 4216 4217 
3 4218 4219 4220 
3 4221 4222 4223 
3 4224 4225 4226 
3 4227 4228 4229 
3 4230 4231 4232 
3 4233 4234 4235 
3 4236 4237 4238 
3 4239 4240 4241 
3 4242 4243 4244 
3 4245 4246 4247 
3 4248 4249 4250 
3 4251 4252 4253 
3 4254 4255 4256 
3 4257 4258 4259 
3 4260 4261 4262 
3 4263 4264 4265 
3 4266 4267 4268 
3 4269 4270 4271 
3 4272 4273 4274 
3 4275 4276 4277 
3 4278 4279 4280 
3 4281 4282 4283 
3 4284 4285 4286 
3 4287 4288 4289 
3 4290 4291 4292 
3 4293 4294 4295 
3 4296 4297 4298 
3 4299 4300 4301 
3 4302 4303 4304 
3 4305 4306 4307 
3 4308 4309 4310 
3 4311 4312 4313 
3 4314 4315 4316 
3 4317 4318 4319 
3 4320 4321 4322 
3 4323 4324 4325 
3 4326 4327 4328 
3 4329 4330 4331 
3 4332 4333 4334 
3 4335 4336 4337 
3 4338 4339 4340 
3 4341 4342 4343 
3 4344 4345 4346 
3 4347 4348 4349 
3 4350 4351 4352 
3 4353 4354 4355 
3 4356 4357 4358 
3 4359 4360 4361 
3 4362 4363 4364 
3 4365 4366 4367 
3 4368 4369 4370 
3 4371 4372 4373 
3 4374 4375 4376 
3 4377 4378 4379 
3 4380 4381 4382 
3 4383 4384 4385 
3 4386 4387 4388 
3 4389 4390 4391 
3 4392 4393 4394 
3 4395 4396 4397 
3 4398 4399 4400 
3 4401 4402 4403 
3 4404 4405 4406 
3 4407 4408 4409 
3 4410 4411 4412 
3 4413 4414 4415 
3 4416 4417 4418 
3 4419 4420 4421 
3 4422 4423 4424 
3 4425 4426 4427 
3 4428 4429 4430 
3 4431 4432 4433 
3 4434 4435 4436 
3 4437 4438 4439 
3 4440 4441 4442 
3 4443 4444 4445 
3 4446 4447 4448 
3 4449 4450 4451 
3 4452 4453 4454 
3 4455 4456 4457 
3 4458 4459 4460 
3 4461 4462 4463 
3 4464 4465 4466 
3 4467 4468 4469 
3 4470 4471 4472 
3 4473 4474 4475 
3 4476 4477 4478 
3 4479 4480 4481 
3 4482 4483 4484 
3 4485 4486 4487 
3 4488 4489 4490 
3 4491 4492 4493 
3 4494 4495 4496 
3 4497 4498 4499 
3 4500 4501 4502 
3 4503 4504 4505 
3 4506 4507 4508 
3 4509 4510 4511 
3 4512 4513 4514 
3 4515 4516 4517 
3 4518 4519 4520 
3 4521 4522 4523 
3 4524 4525 4526 
3 4527 4528 4529 
3 4530 4531 4532 
3 4533 4534 4535 
3 4536 4537 4538 
3 4539 4540 4541 
3 4542 4543 4544 
3 4545 4546 4547 
3 4548 4549 4550 
3 4551 4552 4553 
3 4554 4555 4556 
3 4557 4558 4559 
3 4560 4561 4562 
3 4563 4564 4565 
3 4566 4567 4568 
3 4569 4570 4571 
3 4572 4573 4574 
3 4575 4576 4577 
3 4578 4579 4580 
3 4581 4582 4583 
3 4584 4585 4586 
3 4587 4588 4589 
3 4590 4591 4592 
3 4593 4594 4595 
3 4596 4597 4598 
3 4599 4600 4601 
3 4602 4603 4604 
3 4605 4606 4607 
3 4608 4609 4610 
3 4611 4612 4613 
3 4614 4615 4616 
3 4617 4618 4619 
3 4620 4621 4622 
3 4623 4624 4625 
3 4626 4627 4628 
3 4629 4630 4631 
3 4632 4633 4634 
3 4635 4636 4637 
3 4638 4639 4640 
3 4641 4642 4643 
3 4644 4645 4646 
3 4647 4648 4649 
3 4650 4651 4652 
3 4653 4654 4655 
3 4656 4657 4658 
3 4659 4660 4661 
3 4662 4663 4664 
3 4665 4666 4667 
3 4668 4669 4670 
3 4671 4672 4673 
3 4674 4675 4676 
3 4677 4678 4679 
3 4680 4681 4682 
3 4683 4684 4685 
3 4686 4687 4688 
3 4689 4690 4691 
3 4692 4693 4694 
3 4695 4696 4697 
3 4698 4699 4700 
3 4701 4702 4703 
3 4704 4705 4706 
3 4707 4708 4709 
3 4710 4711 4712 
3 4713 4714 4715 
3 4716 4717 4718 
3 4719 4720 4721 
3 4722 4723 4724 
3 4725 4726 4727 
3 4728 4729 4730 
3 4731 4732 4733 
3 4734 4735 4736 
3 4737 4738 4739 
3 4740 4741 4742 
3 4743 4744 4745 
3 4746 4747 4748 
3 4749 4750 4751 
3 4752 4753 4754 
3 4755 4756 4757 
3 4758 4759 4760 
3 4761 4762 4763 
3 4764 4765 4766 
3 4767 4768 4769 
3 4770 4771 4772 
3 4773 4774 4775 
3 4776 4777 4778 
3 4779 4780 4781 
3 4782 4783 4784 
3 4785 4786 4787 
3 4788 4789 4790 
3 4791 4792 4793 
3 4794 4795 4796 
3 4797 4798 4799 
3 4800 4801 4802 
3 4803 4804 4805 
3 4806 4807 4808 
3 4809 4810 4811 
3 4812 4813 4814 
3 4815 4816 4817 
3 4818 4819 4820 
3 4821 4822 4823 
3 4824 4825 4826 
3 4827 4828 4829 
3 4830 4831 4832 
3 4833 4834 4835 
3 4836 4837 4838 
3 4839 4840 4841 
3 4842 4843 4844 
3 4845 4846 4847 
3 4848 4849 4850 
3 4851 4852 4853 
3 4854 4855 4856 
3 4857 4858 4859 
3 4860 4861 4862 
3 4863 4864 4865 
3 4866 4867 4868 
3 4869 4870 4871 
3 4872 4873 4874 
3 4875 4876 4877 
3 4878 4879 4880 
3 4881 4882 4883 
3 4884 4885 4886 
3 4887 4888 4889 
3 4890 4891 4892 
3 4893 4894 4895 
3 4896 4897 4898 
3 4899 4900 4901 
3 4902 4903 4904 
3 4905 4906 4907 
3 4908 4909 4910 
3 4911 4912 4913 
3 4914 4915 4916 
3 4917 4918 4919 
3 4920 4921 4922 
3 4923 4924 4925 
3 4926 4927 4928 
3 4929 4930 4931 
3 4932 4933 4934 
3 4935 4936 4937 
3 4938 4939 4940 
3 4941 4942 4943 
3 4944 4945 4946 
3 4947 4948 4949 
3 4950 4951 4952 
3 4953 4954 4955 
3 4956 4957 4958 
3 4959 4960 4961 
3 4962 4963 4964 
3 4965 4966 4967 
3 4968 4969 4970 
3 4971 4972 4973 
3 4974 4975 4976 
3 4977 4978 4979 
3 4980 4981 4982 
3 4983 4984 4985 
3 4986 4987 4988 
3 4989 4990 4991 
3 4992 4993 4994 
3 4995 4996 4997 
3 4998 4999 5000 
3 5001 5002 5003 
3 5004 5005 5006 
3 5007 5008 5009 
3 5010 5011 5012 
3 5013 5014 5015 
3 5016 5017 5018 
3 5019 5020 5021 
3 5022 5023 5024 
3 5025 5026 5027 
3 5028 5029 5030 
3 5031 5032 5033 
3 5034 5035 5036 
3 5037 5038 5039 
3 5040 5041 5042 
3 5043 5044 5045 
3 5046 5047 5048 
3 5049 5050 5051 
3 5052 5053 5054 
3 5055 5056 5057 
3 5058 5059 5060 
3 5061 5062 5063 
3 5064 5065 5066 
3 5067 5068 5069 
3 5070 5071 5072 
3 5073 5074 5075 
3 5076 5077 5078 
3 5079 5080 5081 
3 5082 5083 5084 
3 5085 5086 5087 
3 5088 5089 5090 
3 5091 5092 5093 
3 5094 5095 5096 
3 5097 5098 5099 
3 5100 5101 5102 
3 5103 5104 5105 
3 5106 5107 5108 
3 5109 5110 5111 
3 5112 5113 5114 
3 5115 5116 5117 
3 5118 5119 5120 
3 5121 5122 5123 
3 5124 5125 5126 
3 5127 5128 5129 
3 5130 5131 5132 
3 5133 5134 5135 
3 5136 5137 5138 
3 5139 5140 5141 
3 5142 5143 5144 
3 5145 5146 5147 
3 5148 5149 5150 
3 5151 5152 5153 
3 5154 5155 5156 
3 5157 5158 5159 
3 5160 5161 5162 
3 5163 5164 5165 
3 5166 5167 5168 
3 5169 5170 5171 
3 5172 5173 5174 
3 5175 5176 5177 
3 5178 5179 5180 
3 5181 5182 5183 
3 5184 5185 5186 
3 5187 5188 5189 
3 5190 5191 5192 
3 5193 5194 5195 
3 5196 5197 5198 
3 5199 5200 5201 
3 5202 5203 5204 
3 5205 5206 5207 
3 5208 5209 5210 
3 5211 5212 5213 
3 5214 5215 5216 
3 5217 5218 5219 
3 5220 5221 5222 
3 5223 5224 5225 
3 5226 5227 5228 
3 5229 5230 5231 
3 5232 5233 5234 
3 5235 5236 5237 
3 5238 5239 5240 
3 5241 5242 5243 
3 5244 5245 5246 
3 5247 5248 5249 
3 5250 5251 5252 
3 5253 5254 5255 
3 5256 5257 5258 
3 5259 5260 5261 
3 5262 5263 5264 
3 5265 5266 5267 
3 5268 5269 5270 
3 5271 5272 5273 
3 5274 5275 5276 
3 5277 5278 5279 
3 5280 5281 5282 
3 5283 5284 5285 
3 5286 5287 5288 
3 5289 5290 5291 
3 5292 5293 5294 
3 5295 5296 5297 
3 5298 5299 5300 
3 5301 5302 5303 
3 5304 5305 5306 
3 5307 5308 5309 
3 5310 5311 5312 
3 5313 5314 5315 
3 5316 5317 5318 
3 5319 5320 5321 
3 5322 5323 5324 
3 5325 5326 5327 
3 5328 5329 5330 
3 5331 5332 5333 
3 5334 5335 5336 
3 5337 5338 5339 
3 5340 5341 5342 
3 5343 5344 5345 
3 5346 5347 5348 
3 5349 5350 5351 
3 5352 5353 5354 
3 5355 5356 5357 
3 5358 5359 5360 
3 5361 5362 5363 
3 5364 5365 5366 
3 5367 5368 5369 
3 5370 5371 5372 
3 5373 5374 5375 
3 5376 5377 5378 
3 5379 5380 5381 
3 5382 5383 5384 
3 5385 5386 5387 
3 5388 5389 5390 
3 5391 5392 5393 
3 5394 5395 5396 
3 5397 5398 5399 
3 5400 5401 5402 
3 5403 5404 5405 
3 5406 5407 5408 
3 5409 5410 5411 
3 5412 5413 5414 
3 5415 5416 5417 
3 5418 5419 5420 
3 5421 5422 5423 
3 5424 5425 5426 
3 5427 5428 5429 
3 5430 5431 5432 
3 5433 5434 5435 
3 5436 5437 5438 
3 5439 5440 5441 
3 5442 5443 5444 
3 5445 5446 5447 
3 5448 5449 5450 
3 5451 5452 5453 
3 5454 5455 5456 
3 5457 5458 5459 
3 5460 5461 5462 
3 5463 5464 5465 
3 5466 5467 5468 
3 5469 5470 5471 
3 5472 5473 5474 
3 5475 5476 5477 
3 5478 5479 5480 
3 5481 5482 5483 
3 5484 5485 5486 
3 5487 5488 5489 
3 5490 5491 5492 
3 5493 5494 5495 
3 5496 5497 5498 
3 5499 5500 5501 
3 5502 5503 5504 
3 5505 5506 5507 
3 5508 5509 5510 
3 5511 5512 5513 
3 5514 5515 5516 
3 5517 5518 5519 
3 5520 5521 5522 
3 5523 5524 5525 
3 5526 5527 5528 
3 5529 5530 5531 
3 5532 5533 5534 
3 5535 5536 5537 
3 5538 5539 5540 
3 5541 5542 5543 
3 5544 5545 5546 
3 5547 5548 5549 
3 5550 5551 5552 
3 5553 5554 5555 
3 5556 5557 5558 
3 5559 5560 5561 
3 5562 5563 5564 
3 5565 5566 5567 
3 5568 5569 5570 
3 5571 5572 5573 
3 5574 5575 5576 
3 5577 5578 5579 
3 5580 5581 5582 
3 5583 5584 5585 
3 5586 5587 5588 
3 5589 5590 5591 
3 5592 5593 5594 
3 5595 5596 5597 
3 5598 5599 5600 
3 5601 5602 5603 
3 5604 5605 5606 
3 5607 5608 5609 
3 5610 5611 5612 
3 5613 5614 5615 
3 5616 5617 5618 
3 5619 5620 5621 
3 5622 5623 5624 
3 5625 5626 5627 
3 5628 5629 5630 
3 5631 5632 5633 
3 5634 5635 5636 
3 5637 5638 5639 
3 5640 5641 5642 
3 5643 5644 5645 
3 5646 5647 5648 
3 5649 5650 5651 
3 5652 5653 5654 
3 5655 5656 5657 
3 5658 5659 5660 
3 5661 5662 5663 
3 5664 5665 5666 
3 5667 5668 5669 
3 5670 5671 5672 
3 5673 5674 5675 
3 5676 5677 5678 
3 5679 5680 5681 
3 5682 5683 5684 
3 5685 5686 5687 
3 5688 5689 5690 
3 5691 5692 5693 
3 5694 5695 5696 
3 5697 5698 5699 
3 5700 5701 5702 
3 5703 5704 5705 
3 5706 5707 5708 
3 5709 5710 5711 
3 5712 5713 5714 
3 5715 5716 5717 
3 5718 5719 5720 
3 5721 5722 5723 
3 5724 5725 5726 
3 5727 5728 5729 
3 5730 5731 5732 
3 5733 5734 5735 
3 5736 5737 5738 
3 5739 5740 5741 
3 5742 5743 5744 
3 5745 5746 5747 
3 5748 5749 5750 
3 5751 5752 5753 
3 5754 5755 5756 
3 5757 5758 5759 
3 5760 5761 5762 
3 5763 5764 5765 
3 5766 5767 5768 
3 5769 5770 5771 
3 5772 5773 5774 
3 5775 5776 5777 
3 5778 5779 5780 
3 5781 5782 5783 
3 5784 5785 5786 
3 5787 5788 5789 
3 5790 5791 5792 
3 5793 5794 5795 
3 5796 5797 5798 
3 5799 5800 5801 
3 5802 5803 5804 
3 5805 5806 5807 
3 5808 5809 5810 
3 5811 5812 5813 
3 5814 5815 5816 
3 5817 5818 5819 
3 5820 5821 5822 
3 5823 5824 5825 
3 5826 5827 5828 
3 5829 5830 5831 
3 5832 5833 5834 
3 5835 5836 5837 
3 5838 5839 5840 
3 5841 5842 5843 
3 5844 5845 5846 
3 5847 5848 5849 
3 5850 5851 5852 
3 5853 5854 5855 
3 5856 5857 5858 
3 5859 5860 5861 
3 5862 5863 5864 
3 5865 5866 5867 
3 5868 5869 5870 
3 5871 5872 5873 
3 5874 5875 5876 
3 5877 5878 5879 
3 5880 5881 5882 
3 5883 5884 5885 
3 5886 5887 5888 
3 5889 5890 5891 
3 5892 5893 5894 
3 5895 5896 5897 
3 5898 5899 5900 
3 5901 5902 5903 
3 5904 5905 5906 
3 5907 5908 5909 
3 5910 5911 5912 
3 5913 5914 5915 
3 5916 5917 5918 
3 5919 5920 5921 
3 5922 5923 5924 
3 5925 5926 5927 
3 5928 5929 5930 
3 5931 5932 5933 
3 5934 5935 5936 
3 5937 5938 5939 
3 5940 5941 5942 
3 5943 5944 5945 
3 5946 5947 5948 
3 5949 5950 5951 
3 5952 5953 5954 
3 5955 5956 5957 
3 5958 5959 5960 
3 5961 5962 5963 
3 5964 5965 5966 
3 5967 5968 5969 
3 5970 5971 5972 
3 5973 5974 5975 
3 5976 5977 5978 
3 5979 5980 5981 
3 5982 5983 5984 
3 5985 5986 5987 
3 5988 5989 5990 
3 5991 5992 5993 
3 5994 5995 5996 
3 5997 5998 5999 
3 6000 6001 6002 
3 6003 6004 6005 
3 6006 6007 6008 
3 6009 6010 6011 
3 6012 6013 6014 
3 6015 6016 6017 
3 6018 6019 6020 
3 6021 6022 6023 
3 6024 6025 6026 
3 6027 6028 6029 
3 6030 6031 6032 
3 6033 6034 6035 
3 6036 6037 6038 
3 6039 6040 6041 
3 6042 6043 6044 
3 6045 6046 6047 
3 6048 6049 6050 
3 6051 6052 6053 
3 6054 6055 6056 
3 6057 6058 6059 
3 6060 6061 6062 
3 6063 6064 6065 
3 6066 6067 6068 
3 6069 6070 6071 
3 6072 6073 6074 
3 6075 6076 6077 
3 6078 6079 6080 
3 6081 6082 6083 
3 6084 6085 6086 
3 6087 6088 6089 
3 6090 6091 6092 
3 6093 6094 6095 
3 6096 6097 6098 
3 6099 6100 6101 
3 6102 6103 6104 
3 6105 6106 6107 
3 6108 6109 6110 
3 6111 6112 6113 
3 6114 6115 6116 
3 6117 6118 6119 
3 6120 6121 6122 
3 6123 6124 6125 
3 6126 6127 6128 
3 6129 6130 6131 
3 6132 6133 6134 
3 6135 6136 6137 
3 6138 6139 6140 
3 6141 6142 6143 
3 6144 6145 6146 
3 6147 6148 6149 
3 6150 6151 6152 
3 6153 6154 6155 
3 6156 6157 6158 
3 6159 6160 6161 
3 6162 6163 6164 
3 6165 6166 6167 
3 6168 6169 6170 
3 6171 6172 6173 
3 6174 6175 6176 
3 6177 6178 6179 
3 6180 6181 6182 
3 6183 6184 6185 
3 6186 6187 6188 
3 6189 6190 6191 
3 6192 6193 6194 
3 6195 6196 6197 
3 6198 6199 6200 
3 6201 6202 6203 
3 6204 6205 6206 
3 6207 6208 6209 
3 6210 6211 6212 
3 6213 6214 6215 
3 6216 6217 6218 
3 6219 6220 6221 
3 6222 6223 6224 
3 6225 6226 6227 
3 6228 6229 6230 
3 6231 6232 6233 
3 6234 6235 6236 
3 6237 6238 6239 
3 6240 6241 6242 
3 6243 6244 6245 
3 6246 6247 6248 
3 6249 6250 6251 
3 6252 6253 6254 
3 6255 6256 6257 
3 6258 6259 6260 
3 6261 6262 6263 
3 6264 6265 6266 
3 6267 6268 6269 
3 6270 6271 6272 
3 6273 6274 6275 
3 6276 6277 6278 
3 6279 6280 6281 
3 6282 6283 6284 
3 6285 6286 6287 
3 6288 6289 6290 
3 6291 6292 6293 
3 6294 6295 6296 
3 6297 6298 6299 
3 6300 6301 6302 
3 6303 6304 6305 
3 6306 6307 6308 
3 6309 6310 6311 
3 6312 6313 6314 
3 6315 6316 6317 
3 6318 6319 6320 
3 6321 6322 6323 
3 6324 6325 6326 
3 6327 6328 6329 
3 6330 6331 6332 
3 6333 6334 6335 
3 6336 6337 6338 
3 6339 6340 6341 
3 6342 6343 6344 
3 6345 6346 6347 
3 6348 6349 6350 
3 6351 6352 6353 
3 6354 6355 6356 
3 6357 6358 6359 
3 6360 6361 6362 
3 6363 6364 6365 
3 6366 6367 6368 
3 6369 6370 6371 
3 6372 6373 6374 
3 6375 6376 6377 
3 6378 6379 6380 
3 6381 6382 6383 
3 6384 6385 6386 
3 6387 6388 6389 
3 6390 6391 6392 
3 6393 6394 6395 
3 6396 6397 6398 
3 6399 6400 6401 
3 6402 6403 6404 
3 6405 6406 6407 
3 6408 6409 6410 
3 6411 6412 6413 
3 6414 6415 6416 
3 6417 6418 6419 
3 6420 6421 6422 
3 6423 6424 6425 
3 6426 6427 6428 
3 6429 6430 6431 
3 6432 6433 6434 
3 6435 6436 6437 
3 6438 6439 6440 
3 6441 6442 6443 
3 6444 6445 6446 
3 6447 6448 6449 
3 6450 6451 6452 
3 6453 6454 6455 
3 6456 6457 6458 
3 6459 6460 6461 
3 6462 6463 6464 
3 6465 6466 6467 
3 6468 6469 6470 
3 6471 6472 6473 
3 6474 6475 6476 
3 6477 6478 6479 
3 6480 6481 6482 
3 6483 6484 6485 
3 6486 6487 6488 
3 6489 6490 6491 
3 6492 6493 6494 
3 6495 6496 6497 
3 6498 6499 6500 
3 6501 6502 6503 
3 6504 6505 6506 
3 6507 6508 6509 
3 6510 6511 6512 
3 6513 6514 6515 
3 6516 6517 6518 
3 6519 6520 6521 
3 6522 6523 6524 
3 6525 6526 6527 
3 6528 6529 6530 
3 6531 6532 6533 
3 6534 6535 6536 
3 6537 6538 6539 
3 6540 6541 6542 
3 6543 6544 6545 
3 6546 6547 6548 
3 6549 6550 6551 
3 6552 6553 6554 
3 6555 6556 6557 
3 6558 6559 6560 
3 6561 6562 6563 
3 6564 6565 6566 
3 6567 6568 6569 
3 6570 6571 6572 
3 6573 6574 6575 
3 6576 6577 6578 
3 6579 6580 6581 
3 6582 6583 6584 
3 6585 6586 6587 
3 6588 6589 6590 
3 6591 6592 6593 
3 6594 6595 6596 
3 6597 6598 6599 
3 6600 6601 6602 
3 6603 6604 6605 
3 6606 6607 6608 
3 6609 6610 6611 
3 6612 6613 6614 
3 6615 6616 6617 
3 6618 6619 6620 
3 6621 6622 6623 
3 6624 6625 6626 
3 6627 6628 6629 
3 6630 6631 6632 
3 6633 6634 6635 
3 6636 6637 6638 
3 6639 6640 6641 
3 6642 6643 6644 
3 6645 6646 6647 
3 6648 6649 6650 
3 6651 6652 6653 
3 6654 6655 6656 
3 6657 6658 6659 
3 6660 6661 6662 
3 6663 6664 6665 
3 6666 6667 6668 
3 6669 6670 6671 
3 6672 6673 6674 
3 6675 6676 6677 
3 6678 6679 6680 
3 6681 6682 6683 
3 6684 6685 6686 
3 6687 6688 6689 
3 6690 6691 6692 
3 6693 6694 6695 
3 6696 6697 6698 
3 6699 6700 6701 
3 6702 6703 6704 
3 6705 6706 6707 
3 6708 6709 6710 
3 6711 6712 6713 
3 6714 6715 6716 
3 6717 6718 6719 
3 6720 6721 6722 
3 6723 6724 6725 
3 6726 6727 6728 
3 6729 6730 6731 
3 6732 6733 6734 
3 6735 6736 6737 
3 6738 6739 6740 
3 6741 6742 6743 
3 6744 6745 6746 
3 6747 6748 6749 
3 6750 6751 6752 
3 6753 6754 6755 
3 6756 6757 6758 
3 6759 6760 6761 
3 6762 6763 6764 
3 6765 6766 6767 
3 6768 6769 6770 
3 6771 6772 6773 
3 6774 6775 6776 
3 6777 6778 6779 
3 6780 6781 6782 
3 6783 6784 6785 
3 6786 6787 6788 
3 6789 6790 6791 
3 6792 6793 6794 
3 6795 6796 6797 
3 6798 6799 6800 
3 6801 6802 6803 
3 6804 6805 6806 
3 6807 6808 6809 
3 6810 6811 6812 
3 6813 6814 6815 
3 6816 6817 6818 
3 6819 6820 6821 
3 6822 6823 6824 
3 6825 6826 6827 
3 6828 6829 6830 
3 6831 6832 6833 
3 6834 6835 6836 
3 6837 6838 6839 
3 6840 6841 6842 
3 6843 6844 6845 
3 6846 6847 6848 
3 6849 6850 6851 
3 6852 6853 6854 
3 6855 6856 6857 
3 6858 6859 6860 
3 6861 6862 6863 
3 6864 6865 6866 
3 6867 6868 6869 
3 6870 6871 6872 
3 6873 6874 6875 
3 6876 6877 6878 
3 6879 6880 6881 
3 6882 6883 6884 
3 6885 6886 6887 
3 6888 6889 6890 
3 6891 6892 6893 
3 6894 6895 6896 
3 6897 6898 6899 
3 6900 6901 6902 
3 6903 6904 6905 
3 6906 6907 6908 
3 6909 6910 6911 
3 6912 6913 6914 
3 6915 6916 6917 
3 6918 6919 6920 
3 6921 6922 6923 
3 6924 6925 6926 
3 6927 6928 6929 
3 6930 6931 6932 
3 6933 6934 6935 
3 6936 6937 6938 
3 6939 6940 6941 
3 6942 6943 6944 
3 6945 6946 6947 
3 6948 6949 6950 
3 6951 6952 6953 
3 6954 6955 6956 
3 6957 6958 6959 
3 6960 6961 6962 
3 6963 6964 6965 
3 6966 6967 6968 
3 6969 6970 6971 
3 6972 6973 6974 
3 6975 6976 6977 
3 6978 6979 6980 
3 6981 6982 6983 
3 6984 6985 6986 
3 6987 6988 6989 
3 6990 6991 6992 
3 6993 6994 6995 
3 6996 6997 6998 
3 6999 7000 7001 
3 7002 7003 7004 
3 7005 7006 7007 
3 7008 7009 7010 
3 7011 7012 7013 
3 7014 7015 7016 
3 7017 7018 7019 
3 7020 7021 7022 
3 7023 7024 7025 
3 7026 7027 7028 
3 7029 7030 7031 
3 7032 7033 7034 
3 7035 7036 7037 
3 7038 7039 7040 
3 7041 7042 7043 
3 7044 7045 7046 
3 7047 7048 7049 
3 7050 7051 7052 
3 7053 7054 7055 
3 7056 7057 7058 
3 7059 7060 7061 
3 7062 7063 7064 
3 7065 7066 7067 
3 7068 7069 7070 
3 7071 7072 7073 
3 7074 7075 7076 
3 7077 7078 7079 
3 7080 7081 7082 
3 7083 7084 7085 
3 7086 7087 7088 
3 7089 7090 7091 
3 7092 7093 7094 
3 7095 7096 7097 
3 7098 7099 7100 
3 7101 7102 7103 
3 7104 7105 7106 
3 7107 7108 7109 
3 7110 7111 7112 
3 7113 7114 7115 
3 7116 7117 7118 
3 7119 7120 7121 
3 7122 7123 7124 
3 7125 7126 7127 
3 7128 7129 7130 
3 7131 7132 7133 
3 7134 7135 7136 
3 7137 7138 7139 
3 7140 7141 7142 
3 7143 7144 7145 
3 7146 7147 7148 
3 7149 7150 7151 
3 7152 7153 7154 
3 7155 7156 7157 
3 7158 7159 7160 
3 7161 7162 7163 
3 7164 7165 7166 
3 7167 7168 7169 
3 7170 7171 7172 
3 7173 7174 7175 
3 7176 7177 7178 
3 7179 7180 7181 
3 7182 7183 7184 
3 7185 7186 7187 
3 7188 7189 7190 
3 7191 7192 7193 
3 7194 7195 7196 
3 7197 7198 7199 
3 7200 7201 7202 
3 7203 7204 7205 
3 7206 7207 7208 
3 7209 7210 7211 
3 7212 7213 7214 
3 7215 7216 7217 
3 7218 7219 7220 
3 7221 7222 7223 
3 7224 7225 7226 
3 7227 7228 7229 
3 7230 7231 7232 
3 7233 7234 7235 
3 7236 7237 7238 
3 7239 7240 7241 
3 7242 7243 7244 
3 7245 7246 7247 
3 7248 7249 7250 
3 7251 7252 7253 
3 7254 7255 7256 
3 7257 7258 7259 
3 7260 7261 7262 
3 7263 7264 7265 
3 7266 7267 7268 
3 7269 7270 7271 
3 7272 7273 7274 
3 7275 7276 7277 
3 7278 7279 7280 
3 7281 7282 7283 
3 7284 7285 7286 
3 7287 7288 7289 
3 7290 7291 7292 
3 7293 7294 7295 
3 7296 7297 7298 
3 7299 7300 7301 
3 7302 7303 7304 
3 7305 7306 7307 
3 7308 7309 7310 
3 7311 7312 7313 
3 7314 7315 7316 
3 7317 7318 7319 
3 7320 7321 7322 
3 7323 7324 7325 
3 7326 7327 7328 
3 7329 7330 7331 
3 7332 7333 7334 
3 7335 7336 7337 
3 7338 7339 7340 
3 7341 7342 7343 
3 7344 7345 7346 
3 7347 7348 7349 
3 7350 7351 7352 
3 7353 7354 7355 
3 7356 7357 7358 
3 7359 7360 7361 
3 7362 7363 7364 
3 7365 7366 7367 
3 7368 7369 7370 
3 7371 7372 7373 
3 7374 7375 7376 
3 7377 7378 7379 
3 7380 7381 7382 
3 7383 7384 7385 
3 7386 7387 7388 
3 7389 7390 7391 
3 7392 7393 7394 
3 7395 7396 7397 
3 7398 7399 7400 
3 7401 7402 7403 
3 7404 7405 7406 
3 7407 7408 7409 
3 7410 7411 7412 
3 7413 7414 7415 
3 7416 7417 7418 
3 7419 7420 7421 
3 7422 7423 7424 
3 7425 7426 7427 
3 7428 7429 7430 
3 7431 7432 7433 
3 7434 7435 7436 
3 7437 7438 7439 
3 7440 7441 7442 
3 7443 7444 7445 
3 7446 7447 7448 
3 7449 7450 7451 
3 7452 7453 7454 
3 7455 7456 7457 
3 7458 7459 7460 
3 7461 7462 7463 
3 7464 7465 7466 
3 7467 7468 7469 
3 7470 7471 7472 
3 7473 7474 7475 
3 7476 7477 7478 
3 7479 7480 7481 
3 7482 7483 7484 
3 7485 7486 7487 
3 7488 7489 7490 
3 7491 7492 7493 
3 7494 7495 7496 
3 7497 7498 7499 
3 7500 7501 7502 
3 7503 7504 7505 
3 7506 7507 7508 
3 7509 7510 7511 
3 7512 7513 7514 
3 7515 7516 7517 
3 7518 7519 7520 
3 7521 7522 7523 
3 7524 7525 7526 
3 7527 7528 7529 
3 7530 7531 7532 
3 7533 7534 7535 
3 7536 7537 7538 
3 7539 7540 7541 
3 7542 7543 7544 
3 7545 7546 7547 
3 7548 7549 7550 
3 7551 7552 7553 
3 7554 7555 7556 
3 7557 7558 7559 
3 7560 7561 7562 
3 7563 7564 7565 
3 7566 7567 7568 
3 7569 7570 7571 
3 7572 7573 7574 
3 7575 7576 7577 
3 7578 7579 7580 
3 7581 7582 7583 
3 7584 7585 7586 
3 7587 7588 7589 
3 7590 7591 7592 
3 7593 7594 7595 
3 7596 7597 7598 
3 7599 7600 7601 
3 7602 7603 7604 
3 7605 7606 7607 
3 7608 7609 7610 
3 7611 7612 7613 
3 7614 7615 7616 
3 7617 7618 7619 
3 7620 7621 7622 
3 7623 7624 7625 
3 7626 7627 7628 
3 7629 7630 7631 
3 7632 7633 7634 
3 7635 7636 7637 
3 7638 7639 7640 
3 7641 7642 7643 
3 7644 7645 7646 
3 7647 7648 7649 
3 7650 7651 7652 
3 7653 7654 7655 
3 7656 7657 7658 
3 7659 7660 7661 
3 7662 7663 7664 
3 7665 7666 7667 
3 7668 7669 7670 
3 7671 7672 7673 
3 7674 7675 7676 
3 7677 7678 7679 
3 7680 7681 7682 
3 7683 7684 7685 
3 7686 7687 7688 
3 7689 7690 7691 
3 7692 7693 7694 
3 7695 7696 7697 
3 7698 7699 7700 
3 7701 7702 7703 
3 7704 7705 7706 
3 7707 7708 7709 
3 7710 7711 7712 
3 7713 7714 7715 
3 7716 7717 7718 
3 7719 7720 7721 
3 7722 7723 7724 
3 7725 7726 7727 
3 7728 7729 7730 
3 7731 7732 7733 
3 7734 7735 7736 
3 7737 7738 7739 
3 7740 7741 7742 
3 7743 7744 7745 
3 7746 7747 7748 
3 7749 7750 7751 
3 7752 7753 7754 
3 7755 7756 7757 
3 7758 7759 7760 
3 7761 7762 7763 
3 7764 7765 7766 
3 7767 7768 7769 
3 7770 7771 7772 
3 7773 7774 7775 
3 7776 7777 7778 
3 7779 7780 7781 
3 7782 7783 7784 
3 7785 7786 7787 
3 7788 7789 7790 
3 7791 7792 7793 
3 7794 7795 7796 
3 7797 7798 7799 
3 7800 7801 7802 
3 7803 7804 7805 
3 7806 7807 7808 
3 7809 7810 7811 
3 7812 7813 7814 
3 7815 7816 7817 
3 7818 7819 7820 
3 7821 7822 7823 
3 7824 7825 7826 
3 7827 7828 7829 
3 7830 7831 7832 
3 7833 7834 7835 
3 7836 7837 7838 
3 7839 7840 7841 
3 7842 7843 7844 
3 7845 7846 7847 
3 7848 7849 7850 
3 7851 7852 7853 
3 7854 7855 7856 
3 7857 7858 7859 
3 7860 7861 7862 
3 7863 7864 7865 
3 7866 7867 7868 
3 7869 7870 7871 
3 7872 7873 7874 
3 7875 7876 7877 
3 7878 7879 7880 
3 7881 7882 7883 
3 7884 7885 7886 
3 7887 7888 7889 
3 7890 7891 7892 
3 7893 7894 7895 
3 7896 7897 7898 
3 7899 7900 7901 
3 7902 7903 7904 
3 7905 7906 7907 
3 7908 7909 7910 
3 7911 7912 7913 
3 7914 7915 7916 
3 7917 7918 7919 
3 7920 7921 7922 
3 7923 7924 7925 
3 7926 7927 7928 
3 7929 7930 7931 
3 7932 7933 7934 
3 7935 7936 7937 
3 7938 7939 7940 
3 7941 7942 7943 
3 7944 7945 7946 
3 7947 7948 7949 
3 7950 7951 7952 
3 7953 7954 7955 
3 7956 7957 7958 
3 7959 7960 7961 
3 7962 7963 7964 
3 7965 7966 7967 
3 7968 7969 7970 
3 7971 7972 7973 
3 7974 7975 7976 
3 7977 7978 7979 
3 7980 7981 7982 
3 7983 7984 7985 
3 7986 7987 7988 
3 7989 7990 7991 
3 7992 7993 7994 
3 7995 7996 7997 
3 7998 7999 8000 
3 8001 8002 8003 
3 8004 8005 8006 
3 8007 8008 8009 
3 8010 8011 8012 
3 8013 8014 8015 
3 8016 8017 8018 
3 8019 8020 8021 
3 8022 8023 8024 
3 8025 8026 8027 
3 8028 8029 8030 
3 8031 8032 8033 
3 8034 8035 8036 
3 8037 8038 8039 
3 8040 8041 8042 
3 8043 8044 8045 
3 8046 8047 8048 
3 8049 8050 8051 
3 8052 8053 8054 
3 8055 8056 8057 
3 8058 8059 8060 
3 8061 8062 8063 
3 8064 8065 8066 
3 8067 8068 8069 
3 8070 8071 8072 
3 8073 8074 8075 
3 8076 8077 8078 
3 8079 8080 8081 
3 8082 8083 8084 
3 8085 8086 8087 
3 8088 8089 8090 
3 8091 8092 8093 
3 8094 8095 8096 
3 8097 8098 8099 
3 8100 8101 8102 
3 8103 8104 8105 
3 8106 8107 8108 
3 8109 8110 8111 
3 8112 8113 8114 
3 8115 8116 8117 
3 8118 8119 8120 
3 8121 8122 8123 
3 8124 8125 8126 
3 8127 8128 8129 
3 8130 8131 8132 
3 8133 8134 8135 
3 8136 8137 8138 
3 8139 8140 8141 
3 8142 8143 8144 
3 8145 8146 8147 
3 8148 8149 8150 
3 8151 8152 8153 
3 8154 8155 8156 
3 8157 8158 8159 
3 8160 8161 8162 
3 8163 8164 8165 
3 8166 8167 8168 
3 8169 8170 8171 
3 8172 8173 8174 
3 8175 8176 8177 
3 8178 8179 8180 
3 8181 8182 8183 
3 8184 8185 8186 
3 8187 8188 8189 
3 8190 8191 8192 
3 8193 8194 8195 
3 8196 8197 8198 
3 8199 8200 8201 
3 8202 8203 8204 
3 8205 8206 8207 
3 8208 8209 8210 
3 8211 8212 8213 
3 8214 8215 8216 
3 8217 8218 8219 
3 8220 8221 8222 
3 8223 8224 8225 
3 8226 8227 8228 
3 8229 8230 8231 
3 8232 8233 8234 
3 8235 8236 8237 
3 8238 8239 8240 
3 8241 8242 8243 
3 8244 8245 8246 
3 8247 8248 8249 
3 8250 8251 8252 
3 8253 8254 8255 
3 8256 8257 8258 
3 8259 8260 8261 
3 8262 8263 8264 
3 8265 8266 8267 
3 8268 8269 8270 
3 8271 8272 8273 
3 8274 8275 8276 
3 8277 8278 8279 
3 8280 8281 8282 
3 8283 8284 8285 
3 8286 8287 8288 
3 8289 8290 8291 
3 8292 8293 8294 
3 8295 8296 8297 
3 8298 8299 8300 
3 8301 8302 8303 
3 8304 8305 8306 
3 8307 8308 8309 
3 8310 8311 8312 
3 8313 8314 8315 
3 8316 8317 8318 
3 8319 8320 8321 
3 8322 8323 8324 
3 8325 8326 8327 
3 8328 8329 8330 
3 8331 8332 8333 
3 8334 8335 8336 
3 8337 8338 8339 
3 8340 8341 8342 
3 8343 8344 8345 
3 8346 8347 8348 
3 8349 8350 8351 
3 8352 8353 8354 
3 8355 8356 8357 
3 8358 8359 8360 
3 8361 8362 8363 
3 8364 8365 8366 
3 8367 8368 8369 
3 8370 8371 8372 
3 8373 8374 8375 
3 8376 8377 8378 
3 8379 8380 8381 
3 8382 8383 8384 
3 8385 8386 8387 
3 8388 8389 8390 
3 8391 8392 8393 
3 8394 8395 8396 
3 8397 8398 8399 
3 8400 8401 8402 
3 8403 8404 8405 
3 8406 8407 8408 
3 8409 8410 8411 
3 8412 8413 8414 
3 8415 8416 8417 
3 8418 8419 8420 
3 8421 8422 8423 
3 8424 8425 8426 
3 8427 8428 8429 
3 8430 8431 8432 
3 8433 8434 8435 
3 8436 8437 8438 
3 8439 8440 8441 
3 8442 8443 8444 
3 8445 8446 8447 
3 8448 8449 8450 
3 8451 8452 8453 
3 8454 8455 8456 
3 8457 8458 8459 
3 8460 8461 8462 
3 8463 8464 8465 
3 8466 8467 8468 
3 8469 8470 8471 
3 8472 8473 8474 
3 8475 8476 8477 
3 8478 8479 8480 
3 8481 8482 8483 
3 8484 8485 8486 
3 8487 8488 8489 
3 8490 8491 8492 
3 8493 8494 8495 
3 8496 8497 8498 
3 8499 8500 8501 
3 8502 8503 8504 
3 8505 8506 8507 
3 8508 8509 8510 
3 8511 8512 8513 
3 8514 8515 8516 
3 8517 8518 8519 
3 8520 8521 8522 
3 8523 8524 8525 
3 8526 8527 8528 
3 8529 8530 8531 
3 8532 8533 8534 
3 8535 8536 8537 
3 8538 8539 8540 
3 8541 8542 8543 
3 8544 8545 8546 
3 8547 8548 8549 
3 8550 8551 8552 
3 8553 8554 8555 
3 8556 8557 8558 
3 8559 8560 8561 
3 8562 8563 8564 
3 8565 8566 8567 
3 8568 8569 8570 
3 8571 8572 8573 
3 8574 8575 8576 
3 8577 8578 8579 
3 8580 8581 8582 
3 8583 8584 8585 
3 8586 8587 8588 
3 8589 8590 8591 
3 8592 8593 8594 
3 8595 8596 8597 
3 8598 8599 8600 
3 8601 8602 8603 
3 8604 8605 8606 
3 8607 8608 8609 
3 8610 8611 8612 
3 8613 8614 8615 
3 8616 8617 8618 
3 8619 8620 8621 
3 8622 8623 8624 
3 8625 8626 8627 
3 8628 8629 8630 
3 8631 8632 8633 
3 8634 8635 8636 
3 8637 8638 8639 
3 8640 8641 8642 
3 8643 8644 8645 
3 8646 8647 8648 
3 8649 8650 8651 
3 8652 8653 8654 
3 8655 8656 8657 
3 8658 8659 8660 
3 8661 8662 8663 
3 8664 8665 8666 
3 8667 8668 8669 
3 8670 8671 8672 
3 8673 8674 8675 
3 8676 8677 8678 
3 8679 8680 8681 
3 8682 8683 8684 
3 8685 8686 8687 
3 8688 8689 8690 
3 8691 8692 8693 
3 8694 8695 8696 
3 8697 8698 8699 
3 8700 8701 8702 
3 8703 8704 8705 
3 8706 8707 8708 
3 8709 8710 8711 
3 8712 8713 8714 
3 8715 8716 8717 
3 8718 8719 8720 
3 8721 8722 8723 
3 8724 8725 8726 
3 8727 8728 8729 
3 8730 8731 8732 
3 8733 8734 8735 
3 8736 8737 8738 
3 8739 8740 8741 
3 8742 8743 8744 
3 8745 8746 8747 
3 8748 8749 8750 
3 8751 8752 8753 
3 8754 8755 8756 
3 8757 8758 8759 
3 8760 8761 8762 
3 8763 8764 8765 
3 8766 8767 8768 
3 8769 8770 8771 
3 8772 8773 8774 
3 8775 8776 8777 
3 8778 8779 8780 
3 8781 8782 8783 
3 8784 8785 8786 
3 8787 8788 8789 
3 8790 8791 8792 
3 8793 8794 8795 
3 8796 8797 8798 
3 8799 8800 8801 
3 8802 8803 8804 
3 8805 8806 8807 
3 8808 8809 8810 
3 8811 8812 8813 
3 8814 8815 8816 
3 8817 8818 8819 
3 8820 8821 8822 
3 8823 8824 8825 
3 8826 8827 8828 
3 8829 8830 8831 
3 8832 8833 8834 
3 8835 8836 8837 
3 8838 8839 8840 
3 8841 8842 8843 
3 8844 8845 8846 
3 8847 8848 8849 
3 8850 8851 8852 
3 8853 8854 8855 
3 8856 8857 8858 
3 8859 8860 8861 
3 8862 8863 8864 
3 8865 8866 8867 
3 8868 8869 8870 
3 8871 8872 8873 
3 8874 8875 8876 
3 8877 8878 8879 
3 8880 8881 8882 
3 8883 8884 8885 
3 8886 8887 8888 
3 8889 8890 8891 
3 8892 8893 8894 
3 8895 8896 8897 
3 8898 8899 8900 
3 8901 8902 8903 
3 8904 8905 8906 
3 8907 8908 8909 
3 8910 8911 8912 
3 8913 8914 8915 
3 8916 8917 8918 
3 8919 8920 8921 
3 8922 8923 8924 
3 8925 8926 8927 
3 8928 8929 8930 
3 8931 8932 8933 
3 8934 8935 8936 
3 8937 8938 8939 
3 8940 8941 8942 
3 8943 8944 8945 
3 8946 8947 8948 
3 8949 8950 8951 
3 8952 8953 8954 
3 8955 8956 8957 
3 8958 8959 8960 
3 8961 8962 8963 
3 8964 8965 8966 
3 8967 8968 8969 
3 8970 8971 8972 
3 8973 8974 8975 
3 8976 8977 8978 
3 8979 8980 8981 
3 8982 8983 8984 
3 8985 8986 8987 
3 8988 8989 8990 
3 8991 8992 8993 
3 8994 8995 8996 
3 8997 8998 8999 
3 9000 9001 9002 
3 9003 9004 9005 
3 9006 9007 9008 
3 9009 9010 9011 
3 9012 9013 9014 
3 9015 9016 9017 
3 9018 9019 9020 
3 9021 9022 9023 
3 9024 9025 9026 
3 9027 9028 9029 
3 9030 9031 9032 
3 9033 9034 9035 
3 9036 9037 9038 
3 9039 9040 9041 
3 9042 9043 9044 
3 9045 9046 9047 
3 9048 9049 9050 
3 9051 9052 9053 
3 9054 9055 9056 
3 9057 9058 9059 
3 9060 9061 9062 
3 9063 9064 9065 
3 9066 9067 9068 
3 9069 9070 9071 
3 9072 9073 9074 
3 9075 9076 9077 
3 9078 9079 9080 
3 9081 9082 9083 
3 9084 9085 9086 
3 9087 9088 9089 
3 9090 9091 9092 
3 9093 9094 9095 
3 9096 9097 9098 
3 9099 9100 9101 
3 9102 9103 9104 
3 9105 9106 9107 
3 9108 9109 9110 
3 9111 9112 9113 
3 9114 9115 9116 
3 9117 9118 9119 
3 9120 9121 9122 
3 9123 9124 9125 
3 9126 9127 9128 
3 9129 9130 9131 
3 9132 9133 9134 
3 9135 9136 9137 
3 9138 9139 9140 
3 9141 9142 9143 
3 9144 9145 9146 
3 9147 9148 9149 
3 9150 9151 9152 
3 9153 9154 9155 
3 9156 9157 9158 
3 9159 9160 9161 
3 9162 9163 9164 
3 9165 9166 9167 
3 9168 9169 9170 
3 9171 9172 9173 
3 9174 9175 9176 
3 9177 9178 9179 
3 9180 9181 9182 
3 9183 9184 9185 
3 9186 9187 9188 
3 9189 9190 9191 
3 9192 9193 9194 
3 9195 9196 9197 
3 9198 9199 9200 
3 9201 9202 9203 
3 9204 9205 9206 
3 9207 9208 9209 
3 9210 9211 9212 
3 9213 9214 9215 
3 9216 9217 9218 
3 9219 9220 9221 
3 9222 9223 9224 
3 9225 9226 9227 
3 9228 9229 9230 
3 9231 9232 9233 
3 9234 9235 9236 
3 9237 9238 9239 
3 9240 9241 9242 
3 9243 9244 9245 
3 9246 9247 9248 
3 9249 9250 9251 
3 9252 9253 9254 
3 9255 9256 9257 
3 9258 9259 9260 
3 9261 9262 9263 
3 9264 9265 9266 
3 9267 9268 9269 
3 9270 9271 9272 
3 9273 9274 9275 
3 9276 9277 9278 
3 9279 9280 9281 
3 9282 9283 9284 
3 9285 9286 9287 
3 9288 9289 9290 
3 9291 9292 9293 
3 9294 9295 9296 
3 9297 9298 9299 
3 9300 9301 9302 
3 9303 9304 9305 
3 9306 9307 9308 
3 9309 9310 9311 
3 9312 9313 9314 
3 9315 9316 9317 
3 9318 9319 9320 
3 9321 9322 9323 
3 9324 9325 9326 
3 9327 9328 9329 
3 9330 9331 9332 
3 9333 9334 9335 
3 9336 9337 9338 
3 9339 9340 9341 
3 9342 9343 9344 
3 9345 9346 9347 
3 9348 9349 9350 
3 9351 9352 9353 
3 9354 9355 9356 
3 9357 9358 9359 
3 9360 9361 9362 
3 9363 9364 9365 
3 9366 9367 9368 
3 9369 9370 9371 
3 9372 9373 9374 
3 9375 9376 9377 
3 9378 9379 9380 
3 9381 9382 9383 
3 9384 9385 9386 
3 9387 9388 9389 
3 9390 9391 9392 
3 9393 9394 9395 
3 9396 9397 9398 
3 9399 9400 9401 
3 9402 9403 9404 
3 9405 9406 9407 
3 9408 9409 9410 
3 9411 9412 9413 
3 9414 9415 9416 
3 9417 9418 9419 
3 9420 9421 9422 
3 9423 9424 9425 
3 9426 9427 9428 
3 9429 9430 9431 
3 9432 9433 9434 
3 9435 9436 9437 
3 9438 9439 9440 
3 9441 9442 9443 
3 9444 9445 9446 
3 9447 9448 9449 
3 9450 9451 9452 
3 9453 9454 9455 
3 9456 9457 9458 
3 9459 9460 9461 
3 9462 9463 9464 
3 9465 9466 9467 
3 9468 9469 9470 
3 9471 9472 9473 
3 9474 9475 9476 
3 9477 9478 9479 
3 9480 9481 9482 
3 9483 9484 9485 
3 9486 9487 9488 
3 9489 9490 9491 
3 9492 9493 9494 
3 9495 9496 9497 
3 9498 9499 9500 
3 9501 9502 9503 
3 9504 9505 9506 
3 9507 9508 9509 
3 9510 9511 9512 
3 9513 9514 9515 
3 9516 9517 9518 
3 9519 9520 9521 
3 9522 9523 9524 
3 9525 9526 9527 
3 9528 9529 9530 
3 9531 9532 9533 
3 9534 9535 9536 
3 9537 9538 9539 
3 9540 9541 9542 
3 9543 9544 9545 
3 9546 9547 9548 
3 9549 9550 9551 
3 9552 9553 9554 
3 9555 9556 9557 
3 9558 9559 9560 
3 9561 9562 9563 
3 9564 9565 9566 
3 9567 9568 9569 
3 9570 9571 9572 
3 9573 9574 9575 
3 9576 9577 9578 
3 9579 9580 9581 
3 9582 9583 9584 
3 9585 9586 9587 
3 9588 9589 9590 
3 9591 9592 9593 
3 9594 9595 9596 
3 9597 9598 9599 
3 9600 9601 9602 
3 9603 9604 9605 
3 9606 9607 9608 
3 9609 9610 9611 
3 9612 9613 9614 
3 9615 9616 9617 
3 9618 9619 9620 
3 9621 9622 9623 
3 9624 9625 9626 
3 9627 9628 9629 
3 9630 9631 9632 
3 9633 9634 9635 
3 9636 9637 9638 
3 9639 9640 9641 
3 9642 9643 9644 
3 9645 9646 9647 
3 9648 9649 9650 
3 9651 9652 9653 
3 9654 9655 9656 
3 9657 9658 9659 
3 9660 9661 9662 
3 9663 9664 9665 
3 9666 9667 9668 
3 9669 9670 9671 
3 9672 9673 9674 
3 9675 9676 9677 
3 9678 9679 9680 
3 9681 9682 9683 
3 9684 9685 9686 
3 9687 9688 9689 
3 9690 9691 9692 
3 9693 9694 9695 
3 9696 9697 9698 
3 9699 9700 9701 
3 9702 9703 9704 
3 9705 9706 9707 
3 9708 9709 9710 
3 9711 9712 9713 
3 9714 9715 9716 
3 9717 9718 9719 
3 9720 9721 9722 
3 9723 9724 9725 
3 9726 9727 9728 
3 9729 9730 9731 
3 9732 9733 9734 
3 9735 9736 9737 
3 9738 9739 9740 
3 9741 9742 9743 
3 9744 9745 9746 
3 9747 9748 9749 
3 9750 9751 9752 
3 9753 9754 9755 
3 9756 9757 9758 
3 9759 9760 9761 
3 9762 9763 9764 
3 9765 9766 9767 
3 9768 9769 9770 
3 9771 9772 9773 
3 9774 9775 9776 
3 9777 9778 9779 
3 9780 9781 9782 
3 9783 9784 9785 
3 9786 9787 9788 
3 9789 9790 9791 
3 9792 9793 9794 
3 9795 9796 9797 
3 9798 9799 9800 
3 9801 9802 9803 
3 9804 9805 9806 
3 9807 9808 9809 
3 9810 9811 9812 
3 9813 9814 9815 
3 9816 9817 9818 
3 9819 9820 9821 
3 9822 9823 9824 
3 9825 9826 9827 
3 9828 9829 9830 
3 9831 9832 9833 
3 9834 9835 9836 
3 9837 9838 9839 
3 9840 9841 9842 
3 9843 9844 9845 
3 9846 9847 9848 
3 9849 9850 9851 
3 9852 9853 9854 
3 9855 9856 9857 
3 9858 9859 9860 
3 9861 9862 9863 
3 9864 9865 9866 
3 9867 9868 9869 
3 9870 9871 9872 
3 9873 9874 9875 
3 9876 9877 9878 
3 9879 9880 9881 
3 9882 9883 9884 
3 9885 9886 9887 
3 9888 9889 9890 
3 9891 9892 9893 
3 9894 9895 9896 
3 9897 9898 9899 
3 9900 9901 9902 
3 9903 9904 9905 
3 9906 9907 9908 
3 9909 9910 9911 
3 9912 9913 9914 
3 9915 9916 9917 
3 9918 9919 9920 
3 9921 9922 9923 
3 9924 9925 9926 
3 9927 9928 9929 
3 9930 9931 9932 
3 9933 9934 9935 
3 9936 9937 9938 
3 9939 9940 9941 
3 9942 9943 9944 
3 9945 9946 9947 
3 9948 9949 9950 
3 9951 9952 9953 
3 9954 9955 9956 
3 9957 9958 9959 
3 9960 9961 9962 
3 9963 9964 9965 
3 9966 9967 9968 
3 9969 9970 9971 
3 9972 9973 9974 
3 9975 9976 9977 
3 9978 9979 9980 
3 9981 9982 9983 
3 9984 9985 9986 
3 9987 9988 9989 
3 9990 9991 9992 
3 9993 9994 9995 
3 9996 9997 9998 
3 9999 10000 10001 
3 10002 10003 10004 
3 10005 10006 10007 
3 10008 10009 10010 
3 10011 10012 10013 
3 10014 10015 10016 
3 10017 10018 10019 
3 10020 10021 10022 
3 10023 10024 10025 
3 10026 10027 10028 
3 10029 10030 10031 
3 10032 10033 10034 
3 10035 10036 10037 
3 10038 10039 10040 
3 10041 10042 10043 
3 10044 10045 10046 
3 10047 10048 10049 
3 10050 10051 10052 
3 10053 10054 10055 
3 10056 10057 10058 
3 10059 10060 10061 
3 10062 10063 10064 
3 10065 10066 10067 
3 10068 10069 10070 
3 10071 10072 10073 
3 10074 10075 10076 
3 10077 10078 10079 
3 10080 10081 10082 
3 10083 10084 10085 
3 10086 10087 10088 
3 10089 10090 10091 
3 10092 10093 10094 
3 10095 10096 10097 
3 10098 10099 10100 
3 10101 10102 10103 
3 10104 10105 10106 
3 10107 10108 10109 
3 10110 10111 10112 
3 10113 10114 10115 
3 10116 10117 10118 
3 10119 10120 10121 
3 10122 10123 10124 
3 10125 10126 10127 
3 10128 10129 10130 
3 10131 10132 10133 
3 10134 10135 10136 
3 10137 10138 10139 
3 10140 10141 10142 
3 10143 10144 10145 
3 10146 10147 10148 
3 10149 10150 10151 
3 10152 10153 10154 
3 10155 10156 10157 
3 10158 10159 10160 
3 10161 10162 10163 
3 10164 10165 10166 
3 10167 10168 10169 
3 10170 10171 10172 
3 10173 10174 10175 
3 10176 10177 10178 
3 10179 10180 10181 
3 10182 10183 10184 
3 10185 10186 10187 
3 10188 10189 10190 
3 10191 10192 10193 
3 10194 10195 10196 
3 10197 10198 10199 
3 10200 10201 10202 
3 10203 10204 10205 
3 10206 10207 10208 
3 10209 10210 10211 
3 10212 10213 10214 
3 10215 10216 10217 
3 10218 10219 10220 
3 10221 10222 10223 
3 10224 10225 10226 
3 10227 10228 10229 
3 10230 10231 10232 
3 10233 10234 10235 
3 10236 10237 10238 
3 10239 10240 10241 
3 10242 10243 10244 
3 10245 10246 10247 
3 10248 10249 10250 
3 10251 10252 10253 
3 10254 10255 10256 
3 10257 10258 10259 
3 10260 10261 10262 
3 10263 10264 10265 
3 10266 10267 10268 
3 10269 10270 10271 
3 10272 10273 10274 
3 10275 10276 10277 
3 10278 10279 10280 
3 10281 10282 10283 
3 10284 10285 10286 
3 10287 10288 10289 
3 10290 10291 10292 
3 10293 10294 10295 
3 10296 10297 10298 
3 10299 10300 10301 
3 10302 10303 10304 
3 10305 10306 10307 
3 10308 10309 10310 
3 10311 10312 10313 
3 10314 10315 10316 
3 10317 10318 10319 
3 10320 10321 10322 
3 10323 10324 10325 
3 10326 10327 10328 
3 10329 10330 10331 
3 10332 10333 10334 
3 10335 10336 10337 
3 10338 10339 10340 
3 10341 10342 10343 
3 10344 10345 10346 
3 10347 10348 10349 
3 10350 10351 10352 
3 10353 10354 10355 
3 10356 10357 10358 
3 10359 10360 10361 
3 10362 10363 10364 
3 10365 10366 10367 
3 10368 10369 10370 
3 10371 10372 10373 
3 10374 10375 10376 
3 10377 10378 10379 
3 10380 10381 10382 
3 10383 10384 10385 
3 10386 10387 10388 
3 10389 10390 10391 
3 10392 10393 10394 
3 10395 10396 10397 
3 10398 10399 10400 
3 10401 10402 10403 
3 10404 10405 10406 
3 10407 10408 10409 
3 10410 10411 10412 
3 10413 10414 10415 
3 10416 10417 10418 
3 10419 10420 10421 
3 10422 10423 10424 
3 10425 10426 10427 
3 10428 10429 10430 
3 10431 10432 10433 
3 10434 10435 10436 
3 10437 10438 10439 
3 10440 10441 10442 
3 10443 10444 10445 
3 10446 10447 10448 
3 10449 10450 10451 
3 10452 10453 10454 
3 10455 10456 10457 
3 10458 10459 10460 
3 10461 10462 10463 
3 10464 10465 10466 
3 10467 10468 10469 
3 10470 10471 10472 
3 10473 10474 10475 
3 10476 10477 10478 
3 10479 10480 10481 
3 10482 10483 10484 
3 10485 10486 10487 
3 10488 10489 10490 
3 10491 10492 10493 
3 10494 10495 10496 
3 10497 10498 10499 
3 10500 10501 10502 
3 10503 10504 10505 
3 10506 10507 10508 
3 10509 10510 10511 
3 10512 10513 10514 
3 10515 10516 10517 
3 10518 10519 10520 
3 10521 10522 10523 
3 10524 10525 10526 
3 10527 10528 10529 
3 10530 10531 10532 
3 10533 10534 10535 
3 10536 10537 10538 
3 10539 10540 10541 
3 10542 10543 10544 
3 10545 10546 10547 
3 10548 10549 10550 
3 10551 10552 10553 
3 10554 10555 10556 
3 10557 10558 10559 
3 10560 10561 10562 
3 10563 10564 10565 
3 10566 10567 10568 
3 10569 10570 10571 
3 10572 10573 10574 
3 10575 10576 10577 
3 10578 10579 10580 
3 10581 10582 10583 
3 10584 10585 10586 
3 10587 10588 10589 
3 10590 10591 10592 
3 10593 10594 10595 
3 10596 10597 10598 
3 10599 10600 10601 
3 10602 10603 10604 
3 10605 10606 10607 
3 10608 10609 10610 
3 10611 10612 10613 
3 10614 10615 10616 
3 10617 10618 10619 
3 10620 10621 10622 
3 10623 10624 10625 
3 10626 10627 10628 
3 10629 10630 10631 
3 10632 10633 10634 
3 10635 10636 10637 
3 10638 10639 10640 
3 10641 10642 10643 
3 10644 10645 10646 
3 10647 10648 10649 
3 10650 10651 10652 
3 10653 10654 10655 
3 10656 10657 10658 
3 10659 10660 10661 
3 10662 10663 10664 
3 10665 10666 10667 
3 10668 10669 10670 
3 10671 10672 10673 
3 10674 10675 10676 
3 10677 10678 10679 
3 10680 10681 10682 
3 10683 10684 10685 
3 10686 10687 10688 
3 10689 10690 10691 
3 10692 10693 10694 
3 10695 10696 10697 
3 10698 10699 10700 
3 10701 10702 10703 
3 10704 10705 10706 
3 10707 10708 10709 
3 10710 10711 10712 
3 10713 10714 10715 
3 10716 10717 10718 
3 10719 10720 10721 
3 10722 10723 10724 
3 10725 10726 10727 
3 10728 10729 10730 
3 10731 10732 10733 
3 10734 10735 10736 
3 10737 10738 10739 
3 10740 10741 10742 
3 10743 10744 10745 
3 10746 10747 10748 
3 10749 10750 10751 
3 10752 10753 10754 
3 10755 10756 10757 
3 10758 10759 10760 
3 10761 10762 10763 
3 10764 10765 10766 
3 10767 10768 10769 
3 10770 10771 10772 
3 10773 10774 10775 
3 10776 10777 10778 
3 10779 10780 10781 
3 10782 10783 10784 
3 10785 10786 10787 
3 10788 10789 10790 
3 10791 10792 10793 
3 10794 10795 10796 
3 10797 10798 10799 
3 10800 10801 10802 
3 10803 10804 10805 
3 10806 10807 10808 
3 10809 10810 10811 
3 10812 10813 10814 
3 10815 10816 10817 
3 10818 10819 10820 
3 10821 10822 10823 
3 10824 10825 10826 
3 10827 10828 10829 
3 10830 10831 10832 
3 10833 10834 10835 
3 10836 10837 10838 
3 10839 10840 10841 
3 10842 10843 10844 
3 10845 10846 10847 
3 10848 10849 10850 
3 10851 10852 10853 
3 10854 10855 10856 
3 10857 10858 10859 
3 10860 10861 10862 
3 10863 10864 10865 
3 10866 10867 10868 
3 10869 10870 10871 
3 10872 10873 10874 
3 10875 10876 10877 
3 10878 10879 10880 
3 10881 10882 10883 
3 10884 10885 10886 
3 10887 10888 10889 
3 10890 10891 10892 
3 10893 10894 10895 
3 10896 10897 10898 
3 10899 10900 10901 
3 10902 10903 10904 
3 10905 10906 10907 
3 10908 10909 10910 
3 10911 10912 10913 
3 10914 10915 10916 
3 10917 10918 10919 
3 10920 10921 10922 
3 10923 10924 10925 
3 10926 10927 10928 
3 10929 10930 10931 
3 10932 10933 10934 
3 10935 10936 10937 
3 10938 10939 10940 
3 10941 10942 10943 
3 10944 10945 10946 
3 10947 10948 10949 
3 10950 10951 10952 
3 10953 10954 10955 
3 10956 10957 10958 
3 10959 10960 10961 
3 10962 10963 10964 
3 10965 10966 10967 
3 10968 10969 10970 
3 10971 10972 10973 
3 10974 10975 10976 
3 10977 10978 10979 
3 10980 10981 10982 
3 10983 10984 10985 
3 10986 10987 10988 
3 10989 10990 10991 
3 10992 10993 10994 
3 10995 10996 10997 
3 10998 10999 11000 
3 11001 11002 11003 
3 11004 11005 11006 
3 11007 11008 11009 
3 11010 11011 11012 
3 11013 11014 11015 
3 11016 11017 11018 
3 11019 11020 11021 
3 11022 11023 11024 
3 11025 11026 11027 
3 11028 11029 11030 
3 11031 11032 11033 
3 11034 11035 11036 
3 11037 11038 11039 
3 11040 11041 11042 
3 11043 11044 11045 
3 11046 11047 11048 
3 11049 11050 11051 
3 11052 11053 11054 
3 11055 11056 11057 
3 11058 11059 11060 
3 11061 11062 11063 
3 11064 11065 11066 
3 11067 11068 11069 
3 11070 11071 11072 
3 11073 11074 11075 
3 11076 11077 11078 
3 11079 11080 11081 
3 11082 11083 11084 
3 11085 11086 11087 
3 11088 11089 11090 
3 11091 11092 11093 
3 11094 11095 11096 
3 11097 11098 11099 
3 11100 11101 11102 
3 11103 11104 11105 
3 11106 11107 11108 
3 11109 11110 11111 
3 11112 11113 11114 
3 11115 11116 11117 
3 11118 11119 11120 
3 11121 11122 11123 
3 11124 11125 11126 
3 11127 11128 11129 
3 11130 11131 11132 
3 11133 11134 11135 
3 11136 11137 11138 
3 11139 11140 11141 
3 11142 11143 11144 
3 11145 11146 11147 
3 11148 11149 11150 
3 11151 11152 11153 
3 11154 11155 11156 
3 11157 11158 11159 
3 11160 11161 11162 
3 11163 11164 11165 
3 11166 11167 11168 
3 11169 11170 11171 
3 11172 11173 11174 
3 11175 11176 11177 
3 11178 11179 11180 
3 11181 11182 11183 
3 11184 11185 11186 
3 11187 11188 11189 
3 11190 11191 11192 
3 11193 11194 11195 
3 11196 11197 11198 
3 11199 11200 11201 
3 11202 11203 11204 
3 11205 11206 11207 
3 11208 11209 11210 
3 11211 11212 11213 
3 11214 11215 11216 
3 11217 11218 11219 
3 11220 11221 11222 
3 11223 11224 11225 
3 11226 11227 11228 
3 11229 11230 11231 
3 11232 11233 11234 
3 11235 11236 11237 
3 11238 11239 11240 
3 11241 11242 11243 
3 11244 11245 11246 
3 11247 11248 11249 
3 11250 11251 11252 
3 11253 11254 11255 
3 11256 11257 11258 
3 11259 11260 11261 
3 11262 11263 11264 
3 11265 11266 11267 
3 11268 11269 11270 
3 11271 11272 11273 
3 11274 11275 11276 
3 11277 11278 11279 
3 11280 11281 11282 
3 11283 11284 11285 
3 11286 11287 11288 
3 11289 11290 11291 
3 11292 11293 11294 
3 11295 11296 11297 
3 11298 11299 11300 
3 11301 11302 11303 
3 11304 11305 11306 
3 11307 11308 11309 
3 11310 11311 11312 
3 11313 11314 11315 
3 11316 11317 11318 
3 11319 11320 11321 
3 11322 11323 11324 
3 11325 11326 11327 
3 11328 11329 11330 
3 11331 11332 11333 
3 11334 11335 11336 
3 11337 11338 11339 
3 11340 11341 11342 
3 11343 11344 11345 
3 11346 11347 11348 
3 11349 11350 11351 
3 11352 11353 11354 
3 11355 11356 11357 
3 11358 11359 11360 
3 11361 11362 11363 
3 11364 11365 11366 
3 11367 11368 11369 
3 11370 11371 11372 
3 11373 11374 11375 
3 11376 11377 11378 
3 11379 11380 11381 
3 11382 11383 11384 
3 11385 11386 11387 
3 11388 11389 11390 
3 11391 11392 11393 
3 11394 11395 11396 
3 11397 11398 11399 
3 11400 11401 11402 
3 11403 11404 11405 
3 11406 11407 11408 
3 11409 11410 11411 
3 11412 11413 11414 
3 11415 11416 11417 
3 11418 11419 11420 
3 11421 11422 11423 
3 11424 11425 11426 
3 11427 11428 11429 
3 11430 11431 11432 
3 11433 11434 11435 
3 11436 11437 11438 
3 11439 11440 11441 
3 11442 11443 11444 
3 11445 11446 11447 
3 11448 11449 11450 
3 11451 11452 11453 
3 11454 11455 11456 
3 11457 11458 11459 
3 11460 11461 11462 
3 11463 11464 11465 
3 11466 11467 11468 
3 11469 11470 11471 
3 11472 11473 11474 
3 11475 11476 11477 
3 11478 11479 11480 
3 11481 11482 11483 
3 11484 11485 11486 
3 11487 11488 11489 
3 11490 11491 11492 
3 11493 11494 11495 
3 11496 11497 11498 
3 11499 11500 11501 
3 11502 11503 11504 
3 11505 11506 11507 
3 11508 11509 11510 
3 11511 11512 11513 
3 11514 11515 11516 
3 11517 11518 11519 
3 11520 11521 11522 
3 11523 11524 11525 
3 11526 11527 11528 
3 11529 11530 11531 
3 11532 11533 11534 
3 11535 11536 11537 
3 11538 11539 11540 
3 11541 11542 11543 
3 11544 11545 11546 
3 11547 11548 11549 
3 11550 11551 11552 
3 11553 11554 11555 
3 11556 11557 11558 
3 11559 11560 11561 
3 11562 11563 11564 
3 11565 11566 11567 
3 11568 11569 11570 
3 11571 11572 11573 
3 11574 11575 11576 
3 11577 11578 11579 
3 11580 11581 11582 
3 11583 11584 11585 
3 11586 11587 11588 
3 11589 11590 11591 
3 11592 11593 11594 
3 11595 11596 11597 
3 11598 11599 11600 
3 11601 11602 11603 
3 11604 11605 11606 
3 11607 11608 11609 
3 11610 11611 11612 
3 11613 11614 11615 
3 11616 11617 11618 
3 11619 11620 11621 
3 11622 11623 11624 
3 11625 11626 11627 
3 11628 11629 11630 
3 11631 11632 11633 
3 11634 11635 11636 
3 11637 11638 11639 
3 11640 11641 11642 
3 11643 11644 11645 
3 11646 11647 11648 
3 11649 11650 11651 
3 11652 11653 11654 
3 11655 11656 11657 
3 11658 11659 11660 
3 11661 11662 11663 
3 11664 11665 11666 
3 11667 11668 11669 
3 11670 11671 11672 
3 11673 11674 11675 
3 11676 11677 11678 
3 11679 11680 11681 
3 11682 11683 11684 
3 11685 11686 11687 
3 11688 11689 11690 
3 11691 11692 11693 
3 11694 11695 11696 
3 11697 11698 11699 
3 11700 11701 11702 
3 11703 11704 11705 
3 11706 11707 11708 
3 11709 11710 11711 
3 11712 11713 11714 
3 11715 11716 11717 
3 11718 11719 11720 
3 11721 11722 11723 
3 11724 11725 11726 
3 11727 11728 11729 
3 11730 11731 11732 
3 11733 11734 11735 
3 11736 11737 11738 
3 11739 11740 11741 
3 11742 11743 11744 
3 11745 11746 11747 
3 11748 11749 11750 
3 11751 11752 11753 
3 11754 11755 11756 
3 11757 11758 11759 
3 11760 11761 11762 
3 11763 11764 11765 
3 11766 11767 11768 
3 11769 11770 11771 
3 11772 11773 11774 
3 11775 11776 11777 
3 11778 11779 11780 
3 11781 11782 11783 
3 11784 11785 11786 
3 11787 11788 11789 
3 11790 11791 11792 
3 11793 11794 11795 
3 11796 11797 11798 
3 11799 11800 11801 
3 11802 11803 11804 
3 11805 11806 11807 
3 11808 11809 11810 
3 11811 11812 11813 
3 11814 11815 11816 
3 11817 11818 11819 
3 11820 11821 11822 
3 11823 11824 11825 
3 11826 11827 11828 
3 11829 11830 11831 
3 11832 11833 11834 
3 11835 11836 11837 
3 11838 11839 11840 
3 11841 11842 11843 
3 11844 11845 11846 
3 11847 11848 11849 
3 11850 11851 11852 
3 11853 11854 11855 
3 11856 11857 11858 
3 11859 11860 11861 
3 11862 11863 11864 
3 11865 11866 11867 
3 11868 11869 11870 
3 11871 11872 11873 
3 11874 11875 11876 
3 11877 11878 11879 
3 11880 11881 11882 
3 11883 11884 11885 
3 11886 11887 11888 
3 11889 11890 11891 
3 11892 11893 11894 
3 11895 11896 11897 
3 11898 11899 11900 
3 11901 11902 11903 
3 11904 11905 11906 
3 11907 11908 11909 
3 11910 11911 11912 
3 11913 11914 11915 
3 11916 11917 11918 
3 11919 11920 11921 
3 11922 11923 11924 
3 11925 11926 11927 
3 11928 11929 11930 
3 11931 11932 11933 
3 11934 11935 11936 
3 11937 11938 11939 
3 11940 11941 11942 
3 11943 11944 11945 
3 11946 11947 11948 
3 11949 11950 11951 
3 11952 11953 11954 
3 11955 11956 11957 
3 11958 11959 11960 
3 11961 11962 11963 
3 11964 11965 11966 
3 11967 11968 11969 
3 11970 11971 11972 
3 11973 11974 11975 
3 11976 11977 11978 
3 11979 11980 11981 
3 11982 11983 11984 
3 11985 11986 11987 
3 11988 11989 11990 
3 11991 11992 11993 
3 11994 11995 11996 
3 11997 11998 11999 
3 12000 12001 12002 
3 12003 12004 12005 
3 12006 12007 12008 
3 12009 12010 12011 
3 12012 12013 12014 
3 12015 12016 12017 
3 12018 12019 12020 
3 12021 12022 12023 
3 12024 12025 12026 
3 12027 12028 12029 
3 12030 12031 12032 
3 12033 12034 12035 
3 12036 12037 12038 
3 12039 12040 12041 
3 12042 12043 12044 
3 12045 12046 12047 
3 12048 12049 12050 
3 12051 12052 12053 
3 12054 12055 12056 
3 12057 12058 12059 
3 12060 12061 12062 
3 12063 12064 12065 
3 12066 12067 12068 
3 12069 12070 12071 
3 12072 12073 12074 
3 12075 12076 12077 
3 12078 12079 12080 
3 12081 12082 12083 
3 12084 12085 12086 
3 12087 12088 12089 
3 12090 12091 12092 
3 12093 12094 12095 
3 12096 12097 12098 
3 12099 12100 12101 
3 12102 12103 12104 
3 12105 12106 12107 
3 12108 12109 12110 
3 12111 12112 12113 
3 12114 12115 12116 
3 12117 12118 12119 
3 12120 12121 12122 
3 12123 12124 12125 
3 12126 12127 12128 
3 12129 12130 12131 
3 12132 12133 12134 
3 12135 12136 12137 
3 12138 12139 12140 
3 12141 12142 12143 
3 12144 12145 12146 
3 12147 12148 12149 
3 12150 12151 12152 
3 12153 12154 12155 
3 12156 12157 12158 
3 12159 12160 12161 
3 12162 12163 12164 
3 12165 12166 12167 
3 12168 12169 12170 
3 12171 12172 12173 
3 12174 12175 12176 
3 12177 12178 12179 
3 12180 12181 12182 
3 12183 12184 12185 
3 12186 12187 12188 
3 12189 12190 12191 
3 12192 12193 12194 
3 12195 12196 12197 
3 12198 12199 12200 
3 12201 12202 12203 
3 12204 12205 12206 
3 12207 12208 12209 
3 12210 12211 12212 
3 12213 12214 12215 
3 12216 12217 12218 
3 12219 12220 12221 
3 12222 12223 12224 
3 12225 12226 12227 
3 12228 12229 12230 
3 12231 12232 12233 
3 12234 12235 12236 
3 12237 12238 12239 
3 12240 12241 12242 
3 12243 12244 12245 
3 12246 12247 12248 
3 12249 12250 12251 
3 12252 12253 12254 
3 12255 12256 12257 
3 12258 12259 12260 
3 12261 12262 12263 
3 12264 12265 12266 
3 12267 12268 12269 
3 12270 12271 12272 
3 12273 12274 12275 
3 12276 12277 12278 
3 12279 12280 12281 
3 12282 12283 12284 
3 12285 12286 12287 
3 12288 12289 12290 
3 12291 12292 12293 
3 12294 12295 12296 
3 12297 12298 12299 
3 12300 12301 12302 
3 12303 12304 12305 
3 12306 12307 12308 
3 12309 12310 12311 
3 12312 12313 12314 
3 12315 12316 12317 
3 12318 12319 12320 
3 12321 12322 12323 
3 12324 12325 12326 
3 12327 12328 12329 
3 12330 12331 12332 
3 12333 12334 12335 
3 12336 12337 12338 
3 12339 12340 12341 
3 12342 12343 12344 
3 12345 12346 12347 
3 12348 12349 12350 
3 12351 12352 12353 
3 12354 12355 12356 
3 12357 12358 12359 
3 12360 12361 12362 
3 12363 12364 12365 
3 12366 12367 12368 
3 12369 12370 12371 
3 12372 12373 12374 
3 12375 12376 12377 
3 12378 12379 12380 
3 12381 12382 12383 
3 12384 12385 12386 
3 12387 12388 12389 
3 12390 12391 12392 
3 12393 12394 12395 
3 12396 12397 12398 
3 12399 12400 12401 
3 12402 12403 12404 
3 12405 12406 12407 
3 12408 12409 12410 
3 12411 12412 12413 
3 12414 12415 12416 
3 12417 12418 12419 
3 12420 12421 12422 
3 12423 12424 12425 
3 12426 12427 12428 
3 12429 12430 12431 
3 12432 12433 12434 
3 12435 12436 12437 
3 12438 12439 12440 
3 12441 12442 12443 
3 12444 12445 12446 
3 12447 12448 12449 
3 12450 12451 12452 
3 12453 12454 12455 
3 12456 12457 12458 
3 12459 12460 12461 
3 12462 12463 12464 
3 12465 12466 12467 
3 12468 12469 12470 
3 12471 12472 12473 
3 12474 12475 12476 
3 12477 12478 12479 
3 12480 12481 12482 
3 12483 12484 12485 
3 12486 12487 12488 
3 12489 12490 12491 
3 12492 12493 12494 
3 12495 12496 12497 
3 12498 12499 12500 
3 12501 12502 12503 
3 12504 12505 12506 
3 12507 12508 12509 
3 12510 12511 12512 
3 12513 12514 12515 
3 12516 12517 12518 
3 12519 12520 12521 
3 12522 12523 12524 
3 12525 12526 12527 
3 12528 12529 12530 
3 12531 12532 12533 
3 12534 12535 12536 
3 12537 12538 12539 
3 12540 12541 12542 
3 12543 12544 12545 
3 12546 12547 12548 
3 12549 12550 12551 
3 12552 12553 12554 
3 12555 12556 12557 
3 12558 12559 12560 
3 12561 12562 12563 
3 12564 12565 12566 
3 12567 12568 12569 
3 12570 12571 12572 
3 12573 12574 12575 
3 12576 12577 12578 
3 12579 12580 12581 
3 12582 12583 12584 
3 12585 12586 12587 
3 12588 12589 12590 
3 12591 12592 12593 
3 12594 12595 12596 
3 12597 12598 12599 
3 12600 12601 12602 
3 12603 12604 12605 
3 12606 12607 12608 
3 12609 12610 12611 
3 12612 12613 12614 
3 12615 12616 12617 
3 12618 12619 12620 
3 12621 12622 12623 
3 12624 12625 12626 
3 12627 12628 12629 
3 12630 12631 12632 
3 12633 12634 12635 
3 12636 12637 12638 
3 12639 12640 12641 
3 12642 12643 12644 
3 12645 12646 12647 
3 12648 12649 12650 
3 12651 12652 12653 
3 12654 12655 12656 
3 12657 12658 12659 
3 12660 12661 12662 
3 12663 12664 12665 
3 12666 12667 12668 
3 12669 12670 12671 
3 12672 12673 12674 
3 12675 12676 12677 
3 12678 12679 12680 
3 12681 12682 12683 
3 12684 12685 12686 
3 12687 12688 12689 
3 12690 12691 12692 
3 12693 12694 12695 
3 12696 12697 12698 
3 12699 12700 12701 
3 12702 12703 12704 
3 12705 12706 12707 
3 12708 12709 12710 
3 12711 12712 12713 
3 12714 12715 12716 
3 12717 12718 12719 
3 12720 12721 12722 
3 12723 12724 12725 
3 12726 12727 12728 
3 12729 12730 12731 
3 12732 12733 12734 
3 12735 12736 12737 
3 12738 12739 12740 
3 12741 12742 12743 
3 12744 12745 12746 
3 12747 12748 12749 
3 12750 12751 12752 
3 12753 12754 12755 
3 12756 12757 12758 
3 12759 12760 12761 
3 12762 12763 12764 
3 12765 12766 12767 
3 12768 12769 12770 
3 12771 12772 12773 
3 12774 12775 12776 
3 12777 12778 12779 
3 12780 12781 12782 
3 12783 12784 12785 
3 12786 12787 12788 
3 12789 12790 12791 
3 12792 12793 12794 
3 12795 12796 12797 
3 12798 12799 12800 
3 12801 12802 12803 
3 12804 12805 12806 
3 12807 12808 12809 
3 12810 12811 12812 
3 12813 12814 12815 
3 12816 12817 12818 
3 12819 12820 12821 
3 12822 12823 12824 
3 12825 12826 12827 
3 12828 12829 12830 
3 12831 12832 12833 
3 12834 12835 12836 
3 12837 12838 12839 
3 12840 12841 12842 
3 12843 12844 12845 
3 12846 12847 12848 
3 12849 12850 12851 
3 12852 12853 12854 
3 12855 12856 12857 
3 12858 12859 12860 
3 12861 12862 12863 
3 12864 12865 12866 
3 12867 12868 12869 
3 12870 12871 12872 
3 12873 12874 12875 
3 12876 12877 12878 
3 12879 12880 12881 
3 12882 12883 12884 
3 12885 12886 12887 
3 12888 12889 12890 
3 12891 12892 12893 
3 12894 12895 12896 
3 12897 12898 12899 
3 12900 12901 12902 
3 12903 12904 12905 
3 12906 12907 12908 
3 12909 12910 12911 
3 12912 12913 12914 
3 12915 12916 12917 
3 12918 12919 12920 
3 12921 12922 12923 
3 12924 12925 12926 
3 12927 12928 12929 
3 12930 12931 12932 
3 12933 12934 12935 
3 12936 12937 12938 
3 12939 12940 12941 
3 12942 12943 12944 
3 12945 12946 12947 
3 12948 12949 12950 
3 12951 12952 12953 
3 12954 12955 12956 
3 12957 12958 12959 
3 12960 12961 12962 
3 12963 12964 12965 
3 12966 12967 12968 
3 12969 12970 12971 
3 12972 12973 12974 
3 12975 12976 12977 
3 12978 12979 12980 
3 12981 12982 12983 
3 12984 12985 12986 
3 12987 12988 12989 
3 12990 12991 12992 
3 12993 12994 12995 
3 12996 12997 12998 
3 12999 13000 13001 
3 13002 13003 13004 
3 13005 13006 13007 
3 13008 13009 13010 
3 13011 13012 13013 
3 13014 13015 13016 
3 13017 13018 13019 
3 13020 13021 13022 
3 13023 13024 13025 
3 13026 13027 13028 
3 13029 13030 13031 
3 13032 13033 13034 
3 13035 13036 13037 
3 13038 13039 13040 
3 13041 13042 13043 
3 13044 13045 13046 
3 13047 13048 13049 
3 13050 13051 13052 
3 13053 13054 13055 
3 13056 13057 13058 
3 13059 13060 13061 
3 13062 13063 13064 
3 13065 13066 13067 
3 13068 13069 13070 
3 13071 13072 13073 
3 13074 13075 13076 
3 13077 13078 13079 
3 13080 13081 13082 
3 13083 13084 13085 
3 13086 13087 13088 
3 13089 13090 13091 
3 13092 13093 13094 
3 13095 13096 13097 
3 13098 13099 13100 
3 13101 13102 13103 
3 13104 13105 13106 
3 13107 13108 13109 
3 13110 13111 13112 
3 13113 13114 13115 
3 13116 13117 13118 
3 13119 13120 13121 
3 13122 13123 13124 
3 13125 13126 13127 
3 13128 13129 13130 
3 13131 13132 13133 
3 13134 13135 13136 
3 13137 13138 13139 
3 13140 13141 13142 
3 13143 13144 13145 
3 13146 13147 13148 
3 13149 13150 13151 
3 13152 13153 13154 
3 13155 13156 13157 
3 13158 13159 13160 
3 13161 13162 13163 
3 13164 13165 13166 
3 13167 13168 13169 
3 13170 13171 13172 
3 13173 13174 13175 
3 13176 13177 13178 
3 13179 13180 13181 
3 13182 13183 13184 
3 13185 13186 13187 
3 13188 13189 13190 
3 13191 13192 13193 
3 13194 13195 13196 
3 13197 13198 13199 
3 13200 13201 13202 
3 13203 13204 13205 
3 13206 13207 13208 
3 13209 13210 13211 
3 13212 13213 13214 
3 13215 13216 13217 
3 13218 13219 13220 
3 13221 13222 13223 
3 13224 13225 13226 
3 13227 13228 13229 
3 13230 13231 13232 
3 13233 13234 13235 
3 13236 13237 13238 
3 13239 13240 13241 
3 13242 13243 13244 
3 13245 13246 13247 
3 13248 13249 13250 
3 13251 13252 13253 
3 13254 13255 13256 
3 13257 13258 13259 
3 13260 13261 13262 
3 13263 13264 13265 
3 13266 13267 13268 
3 13269 13270 13271 
3 13272 13273 13274 
3 13275 13276 13277 
3 13278 13279 13280 
3 13281 13282 13283 
3 13284 13285 13286 
3 13287 13288 13289 
3 13290 13291 13292 
3 13293 13294 13295 
3 13296 13297 13298 
3 13299 13300 13301 
3 13302 13303 13304 
3 13305 13306 13307 
3 13308 13309 13310 
3 13311 13312 13313 
3 13314 13315 13316 
3 13317 13318 13319 
3 13320 13321 13322 
3 13323 13324 13325 
3 13326 13327 13328 
3 13329 13330 13331 
3 13332 13333 13334 
3 13335 13336 13337 
3 13338 13339 13340 
3 13341 13342 13343 
3 13344 13345 13346 
3 13347 13348 13349 
3 13350 13351 13352 
3 13353 13354 13355 
3 13356 13357 13358 
3 13359 13360 13361 
3 13362 13363 13364 
3 13365 13366 13367 
3 13368 13369 13370 
3 13371 13372 13373 
3 13374 13375 13376 
3 13377 13378 13379 
3 13380 13381 13382 
3 13383 13384 13385 
3 13386 13387 13388 
3 13389 13390 13391 
3 13392 13393 13394 
3 13395 13396 13397 
3 13398 13399 13400 
3 13401 13402 13403 
3 13404 13405 13406 
3 13407 13408 13409 
3 13410 13411 13412 
3 13413 13414 13415 
3 13416 13417 13418 
3 13419 13420 13421 
3 13422 13423 13424 
3 13425 13426 13427 
3 13428 13429 13430 
3 13431 13432 13433 
3 13434 13435 13436 
3 13437 13438 13439 
3 13440 13441 13442 
3 13443 13444 13445 
3 13446 13447 13448 
3 13449 13450 13451 
3 13452 13453 13454 
3 13455 13456 13457 
3 13458 13459 13460 
3 13461 13462 13463 
3 13464 13465 13466 
3 13467 13468 13469 
3 13470 13471 13472 
3 13473 13474 13475 
3 13476 13477 13478 
3 13479 13480 13481 
3 13482 13483 13484 
3 13485 13486 13487 
3 13488 13489 13490 
3 13491 13492 13493 
3 13494 13495 13496 
3 13497 13498 13499 
3 13500 13501 13502 
3 13503 13504 13505 
3 13506 13507 13508 
3 13509 13510 13511 
3 13512 13513 13514 
3 13515 13516 13517 
3 13518 13519 13520 
3 13521 13522 13523 
3 13524 13525 13526 
3 13527 13528 13529 
3 13530 13531 13532 
3 13533 13534 13535 
3 13536 13537 13538 
3 13539 13540 13541 
3 13542 13543 13544 
3 13545 13546 13547 
3 13548 13549 13550 
3 13551 13552 13553 
3 13554 13555 13556 
3 13557 13558 13559 
3 13560 13561 13562 
3 13563 13564 13565 
3 13566 13567 13568 
3 13569 13570 13571 
3 13572 13573 13574 
3 13575 13576 13577 
3 13578 13579 13580 
3 13581 13582 13583 
3 13584 13585 13586 
3 13587 13588 13589 
3 13590 13591 13592 
3 13593 13594 13595 
3 13596 13597 13598 
3 13599 13600 13601 
3 13602 13603 13604 
3 13605 13606 13607 
3 13608 13609 13610 
3 13611 13612 13613 
3 13614 13615 13616 
3 13617 13618 13619 
3 13620 13621 13622 
3 13623 13624 13625 
3 13626 13627 13628 
3 13629 13630 13631 
3 13632 13633 13634 
3 13635 13636 13637 
3 13638 13639 13640 
3 13641 13642 13643 
3 13644 13645 13646 
3 13647 13648 13649 
3 13650 13651 13652 
3 13653 13654 13655 
3 13656 13657 13658 
3 13659 13660 13661 
3 13662 13663 13664 
3 13665 13666 13667 
3 13668 13669 13670 
3 13671 13672 13673 
3 13674 13675 13676 
3 13677 13678 13679 
3 13680 13681 13682 
3 13683 13684 13685 
3 13686 13687 13688 
3 13689 13690 13691 
3 13692 13693 13694 
3 13695 13696 13697 
3 13698 13699 13700 
3 13701 13702 13703 
3 13704 13705 13706 
3 13707 13708 13709 
3 13710 13711 13712 
3 13713 13714 13715 
3 13716 13717 13718 
3 13719 13720 13721 
3 13722 13723 13724 
3 13725 13726 13727 
3 13728 13729 13730 
3 13731 13732 13733 
3 13734 13735 13736 
3 13737 13738 13739 
3 13740 13741 13742 
3 13743 13744 13745 
3 13746 13747 13748 
3 13749 13750 13751 
3 13752 13753 13754 
3 13755 13756 13757 
3 13758 13759 13760 
3 13761 13762 13763 
3 13764 13765 13766 
3 13767 13768 13769 
3 13770 13771 13772 
3 13773 13774 13775 
3 13776 13777 13778 
3 13779 13780 13781 
3 13782 13783 13784 
3 13785 13786 13787 
3 13788 13789 13790 
3 13791 13792 13793 
3 13794 13795 13796 
3 13797 13798 13799 
3 13800 13801 13802 
3 13803 13804 13805 
3 13806 13807 13808 
3 13809 13810 13811 
3 13812 13813 13814 
3 13815 13816 13817 
3 13818 13819 13820 
3 13821 13822 13823 
3 13824 13825 13826 
3 13827 13828 13829 
3 13830 13831 13832 
3 13833 13834 13835 
3 13836 13837 13838 
3 13839 13840 13841 
3 13842 13843 13844 
3 13845 13846 13847 
3 13848 13849 13850 
3 13851 13852 13853 
3 13854 13855 13856 
3 13857 13858 13859 
3 13860 13861 13862 
3 13863 13864 13865 
3 13866 13867 13868 
3 13869 13870 13871 
3 13872 13873 13874 
3 13875 13876 13877 
3 13878 13879 13880 
3 13881 13882 13883 
3 13884 13885 13886 
3 13887 13888 13889 
3 13890 13891 13892 
3 13893 13894 13895 
3 13896 13897 13898 
3 13899 13900 13901 
3 13902 13903 13904 
3 13905 13906 13907 
3 13908 13909 13910 
3 13911 13912 13913 
3 13914 13915 13916 
3 13917 13918 13919 
3 13920 13921 13922 
3 13923 13924 13925 
3 13926 13927 13928 
3 13929 13930 13931 
3 13932 13933 13934 
3 13935 13936 13937 
3 13938 13939 13940 
3 13941 13942 13943 
3 13944 13945 13946 
3 13947 13948 13949 
3 13950 13951 13952 
3 13953 13954 13955 
3 13956 13957 13958 
3 13959 13960 13961 
3 13962 13963 13964 
3 13965 13966 13967 
3 13968 13969 13970 
3 13971 13972 13973 
3 13974 13975 13976 
3 13977 13978 13979 
3 13980 13981 13982 
3 13983 13984 13985 
3 13986 13987 13988 
3 13989 13990 13991 
3 13992 13993 13994 
3 13995 13996 13997 
3 13998 13999 14000 
3 14001 14002 14003 
3 14004 14005 14006 
3 14007 14008 14009 
3 14010 14011 14012 
3 14013 14014 14015 
3 14016 14017 14018 
3 14019 14020 14021 
3 14022 14023 14024 
3 14025 14026 14027 
3 14028 14029 14030 
3 14031 14032 14033 
3 14034 14035 14036 
3 14037 14038 14039 
3 14040 14041 14042 
3 14043 14044 14045 
3 14046 14047 14048 
3 14049 14050 14051 
3 14052 14053 14054 
3 14055 14056 14057 
3 14058 14059 14060 
3 14061 14062 14063 
3 14064 14065 14066 
3 14067 14068 14069 
3 14070 14071 14072 
3 14073 14074 14075 
3 14076 14077 14078 
3 14079 14080 14081 
3 14082 14083 14084 
3 14085 14086 14087 
3 14088 14089 14090 
3 14091 14092 14093 
3 14094 14095 14096 
3 14097 14098 14099 
3 14100 14101 14102 
3 14103 14104 14105 
3 14106 14107 14108 
3 14109 14110 14111 
3 14112 14113 14114 
3 14115 14116 14117 
3 14118 14119 14120 
3 14121 14122 14123 
3 14124 14125 14126 
3 14127 14128 14129 
3 14130 14131 14132 
3 14133 14134 14135 
3 14136 14137 14138 
3 14139 14140 14141 
3 14142 14143 14144 
3 14145 14146 14147 
3 14148 14149 14150 
3 14151 14152 14153 
3 14154 14155 14156 
3 14157 14158 14159 
3 14160 14161 14162 
3 14163 14164 14165 
3 14166 14167 14168 
3 14169 14170 14171 
3 14172 14173 14174 
3 14175 14176 14177 
3 14178 14179 14180 
3 14181 14182 14183 
3 14184 14185 14186 
3 14187 14188 14189 
3 14190 14191 14192 
3 14193 14194 14195 
3 14196 14197 14198 
3 14199 14200 14201 
3 14202 14203 14204 
3 14205 14206 14207 
3 14208 14209 14210 
3 14211 14212 14213 
3 14214 14215 14216 
3 14217 14218 14219 
3 14220 14221 14222 
3 14223 14224 14225 
3 14226 14227 14228 
3 14229 14230 14231 
3 14232 14233 14234 
3 14235 14236 14237 
3 14238 14239 14240 
3 14241 14242 14243 
3 14244 14245 14246 
3 14247 14248 14249 
3 14250 14251 14252 
3 14253 14254 14255 
3 14256 14257 14258 
3 14259 14260 14261 
3 14262 14263 14264 
3 14265 14266 14267 
3 14268 14269 14270 
3 14271 14272 14273 
3 14274 14275 14276 
3 14277 14278 14279 
3 14280 14281 14282 
3 14283 14284 14285 
3 14286 14287 14288 
3 14289 14290 14291 
3 14292 14293 14294 
3 14295 14296 14297 
3 14298 14299 14300 
3 14301 14302 14303 
3 14304 14305 14306 
3 14307 14308 14309 
3 14310 14311 14312 
3 14313 14314 14315 
3 14316 14317 14318 
3 14319 14320 14321 
3 14322 14323 14324 
3 14325 14326 14327 
3 14328 14329 14330 
3 14331 14332 14333 
3 14334 14335 14336 
3 14337 14338 14339 
3 14340 14341 14342 
3 14343 14344 14345 
3 14346 14347 14348 
3 14349 14350 14351 
3 14352 14353 14354 
3 14355 14356 14357 
3 14358 14359 14360 
3 14361 14362 14363 
3 14364 14365 14366 
3 14367 14368 14369 
3 14370 14371 14372 
3 14373 14374 14375 
3 14376 14377 14378 
3 14379 14380 14381 
3 14382 14383 14384 
3 14385 14386 14387 
3 14388 14389 14390 
3 14391 14392 14393 
3 14394 14395 14396 
3 14397 14398 14399 
3 14400 14401 14402 
3 14403 14404 14405 
3 14406 14407 14408 
3 14409 14410 14411 
3 14412 14413 14414 
3 14415 14416 14417 
3 14418 14419 14420 
3 14421 14422 14423 
3 14424 14425 14426 
3 14427 14428 14429 
3 14430 14431 14432 
3 14433 14434 14435 
3 14436 14437 14438 
3 14439 14440 14441 
3 14442 14443 14444 
3 14445 14446 14447 
3 14448 14449 14450 
3 14451 14452 14453 
3 14454 14455 14456 
3 14457 14458 14459 
3 14460 14461 14462 
3 14463 14464 14465 
3 14466 14467 14468 
3 14469 14470 14471 
3 14472 14473 14474 
3 14475 14476 14477 
3 14478 14479 14480 
3 14481 14482 14483 
3 14484 14485 14486 
3 14487 14488 14489 
3 14490 14491 14492 
3 14493 14494 14495 
3 14496 14497 14498 
3 14499 14500 14501 
3 14502 14503 14504 
3 14505 14506 14507 
3 14508 14509 14510 
3 14511 14512 14513 
3 14514 14515 14516 
3 14517 14518 14519 
3 14520 14521 14522 
3 14523 14524 14525 
3 14526 14527 14528 
3 14529 14530 14531 
3 14532 14533 14534 
3 14535 14536 14537 
3 14538 14539 14540 
3 14541 14542 14543 
3 14544 14545 14546 
3 14547 14548 14549 
3 14550 14551 14552 
3 14553 14554 14555 
3 14556 14557 14558 
3 14559 14560 14561 
3 14562 14563 14564 
3 14565 14566 14567 
3 14568 14569 14570 
3 14571 14572 14573 
3 14574 14575 14576 
3 14577 14578 14579 
3 14580 14581 14582 
3 14583 14584 14585 
3 14586 14587 14588 
3 14589 14590 14591 
3 14592 14593 14594 
3 14595 14596 14597 
3 14598 14599 14600 
3 14601 14602 14603 
3 14604 14605 14606 
3 14607 14608 14609 
3 14610 14611 14612 
3 14613 14614 14615 
3 14616 14617 14618 
3 14619 14620 14621 
3 14622 14623 14624 
3 14625 14626 14627 
3 14628 14629 14630 
3 14631 14632 14633 
3 14634 14635 14636 
3 14637 14638 14639 
3 14640 14641 14642 
3 14643 14644 14645 
3 14646 14647 14648 
3 14649 14650 14651 
3 14652 14653 14654 
3 14655 14656 14657 
3 14658 14659 14660 
3 14661 14662 14663 
3 14664 14665 14666 
3 14667 14668 14669 
3 14670 14671 14672 
3 14673 14674 14675 
3 14676 14677 14678 
3 14679 14680 14681 
3 14682 14683 14684 
3 14685 14686 14687 
3 14688 14689 14690 
3 14691 14692 14693 
3 14694 14695 14696 
3 14697 14698 14699 
3 14700 14701 14702 
3 14703 14704 14705 
3 14706 14707 14708 
3 14709 14710 14711 
3 14712 14713 14714 
3 14715 14716 14717 
3 14718 14719 14720 
3 14721 14722 14723 
3 14724 14725 14726 
3 14727 14728 14729 
3 14730 14731 14732 
3 14733 14734 14735 
3 14736 14737 14738 
3 14739 14740 14741 
3 14742 14743 14744 
3 14745 14746 14747 
3 14748 14749 14750 
3 14751 14752 14753 
3 14754 14755 14756 
3 14757 14758 14759 
3 14760 14761 14762 
3 14763 14764 14765 
3 14766 14767 14768 
3 14769 14770 14771 
3 14772 14773 14774 
3 14775 14776 14777 
3 14778 14779 14780 
3 14781 14782 14783 
3 14784 14785 14786 
3 14787 14788 14789 
3 14790 14791 14792 
3 14793 14794 14795 
3 14796 14797 14798 
3 14799 14800 14801 
3 14802 14803 14804 
3 14805 14806 14807 
3 14808 14809 14810 
3 14811 14812 14813 
3 14814 14815 14816 
3 14817 14818 14819 
3 14820 14821 14822 
3 14823 14824 14825 
3 14826 14827 14828 
3 14829 14830 14831 
3 14832 14833 14834 
3 14835 14836 14837 
3 14838 14839 14840 
3 14841 14842 14843 
3 14844 14845 14846 
3 14847 14848 14849 
3 14850 14851 14852 
3 14853 14854 14855 
3 14856 14857 14858 
3 14859 14860 14861 
3 14862 14863 14864 
3 14865 14866 14867 
3 14868 14869 14870 
3 14871 14872 14873 
3 14874 14875 14876 
3 14877 14878 14879 
3 14880 14881 14882 
3 14883 14884 14885 
3 14886 14887 14888 
3 14889 14890 14891 
3 14892 14893 14894 
3 14895 14896 14897 
3 14898 14899 14900 
3 14901 14902 14903 
3 14904 14905 14906 
3 14907 14908 14909 
3 14910 14911 14912 
3 14913 14914 14915 
3 14916 14917 14918 
3 14919 14920 14921 
3 14922 14923 14924 
3 14925 14926 14927 
3 14928 14929 14930 
3 14931 14932 14933 
3 14934 14935 14936 
3 14937 14938 14939 
3 14940 14941 14942 
3 14943 14944 14945 
3 14946 14947 14948 
3 14949 14950 14951 
3 14952 14953 14954 
3 14955 14956 14957 
3 14958 14959 14960 
3 14961 14962 14963 
3 14964 14965 14966 
3 14967 14968 14969 
3 14970 14971 14972 
3 14973 14974 14975 
3 14976 14977 14978 
3 14979 14980 14981 
3 14982 14983 14984 
3 14985 14986 14987 
3 14988 14989 14990 
3 14991 14992 14993 
3 14994 14995 14996 
3 14997 14998 14999 
3 15000 15001 15002 
3 15003 15004 15005 
3 15006 15007 15008 
3 15009 15010 15011 
3 15012 15013 15014 
3 15015 15016 15017 
3 15018 15019 15020 
3 15021 15022 15023 
3 15024 15025 15026 
3 15027 15028 15029 
3 15030 15031 15032 
3 15033 15034 15035 
3 15036 15037 15038 
3 15039 15040 15041 
3 15042 15043 15044 
3 15045 15046 15047 
3 15048 15049 15050 
3 15051 15052 15053 
3 15054 15055 15056 
3 15057 15058 15059 
3 15060 15061 15062 
3 15063 15064 15065 
3 15066 15067 15068 
3 15069 15070 15071 
3 15072 15073 15074 
3 15075 15076 15077 
3 15078 15079 15080 
3 15081 15082 15083 
3 15084 15085 15086 
3 15087 15088 15089 
3 15090 15091 15092 
3 15093 15094 15095 
3 15096 15097 15098 
3 15099 15100 15101 
3 15102 15103 15104 
3 15105 15106 15107 
3 15108 15109 15110 
3 15111 15112 15113 
3 15114 15115 15116 
3 15117 15118 15119 
3 15120 15121 15122 
3 15123 15124 15125 
3 15126 15127 15128 
3 15129 15130 15131 
3 15132 15133 15134 
3 15135 15136 15137 
3 15138 15139 15140 
3 15141 15142 15143 
3 15144 15145 15146 
3 15147 15148 15149 
3 15150 15151 15152 
3 15153 15154 15155 
3 15156 15157 15158 
3 15159 15160 15161 
3 15162 15163 15164 
3 15165 15166 15167 
3 15168 15169 15170 
3 15171 15172 15173 
3 15174 15175 15176 
3 15177 15178 15179 
3 15180 15181 15182 
3 15183 15184 15185 
3 15186 15187 15188 
3 15189 15190 15191 
3 15192 15193 15194 
3 15195 15196 15197 
3 15198 15199 15200 
3 15201 15202 15203 
3 15204 15205 15206 
3 15207 15208 15209 
3 15210 15211 15212 
3 15213 15214 15215 
3 15216 15217 15218 
3 15219 15220 15221 
3 15222 15223 15224 
3 15225 15226 15227 
3 15228 15229 15230 
3 15231 15232 15233 
3 15234 15235 15236 
3 15237 15238 15239 
3 15240 15241 15242 
3 15243 15244 15245 
3 15246 15247 15248 
3 15249 15250 15251 
3 15252 15253 15254 
3 15255 15256 15257 
3 15258 15259 15260 
3 15261 15262 15263 
3 15264 15265 15266 
3 15267 15268 15269 
3 15270 15271 15272 
3 15273 15274 15275 
3 15276 15277 15278 
3 15279 15280 15281 
3 15282 15283 15284 
3 15285 15286 15287 
3 15288 15289 15290 
3 15291 15292 15293 
3 15294 15295 15296 
3 15297 15298 15299 
3 15300 15301 15302 
3 15303 15304 15305 
3 15306 15307 15308 
3 15309 15310 15311 
3 15312 15313 15314 
3 15315 15316 15317 
3 15318 15319 15320 
3 15321 15322 15323 
3 15324 15325 15326 
3 15327 15328 15329 
3 15330 15331 15332 
3 15333 15334 15335 
3 15336 15337 15338 
3 15339 15340 15341 
3 15342 15343 15344 
3 15345 15346 15347 
3 15348 15349 15350 
3 15351 15352 15353 
3 15354 15355 15356 
3 15357 15358 15359 
3 15360 15361 15362 
3 15363 15364 15365 
3 15366 15367 15368 
3 15369 15370 15371 
3 15372 15373 15374 
3 15375 15376 15377 
3 15378 15379 15380 
3 15381 15382 15383 
3 15384 15385 15386 
3 15387 15388 15389 
3 15390 15391 15392 
3 15393 15394 15395 
3 15396 15397 15398 
3 15399 15400 15401 
3 15402 15403 15404 
3 15405 15406 15407 
3 15408 15409 15410 
3 15411 15412 15413 
3 15414 15415 15416 
3 15417 15418 15419 
3 15420 15421 15422 
3 15423 15424 15425 
3 15426 15427 15428 
3 15429 15430 15431 
3 15432 15433 15434 
3 15435 15436 15437 
3 15438 15439 15440 
3 15441 15442 15443 
3 15444 15445 15446 
3 15447 15448 15449 
3 15450 15451 15452 
3 15453 15454 15455 
3 15456 15457 15458 
3 15459 15460 15461 
3 15462 15463 15464 
3 15465 15466 15467 
3 15468 15469 15470 
3 15471 15472 15473 
3 15474 15475 15476 
3 15477 15478 15479 
3 15480 15481 15482 
3 15483 15484 15485 
3 15486 15487 15488 
3 15489 15490 15491 
3 15492 15493 15494 
3 15495 15496 15497 
3 15498 15499 15500 
3 15501 15502 15503 
3 15504 15505 15506 
3 15507 15508 15509 
3 15510 15511 15512 
3 15513 15514 15515 
3 15516 15517 15518 
3 15519 15520 15521 
3 15522 15523 15524 
3 15525 15526 15527 
3 15528 15529 15530 
3 15531 15532 15533 
3 15534 15535 15536 
3 15537 15538 15539 
3 15540 15541 15542 
3 15543 15544 15545 
3 15546 15547 15548 
3 15549 15550 15551 
3 15552 15553 15554 
3 15555 15556 15557 
3 15558 15559 15560 
3 15561 15562 15563 
3 15564 15565 15566 
3 15567 15568 15569 
3 15570 15571 15572 
3 15573 15574 15575 
3 15576 15577 15578 
3 15579 15580 15581 
3 15582 15583 15584 
3 15585 15586 15587 
3 15588 15589 15590 
3 15591 15592 15593 
3 15594 15595 15596 
3 15597 15598 15599 
3 15600 15601 15602 
3 15603 15604 15605 
3 15606 15607 15608 
3 15609 15610 15611 
3 15612 15613 15614 
3 15615 15616 15617 
3 15618 15619 15620 
3 15621 15622 15623 
3 15624 15625 15626 
3 15627 15628 15629 
3 15630 15631 15632 
3 15633 15634 15635 
3 15636 15637 15638 
3 15639 15640 15641 
3 15642 15643 15644 
3 15645 15646 15647 
3 15648 15649 15650 
3 15651 15652 15653 
3 15654 15655 15656 
3 15657 15658 15659 
3 15660 15661 15662 
3 15663 15664 15665 
3 15666 15667 15668 
3 15669 15670 15671 
3 15672 15673 15674 
3 15675 15676 15677 
3 15678 15679 15680 
3 15681 15682 15683 
3 15684 15685 15686 
3 15687 15688 15689 
3 15690 15691 15692 
3 15693 15694 15695 
3 15696 15697 15698 
3 15699 15700 15701 
3 15702 15703 15704 
3 15705 15706 15707 
3 15708 15709 15710 
3 15711 15712 15713 
3 15714 15715 15716 
3 15717 15718 15719 
3 15720 15721 15722 
3 15723 15724 15725 
3 15726 15727 15728 
3 15729 15730 15731 
3 15732 15733 15734 
3 15735 15736 15737 
3 15738 15739 15740 
3 15741 15742 15743 
3 15744 15745 15746 
3 15747 15748 15749 
3 15750 15751 15752 
3 15753 15754 15755 
3 15756 15757 15758 
3 15759 15760 15761 
3 15762 15763 15764 
3 15765 15766 15767 
3 15768 15769 15770 
3 15771 15772 15773 
3 15774 15775 15776 
3 15777 15778 15779 
3 15780 15781 15782 
3 15783 15784 15785 
3 15786 15787 15788 
3 15789 15790 15791 
3 15792 15793 15794 
3 15795 15796 15797 
3 15798 15799 15800 
3 15801 15802 15803 
3 15804 15805 15806 
3 15807 15808 15809 
3 15810 15811 15812 
3 15813 15814 15815 
3 15816 15817 15818 
3 15819 15820 15821 
3 15822 15823 15824 
3 15825 15826 15827 
3 15828 15829 15830 
3 15831 15832 15833 
3 15834 15835 15836 
3 15837 15838 15839 
3 15840 15841 15842 
3 15843 15844 15845 
3 15846 15847 15848 
3 15849 15850 15851 
3 15852 15853 15854 
3 15855 15856 15857 
3 15858 15859 15860 
3 15861 15862 15863 
3 15864 15865 15866 
3 15867 15868 15869 
3 15870 15871 15872 
3 15873 15874 15875 
3 15876 15877 15878 
3 15879 15880 15881 
3 15882 15883 15884 
3 15885 15886 15887 
3 15888 15889 15890 
3 15891 15892 15893 
3 15894 15895 15896 
3 15897 15898 15899 
3 15900 15901 15902 
3 15903 15904 15905 
3 15906 15907 15908 
3 15909 15910 15911 
3 15912 15913 15914 
3 15915 15916 15917 
3 15918 15919 15920 
3 15921 15922 15923 
3 15924 15925 15926 
3 15927 15928 15929 
3 15930 15931 15932 
3 15933 15934 15935 
3 15936 15937 15938 
3 15939 15940 15941 
3 15942 15943 15944 
3 15945 15946 15947 
3 15948 15949 15950 
3 15951 15952 15953 
3 15954 15955 15956 
3 15957 15958 15959 
3 15960 15961 15962 
3 15963 15964 15965 
3 15966 15967 15968 
3 15969 15970 15971 
3 15972 15973 15974 
3 15975 15976 15977 
3 15978 15979 15980 
3 15981 15982 15983 
3 15984 15985 15986 
3 15987 15988 15989 
3 15990 15991 15992 
3 15993 15994 15995 
3 15996 15997 15998 
3 15999 16000 16001 
3 16002 16003 16004 
3 16005 16006 16007 
3 16008 16009 16010 
3 16011 16012 16013 
3 16014 16015 16016 
3 16017 16018 16019 
3 16020 16021 16022 
3 16023 16024 16025 
3 16026 16027 16028 
3 16029 16030 16031 
3 16032 16033 16034 
3 16035 16036 16037 
3 16038 16039 16040 
3 16041 16042 16043 
3 16044 16045 16046 
3 16047 16048 16049 
3 16050 16051 16052 
3 16053 16054 16055 
3 16056 16057 16058 
3 16059 16060 16061 
3 16062 16063 16064 
3 16065 16066 16067 
3 16068 16069 16070 
3 16071 16072 16073 
3 16074 16075 16076 
3 16077 16078 16079 
3 16080 16081 16082 
3 16083 16084 16085 
3 16086 16087 16088 
3 16089 16090 16091 
3 16092 16093 16094 
3 16095 16096 16097 
3 16098 16099 16100 
3 16101 16102 16103 
3 16104 16105 16106 
3 16107 16108 16109 
3 16110 16111 16112 
3 16113 16114 16115 
3 16116 16117 16118 
3 16119 16120 16121 
3 16122 16123 16124 
3 16125 16126 16127 
3 16128 16129 16130 
3 16131 16132 16133 
3 16134 16135 16136 
3 16137 16138 16139 
3 16140 16141 16142 
3 16143 16144 16145 
3 16146 16147 16148 
3 16149 16150 16151 
3 16152 16153 16154 
3 16155 16156 16157 
3 16158 16159 16160 
3 16161 16162 16163 
3 16164 16165 16166 
3 16167 16168 16169 
3 16170 16171 16172 
3 16173 16174 16175 
3 16176 16177 16178 
3 16179 16180 16181 
3 16182 16183 16184 
3 16185 16186 16187 
3 16188 16189 16190 
3 16191 16192 16193 
3 16194 16195 16196 
3 16197 16198 16199 
3 16200 16201 16202 
3 16203 16204 16205 
3 16206 16207 16208 
3 16209 16210 16211 
3 16212 16213 16214 
3 16215 16216 16217 
3 16218 16219 16220 
3 16221 16222 16223 
3 16224 16225 16226 
3 16227 16228 16229 
3 16230 16231 16232 
3 16233 16234 16235 
3 16236 16237 16238 
3 16239 16240 16241 
3 16242 16243 16244 
3 16245 16246 16247 
3 16248 16249 16250 
3 16251 16252 16253 
3 16254 16255 16256 
3 16257 16258 16259 
3 16260 16261 16262 
3 16263 16264 16265 
3 16266 16267 16268 
3 16269 16270 16271 
3 16272 16273 16274 
3 16275 16276 16277 
3 16278 16279 16280 
3 16281 16282 16283 
3 16284 16285 16286 
3 16287 16288 16289 
3 16290 16291 16292 
3 16293 16294 16295 
3 16296 16297 16298 
3 16299 16300 16301 
3 16302 16303 16304 
3 16305 16306 16307 
3 16308 16309 16310 
3 16311 16312 16313 
3 16314 16315 16316 
3 16317 16318 16319 
3 16320 16321 16322 
3 16323 16324 16325 
3 16326 16327 16328 
3 16329 16330 16331 
3 16332 16333 16334 
3 16335 16336 16337 
3 16338 16339 16340 
3 16341 16342 16343 
3 16344 16345 16346 
3 16347 16348 16349 
3 16350 16351 16352 
3 16353 16354 16355 
3 16356 16357 16358 
3 16359 16360 16361 
3 16362 16363 16364 
3 16365 16366 16367 
3 16368 16369 16370 
3 16371 16372 16373 
3 16374 16375 16376 
3 16377 16378 16379 
3 16380 16381 16382 
3 16383 16384 16385 
3 16386 16387 16388 
3 16389 16390 16391 
3 16392 16393 16394 
3 16395 16396 16397 
3 16398 16399 16400 
3 16401 16402 16403 
3 16404 16405 16406 
3 16407 16408 16409 
3 16410 16411 16412 
3 16413 16414 16415 
3 16416 16417 16418 
3 16419 16420 16421 
3 16422 16423 16424 
3 16425 16426 16427 
3 16428 16429 16430 
3 16431 16432 16433 
3 16434 16435 16436 
3 16437 16438 16439 
3 16440 16441 16442 
3 16443 16444 16445 
3 16446 16447 16448 
3 16449 16450 16451 
3 16452 16453 16454 
3 16455 16456 16457 
3 16458 16459 16460 
3 16461 16462 16463 
3 16464 16465 16466 
3 16467 16468 16469 
3 16470 16471 16472 
3 16473 16474 16475 
3 16476 16477 16478 
3 16479 16480 16481 
3 16482 16483 16484 
3 16485 16486 16487 
3 16488 16489 16490 
3 16491 16492 16493 
3 16494 16495 16496 
3 16497 16498 16499 
3 16500 16501 16502 
3 16503 16504 16505 
3 16506 16507 16508 
3 16509 16510 16511 
3 16512 16513 16514 
3 16515 16516 16517 
3 16518 16519 16520 
3 16521 16522 16523 
3 16524 16525 16526 
3 16527 16528 16529 
3 16530 16531 16532 
3 16533 16534 16535 
3 16536 16537 16538 
3 16539 16540 16541 
3 16542 16543 16544 
3 16545 16546 16547 
3 16548 16549 16550 
3 16551 16552 16553 
3 16554 16555 16556 
3 16557 16558 16559 
3 16560 16561 16562 
3 16563 16564 16565 
3 16566 16567 16568 
3 16569 16570 16571 
3 16572 16573 16574 
3 16575 16576 16577 
3 16578 16579 16580 
3 16581 16582 16583 
3 16584 16585 16586 
3 16587 16588 16589 
3 16590 16591 16592 
3 16593 16594 16595 
3 16596 16597 16598 
3 16599 16600 16601 
3 16602 16603 16604 
3 16605 16606 16607 
3 16608 16609 16610 
3 16611 16612 16613 
3 16614 16615 16616 
3 16617 16618 16619 
3 16620 16621 16622 
3 16623 16624 16625 
3 16626 16627 16628 
3 16629 16630 16631 
3 16632 16633 16634 
3 16635 16636 16637 
3 16638 16639 16640 
3 16641 16642 16643 
3 16644 16645 16646 
3 16647 16648 16649 
3 16650 16651 16652 
3 16653 16654 16655 
3 16656 16657 16658 
3 16659 16660 16661 
3 16662 16663 16664 
3 16665 16666 16667 
3 16668 16669 16670 
3 16671 16672 16673 
3 16674 16675 16676 
3 16677 16678 16679 
3 16680 16681 16682 
3 16683 16684 16685 
3 16686 16687 16688 
3 16689 16690 16691 
3 16692 16693 16694 
3 16695 16696 16697 
3 16698 16699 16700 
3 16701 16702 16703 
3 16704 16705 16706 
3 16707 16708 16709 
3 16710 16711 16712 
3 16713 16714 16715 
3 16716 16717 16718 
3 16719 16720 16721 
3 16722 16723 16724 
3 16725 16726 16727 
3 16728 16729 16730 
3 16731 16732 16733 
3 16734 16735 16736 
3 16737 16738 16739 
3 16740 16741 16742 
3 16743 16744 16745 
3 16746 16747 16748 
3 16749 16750 16751 
3 16752 16753 16754 
3 16755 16756 16757 
3 16758 16759 16760 
3 16761 16762 16763 
3 16764 16765 16766 
3 16767 16768 16769 
3 16770 16771 16772 
3 16773 16774 16775 
3 16776 16777 16778 
3 16779 16780 16781 
3 16782 16783 16784 
3 16785 16786 16787 
3 16788 16789 16790 
3 16791 16792 16793 
3 16794 16795 16796 
3 16797 16798 16799 
3 16800 16801 16802 
3 16803 16804 16805 
3 16806 16807 16808 
3 16809 16810 16811 
3 16812 16813 16814 
3 16815 16816 16817 
3 16818 16819 16820 
3 16821 16822 16823 
3 16824 16825 16826 
3 16827 16828 16829 
3 16830 16831 16832 
3 16833 16834 16835 
3 16836 16837 16838 
3 16839 16840 16841 
3 16842 16843 16844 
3 16845 16846 16847 
3 16848 16849 16850 
3 16851 16852 16853 
3 16854 16855 16856 
3 16857 16858 16859 
3 16860 16861 16862 
3 16863 16864 16865 
3 16866 16867 16868 
3 16869 16870 16871 
3 16872 16873 16874 
3 16875 16876 16877 
3 16878 16879 16880 
3 16881 16882 16883 
3 16884 16885 16886 
3 16887 16888 16889 
3 16890 16891 16892 
3 16893 16894 16895 
3 16896 16897 16898 
3 16899 16900 16901 
3 16902 16903 16904 
3 16905 16906 16907 
3 16908 16909 16910 
3 16911 16912 16913 
3 16914 16915 16916 
3 16917 16918 16919 
3 16920 16921 16922 
3 16923 16924 16925 
3 16926 16927 16928 
3 16929 16930 16931 
3 16932 16933 16934 
3 16935 16936 16937 
3 16938 16939 16940 
3 16941 16942 16943 
3 16944 16945 16946 
3 16947 16948 16949 
3 16950 16951 16952 
3 16953 16954 16955 
3 16956 16957 16958 
3 16959 16960 16961 
3 16962 16963 16964 
3 16965 16966 16967 
3 16968 16969 16970 
3 16971 16972 16973 
3 16974 16975 16976 
3 16977 16978 16979 
3 16980 16981 16982 
3 16983 16984 16985 
3 16986 16987 16988 
3 16989 16990 16991 
3 16992 16993 16994 
3 16995 16996 16997 
3 16998 16999 17000 
3 17001 17002 17003 
3 17004 17005 17006 
3 17007 17008 17009 
3 17010 17011 17012 
3 17013 17014 17015 
3 17016 17017 17018 
3 17019 17020 17021 
3 17022 17023 17024 
3 17025 17026 17027 
3 17028 17029 17030 
3 17031 17032 17033 
3 17034 17035 17036 
3 17037 17038 17039 
3 17040 17041 17042 
3 17043 17044 17045 
3 17046 17047 17048 
3 17049 17050 17051 
3 17052 17053 17054 
3 17055 17056 17057 
3 17058 17059 17060 
3 17061 17062 17063 
3 17064 17065 17066 
3 17067 17068 17069 
3 17070 17071 17072 
3 17073 17074 17075 
3 17076 17077 17078 
3 17079 17080 17081 
3 17082 17083 17084 
3 17085 17086 17087 
3 17088 17089 17090 
3 17091 17092 17093 
3 17094 17095 17096 
3 17097 17098 17099 
3 17100 17101 17102 
3 17103 17104 17105 
3 17106 17107 17108 
3 17109 17110 17111 
3 17112 17113 17114 
3 17115 17116 17117 
3 17118 17119 17120 
3 17121 17122 17123 
3 17124 17125 17126 
3 17127 17128 17129 
3 17130 17131 17132 
3 17133 17134 17135 
3 17136 17137 17138 
3 17139 17140 17141 
3 17142 17143 17144 
3 17145 17146 17147 
3 17148 17149 17150 
3 17151 17152 17153 
3 17154 17155 17156 
3 17157 17158 17159 
3 17160 17161 17162 
3 17163 17164 17165 
3 17166 17167 17168 
3 17169 17170 17171 
3 17172 17173 17174 
3 17175 17176 17177 
3 17178 17179 17180 
3 17181 17182 17183 
3 17184 17185 17186 
3 17187 17188 17189 
3 17190 17191 17192 
3 17193 17194 17195 
3 17196 17197 17198 
3 17199 17200 17201 
3 17202 17203 17204 
3 17205 17206 17207 
3 17208 17209 17210 
3 17211 17212 17213 
3 17214 17215 17216 
3 17217 17218 17219 
3 17220 17221 17222 
3 17223 17224 17225 
3 17226 17227 17228 
3 17229 17230 17231 

CELL_DATA 5744
FIELD FieldData 5
normal_stress_average 1 5744 double
0 0 0 0 0 0 0 0 0 
0 0 0 0 0 0 0 0 0 
0 0 0 0 0 0 0 0 0 
0 0 0 0 0 0 0 0 0 
0 0 0 0 0 0 0 0 0 
0 0 0 0 0 0 0 0 0 
0 0 0 0 0 0 0 0 0 
0 0 0 0 0 0 0 0 0 
0 0 0 0 0 0 0 0 0 
0 0 0 0 0 0 0 0 0 
0 0 0 0 0 0 0 0 0 
0 0 0 0 0 0 0 0 0 
0 0 0 0 0 0 0 0 0 
0 0 0 0 0 0 0 0 0 
0 0 0 0 0 0 0 0 0 
0 0 0 0 0 0 0 0 0 
0 0 0 0 0 0 0 0 0 
0 0 0 0 0 0 0 0 0 
0 0 0 0 0 0 0 0 0 
0 0 0 0 0 0 0 0 0 
0 0 0 0 0 0 0 0 0 
0 0 0 0 0 0 0 0 0 
0 0 0 0 0 0 0 0 0 
0 0 0 0 0 0 0 0 0 
0 0 0 0 0 0 0 0 0 
0 0 0 0 0 0 0 0 0 
0 0 0 0 0 0 0 0 0 
0 0 0 0 0 0 0 0 0 
0 0 0 0 0 0 0 0 -0 
-0 -0 -0 -0 -0 -0 -0 -0 -0 
-0 -0 -0 -0 -0 -0 -0 -0 -0 
-0 -0 -0 -0 -0 -0 -0 -0 -0 
-0 -0 -0 -0 -0 -0 -0 -0 -0 
-0 -0 -0 -0 -0 -0 -0 -0 -0 
-0 -0 -0 -0 -0 -0 -0 -0 -0 
-0 -0 -0 -0 -0 -0 -0 -0 -0 
-0 -0 -0 -0 0 0 0 0 0 
0 0 0 0 0 0 0 0 0 
0 0 0 0 0 0 0 0 0 
0 0 0 0 0 0 0 0 0 
0 0 0 0 0 0 0 0 0 
0 0 0 0 0 0 0 0 0 
0 0 0 0 0 0 0 0 0 
0 0 0 0 0 0 0 0 0 
0 0 0 0 0 0 0 0 0 
0 0 0 0 0 0 0 0 0 
0 0 0 0 0 0 0 0 0 
0 0 0 0 0 0 0 0 0 
0 0 0 0 0 0 0 0 0 
0 0 0 0 0 0 0 0 0 
0 0 0 0 0 0 0 0 0 
0 0 0 0 0 0 0 0 0 
0 0 0 0 0 0 0 0 0 
0 0 0 0 0 0 0 0 0 
0 0 0 0 0 0 0 -0 -0 
-0 -0 -0 -0 -0 -0 -0 -0 -0 
-0 -0 -0 -0 -0 -0 -0 -0 -0 
-0 -0 -0 -0 -0 -0 -0 -0 -0 
-0 -0 -0 -0 -0 -0 -0 -0 0 
0 0 0 0 0 0 0 0 0 
0 0 0 0 -0 -0 -0 0 0 
0 0 0 0 0 0 0 0 0 
0 0 0 0 0 0 0 0 0 
0 0 0 0 0 0 0 0 0 
0 0 0 0 0 0 0 0 0 
0 0 0 -0 -0 -0 -0 -0 -0 
-0 -0 -0 -0 -0 -0 -0 -0 0 
0 0 0 0 0 0 0 0 0 
0 0 0 0 0 0 0 0 0 
0 0 0 0 0 0 0 0 0 
0 0 0 0 0 0 0 0 0 
0 0 0 0 0 0 -0 -0 -0 
-0 -0 -0 -0 -0 -0 -0 -0 -0 
-0 -0 0 0 0 0 0 0 0 
0 0 -0 0 0 0 0 0 0 
0 0 0 0 0 0 0 0 0 
0 0 0 0 0 0 0 0 0 
0 0 0 0 0 0 0 0 0 
0 0 0 0 0 0 0 0 0 
0 0 0 0 0 0 -0 -0 -0 
-0 -0 -0 -0 -0 -0 -0 -0 -0 
-0 -0 -0 0 0 0 0 0 0 
0 0 0 0 0 0 0 0 0 
0 0 0 0 0 0 0 0 0 
-0 -0 -0 -0 -0 0 0 0 0 
0 0 0 0 0 0 0 0 0 
0 0 0 0 0 0 0 0 0 
0 0 0 0 0 0 0 0 0 
0 0 -0 -0 -0 -0 -0 -0 -0 
-0 -0 -0 -0 -0 0 0 0 0 
0 0 0 0 0 0 0 0 0 
0 0 0 0 0 0 -0 -0 -0 
-0 -0 -0 -0 0 0 0 0 0 
0 0 0 0 0 0 0 0 0 
0 0 0 0 0 0 0 0 0 
0 0 0 0 0 0 0 0 0 
0 0 0 0 0 0 0 0 -0 
-0 -0 -0 -0 -0 -0 -0 -0 -0 
-0 -0 0 0 0 0 0 0 -0 
-0 -0 0 0 0 0 0 0 0 
0 0 0 0 0 0 0 0 0 
0 0 0 0 0 0 0 0 0 
0 0 0 0 0 0 0 0 0 
0 0 0 0 0 0 0 0 0 
0 -0 -0 -0 -0 -0 -0 -0 -0 
-0 -0 -0 -0 0 0 -0 -0 -0 
-0 -0 -0 -0 -0 -0 -0 -0 -0 
-0 0 0 0 0 0 0 0 0 
0 0 0 0 0 0 0 0 0 
0 0 0 0 0 0 0 0 0 
0 0 0 0 0 0 0 0 0 
0 0 0 0 0 0 0 0 0 
0 0 0 -0 -0 0 0 0 0 
0 -0 -0 -0 -0 -0 -0 -0 -0 
-0 -0 -0 -0 0 0 0 0 0 
0 0 0 0 0 0 0 0 0 
0 0 0 0 0 0 0 0 0 
0 0 0 0 0 0 0 0 0 
0 0 0 0 0 0 0 0 -0 
-0 -0 -0 -0 0 0 0 0 0 
0 0 0 0 0 0 0 0 0 
-0 -0 -0 -0 -0 -0 -0 -0 -0 
-0 0 0 0 0 0 0 0 0 
0 0 0 0 0 0 0 0 0 
0 0 0 0 0 0 0 0 0 
0 0 0 -0 -0 -0 -0 0 0 
0 0 0 0 0 0 0 0 0 
0 0 0 0 0 0 0 0 0 
0 0 -0 -0 -0 -0 -0 -0 -0 
-0 -0 -0 -0 -0 -0 -0 -0 0 
0 0 0 0 0 0 0 0 0 
0 0 0 0 0 0 0 0 0 
0 0 0 0 0 0 0 0 0 
0 0 0 0 0 0 0 0 0 
0 0 0 0 0 -0 -0 -0 0 
0 0 0 0 0 0 0 0 0 
0 0 -0 -0 -0 -0 -0 -0 -0 
-0 -0 -0 -0 -0 -0 -0 -0 -0 
-0 -0 -0 0 0 0 0 0 0 
0 0 0 0 0 0 0 0 0 
0 0 0 0 0 0 0 0 0 
0 0 0 0 0 0 0 0 0 
0 0 0 0 0 0 0 0 -0 
-0 -0 -0 -0 -0 -0 -0 -0 -0 
-0 -0 -0 -0 0 0 0 0 0 
0 0 0 0 0 0 0 0 0 
0 0 0 0 0 0 0 0 0 
0 0 0 0 0 0 0 0 0 
0 0 0 0 -0 0 0 0 0 
0 0 0 -0 -0 -0 -0 -0 -0 
-0 -0 -0 -0 -0 -0 -0 -0 -0 
-0 -0 -0 -0 -0 -0 -0 -0 -0 
0 0 0 0 0 0 0 0 0 
0 0 0 0 0 0 0 0 0 
0 0 0 0 0 0 0 0 0 
0 0 0 0 0 0 0 0 0 
0 0 0 0 0 0 0 0 0 
0 0 0 0 0 0 0 0 0 
0 0 0 0 0 0 0 0 0 
0 0 0 0 0 0 0 0 0 
0 0 0 0 0 0 0 0 0 
0 0 0 0 0 0 0 0 0 
0 0 0 0 0 0 0 -0 -0 
-0 -0 -0 -0 -0 -0 -0 -0 -0 
90873603.877 -0 44594243.167 44561114.375 -0 38532841.916 49747482.607 26692040.9 0 
8228335.87 7360572.2548 0 0 5342602.5757 1014621.6867 0 0 0 
0 0 0 0 0 0 0 0 0 
0 0 0 0 0 -0 -0 15021706.417 2882387.1573 
7092870.1424 21163869.586 27951414.376 0 0 0 0 0 0 
-0 -0 0 0 0 0 0 0 0 
0 0 -0 16704224.947 30015612.004 14156713.201 0 0 0 
0 0 0 0 0 0 0 -0 -0 
-0 -0 -0 0 0 0 0 0 0 
0 0 0 0 0 0 0 -0 -0 
-0 -0 0 0 0 0 0 0 0 
0 0 -0 0 0 0 0 0 0 
0 0 0 0 0 0 0 0 0 
-0 -0 -0 -0 -0 0 0 0 0 
0 0 0 0 0 0 0 0 0 
0 0 0 -0 -0 -0 -0 0 0 
0 0 0 0 0 0 -0 -0 -0 
-0 -0 -0 -0 0 0 0 0 0 
0 0 0 0 0 0 0 0 0 
0 0 -0 -0 -0 -0 -0 0 0 
0 0 0 0 0 0 0 0 0 
0 0 0 0 0 0 -0 -0 -0 
-0 0 0 0 0 0 0 0 0 
0 0 0 0 0 0 0 0 0 
0 -0 -0 -0 -0 -0 0 0 0 
0 0 0 0 0 0 0 0 0 
0 0 0 0 0 0 0 -0 -0 
-0 -0 -0 0 0 0 0 0 0 
0 0 0 0 0 0 0 0 0 
0 -0 -0 -0 -0 -0 -0 -0 0 
0 0 0 0 0 0 0 0 0 
0 0 0 0 0 0 0 0 0 
0 0 -0 -0 -0 -0 0 0 0 
0 0 0 0 0 0 0 0 0 
0 0 0 0 -0 -0 -0 -0 -0 
-0 -0 -0 -0 -0 0 0 0 0 
0 0 0 0 0 0 0 0 0 
0 0 0 0 0 0 0 0 0 
-0 -0 -0 -0 -0 0 0 0 0 
0 0 0 0 0 0 0 0 0 
0 0 0 0 0 0 0 0 0 
0 0 -0 -0 -0 -0 -0 -0 -0 
-0 -0 -0 0 0 0 0 0 0 
0 0 0 0 0 0 0 0 0 
0 0 0 0 0 -0 -0 -0 -0 
-0 -0 -0 -0 -0 -0 -0 -0 0 
0 0 0 0 0 0 0 0 0 
0 0 0 0 0 0 0 0 0 
0 0 0 0 0 0 0 0 0 
0 0 -0 0 0 0 0 0 0 
0 0 0 0 0 0 0 0 0 
0 0 0 0 0 0 0 0 0 
0 0 -0 -0 -0 -0 -0 -0 -0 
-0 -0 -0 -0 -0 0 0 0 0 
0 0 0 0 0 0 0 0 0 
0 0 0 0 0 0 0 0 -0 
-0 -0 -0 -0 -0 -0 -0 -0 -0 
-0 -0 0 0 0 0 0 0 0 
0 0 0 0 0 0 0 0 0 
0 0 0 0 0 0 0 0 0 
0 0 0 0 0 0 0 -0 -0 
-0 -0 -0 -0 0 0 0 0 0 
0 0 0 0 0 0 0 0 0 
0 0 0 0 0 0 0 0 0 
0 0 0 0 0 0 0 0 -0 
-0 -0 -0 -0 -0 -0 -0 0 0 
0 0 0 0 0 0 0 0 0 
0 0 0 0 0 0 0 0 0 
0 0 0 0 0 0 0 0 0 
0 0 0 0 0 0 0 0 -0 
-0 -0 -0 -0 -0 -0 -0 -0 -0 
-0 -0 0 0 0 0 0 0 0 
0 0 0 0 0 0 0 0 0 
0 0 0 0 0 0 0 -0 -0 
-0 -0 -0 -0 0 0 0 0 0 
0 0 0 0 0 0 0 0 0 
0 0 0 0 0 0 0 0 0 
0 0 0 0 0 0 0 0 0 
0 0 0 -0 -0 -0 -0 -0 -0 
-0 -0 -0 -0 0 0 0 0 0 
0 0 0 0 0 0 0 0 0 
0 0 0 0 0 0 0 0 0 
0 0 0 0 0 0 0 0 0 
0 0 0 0 0 0 0 0 0 
0 0 0 0 0 0 0 0 0 
-0 -0 -0 -0 -0 -0 -0 -0 -0 
-0 -0 -0 -0 -0 -0 0 0 0 
0 0 0 0 0 0 0 0 0 
0 0 0 0 0 0 0 0 0 
0 0 0 0 0 0 0 0 0 
0 0 0 -0 -0 -0 -0 -0 -0 
-0 -0 -0 -0 -0 -0 -0 -0 -0 
0 0 0 0 0 0 0 0 0 
0 0 0 0 0 0 0 0 0 
0 0 0 0 0 0 0 0 0 
0 0 0 0 0 0 0 0 0 
0 -0 -0 -0 -0 -0 -0 0 0 
0 0 0 0 0 0 0 0 0 
0 0 0 0 0 0 0 0 0 
0 0 0 0 0 0 0 0 0 
0 0 0 -0 -0 -0 -0 -0 -0 
-0 -0 -0 0 0 0 0 0 0 
0 0 0 0 0 0 0 0 0 
0 0 0 0 0 0 0 0 0 
0 0 0 0 0 -0 -0 -0 -0 
-0 -0 -0 -0 -0 -0 -0 -0 -0 
-0 0 0 0 0 0 0 0 0 
0 0 0 0 0 0 0 0 0 
0 0 0 0 0 0 0 0 0 
0 0 0 0 0 0 0 0 0 
0 0 0 -0 -0 -0 -0 -0 -0 
-0 -0 0 0 0 0 0 0 0 
0 0 0 0 0 0 0 0 0 
0 0 0 0 0 0 0 0 0 
0 0 0 0 0 0 0 0 -0 
-0 -0 -0 -0 -0 -0 0 0 0 
0 0 0 0 0 0 0 0 0 
0 0 0 0 0 0 0 0 0 
0 0 0 0 0 0 0 0 0 
0 -0 -0 -0 -0 -0 -0 -0 -0 
-0 -0 0 0 0 0 0 0 0 
0 0 0 0 0 0 0 0 0 
0 0 0 0 0 0 0 0 0 
0 0 -0 -0 -0 -0 -0 -0 -0 
-0 -0 -0 -0 -0 -0 0 0 0 
0 0 0 0 0 0 0 0 0 
0 0 0 0 0 0 0 0 0 
0 0 0 0 0 0 0 -0 0 
0 0 0 0 0 0 0 0 0 
0 0 0 0 0 0 0 0 0 
0 0 0 0 0 0 0 0 0 
0 0 0 -0 -0 -0 -0 -0 -0 
-0 -0 -0 -0 -0 -0 -0 0 0 
0 0 0 0 0 0 0 0 0 
0 0 0 0 0 -0 -0 -0 -0 
-0 -0 -0 -0 0 0 0 0 0 
0 0 0 0 0 0 0 0 0 
0 0 0 0 0 0 0 0 0 
0 0 0 0 0 0 -0 -0 -0 
-0 -0 0 0 0 0 0 0 0 
0 0 0 0 0 0 0 0 0 
0 0 0 0 0 0 0 0 0 
0 -0 -0 -0 -0 -0 -0 -0 -0 
-0 -0 -0 0 0 0 0 0 0 
0 0 0 0 0 0 0 0 0 
0 0 -0 -0 -0 0 0 0 0 
0 0 0 0 0 0 0 0 0 
0 0 0 0 0 0 0 0 -0 
-0 -0 -0 -0 -0 -0 -0 -0 0 
0 0 0 0 0 0 0 0 0 
0 0 0 0 0 0 -0 -0 -0 
-0 -0 0 0 0 0 0 0 0 
0 0 0 0 0 0 0 0 0 
0 0 0 0 0 0 0 -0 -0 
-0 -0 -0 -0 -0 0 0 0 0 
0 0 0 0 0 0 0 -0 -0 
-0 -0 -0 0 0 0 0 0 0 
0 0 0 0 0 0 0 0 -0 
-0 -0 -0 -0 -0 0 0 0 0 
0 0 0 0 0 0 0 0 0 
0 0 0 0 -0 -0 -0 -0 0 
0 0 0 0 0 0 0 -0 0 
0 0 0 0 0 0 0 0 0 
0 0 0 0 0 0 0 0 0 
0 0 -0 -0 -0 -0 -0 -0 -0 
0 0 0 0 0 0 0 0 -0 
-0 0 0 0 0 0 0 -0 -0 
-0 -0 0 0 0 0 0 0 0 
0 0 0 0 0 0 -0 -0 -0 
-0 -0 0 0 0 0 0 0 0 
0 1433458.1613 21390484.425 25054383.496 265100.86585 -0 -0 0 0 
0 0 0 0 0 -0 0 0 0 
0 0 2869274.5718 15562360.299 2182499.788 32187515.91 477799.39066 -0 -0 
0 0 0 0 0 0 0 0 0 
0 0 0 77972554.163 66824960.588 31795726.906 21143875.763 5930364.1131 -0 
-0 -0 0 0 0 0 0 0 0 
0 0 0 0 0 0 0 0 0 
0 0 0 0 0 0 0 0 0 
0 0 0 0 0 0 0 0 0 
0 0 0 0 0 0 0 0 0 
0 0 0 0 0 0 0 0 0 
0 0 0 0 0 0 0 0 0 
0 0 -0 -0 -0 -0 -0 -0 -0 
-0 -0 -0 -0 -0 -0 -0 21464204.779 16609271.24 
4892823.0643 10967775.419 4063273.5744 10977308.176 12135016.442 8408756.6804 5769923.612 816153.41221 8697014.0816 
9188050.5726 904967.1039 3238134.6482 12213191.992 3690942.0242 4584740.8568 3429487.9754 4195333.7035 6260304.6002 
5045303.6731 0 2974037.4785 0 0 0 0 0 0 
0 0 0 0 0 0 0 0 10139493.563 
13107314.293 -0 0 0 0 0 0 0 0 
0 0 0 0 0 0 0 0 0 
0 0 0 0 0 0 0 0 0 
0 0 0 0 0 0 0 0 0 
0 0 0 0 0 0 0 0 0 
0 0 0 0 0 0 0 0 0 
0 0 0 0 0 0 0 0 0 
0 0 0 0 0 0 0 0 0 
0 0 261593.39761 120123.33476 19843.559973 2002342.4986 0 5517540.2547 13353592.42 
10093984.933 24599081.014 7892976.8694 24183386.742 16821038.553 1870426.5217 5765088.8617 15113610.819 6689457.0369 
6110275.5113 7255939.9092 3700312.4195 7313329.2309 5183552.0077 7122200.7462 1519221.442 3040524.188 9116038.2973 
3505848.9243 570663.38875 6839251.1658 1726969.7288 8799248.2556 1279970.8816 791326.12174 9689937.0814 4264126.0431 
4001982.2681 6341811.5303 4922097.1376 954340.8999 22597169.36 18788158.514 38107451.045 10885884.878 5310091.9107 
9565742.5188 5946199.4576 14602825.318 1129476.8641 15355849.848 3311007.325 2970665.5721 147611.99167 370469.88692 
-0 20474.599637 -0 127911.05229 -0 453639.44168 363038.64185 175525.64381 -0 
410424.91037 13535.531107 -0 674936.91246 450457.60357 458334.12908 -0 86831.470007 -0 
465760.36678 43843.649479 1990413.8927 -0 -0 635717.47269 153890.24264 -0 0 
1455815.7859 426611.66855 102219.91906 1086875.8058 644224.01128 0 586353.19126 0 686331.92775 
0 998855.61536 0 99598.958893 418938.16938 0 901737.43901 133024.56836 228747.56903 
0 0 371541.92484 0 0 0 0 0 0 
0 0 0 0 0 0 0 0 0 
0 0 0 0 0 0 0 0 0 
0 0 0 0 0 0 0 0 0 
0 0 0 0 0 0 0 0 0 
0 0 0 0 0 0 0 0 0 
0 0 0 0 0 0 0 0 0 
0 0 0 0 0 0 0 0 0 
0 0 0 0 0 0 0 0 0 
0 0 0 0 0 0 0 0 0 
0 0 0 0 0 0 0 0 0 
0 0 0 0 0 0 0 0 0 
0 0 0 0 0 0 0 0 0 
0 0 0 0 0 0 0 0 0 
0 0 0 0 0 0 0 0 0 
0 0 0 0 0 0 0 0 0 
0 0 0 0 0 0 0 0 0 
0 0 0 0 0 0 0 0 0 
0 0 0 0 0 0 0 0 0 
0 0 0 0 0 0 0 0 0 
0 0 0 0 0 0 0 0 0 
0 0 0 0 0 0 0 0 0 
0 0 0 0 0 0 0 0 0 
0 0 0 0 0 0 0 0 0 
0 0 0 0 0 0 0 0 0 
0 2704723.2908 11917049.311 0 0 0 0 4454498.9441 0 
0 0 0 0 1240454.147 -0 12474148.092 -0 26257221.709 
0 22580535.705 28732450.873 8345546.7196 6665027.4927 0 0 0 0 
0 0 0 0 0 0 0 0 0 
0 0 0 0 0 0 0 0 0 
0 0 0 0 0 0 0 0 0 
0 0 0 0 0 0 0 0 0 
0 0 0 3590445.0284 3374842.0598 0 64261150.424 92292534.038 49354471.206 
22116326.161 2840745.7891 22759518.741 36927690.936 55139376.709 70752308.86 93826045.302 84135953.418 67654543.306 
47677010.703 28349629.859 95954987.195 94157009.644 52339708.954 40461872.938 -0 33548866.433 33670609.954 
11788786.401 0 0 3896626.6484 0 0 0 0 0 
2050489.1608 27933227.832 9352133.4308 0 0 0 12202386.872 37415911.171 0 
0 0 0 0 0 2558516.6888 3942202.255 0 0 
0 0 0 0 0 0 0 0 0 
0 0 0 0 0 0 0 0 0 
0 0 0 0 0 0 0 0 0 
0 0 0 0 0 0 0 0 0 
0 0 0 0 0 0 0 0 0 
0 0 0 0 0 0 0 0 0 
0 0 0 0 0 0 0 0 0 
0 0 0 0 0 0 0 0 0 
0 0 0 0 0 0 0 0 0 
0 0 0 0 0 0 0 0 0 
0 0 0 0 0 0 0 0 0 
0 0 0 0 0 0 0 0 0 
0 0 0 0 0 0 0 0 0 
0 0 0 0 0 0 0 0 0 
0 0 0 0 0 0 0 0 0 
0 0 0 0 0 0 0 0 0 
0 0 0 0 0 0 0 0 0 
0 0 0 0 0 0 0 0 0 
0 0 0 0 0 0 0 0 0 
0 0 0 0 0 0 0 0 0 
0 0 0 0 0 0 0 0 0 
0 0 0 0 0 0 0 0 0 
0 0 0 0 0 0 0 0 0 
0 0 0 0 0 0 0 0 0 
0 0 0 0 0 0 0 0 0 
0 0 0 0 0 0 0 0 0 
0 0 0 0 0 0 0 0 0 
0 0 0 0 0 0 0 0 0 
0 0 0 0 0 0 0 0 0 
0 0 0 0 0 0 0 0 0 
0 0 0 0 0 0 0 0 0 
0 0 0 0 0 0 0 0 0 
0 0 0 0 0 0 0 0 0 
0 0 0 0 0 0 0 0 0 
0 0 0 0 0 0 0 0 0 
0 0 0 0 0 0 0 0 0 
0 0 0 0 0 0 0 0 0 
0 0 0 0 0 0 0 0 0 
0 0 0 0 0 0 0 0 0 
0 0 0 0 0 0 0 0 0 
0 0 0 0 0 0 0 0 0 
0 0 0 0 0 0 0 0 0 
0 0 0 0 0 0 0 0 0 
0 0 0 0 0 0 0 0 0 
0 0 0 0 0 0 0 0 0 
0 0 0 0 0 0 0 0 0 
0 0 0 0 0 0 0 0 0 
0 0 0 0 0 0 0 0 0 
0 0 0 0 0 0 0 0 0 
0 0 0 0 0 0 0 0 0 
0 0 0 0 0 0 0 0 0 
0 0 0 0 0 0 0 0 0 
0 0 0 0 0 0 0 0 0 
0 0 0 0 0 0 0 0 0 
0 0 0 0 0 0 0 0 0 
0 0 0 0 0 0 0 0 0 
0 0 0 0 0 0 0 0 0 
0 0 0 0 0 0 0 0 0 
0 0 0 0 0 0 0 0 0 
0 0 0 0 0 0 0 0 0 
0 0 0 0 0 0 0 0 0 
0 0 0 0 0 0 0 0 0 
0 0 0 0 0 0 0 0 0 
0 0 0 0 0 0 0 0 0 
0 0 0 0 0 0 0 0 0 
0 0 0 0 0 0 0 0 0 
0 0 0 0 0 0 0 0 0 
0 0 0 0 0 0 0 0 0 
0 0 0 0 0 0 0 0 0 
0 0 0 0 0 0 0 0 0 
0 0 0 0 0 0 0 0 0 
0 0 0 0 0 0 0 0 0 
0 0 0 0 0 0 0 0 0 
0 0 0 0 0 0 0 0 0 
0 0 0 0 0 0 0 0 0 
0 0 0 0 0 0 0 0 0 
0 0 0 0 0 0 0 0 0 
0 0 0 0 0 0 0 0 0 
0 0 0 0 0 0 0 0 0 
0 0 0 0 0 0 0 0 0 
0 0 0 0 0 0 0 0 0 
0 0 0 0 0 0 0 0 0 
0 0 0 0 0 0 0 0 0 
0 0 0 0 0 0 0 0 0 
0 0 0 0 0 0 0 0 0 
0 0 0 0 0 0 0 0 0 
0 0 0 0 0 0 0 0 0 
0 0 0 0 0 0 0 0 0 
0 0 0 0 0 0 0 0 0 
0 0 0 0 0 0 0 0 0 
0 0 0 0 0 0 0 0 0 
0 0 0 0 0 0 0 0 0 
0 0 0 0 0 0 0 0 0 
0 0 0 0 0 0 0 0 0 
0 0 0 0 0 0 0 0 0 
0 0 0 0 0 0 0 0 0 
0 0 0 0 0 0 0 0 0 
0 0 0 0 0 0 0 0 0 
0 0 0 0 0 0 0 0 0 
0 0 0 0 0 0 0 0 0 
0 0 0 0 0 0 0 0 0 
0 0 0 0 0 0 0 0 0 
0 0 0 0 0 0 0 0 0 
0 0 0 0 0 0 0 0 0 
0 0 0 0 0 0 0 0 0 
0 0 0 0 0 0 0 0 0 
0 0 0 0 0 0 0 0 0 
0 0 0 0 0 0 0 0 0 
0 0 0 0 0 0 0 -0 -0 
-0 -0 -0 -0 -0 -0 -0 -0 -0 
-0 -0 -0 -0 -0 -0 0 0 0 
-0 0 0 0 0 0 0 0 0 
0 0 0 0 0 0 0 0 0 
0 0 0 0 0 0 0 0 0 
0 0 0 0 0 0 0 0 0 
0 0 0 0 0 0 0 0 0 
0 0 0 0 0 0 0 0 0 
0 0 0 0 0 0 0 0 0 
0 0 0 0 0 0 0 0 0 
0 0 0 0 0 0 0 0 0 
0 0 0 0 0 0 0 0 0 
0 0 0 0 0 0 0 0 0 
0 0 0 0 0 0 0 0 0 
0 0 0 0 0 0 0 0 0 
0 0 0 0 0 0 0 0 0 
0 0 0 0 0 0 0 0 0 
0 0 0 0 -0 0 0 0 0 
0 -0 -0 0 -0 0 -0 -0 -0 
-0 -0 -0 -0 -0 -0 -0 0 0 
0 0 0 0 0 0 0 0 0 
0 0 0 0 0 0 0 0 0 
0 0 0 0 0 0 0 0 0 
0 0 0 0 0 0 0 0 0 
0 0 0 0 0 0 0 0 0 
0 0 0 0 0 0 0 0 0 
0 0 0 0 0 0 0 0 0 
0 0 0 0 0 0 0 0 0 
0 0 0 0 0 0 0 0 0 
0 0 0 0 0 0 0 0 0 
0 0 0 0 0 0 0 0 0 
0 0 0 0 0 0 0 0 0 
0 0 0 0 0 0 0 0 0 
0 0 0 0 0 0 0 0 0 
0 0 0 0 0 0 0 0 0 
0 0 0 0 0 0 0 0 0 
0 0 0 0 0 0 0 0 0 
0 0 0 0 0 0 0 0 0 
0 0 0 0 0 0 0 0 0 
0 0 0 0 0 0 0 0 0 
0 0 0 0 0 0 0 0 0 
0 0 0 0 0 0 0 0 0 
0 0 0 0 0 0 0 0 0 
0 0 0 0 0 0 0 0 0 
0 0 0 0 0 0 0 0 0 
0 0 0 0 0 0 0 0 0 
0 0 0 0 0 0 0 0 0 
0 0 0 0 0 0 0 0 0 
0 0 0 0 0 0 0 0 0 
0 0 0 0 0 0 0 0 0 
0 0 0 0 0 0 0 0 0 
0 0 0 0 0 0 0 0 0 
0 0 0 0 0 0 0 0 0 
0 0 0 0 0 0 0 0 0 
0 0 0 0 0 0 0 0 0 
0 0 0 0 0 0 0 0 0 
0 0 0 0 0 0 0 0 0 
0 0 0 0 0 0 0 0 0 
0 0 0 0 0 0 0 0 0 
0 0 0 0 0 0 0 0 0 
0 0 0 0 0 0 0 0 0 
0 0 0 0 0 0 0 0 0 
0 0 0 0 0 0 0 0 0 
0 0 0 0 0 0 0 0 0 
0 0 0 0 0 0 0 0 0 
0 0 0 0 0 0 0 0 0 
0 0 0 0 0 0 0 0 0 
0 0 0 0 0 0 0 0 0 
0 0 0 0 0 0 0 0 0 
0 0 0 0 0 0 0 0 0 
0 0 0 0 0 0 0 0 0 
0 0 0 0 0 0 0 0 0 
0 0 0 0 0 0 0 0 0 
0 0 0 0 0 0 0 0 0 
0 0 0 0 0 0 0 0 0 
0 0 0 0 0 0 0 0 0 
0 0 0 0 0 0 0 0 0 
0 0 0 0 0 0 0 0 0 
0 0 0 0 0 0 0 0 0 
0 0 0 0 0 0 0 0 0 
0 0 0 0 0 0 0 0 0 
0 0 0 0 0 0 0 0 0 
0 0 0 0 0 0 0 0 0 
0 0 0 0 0 0 0 0 0 
0 0 0 0 0 0 0 0 0 
0 0 0 0 0 0 0 0 0 
0 0 0 0 0 0 0 0 0 
0 0 0 0 0 0 0 0 0 
0 0 0 0 0 0 0 0 0 
0 0 0 0 0 0 0 0 0 
0 0 0 0 0 0 0 0 0 
0 0 0 -0 -0 -0 -0 -0 -0 
-0 -0 -0 -0 -0 -0 -0 -0 -0 
-0 -0 -0 -0 -0 -0 -0 -0 -0 
-0 -0 -0 -0 -0 -0 -0 -0 -0 
-0 -0 -0 -0 -0 -0 -0 -0 -0 
-0 -0 -0 -0 -0 -0 -0 -0 0 
0 0 0 0 0 0 0 0 0 
0 0 0 0 0 0 0 0 0 
0 0 0 0 0 0 0 0 0 
0 0 0 0 0 0 0 0 0 
0 0 0 0 0 0 0 0 0 
0 0 0 0 0 0 0 0 0 
0 0 0 0 0 0 0 0 0 
0 0 -0 -0 -0 -0 -0 -0 -0 
-0 -0 -0 -0 -0 -0 -0 -0 -0 
0 0 0 0 0 0 0 0 0 
0 0 0 0 0 0 0 0 0 
0 0 0 0 0 0 0 0 0 
0 0 0 0 0 0 0 0 0 
0 0 0 0 0 0 0 0 0 
0 0 0 0 0 0 0 0 0 
0 0 0 0 0 0 0 0 0 
0 0 0 0 0 0 0 0 0 
0 0 0 0 0 0 0 0 0 
0 0 0 0 0 0 0 0 0 
0 0 0 0 0 0 0 0 0 
0 0 0 0 0 0 0 0 0 
0 0 0 0 0 0 0 0 0 
0 0 0 0 0 0 0 0 0 
0 0 
shear_stress_average 1 5744 double
0 0 0 0 0 0 0 0 0 
0 0 0 0 0 0 0 0 0 
0 0 0 0 0 0 0 0 0 
0 0 0 0 0 0 0 0 0 
0 0 0 0 0 0 0 0 0 
0 0 0 0 0 0 0 0 0 
0 0 0 0 0 0 0 0 0 
0 0 0 0 0 0 0 0 0 
0 0 0 0 0 0 0 0 0 
0 0 0 0 0 0 0 0 0 
0 0 0 0 0 0 0 0 0 
0 0 0 0 0 0 0 0 0 
0 0 0 0 0 0 0 0 0 
0 0 0 0 0 0 0 0 0 
0 0 0 0 0 0 0 0 0 
0 0 0 0 0 0 0 0 0 
0 0 0 0 0 0 0 0 0 
0 0 0 0 0 0 0 0 0 
0 0 0 0 0 0 0 0 0 
0 0 0 0 0 0 0 0 0 
0 0 0 0 0 0 0 0 0 
0 0 0 0 0 0 0 0 0 
0 0 0 0 0 0 0 0 0 
0 0 0 0 0 0 0 0 0 
0 0 0 0 0 0 0 0 0 
0 0 0 0 0 0 0 0 0 
0 0 0 0 0 0 0 0 0 
0 0 0 0 0 0 0 0 0 
0 0 0 0 0 0 0 0 0 
0 0 0 0 0 0 0 0 0 
0 0 0 0 0 0 0 0 0 
0 0 0 0 0 0 0 0 0 
0 0 0 0 0 0 0 0 0 
0 0 0 0 0 0 0 0 0 
0 0 0 0 0 0 0 0 0 
0 0 0 0 0 0 0 0 0 
0 0 0 0 0 0 0 0 0 
0 0 0 0 0 0 0 0 0 
0 0 0 0 0 0 0 0 0 
0 0 0 0 0 0 0 0 0 
0 0 0 0 0 0 0 0 0 
0 0 0 0 0 0 0 0 0 
0 0 0 0 0 0 0 0 0 
0 0 0 0 0 0 0 0 0 
0 0 0 0 0 0 0 0 0 
0 0 0 0 0 0 0 0 0 
0 0 0 0 0 0 0 0 0 
0 0 0 0 0 0 0 0 0 
0 0 0 0 0 0 0 0 0 
0 0 0 0 0 0 0 0 0 
0 0 0 0 0 0 0 0 0 
0 0 0 0 0 0 0 0 0 
0 0 0 0 0 0 0 0 0 
0 0 0 0 0 0 0 0 0 
0 0 0 0 0 0 0 0 0 
0 0 0 0 0 0 0 0 0 
0 0 0 0 0 0 0 0 0 
0 0 0 0 0 0 0 0 0 
0 0 0 0 0 0 0 0 0 
0 0 0 0 0 0 0 0 0 
0 0 0 0 0 0 0 0 0 
0 0 0 0 0 0 0 0 0 
0 0 0 0 0 0 0 0 0 
0 0 0 0 0 0 0 0 0 
0 0 0 0 0 0 0 0 0 
0 0 0 0 0 0 0 0 0 
0 0 0 0 0 0 0 0 0 
0 0 0 0 0 0 0 0 0 
0 0 0 0 0 0 0 0 0 
0 0 0 0 0 0 0 0 0 
0 0 0 0 0 0 0 0 0 
0 0 0 0 0 0 0 0 0 
0 0 0 0 0 0 0 0 0 
0 0 0 0 0 0 0 0 0 
0 0 0 0 0 0 0 0 0 
0 0 0 0 0 0 0 0 0 
0 0 0 0 0 0 0 0 0 
0 0 0 0 0 0 0 0 0 
0 0 0 0 0 0 0 0 0 
0 0 0 0 0 0 0 0 0 
0 0 0 0 0 0 0 0 0 
0 0 0 0 0 0 0 0 0 
0 0 0 0 0 0 0 0 0 
0 0 0 0 0 0 0 0 0 
0 0 0 0 0 0 0 0 0 
0 0 0 0 0 0 0 0 0 
0 0 0 0 0 0 0 0 0 
0 0 0 0 0 0 0 0 0 
0 0 0 0 0 0 0 0 0 
0 0 0 0 0 0 0 0 0 
0 0 0 0 0 0 0 0 0 
0 0 0 0 0 0 0 0 0 
0 0 0 0 0 0 0 0 0 
0 0 0 0 0 0 0 0 0 
0 0 0 0 0 0 0 0 0 
0 0 0 0 0 0 0 0 0 
0 0 0 0 0 0 0 0 0 
0 0 0 0 0 0 0 0 0 
0 0 0 0 0 0 0 0 0 
0 0 0 0 0 0 0 0 0 
0 0 0 0 0 0 0 0 0 
0 0 0 0 0 0 0 0 0 
0 0 0 0 0 0 0 0 0 
0 0 0 0 0 0 0 0 0 
0 0 0 0 0 0 0 0 0 
0 0 0 0 0 0 0 0 0 
0 0 0 0 0 0 0 0 0 
0 0 0 0 0 0 0 0 0 
0 0 0 0 0 0 0 0 0 
0 0 0 0 0 0 0 0 0 
0 0 0 0 0 0 0 0 0 
0 0 0 0 0 0 0 0 0 
0 0 0 0 0 0 0 0 0 
0 0 0 0 0 0 0 0 0 
0 0 0 0 0 0 0 0 0 
0 0 0 0 0 0 0 0 0 
0 0 0 0 0 0 0 0 0 
0 0 0 0 0 0 0 0 0 
0 0 0 0 0 0 0 0 0 
0 0 0 0 0 0 0 0 0 
0 0 0 0 0 0 0 0 0 
0 0 0 0 0 0 0 0 0 
0 0 0 0 0 0 0 0 0 
0 0 0 0 0 0 0 0 0 
0 0 0 0 0 0 0 0 0 
0 0 0 0 0 0 0 0 0 
0 0 0 0 0 0 0 0 0 
0 0 0 0 0 0 0 0 0 
0 0 0 0 0 0 0 0 0 
0 0 0 0 0 0 0 0 0 
0 0 0 0 0 0 0 0 0 
0 0 0 0 0 0 0 0 0 
0 0 0 0 0 0 0 0 0 
0 0 0 0 0 0 0 0 0 
0 0 0 0 0 0 0 0 0 
0 0 0 0 0 0 0 0 0 
0 0 0 0 0 0 0 0 0 
0 0 0 0 0 0 0 0 0 
0 0 0 0 0 0 0 0 0 
0 0 0 0 0 0 0 0 0 
0 0 0 0 0 0 0 0 0 
0 0 0 0 0 0 0 0 0 
0 0 0 0 0 0 0 0 0 
0 0 0 0 0 0 0 0 0 
0 0 0 0 0 0 0 0 0 
0 0 0 0 0 0 0 0 0 
0 0 0 0 0 0 0 0 0 
0 0 0 0 0 0 0 0 0 
0 0 0 0 0 0 0 0 0 
0 0 0 0 0 0 0 0 0 
0 0 0 0 0 0 0 0 0 
0 0 0 0 0 0 0 0 0 
0 0 0 0 0 0 0 0 0 
0 0 0 0 0 0 0 0 0 
0 0 0 0 0 0 0 0 0 
0 0 0 0 0 0 0 0 0 
0 0 0 0 0 0 0 0 0 
0 0 0 0 0 0 0 0 0 
0 0 0 0 0 0 0 0 0 
0 0 0 0 0 0 0 0 0 
0 0 0 0 0 0 0 0 0 
0 0 0 0 0 0 0 0 0 
0 0 0 0 0 0 0 0 0 
0 0 0 0 0 0 0 0 0 
23834055.335 0 22297121.583 36679594.579 0 34676659.638 55001232.187 67950181.93 0 
7659183.6596 3765158.5467 0 0 2671301.2878 483796.72615 0 0 0 
0 0 0 0 0 0 0 0 0 
0 0 0 0 0 0 0 7510757.9488 4436290.7866 
25304075.573 12203618.465 32875429.418 0 0 0 0 0 0 
0 0 0 0 0 0 0 0 0 
0 0 0 8352104.9085 13612330.154 7078345.9214 0 0 0 
0 0 0 0 0 0 0 0 0 
0 0 0 0 0 0 0 0 0 
0 0 0 0 0 0 0 0 0 
0 0 0 0 0 0 0 0 0 
0 0 0 0 0 0 0 0 0 
0 0 0 0 0 0 0 0 0 
0 0 0 0 0 0 0 0 0 
0 0 0 0 0 0 0 0 0 
0 0 0 0 0 0 0 0 0 
0 0 0 0 0 0 0 0 0 
0 0 0 0 0 0 0 0 0 
0 0 0 0 0 0 0 0 0 
0 0 0 0 0 0 0 0 0 
0 0 0 0 0 0 0 0 0 
0 0 0 0 0 0 0 0 0 
0 0 0 0 0 0 0 0 0 
0 0 0 0 0 0 0 0 0 
0 0 0 0 0 0 0 0 0 
0 0 0 0 0 0 0 0 0 
0 0 0 0 0 0 0 0 0 
0 0 0 0 0 0 0 0 0 
0 0 0 0 0 0 0 0 0 
0 0 0 0 0 0 0 0 0 
0 0 0 0 0 0 0 0 0 
0 0 0 0 0 0 0 0 0 
0 0 0 0 0 0 0 0 0 
0 0 0 0 0 0 0 0 0 
0 0 0 0 0 0 0 0 0 
0 0 0 0 0 0 0 0 0 
0 0 0 0 0 0 0 0 0 
0 0 0 0 0 0 0 0 0 
0 0 0 0 0 0 0 0 0 
0 0 0 0 0 0 0 0 0 
0 0 0 0 0 0 0 0 0 
0 0 0 0 0 0 0 0 0 
0 0 0 0 0 0 0 0 0 
0 0 0 0 0 0 0 0 0 
0 0 0 0 0 0 0 0 0 
0 0 0 0 0 0 0 0 0 
0 0 0 0 0 0 0 0 0 
0 0 0 0 0 0 0 0 0 
0 0 0 0 0 0 0 0 0 
0 0 0 0 0 0 0 0 0 
0 0 0 0 0 0 0 0 0 
0 0 0 0 0 0 0 0 0 
0 0 0 0 0 0 0 0 0 
0 0 0 0 0 0 0 0 0 
0 0 0 0 0 0 0 0 0 
0 0 0 0 0 0 0 0 0 
0 0 0 0 0 0 0 0 0 
0 0 0 0 0 0 0 0 0 
0 0 0 0 0 0 0 0 0 
0 0 0 0 0 0 0 0 0 
0 0 0 0 0 0 0 0 0 
0 0 0 0 0 0 0 0 0 
0 0 0 0 0 0 0 0 0 
0 0 0 0 0 0 0 0 0 
0 0 0 0 0 0 0 0 0 
0 0 0 0 0 0 0 0 0 
0 0 0 0 0 0 0 0 0 
0 0 0 0 0 0 0 0 0 
0 0 0 0 0 0 0 0 0 
0 0 0 0 0 0 0 0 0 
0 0 0 0 0 0 0 0 0 
0 0 0 0 0 0 0 0 0 
0 0 0 0 0 0 0 0 0 
0 0 0 0 0 0 0 0 0 
0 0 0 0 0 0 0 0 0 
0 0 0 0 0 0 0 0 0 
0 0 0 0 0 0 0 0 0 
0 0 0 0 0 0 0 0 0 
0 0 0 0 0 0 0 0 0 
0 0 0 0 0 0 0 0 0 
0 0 0 0 0 0 0 0 0 
0 0 0 0 0 0 0 0 0 
0 0 0 0 0 0 0 0 0 
0 0 0 0 0 0 0 0 0 
0 0 0 0 0 0 0 0 0 
0 0 0 0 0 0 0 0 0 
0 0 0 0 0 0 0 0 0 
0 0 0 0 0 0 0 0 0 
0 0 0 0 0 0 0 0 0 
0 0 0 0 0 0 0 0 0 
0 0 0 0 0 0 0 0 0 
0 0 0 0 0 0 0 0 0 
0 0 0 0 0 0 0 0 0 
0 0 0 0 0 0 0 0 0 
0 0 0 0 0 0 0 0 0 
0 0 0 0 0 0 0 0 0 
0 0 0 0 0 0 0 0 0 
0 0 0 0 0 0 0 0 0 
0 0 0 0 0 0 0 0 0 
0 0 0 0 0 0 0 0 0 
0 0 0 0 0 0 0 0 0 
0 0 0 0 0 0 0 0 0 
0 0 0 0 0 0 0 0 0 
0 0 0 0 0 0 0 0 0 
0 0 0 0 0 0 0 0 0 
0 0 0 0 0 0 0 0 0 
0 0 0 0 0 0 0 0 0 
0 0 0 0 0 0 0 0 0 
0 0 0 0 0 0 0 0 0 
0 0 0 0 0 0 0 0 0 
0 0 0 0 0 0 0 0 0 
0 0 0 0 0 0 0 0 0 
0 0 0 0 0 0 0 0 0 
0 0 0 0 0 0 0 0 0 
0 0 0 0 0 0 0 0 0 
0 0 0 0 0 0 0 0 0 
0 0 0 0 0 0 0 0 0 
0 0 0 0 0 0 0 0 0 
0 0 0 0 0 0 0 0 0 
0 0 0 0 0 0 0 0 0 
0 0 0 0 0 0 0 0 0 
0 0 0 0 0 0 0 0 0 
0 0 0 0 0 0 0 0 0 
0 0 0 0 0 0 0 0 0 
0 0 0 0 0 0 0 0 0 
0 0 0 0 0 0 0 0 0 
0 0 0 0 0 0 0 0 0 
0 0 0 0 0 0 0 0 0 
0 0 0 0 0 0 0 0 0 
0 0 0 0 0 0 0 0 0 
0 0 0 0 0 0 0 0 0 
0 0 0 0 0 0 0 0 0 
0 0 0 0 0 0 0 0 0 
0 0 0 0 0 0 0 0 0 
0 0 0 0 0 0 0 0 0 
0 0 0 0 0 0 0 0 0 
0 0 0 0 0 0 0 0 0 
0 0 0 0 0 0 0 0 0 
0 0 0 0 0 0 0 0 0 
0 0 0 0 0 0 0 0 0 
0 0 0 0 0 0 0 0 0 
0 0 0 0 0 0 0 0 0 
0 0 0 0 0 0 0 0 0 
0 0 0 0 0 0 0 0 0 
0 0 0 0 0 0 0 0 0 
0 0 0 0 0 0 0 0 0 
0 0 0 0 0 0 0 0 0 
0 0 0 0 0 0 0 0 0 
0 0 0 0 0 0 0 0 0 
0 0 0 0 0 0 0 0 0 
0 0 0 0 0 0 0 0 0 
0 0 0 0 0 0 0 0 0 
0 0 0 0 0 0 0 0 0 
0 0 0 0 0 0 0 0 0 
0 0 0 0 0 0 0 0 0 
0 0 0 0 0 0 0 0 0 
0 0 0 0 0 0 0 0 0 
0 0 0 0 0 0 0 0 0 
0 0 0 0 0 0 0 0 0 
0 0 0 0 0 0 0 0 0 
0 0 0 0 0 0 0 0 0 
0 0 0 0 0 0 0 0 0 
0 0 0 0 0 0 0 0 0 
0 0 0 0 0 0 0 0 0 
0 0 0 0 0 0 0 0 0 
0 0 0 0 0 0 0 0 0 
0 0 0 0 0 0 0 0 0 
0 0 0 0 0 0 0 0 0 
0 0 0 0 0 0 0 0 0 
0 0 0 0 0 0 0 0 0 
0 1912035.0494 21429739.057 18369868.453 169333.06548 0 0 0 0 
0 0 0 0 0 0 0 0 0 
0 0 2990109.2031 24369091.518 22176909.57 36102946.276 261165.72256 0 0 
0 0 0 0 0 0 0 0 0 
0 0 0 22259836.268 17755502.547 100395938.64 27678392 10074969.595 0 
0 0 0 0 0 0 0 0 0 
0 0 0 0 0 0 0 0 0 
0 0 0 0 0 0 0 0 0 
0 0 0 0 0 0 0 0 0 
0 0 0 0 0 0 0 0 0 
0 0 0 0 0 0 0 0 0 
0 0 0 0 0 0 0 0 0 
0 0 0 0 0 0 0 0 0 
0 0 0 0 0 0 0 10731475.432 15215116.071 
13510949.241 21598281.08 13471799.524 19905648.921 39342122.891 19023216.856 12707654.757 19240109.385 53615301.988 
16427822.239 40357671.933 22645769.655 6004595.9713 17729606.53 6852984.6536 41520161.979 10232990.664 3129859.8365 
24380652.084 0 3124410.0987 0 0 0 0 0 0 
0 0 0 0 0 0 0 0 49821609.222 
11766735.925 0 0 0 0 0 0 0 0 
0 0 0 0 0 0 0 0 0 
0 0 0 0 0 0 0 0 0 
0 0 0 0 0 0 0 0 0 
0 0 0 0 0 0 0 0 0 
0 0 0 0 0 0 0 0 0 
0 0 0 0 0 0 0 0 0 
0 0 0 0 0 0 0 0 0 
0 0 130796.69881 60054.353272 10068.357233 1000431.9177 0 2761967.8614 6669799.4053 
6110381.6443 13764662.893 9229132.6447 52585963.719 18391511.862 1352932.2766 51690444.803 28165118.536 10261621.287 
14074421.892 51962065.524 14881896.137 32049526.009 61197272.852 10555498.575 51993078.894 31629212.775 14842373.339 
34476240.077 12186567.361 64646334.578 33070205.652 54628810.479 15437474.294 33793322.412 10204519.135 40670109.941 
29868347.584 10559294.619 20882916.346 35266834.432 15297931.872 23979049.578 44374570.483 5425949.0187 20893985.842 
22545784.325 2971521.8976 10104432.543 564738.43204 10381542.388 1965279.5136 1677539.8374 73767.030922 185394.99455 
0 10237.299819 0 63955.526146 0 226819.72084 181519.32093 87603.218992 0 
205212.45519 8191.4746145 0 337468.45623 225228.80179 234229.53042 0 62768.058886 0 
232880.18339 29877.656729 995374.99218 0 0 317854.03013 76945.121319 0 0 
728382.05446 224226.145 82583.916915 543437.90289 392305.5807 0 419178.81453 0 343165.96388 
0 513020.00463 0 67871.164254 209469.08469 0 459757.71988 86914.322708 114373.78452 
0 0 187635.96257 0 0 0 0 0 0 
0 0 0 0 0 0 0 0 0 
0 0 0 0 0 0 0 0 0 
0 0 0 0 0 0 0 0 0 
0 0 0 0 0 0 0 0 0 
0 0 0 0 0 0 0 0 0 
0 0 0 0 0 0 0 0 0 
0 0 0 0 0 0 0 0 0 
0 0 0 0 0 0 0 0 0 
0 0 0 0 0 0 0 0 0 
0 0 0 0 0 0 0 0 0 
0 0 0 0 0 0 0 0 0 
0 0 0 0 0 0 0 0 0 
0 0 0 0 0 0 0 0 0 
0 0 0 0 0 0 0 0 0 
0 0 0 0 0 0 0 0 0 
0 0 0 0 0 0 0 0 0 
0 0 0 0 0 0 0 0 0 
0 0 0 0 0 0 0 0 0 
0 0 0 0 0 0 0 0 0 
0 0 0 0 0 0 0 0 0 
0 0 0 0 0 0 0 0 0 
0 0 0 0 0 0 0 0 0 
0 0 0 0 0 0 0 0 0 
0 0 0 0 0 0 0 0 0 
0 1352361.6454 6016297.3756 0 0 0 0 2227249.472 0 
0 0 0 0 620225.36442 0 6237074.046 0 13128609.542 
0 11290252.218 14366225.436 4172773.3598 3332513.7464 0 0 0 0 
0 0 0 0 0 0 0 0 0 
0 0 0 0 0 0 0 0 0 
0 0 0 0 0 0 0 0 0 
0 0 0 0 0 0 0 0 0 
0 0 0 1795222.5142 1687421.0299 0 32130252.081 50338985.339 31957644.745 
15229624.446 2189167.9197 11379759.371 18511321.395 45604335.274 63803762.927 51018921.959 40965499.318 40039142.981 
45097702.138 27918527.778 50776751.604 47078504.822 26694271.295 28343577.052 0 16774433.216 16454063.545 
6920432.4946 0 0 1927318.5813 0 0 0 0 0 
1025244.5804 13966582.001 5302919.9782 0 0 0 11197239.045 17419801.101 0 
0 0 0 0 0 1279258.3444 2060362.8576 0 0 
0 0 0 0 0 0 0 0 0 
0 0 0 0 0 0 0 0 0 
0 0 0 0 0 0 0 0 0 
0 0 0 0 0 0 0 0 0 
0 0 0 0 0 0 0 0 0 
0 0 0 0 0 0 0 0 0 
0 0 0 0 0 0 0 0 0 
0 0 0 0 0 0 0 0 0 
0 0 0 0 0 0 0 0 0 
0 0 0 0 0 0 0 0 0 
0 0 0 0 0 0 0 0 0 
0 0 0 0 0 0 0 0 0 
0 0 0 0 0 0 0 0 0 
0 0 0 0 0 0 0 0 0 
0 0 0 0 0 0 0 0 0 
0 0 0 0 0 0 0 0 0 
0 0 0 0 0 0 0 0 0 
0 0 0 0 0 0 0 0 0 
0 0 0 0 0 0 0 0 0 
0 0 0 0 0 0 0 0 0 
0 0 0 0 0 0 0 0 0 
0 0 0 0 0 0 0 0 0 
0 0 0 0 0 0 0 0 0 
0 0 0 0 0 0 0 0 0 
0 0 0 0 0 0 0 0 0 
0 0 0 0 0 0 0 0 0 
0 0 0 0 0 0 0 0 0 
0 0 0 0 0 0 0 0 0 
0 0 0 0 0 0 0 0 0 
0 0 0 0 0 0 0 0 0 
0 0 0 0 0 0 0 0 0 
0 0 0 0 0 0 0 0 0 
0 0 0 0 0 0 0 0 0 
0 0 0 0 0 0 0 0 0 
0 0 0 0 0 0 0 0 0 
0 0 0 0 0 0 0 0 0 
0 0 0 0 0 0 0 0 0 
0 0 0 0 0 0 0 0 0 
0 0 0 0 0 0 0 0 0 
0 0 0 0 0 0 0 0 0 
0 0 0 0 0 0 0 0 0 
0 0 0 0 0 0 0 0 0 
0 0 0 0 0 0 0 0 0 
0 0 0 0 0 0 0 0 0 
0 0 0 0 0 0 0 0 0 
0 0 0 0 0 0 0 0 0 
0 0 0 0 0 0 0 0 0 
0 0 0 0 0 0 0 0 0 
0 0 0 0 0 0 0 0 0 
0 0 0 0 0 0 0 0 0 
0 0 0 0 0 0 0 0 0 
0 0 0 0 0 0 0 0 0 
0 0 0 0 0 0 0 0 0 
0 0 0 0 0 0 0 0 0 
0 0 0 0 0 0 0 0 0 
0 0 0 0 0 0 0 0 0 
0 0 0 0 0 0 0 0 0 
0 0 0 0 0 0 0 0 0 
0 0 0 0 0 0 0 0 0 
0 0 0 0 0 0 0 0 0 
0 0 0 0 0 0 0 0 0 
0 0 0 0 0 0 0 0 0 
0 0 0 0 0 0 0 0 0 
0 0 0 0 0 0 0 0 0 
0 0 0 0 0 0 0 0 0 
0 0 0 0 0 0 0 0 0 
0 0 0 0 0 0 0 0 0 
0 0 0 0 0 0 0 0 0 
0 0 0 0 0 0 0 0 0 
0 0 0 0 0 0 0 0 0 
0 0 0 0 0 0 0 0 0 
0 0 0 0 0 0 0 0 0 
0 0 0 0 0 0 0 0 0 
0 0 0 0 0 0 0 0 0 
0 0 0 0 0 0 0 0 0 
0 0 0 0 0 0 0 0 0 
0 0 0 0 0 0 0 0 0 
0 0 0 0 0 0 0 0 0 
0 0 0 0 0 0 0 0 0 
0 0 0 0 0 0 0 0 0 
0 0 0 0 0 0 0 0 0 
0 0 0 0 0 0 0 0 0 
0 0 0 0 0 0 0 0 0 
0 0 0 0 0 0 0 0 0 
0 0 0 0 0 0 0 0 0 
0 0 0 0 0 0 0 0 0 
0 0 0 0 0 0 0 0 0 
0 0 0 0 0 0 0 0 0 
0 0 0 0 0 0 0 0 0 
0 0 0 0 0 0 0 0 0 
0 0 0 0 0 0 0 0 0 
0 0 0 0 0 0 0 0 0 
0 0 0 0 0 0 0 0 0 
0 0 0 0 0 0 0 0 0 
0 0 0 0 0 0 0 0 0 
0 0 0 0 0 0 0 0 0 
0 0 0 0 0 0 0 0 0 
0 0 0 0 0 0 0 0 0 
0 0 0 0 0 0 0 0 0 
0 0 0 0 0 0 0 0 0 
0 0 0 0 0 0 0 0 0 
0 0 0 0 0 0 0 0 0 
0 0 0 0 0 0 0 0 0 
0 0 0 0 0 0 0 0 0 
0 0 0 0 0 0 0 0 0 
0 0 0 0 0 0 0 0 0 
0 0 0 0 0 0 0 0 0 
0 0 0 0 0 0 0 0 0 
0 0 0 0 0 0 0 0 0 
0 0 0 0 0 0 0 0 0 
0 0 0 0 0 0 0 0 0 
0 0 0 0 0 0 0 0 0 
0 0 0 0 0 0 0 0 0 
0 0 0 0 0 0 0 0 0 
0 0 0 0 0 0 0 0 0 
0 0 0 0 0 0 0 0 0 
0 0 0 0 0 0 0 0 0 
0 0 0 0 0 0 0 0 0 
0 0 0 0 0 0 0 0 0 
0 0 0 0 0 0 0 0 0 
0 0 0 0 0 0 0 0 0 
0 0 0 0 0 0 0 0 0 
0 0 0 0 0 0 0 0 0 
0 0 0 0 0 0 0 0 0 
0 0 0 0 0 0 0 0 0 
0 0 0 0 0 0 0 0 0 
0 0 0 0 0 0 0 0 0 
0 0 0 0 0 0 0 0 0 
0 0 0 0 0 0 0 0 0 
0 0 0 0 0 0 0 0 0 
0 0 0 0 0 0 0 0 0 
0 0 0 0 0 0 0 0 0 
0 0 0 0 0 0 0 0 0 
0 0 0 0 0 0 0 0 0 
0 0 0 0 0 0 0 0 0 
0 0 0 0 0 0 0 0 0 
0 0 0 0 0 0 0 0 0 
0 0 0 0 0 0 0 0 0 
0 0 0 0 0 0 0 0 0 
0 0 0 0 0 0 0 0 0 
0 0 0 0 0 0 0 0 0 
0 0 0 0 0 0 0 0 0 
0 0 0 0 0 0 0 0 0 
0 0 0 0 0 0 0 0 0 
0 0 0 0 0 0 0 0 0 
0 0 0 0 0 0 0 0 0 
0 0 0 0 0 0 0 0 0 
0 0 0 0 0 0 0 0 0 
0 0 0 0 0 0 0 0 0 
0 0 0 0 0 0 0 0 0 
0 0 0 0 0 0 0 0 0 
0 0 0 0 0 0 0 0 0 
0 0 0 0 0 0 0 0 0 
0 0 0 0 0 0 0 0 0 
0 0 0 0 0 0 0 0 0 
0 0 0 0 0 0 0 0 0 
0 0 0 0 0 0 0 0 0 
0 0 0 0 0 0 0 0 0 
0 0 0 0 0 0 0 0 0 
0 0 0 0 0 0 0 0 0 
0 0 0 0 0 0 0 0 0 
0 0 0 0 0 0 0 0 0 
0 0 0 0 0 0 0 0 0 
0 0 0 0 0 0 0 0 0 
0 0 0 0 0 0 0 0 0 
0 0 0 0 0 0 0 0 0 
0 0 0 0 0 0 0 0 0 
0 0 0 0 0 0 0 0 0 
0 0 0 0 0 0 0 0 0 
0 0 0 0 0 0 0 0 0 
0 0 0 0 0 0 0 0 0 
0 0 0 0 0 0 0 0 0 
0 0 0 0 0 0 0 0 0 
0 0 0 0 0 0 0 0 0 
0 0 0 0 0 0 0 0 0 
0 0 0 0 0 0 0 0 0 
0 0 0 0 0 0 0 0 0 
0 0 0 0 0 0 0 0 0 
0 0 0 0 0 0 0 0 0 
0 0 0 0 0 0 0 0 0 
0 0 0 0 0 0 0 0 0 
0 0 0 0 0 0 0 0 0 
0 0 0 0 0 0 0 0 0 
0 0 0 0 0 0 0 0 0 
0 0 0 0 0 0 0 0 0 
0 0 0 0 0 0 0 0 0 
0 0 0 0 0 0 0 0 0 
0 0 0 0 0 0 0 0 0 
0 0 0 0 0 0 0 0 0 
0 0 0 0 0 0 0 0 0 
0 0 0 0 0 0 0 0 0 
0 0 0 0 0 0 0 0 0 
0 0 0 0 0 0 0 0 0 
0 0 0 0 0 0 0 0 0 
0 0 0 0 0 0 0 0 0 
0 0 0 0 0 0 0 0 0 
0 0 0 0 0 0 0 0 0 
0 0 0 0 0 0 0 0 0 
0 0 0 0 0 0 0 0 0 
0 0 0 0 0 0 0 0 0 
0 0 0 0 0 0 0 0 0 
0 0 0 0 0 0 0 0 0 
0 0 0 0 0 0 0 0 0 
0 0 0 0 0 0 0 0 0 
0 0 0 0 0 0 0 0 0 
0 0 0 0 0 0 0 0 0 
0 0 0 0 0 0 0 0 0 
0 0 0 0 0 0 0 0 0 
0 0 0 0 0 0 0 0 0 
0 0 0 0 0 0 0 0 0 
0 0 0 0 0 0 0 0 0 
0 0 0 0 0 0 0 0 0 
0 0 0 0 0 0 0 0 0 
0 0 0 0 0 0 0 0 0 
0 0 0 0 0 0 0 0 0 
0 0 0 0 0 0 0 0 0 
0 0 0 0 0 0 0 0 0 
0 0 0 0 0 0 0 0 0 
0 0 0 0 0 0 0 0 0 
0 0 0 0 0 0 0 0 0 
0 0 0 0 0 0 0 0 0 
0 0 0 0 0 0 0 0 0 
0 0 0 0 0 0 0 0 0 
0 0 0 0 0 0 0 0 0 
0 0 0 0 0 0 0 0 0 
0 0 0 0 0 0 0 0 0 
0 0 0 0 0 0 0 0 0 
0 0 0 0 0 0 0 0 0 
0 0 0 0 0 0 0 0 0 
0 0 
stress 3 5744 double
0 0 0 0 0 0 0 0 0 
0 0 0 0 0 0 0 0 0 
0 0 0 0 0 0 0 0 0 
0 0 0 0 0 0 0 0 0 
0 0 0 0 0 0 0 0 0 
0 0 0 0 0 0 0 0 0 
0 0 0 0 0 0 0 0 0 
0 0 0 0 0 0 0 0 0 
0 0 0 0 0 0 0 0 0 
0 0 0 0 0 0 0 0 0 
0 0 0 0 0 0 0 0 0 
0 0 0 0 0 0 0 0 0 
0 0 0 0 0 0 0 0 0 
0 0 0 0 0 0 0 0 0 
0 0 0 0 0 0 0 0 0 
0 0 0 0 0 0 0 0 0 
0 0 0 0 0 0 0 0 0 
0 0 0 0 0 0 0 0 0 
0 0 0 0 0 0 0 0 0 
0 0 0 0 0 0 0 0 0 
0 0 0 0 0 0 0 0 0 
0 0 0 0 0 0 0 0 0 
0 0 0 0 0 0 0 0 0 
0 0 0 0 0 0 0 0 0 
0 0 0 0 0 0 0 0 0 
0 0 0 0 0 0 0 0 0 
0 0 0 0 0 0 0 0 0 
0 0 0 0 0 0 0 0 0 
0 0 0 0 0 0 0 0 0 
0 0 0 0 0 0 0 0 0 
0 0 0 0 0 0 0 0 0 
0 0 0 0 0 0 0 0 0 
0 0 0 0 0 0 0 0 0 
0 0 0 0 0 0 0 0 0 
0 0 0 0 0 0 0 0 0 
0 0 0 0 0 0 0 0 0 
0 0 0 0 0 0 0 0 0 
0 0 0 0 0 0 0 0 0 
0 0 0 0 0 0 0 0 0 
0 0 0 0 0 0 0 0 0 
0 0 0 0 0 0 0 0 0 
0 0 0 0 0 0 0 0 0 
0 0 0 0 0 0 0 0 0 
0 0 0 0 0 0 0 0 0 
0 0 0 0 0 0 0 0 0 
0 0 0 0 0 0 0 0 0 
0 0 0 0 0 0 0 0 0 
0 0 0 0 0 0 0 0 0 
0 0 0 0 0 0 0 0 0 
0 0 0 0 0 0 0 0 0 
0 0 0 0 0 0 0 0 0 
0 0 0 0 0 0 0 0 0 
0 0 0 0 0 0 0 0 0 
0 0 0 0 0 0 0 0 0 
0 0 0 0 0 0 0 0 0 
0 0 0 0 0 0 0 0 0 
0 0 0 0 0 0 0 0 0 
0 0 0 0 0 0 0 0 0 
0 0 0 0 0 0 0 0 0 
0 0 0 0 0 0 0 0 0 
0 0 0 0 0 0 0 0 0 
0 0 0 0 0 0 0 0 0 
0 0 0 0 0 0 0 0 0 
0 0 0 0 0 0 0 0 0 
0 0 0 0 0 0 0 0 0 
0 0 0 0 0 0 0 0 0 
0 0 0 0 0 0 0 0 0 
0 0 0 0 0 0 0 0 0 
0 0 0 0 0 0 0 0 0 
0 0 0 0 0 0 0 0 0 
0 0 0 0 0 0 0 0 0 
0 0 0 0 0 0 0 0 0 
0 0 0 0 0 0 0 0 0 
0 0 0 0 0 0 0 0 0 
0 0 0 0 0 0 0 0 0 
0 0 0 0 0 0 0 0 0 
0 0 0 0 0 0 0 0 0 
0 0 0 0 0 0 0 0 0 
0 0 0 0 0 0 0 0 0 
0 0 0 0 0 0 0 0 0 
0 0 0 0 0 0 0 0 0 
0 0 0 0 0 0 0 0 0 
0 0 0 0 0 0 0 0 0 
0 0 0 0 0 0 0 0 0 
0 0 0 0 0 0 0 0 0 
0 0 0 0 0 0 0 0 0 
0 0 0 0 0 0 0 0 0 
0 0 0 0 0 0 0 0 0 
0 0 0 0 0 0 0 0 0 
0 0 0 0 0 0 0 0 0 
0 0 0 0 0 0 0 0 0 
0 0 0 0 0 0 0 0 0 
0 0 0 0 0 0 0 0 0 
0 0 0 0 0 0 0 0 0 
0 0 0 0 0 0 0 0 0 
0 0 0 0 0 0 0 0 0 
0 0 0 0 0 0 0 0 0 
0 0 0 0 0 0 0 0 0 
0 0 0 0 0 0 0 0 0 
0 0 0 0 0 0 0 0 0 
0 0 0 0 0 0 0 0 0 
0 0 0 0 0 0 0 0 0 
0 0 0 0 0 0 0 0 0 
0 0 0 0 0 0 0 0 0 
0 0 0 0 0 0 0 0 0 
0 0 0 0 0 0 0 0 0 
0 0 0 0 0 0 0 0 0 
0 0 0 0 0 0 0 0 0 
0 0 0 0 0 0 0 0 0 
0 0 0 0 0 0 0 0 0 
0 0 0 0 0 0 0 0 0 
0 0 0 0 0 0 0 0 0 
0 0 0 0 0 0 0 0 0 
0 0 0 0 0 0 0 0 0 
0 0 0 0 0 0 0 0 0 
0 0 0 0 0 0 0 0 0 
0 0 0 0 0 0 0 0 0 
0 0 0 0 0 0 0 0 0 
0 0 0 0 0 0 0 0 0 
0 0 0 0 0 0 0 0 0 
0 0 0 0 0 0 0 0 0 
0 0 0 0 0 0 0 0 0 
0 0 0 0 0 0 0 0 0 
0 0 0 0 0 0 0 0 0 
0 0 0 0 0 0 0 0 0 
0 0 0 0 0 0 0 0 0 
0 0 0 0 0 0 0 0 0 
0 0 0 0 0 0 0 0 0 
0 0 0 0 0 0 0 0 0 
0 0 0 0 0 0 0 0 0 
0 0 0 0 0 0 0 0 0 
0 0 0 0 0 0 0 0 0 
0 0 0 0 0 0 0 0 0 
0 0 0 0 0 0 0 0 0 
0 0 0 0 0 0 0 0 0 
0 0 0 0 0 0 0 0 0 
0 0 0 0 0 0 0 0 0 
0 0 0 0 0 0 0 0 0 
0 0 0 0 0 0 0 0 0 
0 0 0 0 0 0 0 0 0 
0 0 0 0 0 0 0 0 0 
0 0 0 0 0 0 0 0 0 
0 0 0 0 0 0 0 0 0 
0 0 0 0 0 0 0 0 0 
0 0 0 0 0 0 0 0 0 
0 0 0 0 0 0 0 0 0 
0 0 0 0 0 0 0 0 0 
0 0 0 0 0 0 0 0 0 
0 0 0 0 0 0 0 0 0 
0 0 0 0 0 0 0 0 0 
0 0 0 0 0 0 0 0 0 
0 0 0 0 0 0 0 0 0 
0 0 0 0 0 0 0 0 0 
0 0 0 0 0 0 0 0 0 
0 0 0 0 0 0 0 0 0 
0 0 0 0 0 0 0 0 0 
0 0 0 0 0 0 0 0 0 
0 0 0 0 0 0 0 0 0 
0 0 0 0 0 0 0 0 0 
0 0 0 0 0 0 0 0 0 
0 0 0 0 0 0 0 0 0 
0 0 0 0 0 0 0 0 0 
0 0 0 0 0 0 0 0 0 
0 0 0 0 0 0 0 0 0 
0 0 0 0 0 0 0 0 0 
0 0 0 0 0 0 0 0 0 
0 0 0 0 0 0 0 0 0 
0 0 0 0 0 0 0 0 0 
0 0 0 0 0 0 0 0 0 
0 0 0 0 0 0 0 0 0 
0 0 0 0 0 0 0 0 0 
0 0 0 0 0 0 0 0 0 
0 0 0 0 0 0 0 0 0 
0 0 0 0 0 0 0 0 0 
0 0 0 0 0 0 0 0 0 
0 0 0 0 0 0 0 0 0 
0 0 0 0 0 0 0 0 0 
0 0 0 0 0 0 0 0 0 
0 0 0 0 0 0 0 0 0 
0 0 0 0 0 0 0 0 0 
0 0 0 0 0 0 0 0 0 
0 0 0 0 0 0 0 0 0 
0 0 0 0 0 0 0 0 0 
0 0 0 0 0 0 0 0 0 
0 0 0 0 0 0 0 0 0 
0 0 0 0 0 0 0 0 0 
0 0 0 0 0 0 0 0 0 
0 0 0 0 0 0 0 0 0 
0 0 0 0 0 0 0 0 0 
0 0 0 0 0 0 0 0 0 
0 0 0 0 0 0 0 0 0 
0 0 0 0 0 0 0 0 0 
0 0 0 0 0 0 0 0 0 
0 0 0 0 0 0 0 0 0 
0 0 0 0 0 0 0 0 0 
0 0 0 0 0 0 0 0 0 
0 0 0 0 0 0 0 0 0 
0 0 0 0 0 0 0 0 0 
0 0 0 0 0 0 0 0 0 
0 0 0 0 0 0 0 0 0 
0 0 0 0 0 0 0 0 0 
0 0 0 0 0 0 0 0 0 
0 0 0 0 0 0 0 0 0 
0 0 0 0 0 0 0 0 0 
0 0 0 0 0 0 0 0 0 
0 0 0 0 0 0 0 0 0 
0 0 0 0 0 0 0 0 0 
0 0 0 0 0 0 0 0 0 
0 0 0 0 0 0 0 0 0 
0 0 0 0 0 0 0 0 0 
0 0 0 0 0 0 0 0 0 
0 0 0 0 0 0 0 0 0 
0 0 0 0 0 0 0 0 0 
0 0 0 0 0 0 0 0 0 
0 0 0 0 0 0 0 0 0 
0 0 0 0 0 0 0 0 0 
0 0 0 0 0 0 0 0 0 
0 0 0 0 0 0 0 0 0 
0 0 0 0 0 0 0 0 0 
0 0 0 0 0 0 0 0 0 
0 0 0 0 0 0 0 0 0 
0 0 0 0 0 0 0 0 0 
0 0 0 0 0 0 0 0 0 
0 0 0 0 0 0 0 0 0 
0 0 0 0 0 0 0 0 0 
0 0 0 0 0 0 0 0 0 
0 0 0 0 0 0 0 0 0 
0 0 0 0 0 0 0 0 0 
0 0 0 0 0 0 0 0 0 
0 0 0 0 0 0 0 0 0 
0 0 0 0 0 0 0 0 0 
0 0 0 0 0 0 0 0 0 
0 0 0 0 0 0 0 0 0 
0 0 0 0 0 0 0 0 0 
0 0 0 0 0 0 0 0 0 
0 0 0 0 0 0 0 0 0 
0 0 0 0 0 0 0 0 0 
0 0 0 0 0 0 0 0 0 
0 0 0 0 0 0 0 0 0 
0 0 0 0 0 0 0 0 0 
0 0 0 0 0 0 0 0 0 
0 0 0 0 0 0 0 0 0 
0 0 0 0 0 0 0 0 0 
0 0 0 0 0 0 0 0 0 
0 0 0 0 0 0 0 0 0 
0 0 0 0 0 0 0 0 0 
0 0 0 0 0 0 0 0 0 
0 0 0 0 0 0 0 0 0 
0 0 0 0 0 0 0 0 0 
0 0 0 0 0 0 0 0 0 
0 0 0 0 0 0 0 0 0 
0 0 0 0 0 0 0 0 0 
0 0 0 0 0 0 0 0 0 
0 0 0 0 0 0 0 0 0 
0 0 0 0 0 0 0 0 0 
0 0 0 0 0 0 0 0 0 
0 0 0 0 0 0 0 0 0 
0 0 0 0 0 0 0 0 0 
0 0 0 0 0 0 0 0 0 
0 0 0 0 0 0 0 0 0 
0 0 0 0 0 0 0 0 0 
0 0 0 0 0 0 0 0 0 
0 0 0 0 0 0 0 0 0 
0 0 0 0 0 0 0 0 0 
0 0 0 0 0 0 0 0 0 
0 0 0 0 0 0 0 0 0 
0 0 0 0 0 0 0 0 0 
0 0 0 0 0 0 0 0 0 
0 0 0 0 0 0 0 0 0 
0 0 0 0 0 0 0 0 0 
0 0 0 0 0 0 0 0 0 
0 0 0 0 0 0 0 0 0 
0 0 0 0 0 0 0 0 0 
0 0 0 0 0 0 0 0 0 
0 0 0 0 0 0 0 0 0 
0 0 0 0 0 0 0 0 0 
0 0 0 0 0 0 0 0 0 
0 0 0 0 0 0 0 0 0 
0 0 0 0 0 0 0 0 0 
0 0 0 0 0 0 0 0 0 
0 0 0 0 0 0 0 0 0 
0 0 0 0 0 0 0 0 0 
0 0 0 0 0 0 0 0 0 
0 0 0 0 0 0 0 0 0 
0 0 0 0 0 0 0 0 0 
0 0 0 0 0 0 0 0 0 
0 0 0 0 0 0 0 0 0 
0 0 0 0 0 0 0 0 0 
0 0 0 0 0 0 0 0 0 
0 0 0 0 0 0 0 0 0 
0 0 0 0 0 0 0 0 0 
0 0 0 0 0 0 0 0 0 
0 0 0 0 0 0 0 0 0 
0 0 0 0 0 0 0 0 0 
0 0 0 0 0 0 0 0 0 
0 0 0 0 0 0 0 0 0 
0 0 0 0 0 0 0 0 0 
0 0 0 0 0 0 0 0 0 
0 0 0 0 0 0 0 0 0 
0 0 0 0 0 0 0 0 0 
0 0 0 0 0 0 0 0 0 
0 0 0 0 0 0 0 0 0 
0 0 0 0 0 0 0 0 0 
0 0 0 0 0 0 0 0 0 
0 0 0 0 0 0 0 0 0 
0 0 0 0 0 0 0 0 0 
0 0 0 0 0 0 0 0 0 
0 0 0 0 0 0 0 0 0 
0 0 0 0 0 0 0 0 0 
0 0 0 0 0 0 0 0 0 
0 0 0 0 0 0 0 0 0 
0 0 0 0 0 0 0 0 0 
0 0 0 0 0 0 0 0 0 
0 0 0 0 0 0 0 0 0 
0 0 0 0 0 0 0 0 0 
0 0 0 0 0 0 0 0 0 
0 0 0 0 0 0 0 0 0 
0 0 0 0 0 0 0 0 0 
0 0 0 0 0 0 0 0 0 
0 0 0 0 0 0 0 0 0 
0 0 0 0 0 0 0 0 0 
0 0 0 0 0 0 0 0 0 
0 0 0 0 0 0 0 0 0 
0 0 0 0 0 0 0 0 0 
0 0 0 0 0 0 0 0 0 
0 0 0 0 0 0 0 0 0 
0 0 0 0 0 0 0 0 0 
0 0 0 0 0 0 0 0 0 
0 0 0 0 0 0 0 0 0 
0 0 0 0 0 0 0 0 0 
0 0 0 0 0 0 0 0 0 
0 0 0 0 0 0 0 0 0 
0 0 0 0 0 0 0 0 0 
0 0 0 0 0 0 0 0 0 
0 0 0 0 0 0 0 0 0 
0 0 0 0 0 0 0 0 0 
0 0 0 0 0 0 0 0 0 
0 0 0 0 0 0 0 0 0 
0 0 0 0 0 0 0 0 0 
0 0 0 0 0 0 0 0 0 
0 0 0 0 0 0 0 0 0 
0 0 0 0 0 0 0 0 0 
0 0 0 0 0 0 0 0 0 
0 0 0 0 0 0 0 0 0 
0 0 0 0 0 0 0 0 0 
0 0 0 0 0 0 0 0 0 
0 0 0 0 0 0 0 0 0 
0 0 0 0 0 0 0 0 0 
0 0 0 0 0 0 0 0 0 
0 0 0 0 0 0 0 0 0 
0 0 0 0 0 0 0 0 0 
0 0 0 0 0 0 0 0 0 
0 0 0 0 0 0 0 0 0 
0 0 0 0 0 0 0 0 0 
0 0 0 0 0 0 0 0 0 
0 0 0 0 0 0 0 0 0 
0 0 0 0 0 0 0 0 0 
0 0 0 0 0 0 0 0 0 
0 0 0 0 0 0 0 0 0 
0 0 0 0 0 0 0 0 0 
0 0 0 0 0 0 0 0 0 
0 0 0 0 0 0 0 0 0 
0 0 0 0 0 0 0 0 0 
0 0 0 0 0 0 0 0 0 
0 0 0 0 0 0 0 0 0 
0 0 0 0 0 0 0 0 0 
0 0 0 0 0 0 0 0 0 
0 0 0 0 0 0 0 0 0 
0 0 0 0 0 0 0 0 0 
0 0 0 0 0 0 0 0 0 
0 0 0 0 0 0 0 0 0 
0 0 0 0 0 0 0 0 0 
0 0 0 0 0 0 0 0 0 
0 0 0 0 0 0 0 0 0 
0 0 0 0 0 0 0 0 0 
0 0 0 0 0 0 0 0 0 
0 0 0 0 0 0 0 0 0 
0 0 0 0 0 0 0 0 0 
0 0 0 0 0 0 0 0 0 
0 0 0 0 0 0 0 0 0 
0 0 0 0 0 0 0 0 0 
0 0 0 0 0 0 0 0 0 
0 0 0 0 0 0 0 0 0 
0 0 0 0 0 0 0 0 0 
0 0 0 0 0 0 0 0 0 
0 0 0 0 0 0 0 0 0 
0 0 0 0 0 0 0 0 0 
0 0 0 0 0 0 0 0 0 
0 0 0 0 0 0 0 0 0 
0 0 0 0 0 0 0 0 0 
0 0 0 0 0 0 0 0 0 
0 0 0 0 0 0 0 0 0 
0 0 0 0 0 0 0 0 0 
0 0 0 0 0 0 0 0 0 
0 0 0 0 0 0 0 0 0 
0 0 0 0 0 0 0 0 0 
0 0 0 0 0 0 0 0 0 
0 0 0 0 0 0 0 0 0 
0 0 0 0 0 0 0 0 0 
0 0 0 0 0 0 0 0 0 
0 0 0 0 0 0 0 0 0 
0 0 0 0 0 0 0 0 0 
0 0 0 0 0 0 0 0 0 
0 0 0 0 0 0 0 0 0 
0 0 0 0 0 0 0 0 0 
0 0 0 0 0 0 0 0 0 
0 0 0 0 0 0 0 0 0 
0 0 0 0 0 0 0 0 0 
0 0 0 0 0 0 0 0 0 
0 0 0 0 0 0 0 0 0 
0 0 0 0 0 0 0 0 0 
0 0 0 0 0 0 0 0 0 
0 0 0 0 0 0 0 0 0 
0 0 0 0 0 0 0 0 0 
0 0 0 0 0 0 0 0 0 
0 0 0 0 0 0 0 0 0 
0 0 0 0 0 0 0 0 0 
0 0 0 0 0 0 0 0 0 
0 0 0 0 0 0 0 0 0 
0 0 0 0 0 0 0 0 0 
0 0 0 0 0 0 0 0 0 
0 0 0 0 0 0 0 0 0 
0 0 0 0 0 0 0 0 0 
0 0 0 0 0 0 0 0 0 
0 0 0 0 0 0 0 0 0 
0 0 0 0 0 0 0 0 0 
0 0 0 0 0 0 0 0 0 
0 0 0 0 0 0 0 0 0 
0 0 0 0 0 0 0 0 0 
0 0 0 0 0 0 0 0 0 
0 0 0 0 0 0 0 0 0 
0 0 0 0 0 0 0 0 0 
0 0 0 0 0 0 0 0 0 
0 0 0 0 0 0 0 0 0 
0 0 0 0 0 0 0 0 0 
0 0 0 0 0 0 0 0 0 
0 0 0 0 0 0 0 0 0 
0 0 0 0 0 0 0 0 0 
0 0 0 0 0 0 0 0 0 
0 0 0 0 0 0 0 0 0 
0 0 0 0 0 0 0 0 0 
0 0 0 0 0 0 0 0 0 
0 0 0 0 0 0 0 0 0 
0 0 0 0 0 0 0 0 0 
0 0 0 0 0 0 0 0 0 
0 0 0 0 0 0 0 0 0 
0 0 0 0 0 0 0 0 0 
0 0 0 0 0 0 0 0 0 
0 0 0 0 0 0 0 0 0 
0 0 0 0 0 0 0 0 0 
0 0 0 0 0 0 0 0 0 
0 0 0 0 0 0 0 0 0 
0 0 0 0 0 0 0 0 0 
0 0 0 0 0 0 0 0 0 
0 0 0 0 0 0 0 0 0 
0 0 0 0 0 0 0 0 0 
0 0 0 0 0 0 0 0 0 
0 0 0 0 0 0 0 0 0 
0 0 0 0 0 0 0 0 0 
0 0 0 0 0 0 0 0 0 
0 0 0 0 0 0 0 0 0 
0 0 0 0 0 0 0 0 0 
0 0 0 0 0 0 0 0 0 
0 0 0 0 0 0 0 0 0 
0 0 0 0 0 0 0 0 0 
0 0 0 0 0 0 0 0 0 
0 0 0 0 0 0 0 0 0 
0 0 0 0 0 0 0 0 0 
0 0 0 0 0 0 0 0 0 
0 0 0 0 0 0 0 0 0 
0 0 0 0 0 0 0 0 0 
0 0 0 0 0 0 0 0 0 
0 0 0 0 0 0 0 0 0 
0 0 0 0 0 0 0 0 0 
0 0 0 0 0 0 0 0 0 
0 0 0 0 0 0 0 0 0 
0 0 0 0 0 0 0 0 0 
0 0 0 0 0 0 0 0 0 
0 0 0 0 0 0 0 0 0 
0 0 0 0 0 0 0 0 0 
0 0 0 0 0 0 0 0 0 
0 0 0 0 0 0 0 0 0 
0 0 0 0 0 0 0 0 0 
0 0 0 0 0 0 0 0 0 
0 0 0 0 0 0 0 0 0 
0 0 0 0 0 0 0 0 0 
0 0 0 0 0 0 0 0 0 
0 0 0 0 0 0 0 0 0 
0 0 0 0 0 0 0 0 0 
0 0 0 0 0 0 0 0 0 
0 0 0 0 0 0 0 0 0 
0 0 0 0 0 0 0 0 0 
53970103.65 70516579.98 30671060.226 0 0 0 -11319835.403 -45162319.056 17833519.52 
18652852.274 -51626435.833 17828847.357 0 0 0 10534724.666 35651056.102 36128553.871 
46301073.05 48432390.23 31787761.465 57502516.947 33009130.39 30554052.552 0 0 0 
1826103.136 -8701333.1128 6879008.2802 -1054342.4261 7140526.2056 4031834.6141 0 0 0 
0 0 0 2867476.8998 -4796937.5325 2108606.0303 745855.7825 -743223.86641 393489.35876 
0 0 0 0 0 0 0 0 0 
0 0 0 0 0 0 0 0 0 
0 0 0 0 0 0 0 0 0 
0 0 0 0 0 0 0 0 0 
0 0 0 0 0 0 0 0 0 
0 0 0 0 0 0 0 0 0 
0 0 0 -8165673.5562 -13642592.625 5409675.6345 1398448.9599 1902421.1787 4734339.007 
4660075.8873 3406882.6419 25637509.451 6220309.3005 -21699553.094 9342099.7235 11593742.275 -30601822.156 28128082.868 
0 0 0 0 0 0 0 0 0 
0 0 0 0 0 0 0 0 0 
0 0 0 0 0 0 0 0 0 
0 0 0 0 0 0 0 0 0 
0 0 0 0 0 0 0 0 0 
0 0 0 0 0 0 0 0 0 
-5598673.3373 -17191080.17 4680855.3622 -465872.92066 26585949.738 19473128.54 4650479.8824 -14494264.087 4336456.5094 
0 0 0 0 0 0 0 0 0 
0 0 0 0 0 0 0 0 0 
0 0 0 0 0 0 0 0 0 
0 0 0 0 0 0 0 0 0 
0 0 0 0 0 0 0 0 0 
0 0 0 0 0 0 0 0 0 
0 0 0 0 0 0 0 0 0 
0 0 0 0 0 0 0 0 0 
0 0 0 0 0 0 0 0 0 
0 0 0 0 0 0 0 0 0 
0 0 0 0 0 0 0 0 0 
0 0 0 0 0 0 0 0 0 
0 0 0 0 0 0 0 0 0 
0 0 0 0 0 0 0 0 0 
0 0 0 0 0 0 0 0 0 
0 0 0 0 0 0 0 0 0 
0 0 0 0 0 0 0 0 0 
0 0 0 0 0 0 0 0 0 
0 0 0 0 0 0 0 0 0 
0 0 0 0 0 0 0 0 0 
0 0 0 0 0 0 0 0 0 
0 0 0 0 0 0 0 0 0 
0 0 0 0 0 0 0 0 0 
0 0 0 0 0 0 0 0 0 
0 0 0 0 0 0 0 0 0 
0 0 0 0 0 0 0 0 0 
0 0 0 0 0 0 0 0 0 
0 0 0 0 0 0 0 0 0 
0 0 0 0 0 0 0 0 0 
0 0 0 0 0 0 0 0 0 
0 0 0 0 0 0 0 0 0 
0 0 0 0 0 0 0 0 0 
0 0 0 0 0 0 0 0 0 
0 0 0 0 0 0 0 0 0 
0 0 0 0 0 0 0 0 0 
0 0 0 0 0 0 0 0 0 
0 0 0 0 0 0 0 0 0 
0 0 0 0 0 0 0 0 0 
0 0 0 0 0 0 0 0 0 
0 0 0 0 0 0 0 0 0 
0 0 0 0 0 0 0 0 0 
0 0 0 0 0 0 0 0 0 
0 0 0 0 0 0 0 0 0 
0 0 0 0 0 0 0 0 0 
0 0 0 0 0 0 0 0 0 
0 0 0 0 0 0 0 0 0 
0 0 0 0 0 0 0 0 0 
0 0 0 0 0 0 0 0 0 
0 0 0 0 0 0 0 0 0 
0 0 0 0 0 0 0 0 0 
0 0 0 0 0 0 0 0 0 
0 0 0 0 0 0 0 0 0 
0 0 0 0 0 0 0 0 0 
0 0 0 0 0 0 0 0 0 
0 0 0 0 0 0 0 0 0 
0 0 0 0 0 0 0 0 0 
0 0 0 0 0 0 0 0 0 
0 0 0 0 0 0 0 0 0 
0 0 0 0 0 0 0 0 0 
0 0 0 0 0 0 0 0 0 
0 0 0 0 0 0 0 0 0 
0 0 0 0 0 0 0 0 0 
0 0 0 0 0 0 0 0 0 
0 0 0 0 0 0 0 0 0 
0 0 0 0 0 0 0 0 0 
0 0 0 0 0 0 0 0 0 
0 0 0 0 0 0 0 0 0 
0 0 0 0 0 0 0 0 0 
0 0 0 0 0 0 0 0 0 
0 0 0 0 0 0 0 0 0 
0 0 0 0 0 0 0 0 0 
0 0 0 0 0 0 0 0 0 
0 0 0 0 0 0 0 0 0 
0 0 0 0 0 0 0 0 0 
0 0 0 0 0 0 0 0 0 
0 0 0 0 0 0 0 0 0 
0 0 0 0 0 0 0 0 0 
0 0 0 0 0 0 0 0 0 
0 0 0 0 0 0 0 0 0 
0 0 0 0 0 0 0 0 0 
0 0 0 0 0 0 0 0 0 
0 0 0 0 0 0 0 0 0 
0 0 0 0 0 0 0 0 0 
0 0 0 0 0 0 0 0 0 
0 0 0 0 0 0 0 0 0 
0 0 0 0 0 0 0 0 0 
0 0 0 0 0 0 0 0 0 
0 0 0 0 0 0 0 0 0 
0 0 0 0 0 0 0 0 0 
0 0 0 0 0 0 0 0 0 
0 0 0 0 0 0 0 0 0 
0 0 0 0 0 0 0 0 0 
0 0 0 0 0 0 0 0 0 
0 0 0 0 0 0 0 0 0 
0 0 0 0 0 0 0 0 0 
0 0 0 0 0 0 0 0 0 
0 0 0 0 0 0 0 0 0 
0 0 0 0 0 0 0 0 0 
0 0 0 0 0 0 0 0 0 
0 0 0 0 0 0 0 0 0 
0 0 0 0 0 0 0 0 0 
0 0 0 0 0 0 0 0 0 
0 0 0 0 0 0 0 0 0 
0 0 0 0 0 0 0 0 0 
0 0 0 0 0 0 0 0 0 
0 0 0 0 0 0 0 0 0 
0 0 0 0 0 0 0 0 0 
0 0 0 0 0 0 0 0 0 
0 0 0 0 0 0 0 0 0 
0 0 0 0 0 0 0 0 0 
0 0 0 0 0 0 0 0 0 
0 0 0 0 0 0 0 0 0 
0 0 0 0 0 0 0 0 0 
0 0 0 0 0 0 0 0 0 
0 0 0 0 0 0 0 0 0 
0 0 0 0 0 0 0 0 0 
0 0 0 0 0 0 0 0 0 
0 0 0 0 0 0 0 0 0 
0 0 0 0 0 0 0 0 0 
0 0 0 0 0 0 0 0 0 
0 0 0 0 0 0 0 0 0 
0 0 0 0 0 0 0 0 0 
0 0 0 0 0 0 0 0 0 
0 0 0 0 0 0 0 0 0 
0 0 0 0 0 0 0 0 0 
0 0 0 0 0 0 0 0 0 
0 0 0 0 0 0 0 0 0 
0 0 0 0 0 0 0 0 0 
0 0 0 0 0 0 0 0 0 
0 0 0 0 0 0 0 0 0 
0 0 0 0 0 0 0 0 0 
0 0 0 0 0 0 0 0 0 
0 0 0 0 0 0 0 0 0 
0 0 0 0 0 0 0 0 0 
0 0 0 0 0 0 0 0 0 
0 0 0 0 0 0 0 0 0 
0 0 0 0 0 0 0 0 0 
0 0 0 0 0 0 0 0 0 
0 0 0 0 0 0 0 0 0 
0 0 0 0 0 0 0 0 0 
0 0 0 0 0 0 0 0 0 
0 0 0 0 0 0 0 0 0 
0 0 0 0 0 0 0 0 0 
0 0 0 0 0 0 0 0 0 
0 0 0 0 0 0 0 0 0 
0 0 0 0 0 0 0 0 0 
0 0 0 0 0 0 0 0 0 
0 0 0 0 0 0 0 0 0 
0 0 0 0 0 0 0 0 0 
0 0 0 0 0 0 0 0 0 
0 0 0 0 0 0 0 0 0 
0 0 0 0 0 0 0 0 0 
0 0 0 0 0 0 0 0 0 
0 0 0 0 0 0 0 0 0 
0 0 0 0 0 0 0 0 0 
0 0 0 0 0 0 0 0 0 
0 0 0 0 0 0 0 0 0 
0 0 0 0 0 0 0 0 0 
0 0 0 0 0 0 0 0 0 
0 0 0 0 0 0 0 0 0 
0 0 0 0 0 0 0 0 0 
0 0 0 0 0 0 0 0 0 
0 0 0 0 0 0 0 0 0 
0 0 0 0 0 0 0 0 0 
0 0 0 0 0 0 0 0 0 
0 0 0 0 0 0 0 0 0 
0 0 0 0 0 0 0 0 0 
0 0 0 0 0 0 0 0 0 
0 0 0 0 0 0 0 0 0 
0 0 0 0 0 0 0 0 0 
0 0 0 0 0 0 0 0 0 
0 0 0 0 0 0 0 0 0 
0 0 0 0 0 0 0 0 0 
0 0 0 0 0 0 0 0 0 
0 0 0 0 0 0 0 0 0 
0 0 0 0 0 0 0 0 0 
0 0 0 0 0 0 0 0 0 
0 0 0 0 0 0 0 0 0 
0 0 0 0 0 0 0 0 0 
0 0 0 0 0 0 0 0 0 
0 0 0 0 0 0 0 0 0 
0 0 0 0 0 0 0 0 0 
0 0 0 0 0 0 0 0 0 
0 0 0 0 0 0 0 0 0 
0 0 0 0 0 0 0 0 0 
0 0 0 0 0 0 0 0 0 
0 0 0 0 0 0 0 0 0 
0 0 0 0 0 0 0 0 0 
0 0 0 0 0 0 0 0 0 
0 0 0 0 0 0 0 0 0 
0 0 0 0 0 0 0 0 0 
0 0 0 0 0 0 0 0 0 
0 0 0 0 0 0 0 0 0 
0 0 0 0 0 0 0 0 0 
0 0 0 0 0 0 0 0 0 
0 0 0 0 0 0 0 0 0 
0 0 0 0 0 0 0 0 0 
0 0 0 0 0 0 0 0 0 
0 0 0 0 0 0 0 0 0 
0 0 0 0 0 0 0 0 0 
0 0 0 0 0 0 0 0 0 
0 0 0 0 0 0 0 0 0 
0 0 0 0 0 0 0 0 0 
0 0 0 0 0 0 0 0 0 
0 0 0 0 0 0 0 0 0 
0 0 0 0 0 0 0 0 0 
0 0 0 0 0 0 0 0 0 
0 0 0 0 0 0 0 0 0 
0 0 0 0 0 0 0 0 0 
0 0 0 0 0 0 0 0 0 
0 0 0 0 0 0 0 0 0 
0 0 0 0 0 0 0 0 0 
0 0 0 0 0 0 0 0 0 
0 0 0 0 0 0 0 0 0 
0 0 0 0 0 0 0 0 0 
0 0 0 0 0 0 0 0 0 
0 0 0 0 0 0 0 0 0 
0 0 0 0 0 0 0 0 0 
0 0 0 0 0 0 0 0 0 
0 0 0 0 0 0 0 0 0 
0 0 0 0 0 0 0 0 0 
0 0 0 0 0 0 0 0 0 
0 0 0 0 0 0 0 0 0 
0 0 0 0 0 0 0 0 0 
0 0 0 0 0 0 0 0 0 
0 0 0 0 0 0 0 0 0 
0 0 0 0 0 0 0 0 0 
0 0 0 0 0 0 0 0 0 
0 0 0 0 0 0 0 0 0 
0 0 0 0 0 0 0 0 0 
0 0 0 0 0 0 0 0 0 
0 0 0 0 0 0 0 0 0 
0 0 0 0 0 0 0 0 0 
0 0 0 0 0 0 0 0 0 
0 0 0 0 0 0 0 0 0 
0 0 0 0 0 0 0 0 0 
0 0 0 0 0 0 0 0 0 
0 0 0 0 0 0 0 0 0 
0 0 0 0 0 0 0 0 0 
0 0 0 0 0 0 0 0 0 
0 0 0 0 0 0 0 0 0 
0 0 0 0 0 0 0 0 0 
0 0 0 0 0 0 0 0 0 
0 0 0 0 0 0 0 0 0 
0 0 0 0 0 0 0 0 0 
0 0 0 0 0 0 0 0 0 
0 0 0 0 0 0 0 0 0 
0 0 0 0 0 0 0 0 0 
0 0 0 0 0 0 0 0 0 
0 0 0 0 0 0 0 0 0 
0 0 0 0 0 0 0 0 0 
0 0 0 0 0 0 0 0 0 
0 0 0 0 0 0 0 0 0 
0 0 0 0 0 0 0 0 0 
0 0 0 0 0 0 0 0 0 
0 0 0 0 0 0 0 0 0 
0 0 0 0 0 0 0 0 0 
0 0 0 0 0 0 0 0 0 
0 0 0 0 0 0 0 0 0 
0 0 0 0 0 0 0 0 0 
0 0 0 0 0 0 0 0 0 
0 0 0 0 0 0 0 0 0 
0 0 0 0 0 0 0 0 0 
0 0 0 0 0 0 0 0 0 
0 0 0 0 0 0 0 0 0 
0 0 0 0 0 0 0 0 0 
0 0 0 0 0 0 0 0 0 
0 0 0 0 0 0 0 0 0 
0 0 0 0 0 0 0 0 0 
0 0 0 0 0 0 0 0 0 
0 0 0 0 0 0 0 0 0 
0 0 0 0 0 0 0 0 0 
0 0 0 0 0 0 0 0 0 
0 0 0 0 0 0 0 0 0 
0 0 0 0 0 0 0 0 0 
0 0 0 0 0 0 0 0 0 
0 0 0 0 0 0 0 0 0 
0 0 0 0 0 0 0 0 0 
0 0 0 0 0 0 0 0 0 
0 0 0 0 0 0 0 0 0 
0 0 0 0 0 0 0 0 0 
0 0 0 0 0 0 0 0 0 
0 0 0 0 0 0 0 0 0 
0 0 0 0 0 0 0 0 0 
0 0 0 0 0 0 0 0 0 
0 0 0 0 0 0 0 0 0 
0 0 0 0 0 0 0 0 0 
0 0 0 0 0 0 0 0 0 
0 0 0 0 0 0 0 0 0 
0 0 0 0 0 0 0 0 0 
0 0 0 0 0 0 0 0 0 
0 0 0 0 0 0 0 0 0 
0 0 0 0 0 0 0 0 0 
0 0 0 0 0 0 0 0 0 
0 0 0 0 0 0 0 0 0 
0 0 0 0 0 0 0 0 0 
0 0 0 0 0 0 0 0 0 
0 0 0 0 0 0 0 0 0 
0 0 0 0 0 0 0 0 0 
0 0 0 0 0 0 0 0 0 
0 0 0 0 0 0 0 0 0 
0 0 0 0 0 0 0 0 0 
0 0 0 0 0 0 0 0 0 
0 0 0 0 0 0 0 0 0 
0 0 0 0 0 0 0 0 0 
0 0 0 0 0 0 0 0 0 
0 0 0 0 0 0 0 0 0 
0 0 0 0 0 0 0 0 0 
0 0 0 0 0 0 0 0 0 
0 0 0 0 0 0 0 0 0 
0 0 0 0 0 0 0 0 0 
0 0 0 0 0 0 0 0 0 
0 0 0 0 0 0 0 0 0 
0 0 0 0 0 0 0 0 0 
0 0 0 0 0 0 0 0 0 
0 0 0 0 0 0 0 0 0 
0 0 0 0 0 0 0 0 0 
0 0 0 0 0 0 0 0 0 
0 0 0 0 0 0 0 0 0 
0 0 0 0 0 0 0 0 0 
0 0 0 0 0 0 0 0 0 
0 0 0 0 0 0 0 0 0 
0 0 0 0 0 0 0 0 0 
0 0 0 0 0 0 0 0 0 
0 0 0 0 0 0 0 0 0 
0 0 0 0 0 0 0 0 0 
0 0 0 0 0 0 0 0 0 
0 0 0 0 0 0 0 0 0 
0 0 0 0 0 0 0 0 0 
0 0 0 0 0 0 0 0 0 
0 0 0 0 0 0 0 0 0 
0 0 0 0 0 0 0 0 0 
0 0 0 0 0 0 0 0 0 
0 0 0 0 0 0 0 0 0 
0 0 0 0 0 0 0 0 0 
0 0 0 0 0 0 0 0 0 
0 0 0 0 0 0 0 0 0 
0 0 0 0 0 0 0 0 0 
0 0 0 0 0 0 0 0 0 
0 0 0 0 0 0 0 0 0 
0 0 0 0 0 0 0 0 0 
0 0 0 0 0 0 0 0 0 
0 0 0 0 0 0 0 0 0 
0 0 0 0 0 0 0 0 0 
0 0 0 0 0 0 0 0 0 
0 0 0 0 0 0 0 0 0 
0 0 0 0 0 0 0 0 0 
0 0 0 0 0 0 0 0 0 
0 0 0 0 0 0 0 0 0 
0 0 0 0 0 0 0 0 0 
0 0 0 0 0 0 0 0 0 
0 0 0 0 0 0 0 0 0 
0 0 0 0 0 0 0 0 0 
0 0 0 0 0 0 0 0 0 
0 0 0 0 0 0 0 0 0 
0 0 0 0 0 0 0 0 0 
0 0 0 0 0 0 0 0 0 
0 0 0 0 0 0 0 0 0 
0 0 0 0 0 0 0 0 0 
0 0 0 0 0 0 0 0 0 
0 0 0 0 0 0 0 0 0 
0 0 0 0 0 0 0 0 0 
0 0 0 0 0 0 0 0 0 
0 0 0 0 0 0 0 0 0 
0 0 0 0 0 0 0 0 0 
0 0 0 0 0 0 0 0 0 
0 0 0 0 0 0 0 0 0 
0 0 0 0 0 0 0 0 0 
0 0 0 0 0 0 0 0 0 
0 0 0 0 0 0 0 0 0 
0 0 0 0 0 0 0 0 0 
0 0 0 0 0 0 0 0 0 
0 0 0 0 0 0 0 0 0 
0 0 0 0 0 0 0 0 0 
0 0 0 0 0 0 0 0 0 
0 0 0 0 0 0 0 0 0 
0 0 0 0 0 0 0 0 0 
0 0 0 0 0 0 0 0 0 
0 0 0 0 0 0 0 0 0 
0 0 0 0 0 0 0 0 0 
0 0 0 0 0 0 0 0 0 
0 0 0 0 0 0 0 0 0 
0 0 0 0 0 0 0 0 0 
0 0 0 0 0 0 0 0 0 
0 0 0 0 0 0 0 0 0 
0 0 0 0 0 0 0 0 0 
0 0 0 0 0 0 0 0 0 
0 0 0 0 0 0 0 0 0 
0 0 0 0 0 0 0 0 0 
0 0 0 0 0 0 0 0 0 
0 0 0 0 0 0 0 0 0 
0 0 0 0 0 0 0 0 0 
0 0 0 0 0 0 0 0 0 
0 0 0 0 0 0 0 0 0 
0 0 0 0 0 0 0 0 0 
0 0 0 0 0 0 0 0 0 
0 0 0 0 0 0 0 0 0 
0 0 0 0 0 0 0 0 0 
0 0 0 0 0 0 0 0 0 
0 0 0 0 0 0 0 0 0 
0 0 0 0 0 0 0 0 0 
0 0 0 0 0 0 0 0 0 
0 0 0 0 0 0 0 0 0 
0 0 0 0 0 0 0 0 0 
0 0 0 0 0 0 0 0 0 
0 0 0 0 0 0 0 0 0 
0 0 0 0 0 0 0 0 0 
0 0 0 0 0 0 0 0 0 
0 0 0 0 0 0 0 0 0 
0 0 0 0 0 0 0 0 0 
0 0 0 0 0 0 0 0 0 
0 0 0 0 0 0 0 0 0 
0 0 0 0 0 0 0 0 0 
0 0 0 0 0 0 0 0 0 
0 0 0 0 0 0 0 0 0 
0 0 0 0 0 0 0 0 0 
0 0 0 0 0 0 0 0 0 
0 0 0 0 0 0 0 0 0 
0 0 0 0 0 0 0 0 0 
0 0 0 0 0 0 0 0 0 
0 0 0 0 0 0 0 0 0 
0 0 0 0 0 0 0 0 0 
0 0 0 0 0 0 0 0 0 
0 0 0 0 0 0 0 0 0 
0 0 0 0 0 0 0 0 0 
0 0 0 0 0 0 0 0 0 
0 0 0 0 0 0 0 0 0 
0 0 0 0 0 0 0 0 0 
0 0 0 0 0 0 0 0 0 
0 0 0 0 0 0 0 0 0 
0 0 0 0 0 0 0 0 0 
0 0 0 0 0 0 0 0 0 
0 0 0 0 0 0 0 0 0 
0 0 0 0 0 0 0 0 0 
0 0 0 0 0 0 0 0 0 
0 0 0 0 0 0 0 0 0 
0 0 0 0 0 0 0 0 0 
0 0 0 0 0 0 0 0 0 
0 0 0 0 0 0 0 0 0 
0 0 0 0 0 0 0 0 0 
0 0 0 0 0 0 0 0 0 
0 0 0 0 0 0 0 0 0 
0 0 0 0 0 0 0 0 0 
0 0 0 0 0 0 0 0 0 
0 0 0 0 0 0 0 0 0 
0 0 0 0 0 0 0 0 0 
0 0 0 0 0 0 0 0 0 
0 0 0 0 0 0 0 0 0 
0 0 0 0 0 0 0 0 0 
0 0 0 0 0 0 0 0 0 
0 0 0 0 0 0 0 0 0 
0 0 0 0 0 0 0 0 0 
0 0 0 0 0 0 0 0 0 
0 0 0 0 0 0 0 0 0 
0 0 0 0 0 0 0 0 0 
0 0 0 0 0 0 0 0 0 
0 0 0 0 0 0 0 0 0 
0 0 0 0 0 0 0 0 0 
0 0 0 0 0 0 0 0 0 
0 0 0 0 0 0 0 0 0 
0 0 0 0 0 0 0 0 0 
0 0 0 0 0 0 0 0 0 
0 0 0 0 0 0 0 0 0 
0 0 0 0 0 0 0 0 0 
0 0 0 0 0 0 0 0 0 
0 0 0 0 0 0 0 0 0 
0 0 0 0 0 0 0 0 0 
0 0 0 0 0 0 0 0 0 
0 0 0 0 0 0 0 0 0 
0 0 0 0 0 0 0 0 0 
0 0 0 0 0 0 0 0 0 
0 0 0 0 0 0 0 0 0 
0 0 0 0 0 0 0 0 0 
0 0 0 0 0 0 0 0 0 
0 0 0 0 0 0 0 0 0 
0 0 0 0 0 0 0 0 0 
0 0 0 0 0 0 0 0 0 
0 0 0 0 0 0 0 0 0 
0 0 0 0 0 0 0 0 0 
0 0 0 0 0 0 0 0 0 
0 0 0 0 0 0 0 0 0 
0 0 0 0 0 0 0 0 0 
0 0 0 0 0 0 0 0 0 
0 0 0 0 0 0 0 0 0 
0 0 0 0 0 0 0 0 0 
0 0 0 0 0 0 0 0 0 
0 0 0 0 0 0 0 0 0 
0 0 0 0 0 0 0 0 0 
0 0 0 0 0 0 0 0 0 
0 0 0 0 0 0 0 0 0 
0 0 0 -542281.44109 -2048141.1325 1105318.5381 6570032.8857 -24317230.99 16801591.737 
4162623.288 -28546843.591 11529288.255 -188605.14533 -224846.72136 113244.01613 0 0 0 
0 0 0 0 0 0 0 0 0 
0 0 0 0 0 0 0 0 0 
0 0 0 0 0 0 0 0 0 
0 0 0 0 0 0 0 0 0 
0 0 0 0 0 0 3410521.2927 -1214177.1243 2016831.1873 
-11671577.284 8814616.6901 24942263.245 6444308.9643 -217149.19932 21330784.13 10161534.061 25218629.207 40002785.861 
-336414.22669 -372012.52598 211971.55693 0 0 0 0 0 0 
0 0 0 0 0 0 0 0 0 
0 0 0 0 0 0 0 0 0 
0 0 0 0 0 0 0 0 0 
0 0 0 0 0 0 0 0 0 
-50887142.471 57791483.804 25413827.815 -2502134.8357 -66695857.408 -18061980.903 6074264.4993 -43503772.282 95712265.943 
17014118.648 13747725.308 27104919.876 -11324812.972 1486702.1339 -2492500.5063 0 0 0 
0 0 0 0 0 0 0 0 0 
0 0 0 0 0 0 0 0 0 
0 0 0 0 0 0 0 0 0 
0 0 0 0 0 0 0 0 0 
0 0 0 0 0 0 0 0 0 
0 0 0 0 0 0 0 0 0 
0 0 0 0 0 0 0 0 0 
0 0 0 0 0 0 0 0 0 
0 0 0 0 0 0 0 0 0 
0 0 0 0 0 0 0 0 0 
0 0 0 0 0 0 0 0 0 
0 0 0 0 0 0 0 0 0 
0 0 0 0 0 0 0 0 0 
0 0 0 0 0 0 0 0 0 
0 0 0 0 0 0 0 0 0 
0 0 0 0 0 0 0 0 0 
0 0 0 0 0 0 0 0 0 
0 0 0 0 0 0 0 0 0 
0 0 0 0 0 0 0 0 0 
0 0 0 0 0 0 0 0 0 
0 0 0 0 0 0 0 0 0 
0 0 0 0 0 0 0 0 0 
0 0 0 0 0 0 0 0 0 
0 0 0 0 0 0 0 0 0 
0 0 0 0 0 0 0 0 0 
0 0 0 0 0 0 0 0 0 
0 0 0 -9987289.0553 -19946002.982 8848032.2178 11755041.04 11165740.81 15636907.958 
-8051333.1105 -1270857.8044 11834121.114 17587517.189 2842126.5179 16412781.582 6009137.1507 -8082863.8731 9826350.1292 
99216.7823 -12786655.884 18794353.969 -9238673.2447 -12849585.347 38007845.647 9278524.5117 -12324750.902 13949891.273 
896838.08875 4702327.6821 13109550.096 11057183.07 -1387216.2636 15705484.684 -2247135.6623 -12638636.662 52777399.574 
-53348.955494 -10531131.685 15600834.47 -3310739.0783 -2381408.3694 40161281.73 12878054.246 2918947.0789 18680253.373 
-4124832.0422 11025784.439 6828987.4461 5012553.1401 3841141.6201 16972976.84 -3812230.7916 2694408.077 6796345.2599 
10011569.42 -2864855.1196 40339141.307 1447044.2951 4533250.2913 9983517.7876 3210718.2021 -5656436.2094 2585237.7683 
-184197.0103 3970258.1926 24577925.188 0 0 0 3778432.1041 -1125778.351 1750117.5182 
0 0 0 0 0 0 0 0 0 
0 0 0 0 0 0 0 0 0 
0 0 0 0 0 0 0 0 0 
0 0 0 0 0 0 0 0 0 
0 0 0 0 0 0 4337.3581078 6401668.7214 50438285.994 
-15285843.168 -5063806.1729 7138531.2212 0 0 0 0 0 0 
0 0 0 0 0 0 0 0 0 
0 0 0 0 0 0 0 0 0 
0 0 0 0 0 0 0 0 0 
0 0 0 0 0 0 0 0 0 
0 0 0 0 0 0 0 0 0 
0 0 0 0 0 0 0 0 0 
0 0 0 0 0 0 0 0 0 
0 0 0 0 0 0 0 0 0 
0 0 0 0 0 0 0 0 0 
0 0 0 0 0 0 0 0 0 
0 0 0 0 0 0 0 0 0 
0 0 0 0 0 0 0 0 0 
0 0 0 0 0 0 0 0 0 
0 0 0 0 0 0 0 0 0 
0 0 0 0 0 0 0 0 0 
0 0 0 0 0 0 0 0 0 
0 0 0 0 0 0 0 0 0 
0 0 0 0 0 0 0 0 0 
0 0 0 0 0 0 0 0 0 
0 0 0 0 0 0 0 0 0 
0 0 0 0 0 0 0 0 0 
0 0 0 0 0 0 0 0 0 
0 0 0 0 0 0 0 0 0 
0 0 0 0 0 0 -259428.02716 -43781.183305 127746.58039 
-120120.99316 -6254.8297178 59732.445187 -19632.422693 -4062.4452492 9654.1808335 -1924767.1661 -629882.64732 953288.36689 
0 0 0 -5151575.5827 -2194392.7433 2591838.4275 -11830215.102 -6753911.7543 6102076.8016 
-10284118.902 -2255832.202 5326670.1739 -19187765.464 -17214440.042 11404974.433 7366983.2569 2634623.1262 9287749.5611 
-40510263.829 14975786.301 38532637.123 -20439799.171 -1254804.4065 14206868.843 1566217.7626 988090.03636 1378245.667 
14674732.16 -28264871.846 41120403.562 21397573.595 -1890277.5195 23669935.136 -2766578.9448 -7015799.2374 9652684.0255 
11417236.847 -1337662.3881 10162784.094 29298561.651 -12616035.112 41654950.015 2998671.9213 1474724.0274 14966505.951 
3238722.2978 4022359.1105 32465184.535 41614538.217 -25461202.459 37308615.549 -1100949.4849 -7857829.7264 9959252.7761 
-30775817.248 8099101.9989 41144160.049 -1600167.8107 -5191701.089 31307149.198 1048749.4622 7867875.8406 15504672.035 
-1093003.7634 897632.45283 34625160.003 -181624.0983 -1541930.7299 12100724.899 41718700.922 3377874.7638 49739962.669 
-1536494.0957 -1000732.1752 33064462 39653635.324 -6067333.2051 38111814.147 -1132487.531 -176782.53387 15447982.326 
-2673164.3002 -2542519.8844 33600664.011 3271380.6051 -9970806.8528 9375935.7429 26734710.676 3385783.5447 30757638.537 
1619237.1811 -5996373.1641 29488228.657 2758462.3913 -6616743.3105 10016330.143 13670795.247 2284011.935 16377297.766 
19070217.419 12089568.526 27107739.077 -17363620.087 13412183.663 16225806.898 -17664114.517 7059211.9525 23793618.976 
-10289500.382 42678392.933 38651795.421 8862140.3924 -6755612.0641 4875201.0871 -1825447.6941 -12583331.66 17409285.611 
-5674836.2039 6801556.5508 22833109.366 5351957.7519 -2820662.7585 2754567.1532 15045590.108 -3000901.5596 8942419.8298 
1079372.7003 -378098.22741 535391.2471 16463367.501 -58365.069235 8516611.4705 3410828.6479 -203817.44558 1774767.4371 
3041415.1876 -70641.290685 1543955.0873 146860.02667 -20708.154153 72347.63198 369640.8551 -40208.737488 182669.47417 
0 0 0 20458.832533 63.117115312 10268.579527 0 0 0 
122771.12499 30893.776575 66515.953435 0 0 0 424555.49544 141987.44624 238386.50383 
327368.37155 142549.92392 193017.5843 159733.31097 65698.814481 93018.873124 0 0 0 
321649.88337 238180.47398 224437.45935 13618.093018 3320.7109761 7336.9802966 0 0 0 
453686.70466 471913.2535 375354.56562 329640.85603 288498.82877 248486.2121 353293.91039 275928.52374 252943.68833 
0 0 0 16575.16804 90351.970329 55148.151937 0 0 0 
201541.04406 400411.44368 264986.38155 35108.463345 30054.307285 26059.055747 723108.04174 1770816.9332 1137471.3132 
0 0 0 0 0 0 161547.94636 588027.77577 365093.80371 
12097.479098 146910.158 88734.519496 0 0 0 0 0 0 
-29977.5305 1393952.4734 840201.08863 -99089.143146 401394.58899 247666.31883 -72211.557974 87791.501035 65932.984362 
-253533.79548 1011117.3205 624488.71107 28316.879894 646084.67249 388202.26126 0 0 0 
-461722.08214 423219.18674 356677.98123 0 0 0 -384099.64165 540273.75049 386505.02407 
0 0 0 -710183.74418 668774.43229 556131.16592 0 0 0 
-99690.041544 36821.687558 56855.136022 -306969.72183 267878.29499 231078.54976 0 0 0 
-666870.89225 575586.58296 498488.58411 -83556.526461 106379.28672 83374.993383 -206022.44893 90294.272799 121690.21227 
0 0 0 0 0 0 -358986.33993 83879.392275 193245.21122 
0 0 0 0 0 0 0 0 0 
0 0 0 0 0 0 0 0 0 
0 0 0 0 0 0 0 0 0 
0 0 0 0 0 0 0 0 0 
0 0 0 0 0 0 0 0 0 
0 0 0 0 0 0 0 0 0 
0 0 0 0 0 0 0 0 0 
0 0 0 0 0 0 0 0 0 
0 0 0 0 0 0 0 0 0 
0 0 0 0 0 0 0 0 0 
0 0 0 0 0 0 0 0 0 
0 0 0 0 0 0 0 0 0 
0 0 0 0 0 0 0 0 0 
0 0 0 0 0 0 0 0 0 
0 0 0 0 0 0 0 0 0 
0 0 0 0 0 0 0 0 0 
0 0 0 0 0 0 0 0 0 
0 0 0 0 0 0 0 0 0 
0 0 0 0 0 0 0 0 0 
0 0 0 0 0 0 0 0 0 
0 0 0 0 0 0 0 0 0 
0 0 0 0 0 0 0 0 0 
0 0 0 0 0 0 0 0 0 
0 0 0 0 0 0 0 0 0 
0 0 0 0 0 0 0 0 0 
0 0 0 0 0 0 0 0 0 
0 0 0 0 0 0 0 0 0 
0 0 0 0 0 0 0 0 0 
0 0 0 0 0 0 0 0 0 
0 0 0 0 0 0 0 0 0 
0 0 0 0 0 0 0 0 0 
0 0 0 0 0 0 0 0 0 
0 0 0 0 0 0 0 0 0 
0 0 0 0 0 0 0 0 0 
0 0 0 0 0 0 0 0 0 
0 0 0 0 0 0 0 0 0 
0 0 0 0 0 0 0 0 0 
0 0 0 0 0 0 0 0 0 
0 0 0 0 0 0 0 0 0 
0 0 0 0 0 0 0 0 0 
0 0 0 0 0 0 0 0 0 
0 0 0 0 0 0 0 0 0 
0 0 0 0 0 0 0 0 0 
0 0 0 0 0 0 0 0 0 
0 0 0 0 0 0 0 0 0 
0 0 0 0 0 0 0 0 0 
0 0 0 0 0 0 0 0 0 
0 0 0 0 0 0 0 0 0 
0 0 0 0 0 0 0 0 0 
0 0 0 0 0 0 0 0 0 
0 0 0 0 0 0 0 0 0 
0 0 0 0 0 0 0 0 0 
0 0 0 0 0 0 0 0 0 
0 0 0 0 0 0 0 0 0 
0 0 0 0 0 0 0 0 0 
0 0 0 0 0 0 0 0 0 
0 0 0 0 0 0 0 0 0 
0 0 0 0 0 0 0 0 0 
0 0 0 0 0 0 0 0 0 
0 0 0 0 0 0 0 0 0 
0 0 0 0 0 0 0 0 0 
0 0 0 0 0 0 0 0 0 
0 0 0 0 0 0 0 0 0 
0 0 0 0 0 0 0 0 0 
0 0 0 0 0 0 0 0 0 
0 0 0 0 0 0 0 0 0 
0 0 0 0 0 0 0 0 0 
0 0 0 0 0 0 0 0 0 
0 0 0 0 0 0 0 0 0 
0 0 0 0 0 0 0 0 0 
0 0 0 0 0 0 0 0 0 
0 0 0 0 0 0 0 0 0 
0 0 0 0 0 0 0 0 0 
0 0 0 0 0 0 0 0 0 
0 0 0 1102943.6079 2572922.2968 1143676.6817 -1881313.6231 12436855.508 4471820.9411 
0 0 0 0 0 0 0 0 0 
0 0 0 -3346543.9231 3003303.7326 2141030.4794 0 0 0 
0 0 0 0 0 0 0 0 0 
0 0 0 1227149.9861 115970.0845 635657.01822 0 0 0 
9076830.1216 8132156.4864 6781198.2055 0 0 0 1129443.5728 25674394.625 14189851.945 
0 0 0 -7342437.6991 20965409.358 11995441.089 -9490059.3616 26638592.109 15240287.078 
-6418680.6167 5372092.7733 4123268.8412 -6102516.9195 2516562.7049 3457519.161 0 0 0 
0 0 0 0 0 0 0 0 0 
0 0 0 0 0 0 0 0 0 
0 0 0 0 0 0 0 0 0 
0 0 0 0 0 0 0 0 0 
0 0 0 0 0 0 0 0 0 
0 0 0 0 0 0 0 0 0 
0 0 0 0 0 0 0 0 0 
0 0 0 0 0 0 0 0 0 
0 0 0 0 0 0 0 0 0 
0 0 0 0 0 0 0 0 0 
0 0 0 0 0 0 0 0 0 
0 0 0 0 0 0 0 0 0 
0 0 0 0 0 0 0 0 0 
0 0 0 0 0 0 0 0 0 
-3589822.0181 681777.53684 1662069.9882 -3291638.6498 894730.2698 1612923.2481 0 0 0 
-52670703.28 36711275.875 32247911.44 -69207084.421 60954821.798 50465973.187 -27988694.526 41826666.795 30402595.435 
-10701288.054 19500711.637 15042540.451 -592856.45559 3187358.5215 1533479.6045 -13832166.046 18222101.72 11140951.847 
-20627457.418 30882609.58 18085790.103 7199809.1872 58119927.805 41113781.137 19982266.591 74092383.917 56460933.75 
-2755190.3921 92570393.132 53191995.791 -5639800.8977 82737162.225 43356492.302 37032722.595 59802284.058 35107470.419 
44464848.339 35017277.399 33219988.463 26703075.265 19075288.384 22499441.124 42628250.835 83359657.44 54951231.226 
48065733.643 79275557.948 49869822.966 35926624.721 38302547.92 26348087.452 25056670.713 30895670.723 29294066.039 
0 0 0 28563231.663 18181743.401 16139208.548 31001225.052 14608039.475 15164940.151 
12591303.607 1276939.7571 5166852.916 0 0 0 0 0 0 
3857849.9955 474985.23399 1946699.4094 0 0 0 0 0 0 
0 0 0 0 0 0 0 0 0 
-1975187.9605 840130.11139 805261.55061 10295254.908 26692749.167 12523398.029 7893841.9276 5784597.7926 4450735.6697 
0 0 0 0 0 0 0 0 0 
-4413586.8586 12823273.467 9505804.3459 -7843935.5823 38470448.421 12723881.169 0 0 0 
0 0 0 0 0 0 0 0 0 
0 0 0 0 0 0 -2140926.1447 1719755.0517 800866.63278 
-2180728.8747 3467649.9103 1733747.2132 0 0 0 0 0 0 
0 0 0 0 0 0 0 0 0 
0 0 0 0 0 0 0 0 0 
0 0 0 0 0 0 0 0 0 
0 0 0 0 0 0 0 0 0 
0 0 0 0 0 0 0 0 0 
0 0 0 0 0 0 0 0 0 
0 0 0 0 0 0 0 0 0 
0 0 0 0 0 0 0 0 0 
0 0 0 0 0 0 0 0 0 
0 0 0 0 0 0 0 0 0 
0 0 0 0 0 0 0 0 0 
0 0 0 0 0 0 0 0 0 
0 0 0 0 0 0 0 0 0 
0 0 0 0 0 0 0 0 0 
0 0 0 0 0 0 0 0 0 
0 0 0 0 0 0 0 0 0 
0 0 0 0 0 0 0 0 0 
0 0 0 0 0 0 0 0 0 
0 0 0 0 0 0 0 0 0 
0 0 0 0 0 0 0 0 0 
0 0 0 0 0 0 0 0 0 
0 0 0 0 0 0 0 0 0 
0 0 0 0 0 0 0 0 0 
0 0 0 0 0 0 0 0 0 
0 0 0 0 0 0 0 0 0 
0 0 0 0 0 0 0 0 0 
0 0 0 0 0 0 0 0 0 
0 0 0 0 0 0 0 0 0 
0 0 0 0 0 0 0 0 0 
0 0 0 0 0 0 0 0 0 
0 0 0 0 0 0 0 0 0 
0 0 0 0 0 0 0 0 0 
0 0 0 0 0 0 0 0 0 
0 0 0 0 0 0 0 0 0 
0 0 0 0 0 0 0 0 0 
0 0 0 0 0 0 0 0 0 
0 0 0 0 0 0 0 0 0 
0 0 0 0 0 0 0 0 0 
0 0 0 0 0 0 0 0 0 
0 0 0 0 0 0 0 0 0 
0 0 0 0 0 0 0 0 0 
0 0 0 0 0 0 0 0 0 
0 0 0 0 0 0 0 0 0 
0 0 0 0 0 0 0 0 0 
0 0 0 0 0 0 0 0 0 
0 0 0 0 0 0 0 0 0 
0 0 0 0 0 0 0 0 0 
0 0 0 0 0 0 0 0 0 
0 0 0 0 0 0 0 0 0 
0 0 0 0 0 0 0 0 0 
0 0 0 0 0 0 0 0 0 
0 0 0 0 0 0 0 0 0 
0 0 0 0 0 0 0 0 0 
0 0 0 0 0 0 0 0 0 
0 0 0 0 0 0 0 0 0 
0 0 0 0 0 0 0 0 0 
0 0 0 0 0 0 0 0 0 
0 0 0 0 0 0 0 0 0 
0 0 0 0 0 0 0 0 0 
0 0 0 0 0 0 0 0 0 
0 0 0 0 0 0 0 0 0 
0 0 0 0 0 0 0 0 0 
0 0 0 0 0 0 0 0 0 
0 0 0 0 0 0 0 0 0 
0 0 0 0 0 0 0 0 0 
0 0 0 0 0 0 0 0 0 
0 0 0 0 0 0 0 0 0 
0 0 0 0 0 0 0 0 0 
0 0 0 0 0 0 0 0 0 
0 0 0 0 0 0 0 0 0 
0 0 0 0 0 0 0 0 0 
0 0 0 0 0 0 0 0 0 
0 0 0 0 0 0 0 0 0 
0 0 0 0 0 0 0 0 0 
0 0 0 0 0 0 0 0 0 
0 0 0 0 0 0 0 0 0 
0 0 0 0 0 0 0 0 0 
0 0 0 0 0 0 0 0 0 
0 0 0 0 0 0 0 0 0 
0 0 0 0 0 0 0 0 0 
0 0 0 0 0 0 0 0 0 
0 0 0 0 0 0 0 0 0 
0 0 0 0 0 0 0 0 0 
0 0 0 0 0 0 0 0 0 
0 0 0 0 0 0 0 0 0 
0 0 0 0 0 0 0 0 0 
0 0 0 0 0 0 0 0 0 
0 0 0 0 0 0 0 0 0 
0 0 0 0 0 0 0 0 0 
0 0 0 0 0 0 0 0 0 
0 0 0 0 0 0 0 0 0 
0 0 0 0 0 0 0 0 0 
0 0 0 0 0 0 0 0 0 
0 0 0 0 0 0 0 0 0 
0 0 0 0 0 0 0 0 0 
0 0 0 0 0 0 0 0 0 
0 0 0 0 0 0 0 0 0 
0 0 0 0 0 0 0 0 0 
0 0 0 0 0 0 0 0 0 
0 0 0 0 0 0 0 0 0 
0 0 0 0 0 0 0 0 0 
0 0 0 0 0 0 0 0 0 
0 0 0 0 0 0 0 0 0 
0 0 0 0 0 0 0 0 0 
0 0 0 0 0 0 0 0 0 
0 0 0 0 0 0 0 0 0 
0 0 0 0 0 0 0 0 0 
0 0 0 0 0 0 0 0 0 
0 0 0 0 0 0 0 0 0 
0 0 0 0 0 0 0 0 0 
0 0 0 0 0 0 0 0 0 
0 0 0 0 0 0 0 0 0 
0 0 0 0 0 0 0 0 0 
0 0 0 0 0 0 0 0 0 
0 0 0 0 0 0 0 0 0 
0 0 0 0 0 0 0 0 0 
0 0 0 0 0 0 0 0 0 
0 0 0 0 0 0 0 0 0 
0 0 0 0 0 0 0 0 0 
0 0 0 0 0 0 0 0 0 
0 0 0 0 0 0 0 0 0 
0 0 0 0 0 0 0 0 0 
0 0 0 0 0 0 0 0 0 
0 0 0 0 0 0 0 0 0 
0 0 0 0 0 0 0 0 0 
0 0 0 0 0 0 0 0 0 
0 0 0 0 0 0 0 0 0 
0 0 0 0 0 0 0 0 0 
0 0 0 0 0 0 0 0 0 
0 0 0 0 0 0 0 0 0 
0 0 0 0 0 0 0 0 0 
0 0 0 0 0 0 0 0 0 
0 0 0 0 0 0 0 0 0 
0 0 0 0 0 0 0 0 0 
0 0 0 0 0 0 0 0 0 
0 0 0 0 0 0 0 0 0 
0 0 0 0 0 0 0 0 0 
0 0 0 0 0 0 0 0 0 
0 0 0 0 0 0 0 0 0 
0 0 0 0 0 0 0 0 0 
0 0 0 0 0 0 0 0 0 
0 0 0 0 0 0 0 0 0 
0 0 0 0 0 0 0 0 0 
0 0 0 0 0 0 0 0 0 
0 0 0 0 0 0 0 0 0 
0 0 0 0 0 0 0 0 0 
0 0 0 0 0 0 0 0 0 
0 0 0 0 0 0 0 0 0 
0 0 0 0 0 0 0 0 0 
0 0 0 0 0 0 0 0 0 
0 0 0 0 0 0 0 0 0 
0 0 0 0 0 0 0 0 0 
0 0 0 0 0 0 0 0 0 
0 0 0 0 0 0 0 0 0 
0 0 0 0 0 0 0 0 0 
0 0 0 0 0 0 0 0 0 
0 0 0 0 0 0 0 0 0 
0 0 0 0 0 0 0 0 0 
0 0 0 0 0 0 0 0 0 
0 0 0 0 0 0 0 0 0 
0 0 0 0 0 0 0 0 0 
0 0 0 0 0 0 0 0 0 
0 0 0 0 0 0 0 0 0 
0 0 0 0 0 0 0 0 0 
0 0 0 0 0 0 0 0 0 
0 0 0 0 0 0 0 0 0 
0 0 0 0 0 0 0 0 0 
0 0 0 0 0 0 0 0 0 
0 0 0 0 0 0 0 0 0 
0 0 0 0 0 0 0 0 0 
0 0 0 0 0 0 0 0 0 
0 0 0 0 0 0 0 0 0 
0 0 0 0 0 0 0 0 0 
0 0 0 0 0 0 0 0 0 
0 0 0 0 0 0 0 0 0 
0 0 0 0 0 0 0 0 0 
0 0 0 0 0 0 0 0 0 
0 0 0 0 0 0 0 0 0 
0 0 0 0 0 0 0 0 0 
0 0 0 0 0 0 0 0 0 
0 0 0 0 0 0 0 0 0 
0 0 0 0 0 0 0 0 0 
0 0 0 0 0 0 0 0 0 
0 0 0 0 0 0 0 0 0 
0 0 0 0 0 0 0 0 0 
0 0 0 0 0 0 0 0 0 
0 0 0 0 0 0 0 0 0 
0 0 0 0 0 0 0 0 0 
0 0 0 0 0 0 0 0 0 
0 0 0 0 0 0 0 0 0 
0 0 0 0 0 0 0 0 0 
0 0 0 0 0 0 0 0 0 
0 0 0 0 0 0 0 0 0 
0 0 0 0 0 0 0 0 0 
0 0 0 0 0 0 0 0 0 
0 0 0 0 0 0 0 0 0 
0 0 0 0 0 0 0 0 0 
0 0 0 0 0 0 0 0 0 
0 0 0 0 0 0 0 0 0 
0 0 0 0 0 0 0 0 0 
0 0 0 0 0 0 0 0 0 
0 0 0 0 0 0 0 0 0 
0 0 0 0 0 0 0 0 0 
0 0 0 0 0 0 0 0 0 
0 0 0 0 0 0 0 0 0 
0 0 0 0 0 0 0 0 0 
0 0 0 0 0 0 0 0 0 
0 0 0 0 0 0 0 0 0 
0 0 0 0 0 0 0 0 0 
0 0 0 0 0 0 0 0 0 
0 0 0 0 0 0 0 0 0 
0 0 0 0 0 0 0 0 0 
0 0 0 0 0 0 0 0 0 
0 0 0 0 0 0 0 0 0 
0 0 0 0 0 0 0 0 0 
0 0 0 0 0 0 0 0 0 
0 0 0 0 0 0 0 0 0 
0 0 0 0 0 0 0 0 0 
0 0 0 0 0 0 0 0 0 
0 0 0 0 0 0 0 0 0 
0 0 0 0 0 0 0 0 0 
0 0 0 0 0 0 0 0 0 
0 0 0 0 0 0 0 0 0 
0 0 0 0 0 0 0 0 0 
0 0 0 0 0 0 0 0 0 
0 0 0 0 0 0 0 0 0 
0 0 0 0 0 0 0 0 0 
0 0 0 0 0 0 0 0 0 
0 0 0 0 0 0 0 0 0 
0 0 0 0 0 0 0 0 0 
0 0 0 0 0 0 0 0 0 
0 0 0 0 0 0 0 0 0 
0 0 0 0 0 0 0 0 0 
0 0 0 0 0 0 0 0 0 
0 0 0 0 0 0 0 0 0 
0 0 0 0 0 0 0 0 0 
0 0 0 0 0 0 0 0 0 
0 0 0 0 0 0 0 0 0 
0 0 0 0 0 0 0 0 0 
0 0 0 0 0 0 0 0 0 
0 0 0 0 0 0 0 0 0 
0 0 0 0 0 0 0 0 0 
0 0 0 0 0 0 0 0 0 
0 0 0 0 0 0 0 0 0 
0 0 0 0 0 0 0 0 0 
0 0 0 0 0 0 0 0 0 
0 0 0 0 0 0 0 0 0 
0 0 0 0 0 0 0 0 0 
0 0 0 0 0 0 0 0 0 
0 0 0 0 0 0 0 0 0 
0 0 0 0 0 0 0 0 0 
0 0 0 0 0 0 0 0 0 
0 0 0 0 0 0 0 0 0 
0 0 0 0 0 0 0 0 0 
0 0 0 0 0 0 0 0 0 
0 0 0 0 0 0 0 0 0 
0 0 0 0 0 0 0 0 0 
0 0 0 0 0 0 0 0 0 
0 0 0 0 0 0 0 0 0 
0 0 0 0 0 0 0 0 0 
0 0 0 0 0 0 0 0 0 
0 0 0 0 0 0 0 0 0 
0 0 0 0 0 0 0 0 0 
0 0 0 0 0 0 0 0 0 
0 0 0 0 0 0 0 0 0 
0 0 0 0 0 0 0 0 0 
0 0 0 0 0 0 0 0 0 
0 0 0 0 0 0 0 0 0 
0 0 0 0 0 0 0 0 0 
0 0 0 0 0 0 0 0 0 
0 0 0 0 0 0 0 0 0 
0 0 0 0 0 0 0 0 0 
0 0 0 0 0 0 0 0 0 
0 0 0 0 0 0 0 0 0 
0 0 0 0 0 0 0 0 0 
0 0 0 0 0 0 0 0 0 
0 0 0 0 0 0 0 0 0 
0 0 0 0 0 0 0 0 0 
0 0 0 0 0 0 0 0 0 
0 0 0 0 0 0 0 0 0 
0 0 0 0 0 0 0 0 0 
0 0 0 0 0 0 0 0 0 
0 0 0 0 0 0 0 0 0 
0 0 0 0 0 0 0 0 0 
0 0 0 0 0 0 0 0 0 
0 0 0 0 0 0 0 0 0 
0 0 0 0 0 0 0 0 0 
0 0 0 0 0 0 0 0 0 
0 0 0 0 0 0 0 0 0 
0 0 0 0 0 0 0 0 0 
0 0 0 0 0 0 0 0 0 
0 0 0 0 0 0 0 0 0 
0 0 0 0 0 0 0 0 0 
0 0 0 0 0 0 0 0 0 
0 0 0 0 0 0 0 0 0 
0 0 0 0 0 0 0 0 0 
0 0 0 0 0 0 0 0 0 
0 0 0 0 0 0 0 0 0 
0 0 0 0 0 0 0 0 0 
0 0 0 0 0 0 0 0 0 
0 0 0 0 0 0 0 0 0 
0 0 0 0 0 0 0 0 0 
0 0 0 0 0 0 0 0 0 
0 0 0 0 0 0 0 0 0 
0 0 0 0 0 0 0 0 0 
0 0 0 0 0 0 0 0 0 
0 0 0 0 0 0 0 0 0 
0 0 0 0 0 0 0 0 0 
0 0 0 0 0 0 0 0 0 
0 0 0 0 0 0 0 0 0 
0 0 0 0 0 0 0 0 0 
0 0 0 0 0 0 0 0 0 
0 0 0 0 0 0 0 0 0 
0 0 0 0 0 0 0 0 0 
0 0 0 0 0 0 0 0 0 
0 0 0 0 0 0 0 0 0 
0 0 0 0 0 0 0 0 0 
0 0 0 0 0 0 0 0 0 
0 0 0 0 0 0 0 0 0 
0 0 0 0 0 0 0 0 0 
0 0 0 0 0 0 0 0 0 
0 0 0 0 0 0 0 0 0 
0 0 0 0 0 0 0 0 0 
0 0 0 0 0 0 0 0 0 
0 0 0 0 0 0 0 0 0 
0 0 0 0 0 0 0 0 0 
0 0 0 0 0 0 0 0 0 
0 0 0 0 0 0 0 0 0 
0 0 0 0 0 0 0 0 0 
0 0 0 0 0 0 0 0 0 
0 0 0 0 0 0 0 0 0 
0 0 0 0 0 0 0 0 0 
0 0 0 0 0 0 0 0 0 
0 0 0 0 0 0 0 0 0 
0 0 0 0 0 0 0 0 0 
0 0 0 0 0 0 0 0 0 
0 0 0 0 0 0 0 0 0 
0 0 0 0 0 0 0 0 0 
0 0 0 0 0 0 0 0 0 
0 0 0 0 0 0 0 0 0 
0 0 0 0 0 0 0 0 0 
0 0 0 0 0 0 0 0 0 
0 0 0 0 0 0 0 0 0 
0 0 0 0 0 0 0 0 0 
0 0 0 0 0 0 0 0 0 
0 0 0 0 0 0 0 0 0 
0 0 0 0 0 0 0 0 0 
0 0 0 0 0 0 0 0 0 
0 0 0 0 0 0 0 0 0 
0 0 0 0 0 0 0 0 0 
0 0 0 0 0 0 0 0 0 
0 0 0 0 0 0 0 0 0 
0 0 0 0 0 0 0 0 0 
0 0 0 0 0 0 0 0 0 
0 0 0 0 0 0 0 0 0 
0 0 0 0 0 0 0 0 0 
0 0 0 0 0 0 0 0 0 
0 0 0 0 0 0 0 0 0 
0 0 0 0 0 0 0 0 0 
0 0 0 0 0 0 0 0 0 
0 0 0 0 0 0 0 0 0 
0 0 0 0 0 0 0 0 0 
0 0 0 0 0 0 0 0 0 
0 0 0 0 0 0 0 0 0 
0 0 0 0 0 0 0 0 0 
0 0 0 0 0 0 0 0 0 
0 0 0 0 0 0 0 0 0 
0 0 0 0 0 0 0 0 0 
0 0 0 0 0 0 0 0 0 
0 0 0 0 0 0 0 0 0 
0 0 0 0 0 0 0 0 0 
0 0 0 0 0 0 0 0 0 
0 0 0 0 0 0 0 0 0 
0 0 0 0 0 0 0 0 0 
0 0 0 0 0 0 0 0 0 
0 0 0 0 0 0 0 0 0 
0 0 0 0 0 0 0 0 0 
0 0 0 0 0 0 0 0 0 
0 0 0 0 0 0 0 0 0 
0 0 0 0 0 0 0 0 0 
0 0 0 0 0 0 0 0 0 
0 0 0 0 0 0 0 0 0 
0 0 0 0 0 0 0 0 0 
0 0 0 0 0 0 0 0 0 
0 0 0 0 0 0 0 0 0 
0 0 0 0 0 0 0 0 0 
0 0 0 0 0 0 0 0 0 
0 0 0 0 0 0 0 0 0 
0 0 0 0 0 0 0 0 0 
0 0 0 0 0 0 0 0 0 
0 0 0 0 0 0 0 0 0 
0 0 0 0 0 0 0 0 0 
0 0 0 0 0 0 0 0 0 
0 0 0 0 0 0 0 0 0 
0 0 0 0 0 0 0 0 0 
0 0 0 0 0 0 0 0 0 
0 0 0 0 0 0 0 0 0 
0 0 0 0 0 0 0 0 0 
0 0 0 0 0 0 0 0 0 
0 0 0 0 0 0 0 0 0 
0 0 0 0 0 0 0 0 0 
0 0 0 0 0 0 0 0 0 
0 0 0 0 0 0 0 0 0 
0 0 0 0 0 0 0 0 0 
0 0 0 0 0 0 0 0 0 
0 0 0 0 0 0 0 0 0 
0 0 0 0 0 0 0 0 0 
0 0 0 0 0 0 0 0 0 
0 0 0 0 0 0 0 0 0 
0 0 0 0 0 0 0 0 0 
0 0 0 0 0 0 0 0 0 
0 0 0 0 0 0 0 0 0 
0 0 0 0 0 0 0 0 0 
0 0 0 0 0 0 0 0 0 
0 0 0 0 0 0 0 0 0 
0 0 0 0 0 0 0 0 0 
0 0 0 0 0 0 0 0 0 
0 0 0 0 0 0 0 0 0 
0 0 0 0 0 0 0 0 0 
0 0 0 0 0 0 0 0 0 
0 0 0 0 0 0 0 0 0 
0 0 0 0 0 0 0 0 0 
0 0 0 0 0 0 0 0 0 
0 0 0 0 0 0 0 0 0 
0 0 0 0 0 0 0 0 0 
0 0 0 0 0 0 0 0 0 
0 0 0 0 0 0 0 0 0 
0 0 0 0 0 0 0 0 0 
0 0 0 0 0 0 0 0 0 
0 0 0 0 0 0 0 0 0 
0 0 0 0 0 0 0 0 0 
0 0 0 0 0 0 0 0 0 
0 0 0 0 0 0 0 0 0 
0 0 0 0 0 0 0 0 0 
0 0 0 0 0 0 0 0 0 
0 0 0 0 0 0 0 0 0 
0 0 0 0 0 0 0 0 0 
0 0 0 0 0 0 0 0 0 
0 0 0 0 0 0 0 0 0 
0 0 0 0 0 0 0 0 0 
0 0 0 0 0 0 0 0 0 
0 0 0 0 0 0 0 0 0 
0 0 0 0 0 0 0 0 0 
0 0 0 0 0 0 0 0 0 
0 0 0 0 0 0 0 0 0 
0 0 0 0 0 0 0 0 0 
0 0 0 0 0 0 0 0 0 
0 0 0 0 0 0 0 0 0 
0 0 0 0 0 0 0 0 0 
0 0 0 0 0 0 0 0 0 
0 0 0 0 0 0 0 0 0 
0 0 0 0 0 0 0 0 0 
0 0 0 0 0 0 0 0 0 
0 0 0 0 0 0 0 0 0 
0 0 0 0 0 0 0 0 0 
0 0 0 0 0 0 0 0 0 
0 0 0 0 0 0 0 0 0 
0 0 0 0 0 0 0 0 0 
0 0 0 0 0 0 0 0 0 
0 0 0 0 0 0 0 0 0 
0 0 0 0 0 0 0 0 0 
0 0 0 0 0 0 0 0 0 
0 0 0 0 0 0 0 0 0 
0 0 0 0 0 0 0 0 0 
0 0 0 0 0 0 0 0 0 
0 0 0 0 0 0 0 0 0 
0 0 0 0 0 0 0 0 0 
0 0 0 0 0 0 0 0 0 
0 0 0 0 0 0 0 0 0 
0 0 0 0 0 0 0 0 0 
0 0 0 0 0 0 0 0 0 
0 0 0 0 0 0 0 0 0 
0 0 0 0 0 0 0 0 0 
0 0 0 0 0 0 0 0 0 
0 0 0 0 0 0 0 0 0 
0 0 0 0 0 0 0 0 0 
0 0 0 0 0 0 0 0 0 
0 0 0 0 0 0 0 0 0 
0 0 0 0 0 0 0 0 0 
0 0 0 0 0 0 0 0 0 
0 0 0 0 0 0 0 0 0 
0 0 0 0 0 0 0 0 0 
0 0 0 0 0 0 0 0 0 
0 0 0 0 0 0 0 0 0 
0 0 0 0 0 0 0 0 0 
0 0 0 0 0 0 0 0 0 
0 0 0 0 0 0 0 0 0 
0 0 0 0 0 0 0 0 0 
0 0 0 0 0 0 0 0 0 
0 0 0 0 0 0 0 0 0 
0 0 0 0 0 0 0 0 0 
0 0 0 0 0 0 0 0 0 
0 0 0 0 0 0 0 0 0 
0 0 0 0 0 0 0 0 0 
0 0 0 0 0 0 0 0 0 
0 0 0 0 0 0 0 0 0 
0 0 0 0 0 0 0 0 0 
0 0 0 0 0 0 0 0 0 
0 0 0 0 0 0 0 0 0 
0 0 0 0 0 0 0 0 0 
0 0 0 0 0 0 0 0 0 
0 0 0 0 0 0 0 0 0 
0 0 0 0 0 0 0 0 0 
0 0 0 0 0 0 0 0 0 
0 0 0 0 0 0 0 0 0 
0 0 0 0 0 0 0 0 0 
0 0 0 0 0 0 0 0 0 
0 0 0 0 0 0 0 0 0 
0 0 0 0 0 0 0 0 0 
0 0 0 0 0 0 0 0 0 
0 0 0 0 0 0 0 0 0 
0 0 0 0 0 0 0 0 0 
0 0 0 0 0 0 0 0 0 
0 0 0 0 0 0 0 0 0 
0 0 0 0 0 0 0 0 0 
0 0 0 0 0 0 0 0 0 
0 0 0 0 0 0 0 0 0 
0 0 0 0 0 0 0 0 0 
0 0 0 0 0 0 0 0 0 
0 0 0 0 0 0 0 0 0 
0 0 0 0 0 0 0 0 0 
0 0 0 0 0 0 0 0 0 
0 0 0 0 0 0 0 0 0 
0 0 0 0 0 0 0 0 0 
0 0 0 0 0 0 0 0 0 
0 0 0 0 0 0 0 0 0 
0 0 0 0 0 0 0 0 0 
0 0 0 0 0 0 0 0 0 
0 0 0 0 0 0 0 0 0 
0 0 0 0 0 0 0 0 0 
0 0 0 0 0 0 0 0 0 
0 0 0 0 0 0 0 0 0 
0 0 0 0 0 0 0 0 0 
0 0 0 0 0 0 0 0 0 
0 0 0 0 0 0 0 0 0 
0 0 0 0 0 0 0 0 0 
0 0 0 0 0 0 0 0 0 
0 0 0 0 0 0 0 0 0 
0 0 0 0 0 0 0 0 0 
0 0 0 0 0 0 0 0 0 
0 0 0 0 0 0 0 0 0 
0 0 0 0 0 0 0 0 0 
0 0 0 0 0 0 0 0 0 
0 0 0 0 0 0 0 0 0 
0 0 0 0 0 0 0 0 0 
0 0 0 0 0 0 0 0 0 
0 0 0 0 0 0 0 0 0 
0 0 0 0 0 0 0 0 0 
0 0 0 0 0 0 0 0 0 
0 0 0 0 0 0 0 0 0 
0 0 0 0 0 0 0 0 0 
0 0 0 0 0 0 0 0 0 
0 0 0 0 0 0 0 0 0 
0 0 0 0 0 0 0 0 0 
0 0 0 0 0 0 0 0 0 
0 0 0 0 0 0 0 0 0 
0 0 0 0 0 0 0 0 0 
0 0 0 0 0 0 0 0 0 
0 0 0 0 0 0 0 0 0 
0 0 0 0 0 0 0 0 0 
0 0 0 0 0 0 0 0 0 
0 0 0 0 0 0 0 0 0 
0 0 0 0 0 0 0 0 0 
0 0 0 0 0 0 0 0 0 
0 0 0 0 0 0 0 0 0 
0 0 0 0 0 0 0 0 0 
0 0 0 0 0 0 0 0 0 
0 0 0 0 0 0 0 0 0 
0 0 0 0 0 0 0 0 0 
0 0 0 0 0 0 0 0 0 
0 0 0 0 0 0 0 0 0 
0 0 0 0 0 0 0 0 0 
0 0 0 0 0 0 0 0 0 
0 0 0 0 0 0 0 0 0 
0 0 0 0 0 0 0 0 0 
0 0 0 0 0 0 0 0 0 
0 0 0 0 0 0 0 0 0 
0 0 0 0 0 0 0 0 0 
0 0 0 0 0 0 0 0 0 
0 0 0 0 0 0 0 0 0 
0 0 0 0 0 0 0 0 0 
0 0 0 0 0 0 0 0 0 
0 0 0 0 0 0 0 0 0 
0 0 0 0 0 0 0 0 0 
0 0 0 0 0 0 0 0 0 
0 0 0 0 0 0 0 0 0 
0 0 0 0 0 0 0 0 0 
0 0 0 0 0 0 0 0 0 
0 0 0 0 0 0 0 0 0 
0 0 0 0 0 0 0 0 0 
0 0 0 0 0 0 0 0 0 
0 0 0 0 0 0 0 0 0 
0 0 0 0 0 0 0 0 0 
0 0 0 0 0 0 0 0 0 
0 0 0 0 0 0 0 0 0 
0 0 0 0 0 0 0 0 0 
0 0 0 0 0 0 0 0 0 
0 0 0 0 0 0 0 0 0 
0 0 0 0 0 0 0 0 0 
0 0 0 0 0 0 0 0 0 
0 0 0 0 0 0 0 0 0 
0 0 0 0 0 0 0 0 0 
0 0 0 0 0 0 0 0 0 
0 0 0 0 0 0 0 0 0 
0 0 0 0 0 0 0 0 0 
0 0 0 0 0 0 0 0 0 
0 0 0 0 0 0 0 0 0 
0 0 0 0 0 0 0 0 0 
0 0 0 0 0 0 0 0 0 
0 0 0 0 0 0 0 0 0 
0 0 0 0 0 0 0 0 0 
0 0 0 0 0 0 0 0 0 
0 0 0 0 0 0 0 0 0 
0 0 0 0 0 0 0 0 0 
0 0 0 0 0 0 0 0 0 
0 0 0 0 0 0 0 0 0 
0 0 0 0 0 0 0 0 0 
0 0 0 0 0 0 0 0 0 
0 0 0 0 0 0 0 0 0 
0 0 0 0 0 0 0 0 0 
0 0 0 0 0 0 0 0 0 
0 0 0 0 0 0 0 0 0 
0 0 0 0 0 0 0 0 0 
0 0 0 0 0 0 0 0 0 
0 0 0 0 0 0 0 0 0 
0 0 0 0 0 0 0 0 0 
0 0 0 0 0 0 0 0 0 
0 0 0 0 0 0 0 0 0 
0 0 0 0 0 0 0 0 0 
0 0 0 0 0 0 0 0 0 
0 0 0 0 0 0 0 0 0 
0 0 0 0 0 0 0 0 0 
0 0 0 0 0 0 0 0 0 
0 0 0 0 0 0 0 0 0 
0 0 0 0 0 0 0 0 0 
0 0 0 0 0 0 0 0 0 
0 0 0 0 0 0 0 0 0 
0 0 0 0 0 0 0 0 0 
0 0 0 0 0 0 0 0 0 
0 0 0 0 0 0 0 0 0 
0 0 0 0 0 0 0 0 0 
0 0 0 0 0 0 0 0 0 
0 0 0 0 0 0 0 0 0 
0 0 0 0 0 0 0 0 0 
0 0 0 0 0 0 0 0 0 
0 0 0 0 0 0 0 0 0 
0 0 0 0 0 0 0 0 0 
0 0 0 0 0 0 0 0 0 
0 0 0 0 0 0 0 0 0 
0 0 0 0 0 0 0 0 0 
0 0 0 0 0 0 0 0 0 
0 0 0 0 0 0 0 0 0 
0 0 0 0 0 0 0 0 0 
0 0 0 0 0 0 0 0 0 
0 0 0 0 0 0 0 0 0 
0 0 0 0 0 0 0 0 0 
0 0 0 0 0 0 0 0 0 
0 0 0 0 0 0 0 0 0 
0 0 0 0 0 0 0 0 0 
0 0 0 0 0 0 0 0 0 
0 0 0 0 0 0 0 0 0 
0 0 0 0 0 0 0 0 0 
0 0 0 0 0 0 0 0 0 
0 0 0 0 0 0 0 0 0 
0 0 0 0 0 0 0 0 0 
0 0 0 0 0 0 0 0 0 
0 0 0 0 0 0 0 0 0 
0 0 0 0 0 0 0 0 0 
0 0 0 0 0 0 0 0 0 
0 0 0 0 0 0 0 0 0 
0 0 0 0 0 0 0 0 0 
0 0 0 0 0 0 0 0 0 
0 0 0 0 0 0 0 0 0 
0 0 0 0 0 0 0 0 0 
0 0 0 0 0 0 0 0 0 
0 0 0 0 0 0 0 0 0 
0 0 0 0 0 0 0 0 0 
0 0 0 0 0 0 0 0 0 
0 0 0 0 0 0 0 0 0 
0 0 0 0 0 0 0 0 0 
0 0 0 0 0 0 0 0 0 
0 0 0 0 0 0 0 0 0 
0 0 0 0 0 0 0 0 0 
0 0 0 0 0 0 0 0 0 
0 0 0 0 0 0 0 0 0 
0 0 0 0 0 0 0 0 0 
0 0 0 0 0 0 0 0 0 
0 0 0 0 0 0 
meshid 1 5744 int
0 1 2 3 4 5 6 7 8 
9 10 11 12 13 14 15 16 17 
18 19 20 21 22 23 24 25 26 
27 28 29 30 31 32 33 34 35 
36 37 38 39 40 41 42 43 44 
45 46 47 48 49 50 51 52 53 
54 55 56 57 58 59 60 61 62 
63 64 65 66 67 68 69 70 71 
72 73 74 75 76 77 78 79 80 
81 82 83 84 85 86 87 88 89 
90 91 92 93 94 95 96 97 98 
99 100 101 102 103 104 105 106 107 
108 109 110 111 112 113 114 115 116 
117 118 119 120 121 122 123 124 125 
126 127 128 129 130 131 132 133 134 
135 136 137 138 139 140 141 142 143 
144 145 146 147 148 149 150 151 152 
153 154 155 156 157 158 159 160 161 
162 163 164 165 166 167 168 169 170 
171 172 173 174 175 176 177 178 179 
180 181 182 183 184 185 186 187 188 
189 190 191 192 193 194 195 196 197 
198 199 200 201 202 203 204 205 206 
207 208 209 210 211 212 213 214 215 
216 217 218 219 220 221 222 223 224 
225 226 227 228 229 230 231 232 233 
234 235 236 237 238 239 240 241 242 
243 244 245 246 247 248 249 250 251 
252 253 254 255 256 257 258 259 260 
261 262 263 264 265 266 267 268 269 
270 271 272 273 274 275 276 277 278 
279 280 281 282 283 284 285 286 287 
288 289 290 291 292 293 294 295 296 
297 298 299 300 301 302 303 304 305 
306 307 308 309 310 311 312 313 314 
315 316 317 318 319 320 321 322 323 
324 325 326 327 328 329 330 331 332 
333 334 335 336 337 338 339 340 341 
342 343 344 345 346 347 348 349 350 
351 352 353 354 355 356 357 358 359 
360 361 362 363 364 365 366 367 368 
369 370 371 372 373 374 375 376 377 
378 379 380 381 382 383 384 385 386 
387 388 389 390 391 392 393 394 395 
396 397 398 399 400 401 402 403 404 
405 406 407 408 409 410 411 412 413 
414 415 416 417 418 419 420 421 422 
423 424 425 426 427 428 429 430 431 
432 433 434 435 436 437 438 439 440 
441 442 443 444 445 446 447 448 449 
450 451 452 453 454 455 456 457 458 
459 460 461 462 463 464 465 466 467 
468 469 470 471 472 473 474 475 476 
477 478 479 480 481 482 483 484 485 
486 487 488 489 490 491 492 493 494 
495 496 497 498 499 500 501 502 503 
504 505 506 507 508 509 510 511 512 
513 514 515 516 517 518 519 520 521 
522 523 524 525 526 527 528 529 530 
531 532 533 534 535 536 537 538 539 
540 541 542 543 544 545 546 547 548 
549 550 551 552 553 554 555 556 557 
558 559 560 561 562 563 564 565 566 
567 568 569 570 571 572 573 574 575 
576 577 578 579 580 581 582 583 584 
585 586 587 588 589 590 591 592 593 
594 595 596 597 598 599 600 601 602 
603 604 605 606 607 608 609 610 611 
612 613 614 615 616 617 618 619 620 
621 622 623 624 625 626 627 628 629 
630 631 632 633 634 635 636 637 638 
639 640 641 642 643 644 645 646 647 
648 649 650 651 652 653 654 655 656 
657 658 659 660 661 662 663 664 665 
666 667 668 669 670 671 672 673 674 
675 676 677 678 679 680 681 682 683 
684 685 686 687 688 689 690 691 692 
693 694 695 696 697 698 699 700 701 
702 703 704 705 706 707 708 709 710 
711 712 713 714 715 716 717 718 719 
720 721 722 723 724 725 726 727 728 
729 730 731 732 733 734 735 736 737 
738 739 740 741 742 743 744 745 746 
747 748 749 750 751 752 753 754 755 
756 757 758 759 760 761 762 763 764 
765 766 767 768 769 770 771 772 773 
774 775 776 777 778 779 780 781 782 
783 784 785 786 787 788 789 790 791 
792 793 794 795 796 797 798 799 800 
801 802 803 804 805 806 807 808 809 
810 811 812 813 814 815 816 817 818 
819 820 821 822 823 824 825 826 827 
828 829 830 831 832 833 834 835 836 
837 838 839 840 841 842 843 844 845 
846 847 848 849 850 851 852 853 854 
855 856 857 858 859 860 861 862 863 
864 865 866 867 868 869 870 871 872 
873 874 875 876 877 878 879 880 881 
882 883 884 885 886 887 888 889 890 
891 892 893 894 895 896 897 898 899 
900 901 902 903 904 905 906 907 908 
909 910 911 912 913 914 915 916 917 
918 919 920 921 922 923 924 925 926 
927 928 929 930 931 932 933 934 935 
936 937 938 939 940 941 942 943 944 
945 946 947 948 949 950 951 952 953 
954 955 956 957 958 959 960 961 962 
963 964 965 966 967 968 969 970 971 
972 973 974 975 976 977 978 979 980 
981 982 983 984 985 986 987 988 989 
990 991 992 993 994 995 996 997 998 
999 1000 1001 1002 1003 1004 1005 1006 1007 
1008 1009 1010 1011 1012 1013 1014 1015 1016 
1017 1018 1019 1020 1021 1022 1023 1024 1025 
1026 1027 1028 1029 1030 1031 1032 1033 1034 
1035 1036 1037 1038 1039 1040 1041 1042 1043 
1044 1045 1046 1047 1048 1049 1050 1051 1052 
1053 1054 1055 1056 1057 1058 1059 1060 1061 
1062 1063 1064 1065 1066 1067 1068 1069 1070 
1071 1072 1073 1074 1075 1076 1077 1078 1079 
1080 1081 1082 1083 1084 1085 1086 1087 1088 
1089 1090 1091 1092 1093 1094 1095 1096 1097 
1098 1099 1100 1101 1102 1103 1104 1105 1106 
1107 1108 1109 1110 1111 1112 1113 1114 1115 
1116 1117 1118 1119 1120 1121 1122 1123 1124 
1125 1126 1127 1128 1129 1130 1131 1132 1133 
1134 1135 1136 1137 1138 1139 1140 1141 1142 
1143 1144 1145 1146 1147 1148 1149 1150 1151 
1152 1153 1154 1155 1156 1157 1158 1159 1160 
1161 1162 1163 1164 1165 1166 1167 1168 1169 
1170 1171 1172 1173 1174 1175 1176 1177 1178 
1179 1180 1181 1182 1183 1184 1185 1186 1187 
1188 1189 1190 1191 1192 1193 1194 1195 1196 
1197 1198 1199 1200 1201 1202 1203 1204 1205 
1206 1207 1208 1209 1210 1211 1212 1213 1214 
1215 1216 1217 1218 1219 1220 1221 1222 1223 
1224 1225 1226 1227 1228 1229 1230 1231 1232 
1233 1234 1235 1236 1237 1238 1239 1240 1241 
1242 1243 1244 1245 1246 1247 1248 1249 1250 
1251 1252 1253 1254 1255 1256 1257 1258 1259 
1260 1261 1262 1263 1264 1265 1266 1267 1268 
1269 1270 1271 1272 1273 1274 1275 1276 1277 
1278 1279 1280 1281 1282 1283 1284 1285 1286 
1287 1288 1289 1290 1291 1292 1293 1294 1295 
1296 1297 1298 1299 1300 1301 1302 1303 1304 
1305 1306 1307 1308 1309 1310 1311 1312 1313 
1314 1315 1316 1317 1318 1319 1320 1321 1322 
1323 1324 1325 1326 1327 1328 1329 1330 1331 
1332 1333 1334 1335 1336 1337 1338 1339 1340 
1341 1342 1343 1344 1345 1346 1347 1348 1349 
1350 1351 1352 1353 1354 1355 1356 1357 1358 
1359 1360 1361 1362 1363 1364 1365 1366 1367 
1368 1369 1370 1371 1372 1373 1374 1375 1376 
1377 1378 1379 1380 1381 1382 1383 1384 1385 
1386 1387 1388 1389 1390 1391 1392 1393 1394 
1395 1396 1397 1398 1399 1400 1401 1402 1403 
1404 1405 1406 1407 1408 1409 1410 1411 1412 
1413 1414 1415 1416 1417 1418 1419 1420 1421 
1422 1423 1424 1425 1426 1427 1428 1429 1430 
1431 1432 1433 1434 1435 1436 1437 1438 1439 
1440 1441 1442 1443 1444 1445 1446 1447 1448 
1449 1450 1451 1452 1453 1454 1455 1456 1457 
1458 1459 1460 1461 1462 1463 1464 1465 1466 
1467 1468 1469 1470 1471 1472 1473 1474 1475 
1476 1477 1478 1479 1480 1481 1482 1483 1484 
1485 1486 1487 1488 1489 1490 1491 1492 1493 
1494 1495 1496 1497 1498 1499 1500 1501 1502 
1503 1504 1505 1506 1507 1508 1509 1510 1511 
1512 1513 1514 1515 1516 1517 1518 1519 1520 
1521 1522 1523 1524 1525 1526 1527 1528 1529 
1530 1531 1532 1533 1534 1535 1536 1537 1538 
1539 1540 1541 1542 1543 1544 1545 1546 1547 
1548 1549 1550 1551 1552 1553 1554 1555 1556 
1557 1558 1559 1560 1561 1562 1563 1564 1565 
1566 1567 1568 1569 1570 1571 1572 1573 1574 
1575 1576 1577 1578 1579 1580 1581 1582 1583 
1584 1585 1586 1587 1588 1589 1590 1591 1592 
1593 1594 1595 1596 1597 1598 1599 1600 1601 
1602 1603 1604 1605 1606 1607 1608 1609 1610 
1611 1612 1613 1614 1615 1616 1617 1618 1619 
1620 1621 1622 1623 1624 1625 1626 1627 1628 
1629 1630 1631 1632 1633 1634 1635 1636 1637 
1638 1639 1640 1641 1642 1643 1644 1645 1646 
1647 1648 1649 1650 1651 1652 1653 1654 1655 
1656 1657 1658 1659 1660 1661 1662 1663 1664 
1665 1666 1667 1668 1669 1670 1671 1672 1673 
1674 1675 1676 1677 1678 1679 1680 1681 1682 
1683 1684 1685 1686 1687 1688 1689 1690 1691 
1692 1693 1694 1695 1696 1697 1698 1699 1700 
1701 1702 1703 1704 1705 1706 1707 1708 1709 
1710 1711 1712 1713 1714 1715 1716 1717 1718 
1719 1720 1721 1722 1723 1724 1725 1726 1727 
1728 1729 1730 1731 1732 1733 1734 1735 1736 
1737 1738 1739 1740 1741 1742 1743 1744 1745 
1746 1747 1748 1749 1750 1751 1752 1753 1754 
1755 1756 1757 1758 1759 1760 1761 1762 1763 
1764 1765 1766 1767 1768 1769 1770 1771 1772 
1773 1774 1775 1776 1777 1778 1779 1780 1781 
1782 1783 1784 1785 1786 1787 1788 1789 1790 
1791 1792 1793 1794 1795 1796 1797 1798 1799 
1800 1801 1802 1803 1804 1805 1806 1807 1808 
1809 1810 1811 1812 1813 1814 1815 1816 1817 
1818 1819 1820 1821 1822 1823 1824 1825 1826 
1827 1828 1829 1830 1831 1832 1833 1834 1835 
1836 1837 1838 1839 1840 1841 1842 1843 1844 
1845 1846 1847 1848 1849 1850 1851 1852 1853 
1854 1855 1856 1857 1858 1859 1860 1861 1862 
1863 1864 1865 1866 1867 1868 1869 1870 1871 
1872 1873 1874 1875 1876 1877 1878 1879 1880 
1881 1882 1883 1884 1885 1886 1887 1888 1889 
1890 1891 1892 1893 1894 1895 1896 1897 1898 
1899 1900 1901 1902 1903 1904 1905 1906 1907 
1908 1909 1910 1911 1912 1913 1914 1915 1916 
1917 1918 1919 1920 1921 1922 1923 1924 1925 
1926 1927 1928 1929 1930 1931 1932 1933 1934 
1935 1936 1937 1938 1939 1940 1941 1942 1943 
1944 1945 1946 1947 1948 1949 1950 1951 1952 
1953 1954 1955 1956 1957 1958 1959 1960 1961 
1962 1963 1964 1965 1966 1967 1968 1969 1970 
1971 1972 1973 1974 1975 1976 1977 1978 1979 
1980 1981 1982 1983 1984 1985 1986 1987 1988 
1989 1990 1991 1992 1993 1994 1995 1996 1997 
1998 1999 2000 2001 2002 2003 2004 2005 2006 
2007 2008 2009 2010 2011 2012 2013 2014 2015 
2016 2017 2018 2019 2020 2021 2022 2023 2024 
2025 2026 2027 2028 2029 2030 2031 2032 2033 
2034 2035 2036 2037 2038 2039 2040 2041 2042 
2043 2044 2045 2046 2047 2048 2049 2050 2051 
2052 2053 2054 2055 2056 2057 2058 2059 2060 
2061 2062 2063 2064 2065 2066 2067 2068 2069 
2070 2071 2072 2073 2074 2075 2076 2077 2078 
2079 2080 2081 2082 2083 2084 2085 2086 2087 
2088 2089 2090 2091 2092 2093 2094 2095 2096 
2097 2098 2099 2100 2101 2102 2103 2104 2105 
2106 2107 2108 2109 2110 2111 2112 2113 2114 
2115 2116 2117 2118 2119 2120 2121 2122 2123 
2124 2125 2126 2127 2128 2129 2130 2131 2132 
2133 2134 2135 2136 2137 2138 2139 2140 2141 
2142 2143 2144 2145 2146 2147 2148 2149 2150 
2151 2152 2153 2154 2155 2156 2157 2158 2159 
2160 2161 2162 2163 2164 2165 2166 2167 2168 
2169 2170 2171 2172 2173 2174 2175 2176 2177 
2178 2179 2180 2181 2182 2183 2184 2185 2186 
2187 2188 2189 2190 2191 2192 2193 2194 2195 
2196 2197 2198 2199 2200 2201 2202 2203 2204 
2205 2206 2207 2208 2209 2210 2211 2212 2213 
2214 2215 2216 2217 2218 2219 2220 2221 2222 
2223 2224 2225 2226 2227 2228 2229 2230 2231 
2232 2233 2234 2235 2236 2237 2238 2239 2240 
2241 2242 2243 2244 2245 2246 2247 2248 2249 
2250 2251 2252 2253 2254 2255 2256 2257 2258 
2259 2260 2261 2262 2263 2264 2265 2266 2267 
2268 2269 2270 2271 2272 2273 2274 2275 2276 
2277 2278 2279 2280 2281 2282 2283 2284 2285 
2286 2287 2288 2289 2290 2291 2292 2293 2294 
2295 2296 2297 2298 2299 2300 2301 2302 2303 
2304 2305 2306 2307 2308 2309 2310 2311 2312 
2313 2314 2315 2316 2317 2318 2319 2320 2321 
2322 2323 2324 2325 2326 2327 2328 2329 2330 
2331 2332 2333 2334 2335 2336 2337 2338 2339 
2340 2341 2342 2343 2344 2345 2346 2347 2348 
2349 2350 2351 2352 2353 2354 2355 2356 2357 
2358 2359 2360 2361 2362 2363 2364 2365 2366 
2367 2368 2369 2370 2371 2372 2373 2374 2375 
2376 2377 2378 2379 2380 2381 2382 2383 2384 
2385 2386 2387 2388 2389 2390 2391 2392 2393 
2394 2395 2396 2397 2398 2399 2400 2401 2402 
2403 2404 2405 2406 2407 2408 2409 2410 2411 
2412 2413 2414 2415 2416 2417 2418 2419 2420 
2421 2422 2423 2424 2425 2426 2427 2428 2429 
2430 2431 2432 2433 2434 2435 2436 2437 2438 
2439 2440 2441 2442 2443 2444 2445 2446 2447 
2448 2449 2450 2451 2452 2453 2454 2455 2456 
2457 2458 2459 2460 2461 2462 2463 2464 2465 
2466 2467 2468 2469 2470 2471 2472 2473 2474 
2475 2476 2477 2478 2479 2480 2481 2482 2483 
2484 2485 2486 2487 2488 2489 2490 2491 2492 
2493 2494 2495 2496 2497 2498 2499 2500 2501 
2502 2503 2504 2505 2506 2507 2508 2509 2510 
2511 2512 2513 2514 2515 2516 2517 2518 2519 
2520 2521 2522 2523 2524 2525 2526 2527 2528 
2529 2530 2531 2532 2533 2534 2535 2536 2537 
2538 2539 2540 2541 2542 2543 2544 2545 2546 
2547 2548 2549 2550 2551 2552 2553 2554 2555 
2556 2557 2558 2559 2560 2561 2562 2563 2564 
2565 2566 2567 2568 2569 2570 2571 2572 2573 
2574 2575 2576 2577 2578 2579 2580 2581 2582 
2583 2584 2585 2586 2587 2588 2589 2590 2591 
2592 2593 2594 2595 2596 2597 2598 2599 2600 
2601 2602 2603 2604 2605 2606 2607 2608 2609 
2610 2611 2612 2613 2614 2615 2616 2617 2618 
2619 2620 2621 2622 2623 2624 2625 2626 2627 
2628 2629 2630 2631 2632 2633 2634 2635 2636 
2637 2638 2639 2640 2641 2642 2643 2644 2645 
2646 2647 2648 2649 2650 2651 2652 2653 2654 
2655 2656 2657 2658 2659 2660 2661 2662 2663 
2664 2665 2666 2667 2668 2669 2670 2671 2672 
2673 2674 2675 2676 2677 2678 2679 2680 2681 
2682 2683 2684 2685 2686 2687 2688 2689 2690 
2691 2692 2693 2694 2695 2696 2697 2698 2699 
2700 2701 2702 2703 2704 2705 2706 2707 2708 
2709 2710 2711 2712 2713 2714 2715 2716 2717 
2718 2719 2720 2721 2722 2723 2724 2725 2726 
2727 2728 2729 2730 2731 2732 2733 2734 2735 
2736 2737 2738 2739 2740 2741 2742 2743 2744 
2745 2746 2747 2748 2749 2750 2751 2752 2753 
2754 2755 2756 2757 2758 2759 2760 2761 2762 
2763 2764 2765 2766 2767 2768 2769 2770 2771 
2772 2773 2774 2775 2776 2777 2778 2779 2780 
2781 2782 2783 2784 2785 2786 2787 2788 2789 
2790 2791 2792 2793 2794 2795 2796 2797 2798 
2799 2800 2801 2802 2803 2804 2805 2806 2807 
2808 2809 2810 2811 2812 2813 2814 2815 2816 
2817 2818 2819 2820 2821 2822 2823 2824 2825 
2826 2827 2828 2829 2830 2831 2832 2833 2834 
2835 2836 2837 2838 2839 2840 2841 2842 2843 
2844 2845 2846 2847 2848 2849 2850 2851 2852 
2853 2854 2855 2856 2857 2858 2859 2860 2861 
2862 2863 2864 2865 2866 2867 2868 2869 2870 
2871 2872 2873 2874 2875 2876 2877 2878 2879 
2880 2881 2882 2883 2884 2885 2886 2887 2888 
2889 2890 2891 2892 2893 2894 2895 2896 2897 
2898 2899 2900 2901 2902 2903 2904 2905 2906 
2907 2908 2909 2910 2911 2912 2913 2914 2915 
2916 2917 2918 2919 2920 2921 2922 2923 2924 
2925 2926 2927 2928 2929 2930 2931 2932 2933 
2934 2935 2936 2937 2938 2939 2940 2941 2942 
2943 2944 2945 2946 2947 2948 2949 2950 2951 
2952 2953 2954 2955 2956 2957 2958 2959 2960 
2961 2962 2963 2964 2965 2966 2967 2968 2969 
2970 2971 2972 2973 2974 2975 2976 2977 2978 
2979 2980 2981 2982 2983 2984 2985 2986 2987 
2988 2989 2990 2991 2992 2993 2994 2995 2996 
2997 2998 2999 3000 3001 3002 3003 3004 3005 
3006 3007 3008 3009 3010 3011 3012 3013 3014 
3015 3016 3017 3018 3019 3020 3021 3022 3023 
3024 3025 3026 3027 3028 3029 3030 3031 3032 
3033 3034 3035 3036 3037 3038 3039 3040 3041 
3042 3043 3044 3045 3046 3047 3048 3049 3050 
3051 3052 3053 3054 3055 3056 3057 3058 3059 
3060 3061 3062 3063 3064 3065 3066 3067 3068 
3069 3070 3071 3072 3073 3074 3075 3076 3077 
3078 3079 3080 3081 3082 3083 3084 3085 3086 
3087 3088 3089 3090 3091 3092 3093 3094 3095 
3096 3097 3098 3099 3100 3101 3102 3103 3104 
3105 3106 3107 3108 3109 3110 3111 3112 3113 
3114 3115 3116 3117 3118 3119 3120 3121 3122 
3123 3124 3125 3126 3127 3128 3129 3130 3131 
3132 3133 3134 3135 3136 3137 3138 3139 3140 
3141 3142 3143 3144 3145 3146 3147 3148 3149 
3150 3151 3152 3153 3154 3155 3156 3157 3158 
3159 3160 3161 3162 3163 3164 3165 3166 3167 
3168 3169 3170 3171 3172 3173 3174 3175 3176 
3177 3178 3179 3180 3181 3182 3183 3184 3185 
3186 3187 3188 3189 3190 3191 3192 3193 3194 
3195 3196 3197 3198 3199 3200 3201 3202 3203 
3204 3205 3206 3207 3208 3209 3210 3211 3212 
3213 3214 3215 3216 3217 3218 3219 3220 3221 
3222 3223 3224 3225 3226 3227 3228 3229 3230 
3231 3232 3233 3234 3235 3236 3237 3238 3239 
3240 3241 3242 3243 3244 3245 3246 3247 3248 
3249 3250 3251 3252 3253 3254 3255 3256 3257 
3258 3259 3260 3261 3262 3263 3264 3265 3266 
3267 3268 3269 3270 3271 3272 3273 3274 3275 
3276 3277 3278 3279 3280 3281 3282 3283 3284 
3285 3286 3287 3288 3289 3290 3291 3292 3293 
3294 3295 3296 3297 3298 3299 3300 3301 3302 
3303 3304 3305 3306 3307 3308 3309 3310 3311 
3312 3313 3314 3315 3316 3317 3318 3319 3320 
3321 3322 3323 3324 3325 3326 3327 3328 3329 
3330 3331 3332 3333 3334 3335 3336 3337 3338 
3339 3340 3341 3342 3343 3344 3345 3346 3347 
3348 3349 3350 3351 3352 3353 3354 3355 3356 
3357 3358 3359 3360 3361 3362 3363 3364 3365 
3366 3367 3368 3369 3370 3371 3372 3373 3374 
3375 3376 3377 3378 3379 3380 3381 3382 3383 
3384 3385 3386 3387 3388 3389 3390 3391 3392 
3393 3394 3395 3396 3397 3398 3399 3400 3401 
3402 3403 3404 3405 3406 3407 3408 3409 3410 
3411 3412 3413 3414 3415 3416 3417 3418 3419 
3420 3421 3422 3423 3424 3425 3426 3427 3428 
3429 3430 3431 3432 3433 3434 3435 3436 3437 
3438 3439 3440 3441 3442 3443 3444 3445 3446 
3447 3448 3449 3450 3451 3452 3453 3454 3455 
3456 3457 3458 3459 3460 3461 3462 3463 3464 
3465 3466 3467 3468 3469 3470 3471 3472 3473 
3474 3475 3476 3477 3478 3479 3480 3481 3482 
3483 3484 3485 3486 3487 3488 3489 3490 3491 
3492 3493 3494 3495 3496 3497 3498 3499 3500 
3501 3502 3503 3504 3505 3506 3507 3508 3509 
3510 3511 3512 3513 3514 3515 3516 3517 3518 
3519 3520 3521 3522 3523 3524 3525 3526 3527 
3528 3529 3530 3531 3532 3533 3534 3535 3536 
3537 3538 3539 3540 3541 3542 3543 3544 3545 
3546 3547 3548 3549 3550 3551 3552 3553 3554 
3555 3556 3557 3558 3559 3560 3561 3562 3563 
3564 3565 3566 3567 3568 3569 3570 3571 3572 
3573 3574 3575 3576 3577 3578 3579 3580 3581 
3582 3583 3584 3585 3586 3587 3588 3589 3590 
3591 3592 3593 3594 3595 3596 3597 3598 3599 
3600 3601 3602 3603 3604 3605 3606 3607 3608 
3609 3610 3611 3612 3613 3614 3615 3616 3617 
3618 3619 3620 3621 3622 3623 3624 3625 3626 
3627 3628 3629 3630 3631 3632 3633 3634 3635 
3636 3637 3638 3639 3640 3641 3642 3643 3644 
3645 3646 3647 3648 3649 3650 3651 3652 3653 
3654 3655 3656 3657 3658 3659 3660 3661 3662 
3663 3664 3665 3666 3667 3668 3669 3670 3671 
3672 3673 3674 3675 3676 3677 3678 3679 3680 
3681 3682 3683 3684 3685 3686 3687 3688 3689 
3690 3691 3692 3693 3694 3695 3696 3697 3698 
3699 3700 3701 3702 3703 3704 3705 3706 3707 
3708 3709 3710 3711 3712 3713 3714 3715 3716 
3717 3718 3719 3720 3721 3722 3723 3724 3725 
3726 3727 3728 3729 3730 3731 3732 3733 3734 
3735 3736 3737 3738 3739 3740 3741 3742 3743 
3744 3745 3746 3747 3748 3749 3750 3751 3752 
3753 3754 3755 3756 3757 3758 3759 3760 3761 
3762 3763 3764 3765 3766 3767 3768 3769 3770 
3771 3772 3773 3774 3775 3776 3777 3778 3779 
3780 3781 3782 3783 3784 3785 3786 3787 3788 
3789 3790 3791 3792 3793 3794 3795 3796 3797 
3798 3799 3800 3801 3802 3803 3804 3805 3806 
3807 3808 3809 3810 3811 3812 3813 3814 3815 
3816 3817 3818 3819 3820 3821 3822 3823 3824 
3825 3826 3827 3828 3829 3830 3831 3832 3833 
3834 3835 3836 3837 3838 3839 3840 3841 3842 
3843 3844 3845 3846 3847 3848 3849 3850 3851 
3852 3853 3854 3855 3856 3857 3858 3859 3860 
3861 3862 3863 3864 3865 3866 3867 3868 3869 
3870 3871 3872 3873 3874 3875 3876 3877 3878 
3879 3880 3881 3882 3883 3884 3885 3886 3887 
3888 3889 3890 3891 3892 3893 3894 3895 3896 
3897 3898 3899 3900 3901 3902 3903 3904 3905 
3906 3907 3908 3909 3910 3911 3912 3913 3914 
3915 3916 3917 3918 3919 3920 3921 3922 3923 
3924 3925 3926 3927 3928 3929 3930 3931 3932 
3933 3934 3935 3936 3937 3938 3939 3940 3941 
3942 3943 3944 3945 3946 3947 3948 3949 3950 
3951 3952 3953 3954 3955 3956 3957 3958 3959 
3960 3961 3962 3963 3964 3965 3966 3967 3968 
3969 3970 3971 3972 3973 3974 3975 3976 3977 
3978 3979 3980 3981 3982 3983 3984 3985 3986 
3987 3988 3989 3990 3991 3992 3993 3994 3995 
3996 3997 3998 3999 4000 4001 4002 4003 4004 
4005 4006 4007 4008 4009 4010 4011 4012 4013 
4014 4015 4016 4017 4018 4019 4020 4021 4022 
4023 4024 4025 4026 4027 4028 4029 4030 4031 
4032 4033 4034 4035 4036 4037 4038 4039 4040 
4041 4042 4043 4044 4045 4046 4047 4048 4049 
4050 4051 4052 4053 4054 4055 4056 4057 4058 
4059 4060 4061 4062 4063 4064 4065 4066 4067 
4068 4069 4070 4071 4072 4073 4074 4075 4076 
4077 4078 4079 4080 4081 4082 4083 4084 4085 
4086 4087 4088 4089 4090 4091 4092 4093 4094 
4095 4096 4097 4098 4099 4100 4101 4102 4103 
4104 4105 4106 4107 4108 4109 4110 4111 4112 
4113 4114 4115 4116 4117 4118 4119 4120 4121 
4122 4123 4124 4125 4126 4127 4128 4129 4130 
4131 4132 4133 4134 4135 4136 4137 4138 4139 
4140 4141 4142 4143 4144 4145 4146 4147 4148 
4149 4150 4151 4152 4153 4154 4155 4156 4157 
4158 4159 4160 4161 4162 4163 4164 4165 4166 
4167 4168 4169 4170 4171 4172 4173 4174 4175 
4176 4177 4178 4179 4180 4181 4182 4183 4184 
4185 4186 4187 4188 4189 4190 4191 4192 4193 
4194 4195 4196 4197 4198 4199 4200 4201 4202 
4203 4204 4205 4206 4207 4208 4209 4210 4211 
4212 4213 4214 4215 4216 4217 4218 4219 4220 
4221 4222 4223 4224 4225 4226 4227 4228 4229 
4230 4231 4232 4233 4234 4235 4236 4237 4238 
4239 4240 4241 4242 4243 4244 4245 4246 4247 
4248 4249 4250 4251 4252 4253 4254 4255 4256 
4257 4258 4259 4260 4261 4262 4263 4264 4265 
4266 4267 4268 4269 4270 4271 4272 4273 4274 
4275 4276 4277 4278 4279 4280 4281 4282 4283 
4284 4285 4286 4287 4288 4289 4290 4291 4292 
4293 4294 4295 4296 4297 4298 4299 4300 4301 
4302 4303 4304 4305 4306 4307 4308 4309 4310 
4311 4312 4313 4314 4315 4316 4317 4318 4319 
4320 4321 4322 4323 4324 4325 4326 4327 4328 
4329 4330 4331 4332 4333 4334 4335 4336 4337 
4338 4339 4340 4341 4342 4343 4344 4345 4346 
4347 4348 4349 4350 4351 4352 4353 4354 4355 
4356 4357 4358 4359 4360 4361 4362 4363 4364 
4365 4366 4367 4368 4369 4370 4371 4372 4373 
4374 4375 4376 4377 4378 4379 4380 4381 4382 
4383 4384 4385 4386 4387 4388 4389 4390 4391 
4392 4393 4394 4395 4396 4397 4398 4399 4400 
4401 4402 4403 4404 4405 4406 4407 4408 4409 
4410 4411 4412 4413 4414 4415 4416 4417 4418 
4419 4420 4421 4422 4423 4424 4425 4426 4427 
4428 4429 4430 4431 4432 4433 4434 4435 4436 
4437 4438 4439 4440 4441 4442 4443 4444 4445 
4446 4447 4448 4449 4450 4451 4452 4453 4454 
4455 4456 4457 4458 4459 4460 4461 4462 4463 
4464 4465 4466 4467 4468 4469 4470 4471 4472 
4473 4474 4475 4476 4477 4478 4479 4480 4481 
4482 4483 4484 4485 4486 4487 4488 4489 4490 
4491 4492 4493 4494 4495 4496 4497 4498 4499 
4500 4501 4502 4503 4504 4505 4506 4507 4508 
4509 4510 4511 4512 4513 4514 4515 4516 4517 
4518 4519 4520 4521 4522 4523 4524 4525 4526 
4527 4528 4529 4530 4531 4532 4533 4534 4535 
4536 4537 4538 4539 4540 4541 4542 4543 4544 
4545 4546 4547 4548 4549 4550 4551 4552 4553 
4554 4555 4556 4557 4558 4559 4560 4561 4562 
4563 4564 4565 4566 4567 4568 4569 4570 4571 
4572 4573 4574 4575 4576 4577 4578 4579 4580 
4581 4582 4583 4584 4585 4586 4587 4588 4589 
4590 4591 4592 4593 4594 4595 4596 4597 4598 
4599 4600 4601 4602 4603 4604 4605 4606 4607 
4608 4609 4610 4611 4612 4613 4614 4615 4616 
4617 4618 4619 4620 4621 4622 4623 4624 4625 
4626 4627 4628 4629 4630 4631 4632 4633 4634 
4635 4636 4637 4638 4639 4640 4641 4642 4643 
4644 4645 4646 4647 4648 4649 4650 4651 4652 
4653 4654 4655 4656 4657 4658 4659 4660 4661 
4662 4663 4664 4665 4666 4667 4668 4669 4670 
4671 4672 4673 4674 4675 4676 4677 4678 4679 
4680 4681 4682 4683 4684 4685 4686 4687 4688 
4689 4690 4691 4692 4693 4694 4695 4696 4697 
4698 4699 4700 4701 4702 4703 4704 4705 4706 
4707 4708 4709 4710 4711 4712 4713 4714 4715 
4716 4717 4718 4719 4720 4721 4722 4723 4724 
4725 4726 4727 4728 4729 4730 4731 4732 4733 
4734 4735 4736 4737 4738 4739 4740 4741 4742 
4743 4744 4745 4746 4747 4748 4749 4750 4751 
4752 4753 4754 4755 4756 4757 4758 4759 4760 
4761 4762 4763 4764 4765 4766 4767 4768 4769 
4770 4771 4772 4773 4774 4775 4776 4777 4778 
4779 4780 4781 4782 4783 4784 4785 4786 4787 
4788 4789 4790 4791 4792 4793 4794 4795 4796 
4797 4798 4799 4800 4801 4802 4803 4804 4805 
4806 4807 4808 4809 4810 4811 4812 4813 4814 
4815 4816 4817 4818 4819 4820 4821 4822 4823 
4824 4825 4826 4827 4828 4829 4830 4831 4832 
4833 4834 4835 4836 4837 4838 4839 4840 4841 
4842 4843 4844 4845 4846 4847 4848 4849 4850 
4851 4852 4853 4854 4855 4856 4857 4858 4859 
4860 4861 4862 4863 4864 4865 4866 4867 4868 
4869 4870 4871 4872 4873 4874 4875 4876 4877 
4878 4879 4880 4881 4882 4883 4884 4885 4886 
4887 4888 4889 4890 4891 4892 4893 4894 4895 
4896 4897 4898 4899 4900 4901 4902 4903 4904 
4905 4906 4907 4908 4909 4910 4911 4912 4913 
4914 4915 4916 4917 4918 4919 4920 4921 4922 
4923 4924 4925 4926 4927 4928 4929 4930 4931 
4932 4933 4934 4935 4936 4937 4938 4939 4940 
4941 4942 4943 4944 4945 4946 4947 4948 4949 
4950 4951 4952 4953 4954 4955 4956 4957 4958 
4959 4960 4961 4962 4963 4964 4965 4966 4967 
4968 4969 4970 4971 4972 4973 4974 4975 4976 
4977 4978 4979 4980 4981 4982 4983 4984 4985 
4986 4987 4988 4989 4990 4991 4992 4993 4994 
4995 4996 4997 4998 4999 5000 5001 5002 5003 
5004 5005 5006 5007 5008 5009 5010 5011 5012 
5013 5014 5015 5016 5017 5018 5019 5020 5021 
5022 5023 5024 5025 5026 5027 5028 5029 5030 
5031 5032 5033 5034 5035 5036 5037 5038 5039 
5040 5041 5042 5043 5044 5045 5046 5047 5048 
5049 5050 5051 5052 5053 5054 5055 5056 5057 
5058 5059 5060 5061 5062 5063 5064 5065 5066 
5067 5068 5069 5070 5071 5072 5073 5074 5075 
5076 5077 5078 5079 5080 5081 5082 5083 5084 
5085 5086 5087 5088 5089 5090 5091 5092 5093 
5094 5095 5096 5097 5098 5099 5100 5101 5102 
5103 5104 5105 5106 5107 5108 5109 5110 5111 
5112 5113 5114 5115 5116 5117 5118 5119 5120 
5121 5122 5123 5124 5125 5126 5127 5128 5129 
5130 5131 5132 5133 5134 5135 5136 5137 5138 
5139 5140 5141 5142 5143 5144 5145 5146 5147 
5148 5149 5150 5151 5152 5153 5154 5155 5156 
5157 5158 5159 5160 5161 5162 5163 5164 5165 
5166 5167 5168 5169 5170 5171 5172 5173 5174 
5175 5176 5177 5178 5179 5180 5181 5182 5183 
5184 5185 5186 5187 5188 5189 5190 5191 5192 
5193 5194 5195 5196 5197 5198 5199 5200 5201 
5202 5203 5204 5205 5206 5207 5208 5209 5210 
5211 5212 5213 5214 5215 5216 5217 5218 5219 
5220 5221 5222 5223 5224 5225 5226 5227 5228 
5229 5230 5231 5232 5233 5234 5235 5236 5237 
5238 5239 5240 5241 5242 5243 5244 5245 5246 
5247 5248 5249 5250 5251 5252 5253 5254 5255 
5256 5257 5258 5259 5260 5261 5262 5263 5264 
5265 5266 5267 5268 5269 5270 5271 5272 5273 
5274 5275 5276 5277 5278 5279 5280 5281 5282 
5283 5284 5285 5286 5287 5288 5289 5290 5291 
5292 5293 5294 5295 5296 5297 5298 5299 5300 
5301 5302 5303 5304 5305 5306 5307 5308 5309 
5310 5311 5312 5313 5314 5315 5316 5317 5318 
5319 5320 5321 5322 5323 5324 5325 5326 5327 
5328 5329 5330 5331 5332 5333 5334 5335 5336 
5337 5338 5339 5340 5341 5342 5343 5344 5345 
5346 5347 5348 5349 5350 5351 5352 5353 5354 
5355 5356 5357 5358 5359 5360 5361 5362 5363 
5364 5365 5366 5367 5368 5369 5370 5371 5372 
5373 5374 5375 5376 5377 5378 5379 5380 5381 
5382 5383 5384 5385 5386 5387 5388 5389 5390 
5391 5392 5393 5394 5395 5396 5397 5398 5399 
5400 5401 5402 5403 5404 5405 5406 5407 5408 
5409 5410 5411 5412 5413 5414 5415 5416 5417 
5418 5419 5420 5421 5422 5423 5424 5425 5426 
5427 5428 5429 5430 5431 5432 5433 5434 5435 
5436 5437 5438 5439 5440 5441 5442 5443 5444 
5445 5446 5447 5448 5449 5450 5451 5452 5453 
5454 5455 5456 5457 5458 5459 5460 5461 5462 
5463 5464 5465 5466 5467 5468 5469 5470 5471 
5472 5473 5474 5475 5476 5477 5478 5479 5480 
5481 5482 5483 5484 5485 5486 5487 5488 5489 
5490 5491 5492 5493 5494 5495 5496 5497 5498 
5499 5500 5501 5502 5503 5504 5505 5506 5507 
5508 5509 5510 5511 5512 5513 5514 5515 5516 
5517 5518 5519 5520 5521 5522 5523 5524 5525 
5526 5527 5528 5529 5530 5531 5532 5533 5534 
5535 5536 5537 5538 5539 5540 5541 5542 5543 
5544 5545 5546 5547 5548 5549 5550 5551 5552 
5553 5554 5555 5556 5557 5558 5559 5560 5561 
5562 5563 5564 5565 5566 5567 5568 5569 5570 
5571 5572 5573 5574 5575 5576 5577 5578 5579 
5580 5581 5582 5583 5584 5585 5586 5587 5588 
5589 5590 5591 5592 5593 5594 5595 5596 5597 
5598 5599 5600 5601 5602 5603 5604 5605 5606 
5607 5608 5609 5610 5611 5612 5613 5614 5615 
5616 5617 5618 5619 5620 5621 5622 5623 5624 
5625 5626 5627 5628 5629 5630 5631 5632 5633 
5634 5635 5636 5637 5638 5639 5640 5641 5642 
5643 5644 5645 5646 5647 5648 5649 5650 5651 
5652 5653 5654 5655 5656 5657 5658 5659 5660 
5661 5662 5663 5664 5665 5666 5667 5668 5669 
5670 5671 5672 5673 5674 5675 5676 5677 5678 
5679 5680 5681 5682 5683 5684 5685 5686 5687 
5688 5689 5690 5691 5692 5693 5694 5695 5696 
5697 5698 5699 5700 5701 5702 5703 5704 5705 
5706 5707 5708 5709 5710 5711 5712 5713 5714 
5715 5716 5717 5718 5719 5720 5721 5722 5723 
5724 5725 5726 5727 5728 5729 5730 5731 5732 
5733 5734 5735 5736 5737 5738 5739 5740 5741 
5742 5743 
v 3 5744 double
0 -65.191463617 -63.437232204 0 -65.313635285 -61.884893974 0 -65.434821084 -60.345082407 
0 -65.554533026 -58.823997955 0 -65.672289096 -57.327765217 0 -65.787615133 -55.862408984 
0 -65.90004672 -54.433830217 0 -66.009131137 -53.047781283 0 -66.114429198 -51.709842559 
0 -66.215516881 -50.42540177 0 -66.311987125 -49.199631094 0 -66.403451521 -48.037465754 
0 -66.489541678 -46.943586595 0 -66.569910988 -45.922397683 0 -66.64423592 -44.97800988 
0 -66.712217076 -44.114227398 0 -66.773580758 -43.334527893 0 -66.82807991 -42.642050512 
0 -66.875495056 -42.03958395 0 -66.915635245 -41.529554501 0 -66.948338826 -41.114016102 
0 -66.973474241 -40.794640376 0 -66.990940175 -40.572714643 0 -67.000666264 -40.449132959 
0 -67.002613488 -40.424391134 0 -66.996773932 -40.498589726 0 -66.983171025 -40.671431048 
0 -66.961859616 -40.942218176 0 -66.932925583 -41.309859923 0 -66.896485285 -41.772877815 
0 -66.85268556 -42.329406083 0 -66.801702788 -42.977203618 0 -66.743742184 -43.713662925 
0 -66.679037169 -44.535818091 0 -66.607848277 -45.440358724 0 -66.530462213 -46.423641898 
0 -66.44719052 -47.48170908 0 -66.358368522 -48.610299573 0 -66.264353914 -49.80486843 
0 -66.165525234 -51.060605875 0 -66.062280373 -52.372456216 0 -65.955035088 -53.735136765 
0 -65.844221277 -55.143159736 0 -65.730285118 -56.590855896 0 -65.613685386 -58.072395967 
0 -65.494891589 -59.581814272 0 -65.374382041 -61.113033254 0 -65.252642011 -62.659886997 
0 -64.884954033 -67.331805733 0 -64.763214003 -68.878659476 0 -64.642704455 -70.409878459 
0 -64.523910659 -71.919296764 0 -64.407310926 -73.400836835 0 -64.293374768 -74.848532994 
0 -64.182560956 -76.256555966 0 -64.075315671 -77.619236515 0 -63.97207081 -78.931086856 
0 -63.87324213 -80.186824301 0 -63.779227522 -81.381393158 0 -63.690405524 -82.50998365 
0 -63.607133831 -83.568050833 0 -63.529747767 -84.551334007 0 -63.458558875 -85.45587464 
0 -63.39385386 -86.278029806 0 -63.335893256 -87.014489113 0 -63.284910484 -87.662286647 
0 -63.24111076 -88.218814916 0 -63.204670461 -88.681832808 0 -63.175736428 -89.049474555 
0 -63.154425019 -89.320261683 0 -63.140822112 -89.493103005 0 -63.134982556 -89.567301597 
0 -63.13692978 -89.542559772 0 -63.14665587 -89.418978087 0 -63.164121803 -89.197052355 
0 -63.189257218 -88.877676629 0 -63.221960799 -88.46213823 0 -63.262100988 -87.952108781 
0 -63.309516134 -87.349642219 0 -63.364015286 -86.657164838 0 -63.425378968 -85.877465333 
0 -63.493360124 -85.013682851 0 -63.567685056 -84.069295048 0 -63.648054366 -83.048106136 
0 -63.734144523 -81.954226977 0 -63.825608919 -80.792061637 0 -63.922079163 -79.566290961 
0 -64.023166846 -78.281850172 0 -64.128464907 -76.943911447 0 -64.237549324 -75.557862514 
0 -64.349980911 -74.129283747 0 -64.465306948 -72.663927514 0 -64.583063018 -71.167694776 
0 -64.70277496 -69.646610324 0 -64.823960759 -68.106798757 0 -64.946132427 -66.554460527 
0 -65.03810072 -65.385892564 0 -65.099495324 -64.605800167 0 -54.834312086 -62.850885418 
0 -44.556417617 -61.257482175 0 -44.721970878 -59.153928546 0 -55.000111365 -60.744205834 
0 -55.220354676 -58.047604602 0 -44.82786677 -57.91024904 0 -55.370926108 -56.032557783 
0 -45.105053214 -54.345085441 0 -45.185444885 -53.265085667 0 -55.570111576 -53.443139704 
0 -55.730987937 -51.457538469 0 -45.449422903 -49.910774175 0 -45.408153567 -47.925603407 
0 -55.885221349 -49.497817167 0 -56.092755821 -47.033952535 0 -45.504874228 -46.869761747 
0 -45.933772019 -43.696760987 0 -56.219260773 -45.253443848 0 -46.056794706 -42.133609535 
0 -56.3504388 -43.526894818 0 -46.106271229 -41.564724873 0 -56.528332465 -41.326315656 
0 -46.237334765 -39.899404749 0 -46.160259244 -38.290505614 0 -56.655676992 -39.708250017 
0 -56.807248358 -37.782353211 0 -46.223008612 -37.4931993 0 -46.511058048 -36.421420668 
0 -46.618802034 -34.987283291 0 -56.91981319 -36.352081415 0 -57.056999729 -34.650253194 
0 -46.678602509 -34.268738244 0 -57.147242443 -33.462318754 0 -46.841993088 -32.216492295 
0 -46.891063078 -31.53834175 0 -57.252577493 -32.069252838 0 -46.86509305 -31.922979447 
0 -57.334146938 -31.08747198 0 -47.022153173 -29.92734138 0 -47.09016332 -29.082079966 
0 -57.40308576 -30.211521192 0 -57.488420641 -29.24655793 0 -47.131698477 -28.673644972 
0 -57.526317423 -28.645714456 0 -47.211239118 -27.600410817 0 -47.244256873 -27.189434176 
0 -57.570664015 -28.157871752 0 -57.602673184 -27.675522516 0 -47.272153486 -26.750786217 
0 -47.071893048 -26.547659666 0 -57.621137373 -27.440912753 0 -57.630871925 -27.317223542 
0 -47.075788044 -26.498169048 0 -47.292588875 -26.491129974 0 -47.282411121 -26.58216255 
0 -57.627950423 -27.354344742 0 -47.264976182 -26.772432674 0 -57.612794559 -27.508630208 
0 -57.586184271 -27.885034027 0 -47.236266067 -27.206779107 0 -47.213140874 -27.500612541 
0 -57.541672291 -28.450612362 0 -47.227556803 -27.317440803 0 -57.496540045 -29.02407192 
0 -47.139053674 -28.441979673 0 -47.080891617 -29.180998685 0 -57.44205962 -29.71631135 
0 -57.367263773 -30.777982797 0 -47.050776215 -29.674951242 0 -57.28631337 -31.695255082 
0 -46.909707299 -31.30475394 0 -46.864210854 -31.882841078 0 -57.179453244 -33.053041726 
0 -57.087715112 -34.218685218 0 -46.71284563 -33.857466348 0 -46.402973167 -35.177002142 
0 -56.987087731 -35.497277315 0 -56.859696118 -37.29437271 0 -46.355950864 -35.952908625 
0 -46.346463007 -38.540318493 0 -56.732807929 -38.728208539 0 -46.233250112 -39.998376068 
0 -56.61518458 -40.250274439 0 -56.444950681 -42.385781667 0 -46.056254351 -42.200249563 
0 -45.916915332 -43.970999699 0 -56.308172998 -44.123706914 0 -56.128348748 -46.408590658 
0 -45.842389143 -44.917944718 0 -45.735442038 -46.27655649 0 -45.579496575 -48.229671844 
0 -55.980578272 -48.28619257 0 -55.788317952 -50.729091557 0 -45.499667842 -49.243992064 
0 -45.392064073 -50.639587222 0 -55.632009989 -52.715172545 0 -45.234423646 -52.642598752 
0 -45.134482116 -53.912476303 0 -55.429498242 -55.288328263 0 -45.192839652 -53.170973501 
0 -55.268319682 -57.336296045 0 -44.868777467 -57.288573966 0 -44.502860668 -59.403110129 
0 -55.104250032 -59.420998606 0 -54.895438169 -62.143601985 0 -44.416220473 -60.573375279 
0 -44.314214263 -64.241767741 0 -54.803469875 -63.312169948 0 -44.433515481 -62.888498966 
0 -44.163595368 -66.155562262 0 -54.561503063 -66.224052885 0 -54.354829691 -68.943286898 
0 -43.954671921 -68.903386182 0 -43.790148542 -70.993853929 0 -54.190760041 -71.027989459 
0 -53.967326429 -73.697512239 0 -43.686426872 -72.142292256 0 -43.429483392 -75.576539166 
0 -53.827069734 -75.649112958 0 -43.276186295 -77.492465242 0 -53.67076177 -77.635193946 
0 -53.478501451 -80.078092934 0 -43.083809557 -79.968741675 0 -42.989116415 -81.136368025 
0 -53.289857913 -82.439472241 0 -43.045123499 -80.460294653 0 -53.150906725 -84.240578589 
0 -42.760001187 -84.083117121 0 -42.624812997 -85.82902738 0 -53.014129042 -85.978503837 
0 -52.846143537 -88.11418401 0 -42.553297736 -86.738936877 0 -52.726271794 -89.636076965 
0 -42.332683169 -89.463090722 0 -42.272688601 -90.22539399 0 -42.199273208 -91.20784163 
0 -52.580187068 -91.492259392 0 -52.471991992 -92.867008188 0 -42.094022356 -92.545180501 
0 -41.789862519 -93.781209251 0 -52.371364611 -94.145600285 0 -52.25555741 -95.617070291 
0 -41.742036474 -94.388896774 0 -41.883931551 -95.214637281 0 -41.79793429 -96.259654233 
0 -52.172766352 -96.669030421 0 -41.734762466 -97.062328361 0 -52.096789094 -97.586731167 
0 -41.715838284 -97.35046475 0 -52.017020103 -98.647974153 0 -41.6558521 -98.112661487 
0 -41.604994933 -98.758863065 0 -51.962539678 -99.340213584 0 -51.906740131 -100.04921406 
0 -41.581898967 -99.052325137 0 -41.553008735 -99.41941034 0 -41.520066305 -99.80957305 
0 -51.872895452 -100.47925148 0 -51.850998131 -100.85602922 0 -41.515634918 -99.96442506 
0 -51.831129299 -101.00994076 0 -41.482321334 -100.23586042 0 -41.482382138 -100.23508782 
0 -51.82924288 -101.03391 0 -51.83794235 -100.92337275 0 -41.50355077 -100.04783337 
0 -41.527231673 -99.759107634 0 -51.856406538 -100.68876299 0 -51.900084925 -100.20732312 
0 -41.549598651 -99.548454896 0 -41.613364492 -98.67138172 0 -51.9327623 -99.718571047 
0 -41.662172506 -98.064251328 0 -51.981468094 -99.118569246 0 -52.055993963 -98.152764311 
0 -41.740456314 -97.037663015 0 -41.813434195 -96.111536715 0 -52.124932785 -97.276813523 
0 -52.228669531 -95.97874823 0 -41.859210336 -95.549930728 0 -41.817528063 -93.602414182 
0 -52.311837279 -94.90196675 0 -41.914792783 -92.45190767 0 -52.21331404 -93.697863783 
0 -52.539266533 -92.012204089 0 -42.240214351 -90.687635088 0 -42.312098416 -89.774261432 
0 -52.68300865 -90.185787318 0 -42.269507489 -90.315430475 0 -52.803402731 -88.656035486 
0 -42.509900853 -87.260943176 0 -42.639749558 -85.61105894 0 -52.930747258 -87.037969847 
0 -53.104626956 -84.837045227 0 -42.719756865 -84.60289615 0 -53.23981895 -83.110841656 
0 -42.951255586 -81.537422617 0 -43.084252164 -79.847540873 0 -53.370917563 -81.32949888 
0 -53.573858374 -78.866468337 0 -43.290845381 -77.33810211 0 -43.448351001 -75.340927573 
0 -53.728091786 -76.906747034 0 -53.935766421 -74.304267511 0 -43.539425904 -74.219988119 
0 -43.812114513 -70.682647918 0 -54.088153614 -72.331727721 0 -43.95815771 -68.826993162 
0 -54.244183989 -70.317071961 0 -44.015449266 -68.131136802 0 -54.458968358 -67.620079669 
0 -44.180827871 -66.02980238 0 -44.346876371 -63.919956141 0 -54.624769773 -65.513372951 
0 -44.22414792 -65.479368968 0 -44.058594659 -67.582922597 0 -43.683114166 -72.390131528 
0 -43.331142634 -76.826076967 0 -43.176379164 -78.792533301 0 -42.842779552 -83.039744697 
0 -42.674294309 -85.17212627 0 -42.543230772 -86.837446394 0 -42.417914567 -88.429739755 
0 -42.163359211 -91.749531149 0 -41.934769722 -94.588712109 0 -41.758412365 -96.809509762 
0 -41.69289865 -97.654974663 0 -41.580995636 -99.137349697 0 -41.508412052 -99.986064925 
0 -41.49375894 -100.17225037 0 -41.502867383 -100.15506252 0 -41.54429947 -99.530072035 
0 -41.641511863 -98.294871469 0 -41.699673921 -97.555852458 0 -41.862504175 -95.486897907 
0 -42.067719908 -92.879384794 0 -42.171447441 -91.561401515 0 -42.436350923 -88.196705595 
0 -42.724311186 -84.53660158 0 -42.86094061 -82.764996057 0 -43.196357562 -78.506785462 
0 -43.388501465 -76.097263921 0 -43.542244375 -73.974304586 0 -43.91178807 -69.448277176 
0 -44.079093664 -67.322458045 0 -54.69884256 -64.57218895 0 -44.825893616 -57.833464961 
0 -44.990416996 -55.742997214 0 -45.351082146 -51.160311977 0 -45.69675598 -46.768109468 
0 -46.02056435 -42.653734021 0 -46.159486458 -40.90811262 0 -46.457853382 -37.275881523 
0 -46.686543181 -34.191670642 0 -46.785039593 -32.940155067 0 -46.987604391 -30.47762537 
0 -47.064727253 -29.386386393 0 -47.124713438 -28.624189655 0 -47.175570605 -27.977988078 
0 -47.255831828 -26.92691076 0 -47.291614597 -26.503509349 0 -47.277014767 -26.689017776 
0 -47.254954633 -26.977872068 0 -47.178010058 -28.066311094 0 -47.040109223 -29.699188127 
0 -46.962899268 -30.62557641 0 -46.77427152 -33.118268434 0 -46.540351187 -36.049216054 
0 -46.270664684 -39.475907966 0 -46.140815979 -41.125792203 0 -45.833903612 -45.198594438 
0 -45.489720156 -49.398749033 0 -45.327825618 -51.397287431 0 -44.973909966 -56.054594284 
0 -44.765116272 -58.60571434 0 -44.599737666 -60.707048762 0 -44.433691301 -62.816867868 
0 -33.613609516 -61.769851207 0 -33.307796527 -60.212917289 0 -33.674973208 -60.990151578 
0 -33.936464272 -58.567692678 0 -34.042360164 -57.324013172 0 -34.220616964 -54.085679045 
0 -33.78207067 -53.332289004 0 -34.379944334 -52.049904291 0 -34.007427 -50.734794171 
0 -34.63454682 -49.150657132 0 -34.537033383 -47.88013541 0 -35.065100811 -43.465699813 
0 -34.668539674 -42.812296242 0 -35.243566787 -41.650072132 0 -34.878306325 -40.406191735 
0 -35.29304331 -41.081187471 0 -35.430125006 -39.086861174 0 -35.307294271 -38.059337169 
0 -35.450963585 -35.606242206 0 -35.518502661 -34.682956649 0 -34.858455423 -34.328419097 
0 -35.656972765 -33.384154787 0 -35.798662212 -31.749700605 0 -35.325551995 -31.339919466 
0 -36.064035761 -30.501116484 0 -35.626752541 -29.858634024 0 -36.19609221 -29.100361252 
0 -36.240382913 -28.556483953 0 -35.561678411 -28.254620897 0 -36.099591752 -27.737795657 
0 -35.394903464 -27.382189106 0 -36.133468648 -26.879765047 0 -35.431061966 -26.696740284 
0 -36.182425293 -26.448948479 0 -35.714196972 -26.195969476 0 -36.451175432 -25.931164441 
0 -36.246049481 -25.789860094 0 -36.472565699 -25.661437386 0 -36.465309212 -25.715351749 
0 -35.980062859 -25.73985803 0 -36.449346391 -25.870471296 0 -36.192619668 -26.271785724 
0 -35.686552816 -26.410540563 0 -36.372777567 -26.762619329 0 -35.836379204 -27.100907507 
0 -36.292353172 -27.598643096 0 -36.256102025 -28.059257593 0 -35.920650881 -28.2507648 
0 -36.38949764 -28.882101233 0 -36.116353206 -30.158550186 0 -35.645159007 -30.513300102 
0 -36.067856426 -31.244756186 0 -35.53497368 -32.031663796 0 -35.900332883 -33.021675 
0 -35.629172963 -33.849321301 0 -35.563222787 -37.209803003 0 -35.024279321 -37.739208085 
0 -35.425585073 -38.817825204 0 -34.855616381 -39.872192766 0 -35.240844371 -41.276376661 
0 -35.153153796 -42.390871085 0 -34.605740985 -42.997976857 0 -34.991729833 -44.253775326 
0 -34.422298512 -45.336751754 0 -34.938432345 -44.930704085 0 -34.794674471 -46.925340434 
0 -34.21883778 -47.640685786 0 -34.616456822 -48.740511316 0 -33.873138558 -49.599883153 
0 -34.565849839 -49.411893628 0 -34.26983534 -51.160726164 0 -33.69112605 -51.899460746 
0 -34.242913873 -53.502073526 0 -33.704624933 -54.729352548 0 -34.095757522 -56.374005925 
0 -33.7907414 -57.714725623 0 -33.558147082 -62.647577282 0 -32.857071245 -63.438243961 
0 -33.215230731 -64.963943798 0 -32.636252187 -66.363819024 0 -33.14393405 -68.030455771 
0 -33.039695792 -69.354928416 0 -32.378814924 -69.753068665 0 -32.726686244 -71.213418543 
0 -32.677713978 -74.016612447 0 -32.156669471 -74.496639295 0 -32.504812591 -76.028838854 
0 -32.138604921 -78.426975878 0 -31.594427589 -79.036401444 0 -32.129234028 -80.632819409 
0 -31.578973019 -81.451364252 0 -31.475066763 -83.56039296 0 -31.960647125 -82.942302036 
0 -31.865052629 -84.806518318 0 -31.793537369 -85.716427816 0 -31.555279115 -88.117786553 
0 -31.070773792 -88.596967007 0 -31.46985506 -89.624930688 0 -30.926291476 -90.545590982 
0 -31.438096435 -90.07807891 0 -31.284263922 -91.674163174 0 -31.015716474 -92.457693614 
0 -31.06402022 -94.373671522 0 -31.007017874 -95.05027314 0 -30.538353059 -95.339407604 
0 -30.967242847 -96.024385891 0 -30.443707343 -96.566663749 0 -30.948318665 -96.31252228 
0 -30.836629296 -97.239933589 0 -30.804001407 -97.654510232 0 -30.293201671 -97.801774309 
0 -30.744212427 -98.228692602 0 -30.306374974 -98.509721587 0 -30.729796498 -98.41186434 
0 -30.771797426 -98.910620031 0 -30.76736604 -99.065472041 0 -30.663502994 -99.334343324 
0 -30.220916952 -99.293744838 0 -30.701391438 -99.369940952 0 -30.222806947 -99.236559079 
0 -30.673240025 -99.177451526 0 -30.688183534 -98.999744912 0 -30.208631559 -98.836600339 
0 -30.724847067 -98.647099963 0 -30.599026118 -97.923193565 0 -30.123995177 -97.64282965 
0 -30.819037963 -97.336699887 0 -30.37301737 -96.800068397 0 -30.914878171 -96.218244205 
0 -30.960592724 -95.638531324 0 -30.305543565 -95.286218372 0 -30.846022493 -94.623813956 
0 -30.731037862 -93.090243454 0 -31.390814798 -90.237543669 0 -30.772343434 -89.578785825 
0 -31.336490463 -88.528966952 0 -31.71889266 -86.496910318 0 -31.800481973 -85.460219809 
0 -31.353769797 -84.780420021 0 -31.904199134 -83.485336237 0 -31.53724106 -82.275780239 
0 -32.146751847 -80.763024166 0 -32.225178713 -79.766516347 0 -31.84367742 -77.67248442 
0 -32.456697489 -76.495320678 0 -32.55651105 -75.231193254 0 -32.11488213 -74.592554942 
0 -32.72047643 -73.251274761 0 -32.935369113 -70.486691315 0 -32.552657501 -69.695702715 
0 -33.143376622 -68.401580519 0 -32.786693029 -66.806009056 0 -33.200668178 -67.705724158 
0 -33.359086413 -65.186862222 0 -33.463770154 -63.856729179 0 -32.762270226 -56.989192126 
0 -33.650696289 -45.702425241 0 -33.962755385 -40.089959522 0 -34.352122669 -36.565652198 
0 -35.344276612 -25.681339553 0 -35.025265448 -29.081903645 0 -34.610992606 -32.285872702 
0 -34.620604132 -35.420852983 0 -32.578248673 -59.647000847 0 -30.432984286 -85.924623627 
0 -30.141189358 -90.39610685 0 -30.056703807 -93.643768132 0 -29.659723618 -96.403045457 
0 -29.46466395 -98.909134894 0 -29.355991898 -99.089674988 0 -30.24380042 -91.579683626 
0 -31.988160147 -66.827051671 0 -32.076148643 -60.167645897 0 -31.894175345 -58.69738904 
0 -32.745518377 -53.998449869 0 -33.069218802 -50.429854192 0 -32.473281407 -47.4492969 
0 -33.706220121 -42.972243806 0 -33.370652582 -41.430811869 0 -33.708535697 -38.597866314 
0 -34.566984552 -30.007150069 0 -34.349288119 -28.633222917 0 -34.576685837 -25.885684573 
0 -35.027389888 -25.755926228 0 -34.783379465 -25.909669377 0 -34.910349535 -27.047704227 
0 -34.441817713 -28.12720741 0 -34.701226572 -30.431216208 0 -34.199942918 -31.416881199 
0 -34.073592277 -33.625762401 0 -34.049715001 -37.537265981 0 -33.903254754 -39.835783016 
0 -33.706680128 -42.294219569 0 -33.538019822 -44.816746603 0 -33.170440127 -47.40107447 
0 -32.647576669 -54.971667823 0 -31.707975429 -62.941383389 0 -31.247185794 -68.97342942 
0 -31.005317666 -74.17581713 0 -30.699450855 -75.622556819 0 -30.650116522 -79.189085939 
0 -30.690669036 -80.927975375 0 -30.502682245 -83.439533655 0 -30.039650362 -84.545000893 
0 -30.143338214 -88.303565028 0 -29.754726289 -89.214967302 0 -29.404228777 -92.086812707 
0 -29.608577302 -95.073703812 0 -29.250748664 -95.629811479 0 -29.078929005 -97.334946694 
0 -29.34159633 -98.332697884 0 -28.999833753 -98.560867156 0 -29.289150174 -99.096922575 
0 -29.2606086 -98.770418237 0 -28.985573268 -98.246432142 0 -29.419604237 -96.737814785 
0 -29.336064427 -95.476268254 0 -29.826616864 -89.468125388 0 -30.364666359 -85.239193421 
0 -30.606674406 -81.964221129 0 -30.582518808 -79.376733514 0 -30.663688467 -77.900327562 
0 -31.109420554 -75.236801069 0 -31.327905873 -72.616736225 0 -31.591600734 -69.812060064 
0 -31.391179583 -68.445048467 0 -32.013399398 -63.815475544 0 -31.329378825 -56.5868953 
0 -31.024907762 -54.228896599 0 -31.445459473 -49.202709766 0 -32.402316624 -41.85655784 
0 -32.764428245 -38.239170457 0 -33.096223206 -36.812157168 0 -33.399685036 -34.926157872 
0 -33.57310697 -33.308298048 0 -33.283546018 -31.625358973 0 -33.98017353 -27.571405555 
0 -33.854954812 -26.935516295 0 -33.799167861 -26.374028481 0 -33.646617925 -26.01680737 
0 -33.69987899 -25.873039158 0 -33.812951836 -26.057393811 0 -33.835969627 -26.592725897 
0 -33.5094897 -27.397104934 0 -33.490568891 -28.471809129 0 -33.394618914 -29.853642472 
0 -33.227156219 -31.431117972 0 -33.168301826 -33.565373723 0 -32.848764957 -36.07939097 
0 -32.610986729 -38.247009605 0 -32.466148349 -40.453943419 0 -32.277112052 -42.888182863 
0 -31.785256443 -45.711733339 0 -31.78005631 -51.023244567 0 -30.645765794 -64.450160322 
0 -30.494380308 -66.406051755 0 -30.548601263 -70.217584241 0 -29.809859058 -78.119513745 
0 -29.235219351 -81.495231064 0 -29.069430857 -84.362341265 0 -28.875754329 -86.844899204 
0 -28.815911129 -88.842309 0 -28.651777205 -90.407222776 0 -28.431780659 -92.155146854 
0 -28.322187887 -93.928473488 0 -28.28499413 -95.379905076 0 -27.941374475 -95.977688818 
0 -28.021368445 -98.184109587 0 -28.036113796 -98.596148491 0 -27.985027284 -98.740696923 
0 -27.98638278 -98.647992289 0 -27.636466367 -98.182819482 0 -28.266496291 -97.38566284 
0 -28.06975886 -96.28675417 0 -28.434099155 -95.164852391 0 -28.747454747 -94.096162338 
0 -28.708449124 -92.626127411 0 -28.646920462 -90.621398396 0 -28.950381795 -88.849582211 
0 -29.077310037 -86.953795189 0 -29.776605 -74.320789206 0 -30.030788752 -71.454254816 
0 -30.402887476 -68.78577687 0 -30.596188924 -66.144445934 0 -31.256639306 -44.593529752 
0 -32.630392128 -30.050375298 0 -32.436852675 -28.780922938 0 -30.989392355 -48.577928437 
0 -30.88343531 -56.707894887 0 -30.458941062 -59.653894529 0 -30.180480353 -61.011054667 
0 -29.595120644 -70.435431218 0 -29.458711182 -72.376894488 0 -27.207733365 -97.73738961 
0 -29.749954238 -61.345921206 0 -29.734734648 -58.486647157 0 -29.676240381 -56.768530889 
0 -29.979523419 -54.229527842 0 -30.318874761 -51.902198028 0 -29.882453412 -49.33156167 
0 -30.537932255 -46.444805925 0 -30.846534587 -41.616286033 0 -31.042467386 -39.31355622 
0 -31.182806007 -36.95036175 0 -31.518447342 -34.779995608 0 -31.554387354 -33.615998398 
0 -31.38803498 -31.716155875 0 -32.017401655 -29.601830207 0 -31.763527648 -27.986712855 
0 -31.89368941 -27.082904567 0 -32.07150033 -26.722272351 0 -32.089455227 -26.312545549 
0 -32.072340107 -26.681383937 0 -32.034896307 -27.334871199 0 -31.859795181 -28.241884617 
0 -31.918264859 -29.468220242 0 -31.778968834 -30.843527663 0 -31.73242094 -31.829922065 
0 -31.612642729 -34.26246258 0 -31.218589411 -36.615569763 0 -31.182297459 -39.108947863 
0 -30.920585599 -41.925239127 0 -30.595160575 -43.766462672 0 -29.838049943 -51.48779563 
0 -29.471202111 -54.941514667 0 -29.072805971 -58.164645647 0 -29.446038657 -63.792811764 
0 -27.975419542 -71.774183786 0 -28.710853606 -75.027241703 0 -27.987223734 -77.784627305 
0 -27.84577544 -80.121214992 0 -27.629176839 -82.65967108 0 -27.426694895 -85.403242344 
0 -27.323561671 -86.79745477 0 -27.193785399 -88.679100007 0 -27.106061411 -90.451432945 
0 -26.943894561 -92.310818593 0 -26.765832933 -94.027752313 0 -26.872983486 -95.65915856 
0 -26.915028138 -96.706374682 0 -26.71674667 -97.029842888 0 -26.487814017 -97.55901925 
0 -26.475164632 -98.072407388 0 -26.335151042 -97.757087345 0 -26.531737141 -96.695789692 
0 -26.547685322 -95.609443348 0 -26.710975826 -94.49599158 0 -26.762627877 -93.252004129 
0 -26.968002605 -91.656187618 0 -27.10883887 -89.885811772 0 -27.328650934 -87.759464238 
0 -27.670694802 -85.201009021 0 -27.725707178 -82.820238502 0 -27.307477618 -81.402474883 
0 -28.350366322 -73.219367051 0 -28.573450818 -70.870538476 0 -28.79048289 -68.315907932 
0 -27.987824326 -60.351631399 0 -28.540976257 -51.680220363 0 -29.508382678 -46.551712835 
0 -29.42268293 -43.642559687 0 -30.242084074 -34.190115155 0 -30.766530616 -31.447605575 
0 -31.035281936 -29.887399123 0 -30.762352357 -29.277162764 0 -31.190645151 -27.74021144 
0 -30.398174603 -27.216825469 0 -30.470628803 -30.454508645 0 -29.99993133 -35.343543093 
0 -29.722462812 -40.492843842 0 -29.872069449 -44.40181725 0 -29.821932673 -47.193153675 
0 -29.206059992 -48.885265725 0 -29.106136813 -53.055891709 0 -28.23468208 -61.608559876 
0 -27.838588014 -63.424375949 0 -27.15789307 -74.728156687 0 -25.833068351 -89.857959903 
0 -25.549861974 -91.744651742 0 -25.528248156 -93.832719429 0 -25.221610566 -95.286172449 
0 -25.778068575 -97.108917102 0 -26.12917259 -86.541053796 0 -26.160265533 -83.824742067 
0 -27.068329139 -78.748470155 0 -27.155830207 -75.816683003 0 -27.962352786 -56.941887723 
0 -27.656495841 -54.015059838 0 -28.254716405 -49.004347237 0 -29.330529219 -39.077149761 
0 -29.225009361 -36.670260207 0 -29.735231284 -31.021721265 0 -29.927131133 -29.485386442 
0 -30.156897999 -28.115263804 0 -29.743876401 -27.8222531 0 -30.35214728 -26.996208873 
0 -30.335370095 -27.613520708 0 -30.225803634 -28.112544379 0 -29.725909225 -29.386479867 
0 -29.839553773 -32.496806582 0 -29.058096857 -38.392115041 0 -28.560130094 -46.023722105 
0 -28.298565323 -49.47234115 0 -28.164581564 -53.496972034 0 -28.019578578 -55.862000808 
0 -27.448073153 -59.338673149 0 -27.441099005 -66.451388557 0 -27.035755069 -69.481519953 
0 -26.665823028 -71.336340617 0 -26.368626198 -74.669726063 0 -26.287831232 -77.56110928 
0 -26.107673839 -80.530806247 0 -25.892213729 -83.543300015 0 -25.834730935 -86.175081843 
0 -25.248365172 -87.707184997 0 -24.947261721 -96.080638477 0 -24.894802876 -96.717126025 
0 -24.928254655 -96.963547341 0 -24.879503427 -97.13117109 0 -24.833434755 -96.972025074 
0 -24.867365234 -96.4686746 0 -24.832346487 -95.647527683 0 -25.030075666 -93.315608321 
0 -25.109940098 -91.572165064 0 -25.363698441 -89.894656056 0 -25.221706829 -88.527948736 
0 -25.7384385 -80.521204243 0 -26.703691405 -72.772023634 0 -26.908859642 -70.050937219 
0 -27.041323182 -68.520165913 0 -27.467989391 -65.592010497 0 -26.64098665 -59.791735269 
0 -28.13829363 -45.975017405 0 -28.624382333 -42.914721231 0 -28.473119553 -41.318982569 
0 -29.020047904 -34.323419095 0 -28.852243867 -33.16180649 0 -29.27779466 -30.972954622 
0 -28.936365429 -31.857153519 0 -29.222193378 -34.388417196 0 -29.153723871 -36.168687865 
0 -28.778692507 -37.412430937 0 -28.351700557 -41.363864563 0 -27.944034015 -43.320918585 
0 -26.639100455 -63.259793131 0 -25.964824148 -67.152503532 0 -24.462628596 -85.584635901 
0 -24.480508079 -89.081502917 0 -24.464825697 -91.633317611 0 -24.280945615 -93.517967143 
0 -24.323623613 -94.029351384 0 -24.514577429 -92.110064258 0 -25.03217548 -85.615865144 
0 -25.465556855 -83.060849207 0 -25.296207593 -81.683617973 0 -25.576292923 -77.341902558 
0 -25.480461268 -75.410570811 0 -26.339133062 -64.4029909 0 -26.431116233 -56.654290107 
0 -26.672972507 -53.792639136 0 -26.889178964 -50.770713053 0 -26.956861557 -47.564104621 
0 -27.160878408 -44.181268187 0 -27.521645488 -41.378598552 0 -27.787558606 -38.836741208 
0 -27.858472064 -36.388369234 0 -28.098083183 -33.225596772 0 -28.462318397 -31.05002131 
0 -28.569908261 -29.49691921 0 -28.618376063 -28.529611431 0 -28.70074787 -28.058622917 
0 -28.721927889 -27.993343298 0 -28.67211323 -28.317702987 0 -28.495875289 -29.107596746 
0 -28.183777152 -30.595988629 0 -28.16066103 -32.320315323 0 -28.04874558 -34.118546573 
0 -27.805210149 -36.030457704 0 -27.715885571 -38.225712637 0 -27.4076109 -40.031550407 
0 -27.068281415 -48.101631669 0 -26.761775324 -52.303763537 0 -26.482393162 -55.968387346 
0 -26.067328786 -59.448368081 0 -25.508069246 -63.28162074 0 -25.256063189 -71.5294101 
0 -24.973580854 -74.682983711 0 -24.774478614 -77.68742133 0 -24.559159886 -80.685949983 
0 -24.083765997 -83.202552309 0 -23.746785897 -87.041992206 0 -23.795432169 -90.301056829 
0 -23.380858535 -91.705643624 0 -23.503321602 -93.448688504 0 -23.562204659 -94.226353276 
0 -22.988309124 -94.623610987 0 -23.408064038 -95.808812213 0 -23.476592945 -95.958354757 
0 -23.400167448 -95.604243669 0 -23.409119789 -95.11303535 0 -23.384192014 -94.211123217 
0 -23.458959888 -92.898694632 0 -23.569533527 -91.225936104 0 -23.916031135 -86.677878887 
0 -24.057732172 -83.707803528 0 -24.370318315 -80.895277234 0 -24.392136418 -78.883481127 
0 -25.198712726 -71.881575235 0 -25.230174664 -68.130514448 0 -25.510717005 -61.045294814 
0 -25.413510315 -59.254037765 0 -26.577383869 -43.513105054 0 -24.795636992 -66.706071299 
0 -23.146223844 -85.019991371 0 -23.219979784 -87.832007213 0 -22.308783971 -94.623943467 
0 -23.226932729 -89.670945613 0 -24.195516849 -75.183229793 0 -25.210000545 -64.360648732 
0 -24.792240933 -59.174807536 0 -25.13499467 -56.038256093 0 -25.384847906 -52.888212562 
0 -25.633591592 -49.707182002 0 -25.878253157 -46.566945713 0 -26.133676126 -43.591083875 
0 -26.333546289 -41.148892988 0 -26.565415266 -38.180061139 0 -26.65561878 -36.930075764 
0 -26.774660762 -35.021894736 0 -26.955303223 -33.139840443 0 -27.106907988 -31.52298038 
0 -27.152593273 -30.112554503 0 -27.22239134 -29.403150074 0 -27.283847 -29.187768865 
0 -27.270319934 -29.209701977 0 -27.226162068 -29.594564191 0 -27.110067267 -30.509165721 
0 -26.942237588 -32.280962416 0 -26.863471488 -34.005154879 0 -26.739679949 -35.693983428 
0 -26.570540693 -37.659909426 0 -26.15294811 -41.116898624 0 -25.963995364 -44.150745678 
0 -25.822227662 -47.26402633 0 -25.581415468 -50.562804718 0 -25.321297857 -53.722142811 
0 -25.064209545 -56.840851588 0 -24.796942228 -60.242380023 0 -24.398823746 -63.829359913 
0 -24.171003283 -66.961178861 0 -24.101806642 -69.593662163 0 -23.861728509 -72.478823201 
0 -23.634904626 -75.681861796 0 -23.509515821 -77.458702427 0 -23.297397561 -80.106671384 
0 -22.796140372 -82.436435049 0 -22.687670375 -87.131659325 0 -22.50598506 -89.284670391 
0 -22.321157898 -91.598830926 0 -22.208434087 -92.954953959 0 -22.213053857 -93.813156263 
0 -22.222614716 -94.323299545 0 -22.167621206 -94.066613688 0 -22.219899524 -93.4276085 
0 -22.295249963 -92.344252233 0 -22.335453752 -90.822218125 0 -22.51252122 -88.988796071 
0 -22.713164376 -86.985344157 0 -22.905418079 -84.553705084 0 -23.130511551 -81.748227638 
0 -23.325443967 -78.502331449 0 -23.701966169 -73.861081546 0 -23.941368332 -71.504223962 
0 -24.126507106 -67.585286808 0 -24.39751607 -62.707338828 0 -24.03026501 -64.143279124 
0 -23.864360267 -66.234776859 0 -23.68381959 -70.122020015 0 -23.245275557 -75.041902376 
0 -23.07074853 -77.286183399 0 -22.880450638 -80.485819288 0 -22.662880696 -83.342667248 
0 -22.451956233 -85.849020275 0 -22.290097064 -87.904108568 0 -22.072842147 -89.724322016 
0 -21.988341871 -91.330748495 0 -21.926277897 -92.58969845 0 -21.85105368 -93.355701791 
0 -21.887576209 -93.915437045 0 -21.867900738 -93.997800109 0 -21.887954654 -93.619751293 
0 -21.848287699 -92.953487408 0 -21.950254134 -92.035313596 0 -22.046678419 -90.473579018 
0 -22.123275095 -89.422400626 0 -22.323602982 -87.628014575 0 -22.541546218 -85.402325848 
0 -22.862902374 -80.726000372 0 -23.103824831 -78.033490987 0 -23.384529053 -73.975145372 
0 -23.637165191 -70.695167185 0 -23.840420357 -68.020587561 0 -23.919457963 -65.37028985 
0 -24.290294384 -62.070620036 0 -24.583247953 -58.547089456 0 -24.834957132 -55.244878209 
0 -25.097278246 -52.15924459 0 -25.324577909 -48.924499491 0 -25.598171476 -45.715110741 
0 -25.692569785 -42.785652576 0 -26.024468383 -39.977603441 0 -26.148884575 -38.614789142 
0 -26.3132315 -36.635215986 0 -26.428005693 -35.109307447 0 -26.531924535 -33.512628794 
0 -26.605027205 -31.986309714 0 -26.677963467 -31.252432502 0 -26.835184063 -30.225932808 
0 -26.870025487 -29.69364567 0 -26.904819359 -29.547898127 0 -26.793070208 -30.050267244 
0 -26.770946864 -30.895254149 0 -26.739819471 -31.542972429 0 -26.638466444 -32.883507181 
0 -26.470068143 -34.60611512 0 -26.324021858 -36.510178335 0 -26.112592105 -39.148406137 
0 -25.994961577 -40.621914005 0 -25.844201953 -42.943619825 0 -25.611305361 -45.587840751 
0 -25.364170945 -48.681521344 0 -25.129578173 -51.670884305 0 -24.867917794 -54.818028732 
0 -24.648095891 -57.779353863 0 -24.297374825 -60.890463394 0 -24.989588868 -62.78294002 
0 -24.790425672 -66.57959973 0 -22.003208381 -94.285595712 0 -22.286349889 -94.661472434 
0 -23.301034689 -83.553096184 0 -24.946317314 -64.517777458 0 -26.71895854 -41.344687525 
0 -27.900403387 -30.013547959 0 -24.82380484 -70.518405473 0 -24.809826898 -74.189541972 
0 -23.993521673 -77.580198673 0 -23.843415676 -81.864797453 0 -23.587365428 -84.802271549 
0 -23.495291928 -87.565636304 0 -23.786636125 -89.166550258 0 -23.117733623 -91.64168267 
0 -22.983588109 -93.092733825 0 -22.989475495 -94.300551675 0 -22.956111343 -94.951004071 
0 -23.032885072 -95.428359709 0 -23.035633351 -95.529815237 0 -23.013494555 -95.265968846 
0 -22.970253929 -93.990779161 0 -22.974959335 -92.206272534 0 -23.132863199 -90.41133808 
0 -23.763653102 -89.182058112 0 -23.819154114 -85.959309842 0 -24.013366866 -81.466562185 
0 -24.248881571 -78.751270621 0 -24.43226432 -75.843439824 0 -24.653420616 -73.025083513 
0 -24.929012532 -69.881644766 0 -25.292259956 -68.053462603 0 -25.467223523 -60.764963181 
0 -25.878009083 -57.219547054 0 -26.154934349 -54.066956481 0 -26.412276055 -50.362509995 
0 -26.735070581 -46.641453232 0 -27.124402901 -44.454897018 0 -27.320409601 -37.444674856 
0 -27.481789689 -35.304459716 0 -27.742101636 -33.403917716 0 -27.692343935 -31.689886108 
0 -28.096517174 -28.971845892 0 -28.202052571 -28.456477594 0 -28.169222893 -28.386438419 
0 -28.152415243 -28.638160619 0 -28.047875225 -29.356888144 0 -28.035222864 -30.553898335 
0 -27.8508403 -32.275436618 0 -27.507138724 -34.505780212 0 -27.428387735 -35.789213541 
0 -27.394214433 -37.985873277 0 -27.216408905 -40.32140278 0 -26.928257045 -42.853552811 
0 -26.633245285 -45.897904214 0 -26.471290077 -49.258806778 0 -26.306750212 -52.436416534 
0 -26.018147077 -55.464662526 0 -26.107596358 -58.258380065 0 -26.066295446 -63.297558209 
0 -25.922587153 -67.016996141 0 -25.145725063 -78.601864264 0 -24.753984073 -84.115514542 
0 -24.664589286 -87.083761467 0 -23.454089759 -95.372875319 0 -24.134289748 -92.438241962 
0 -24.428782906 -87.802106719 0 -24.572429635 -84.294773555 0 -26.029953116 -64.56895551 
0 -26.717321849 -60.655863261 0 -28.1483001 -40.23651007 0 -28.575717482 -35.567752414 
0 -29.018641935 -33.665209343 0 -28.993523477 -30.342218947 0 -28.644047484 -35.681305115 
0 -27.90552963 -44.302052592 0 -27.71725868 -47.520433408 0 -26.261371259 -61.354892215 
0 -27.228899197 -63.925524544 0 -26.691919925 -67.415370782 0 -26.241951781 -71.422830158 
0 -26.331086719 -74.451797551 0 -24.724599592 -90.183641554 0 -24.946109417 -94.120517747 
0 -24.268584717 -94.853912202 0 -24.367598077 -95.817222373 0 -24.35294305 -96.417727175 
0 -24.324367026 -96.688536616 0 -24.404160033 -96.679986206 0 -24.373192453 -96.066877871 
0 -24.5626589 -95.332900369 0 -25.209842646 -86.572396543 0 -25.385866173 -84.546771698 
0 -25.475981159 -81.622452624 0 -25.71644961 -78.530454315 0 -25.88717677 -75.557620183 
0 -26.057672855 -72.299416178 0 -26.773118433 -67.895871109 0 -27.241952059 -64.398858601 
0 -27.40246417 -56.880018261 0 -27.734627208 -51.819262578 0 -27.981718799 -47.695963782 
0 -28.561071293 -44.246159547 0 -29.68565403 -31.858858428 0 -29.511634802 -28.734298336 
0 -29.800257519 -27.637109756 0 -29.784593253 -27.317090572 0 -29.821006892 -27.344646098 
0 -29.553430697 -28.962653201 0 -29.37070423 -30.515775427 0 -29.506118965 -32.094915644 
0 -28.832778115 -38.228192256 0 -29.185921917 -40.459914618 0 -27.912208169 -50.559924725 
0 -27.478492492 -55.91518333 0 -27.448366818 -59.214349703 0 -27.875134479 -62.394216603 
0 -26.72561756 -77.62483864 0 -26.51171794 -80.384874051 0 -25.823925399 -85.417548797 
0 -25.894540215 -88.183557412 0 -24.998780338 -94.248903995 0 -25.140949382 -92.296858226 
0 -25.29292455 -90.218202699 0 -25.840234146 -88.626338399 0 -27.326845158 -72.667590433 
0 -28.216657603 -59.958209609 0 -29.492849299 -46.107987423 0 -29.284384028 -43.189977345 
0 -29.25502577 -41.438582717 0 -29.728934356 -38.573730659 0 -30.04488514 -34.202765135 
0 -30.027083261 -30.974659531 0 -30.45372595 -29.497064656 0 -30.392862224 -27.099631636 
0 -30.564587766 -30.601568639 0 -30.152314425 -32.389211314 0 -29.883133705 -33.685049994 
0 -29.959960151 -35.817439349 0 -29.060071306 -45.598504367 0 -29.124062727 -48.412139702 
0 -28.409802204 -53.253413953 0 -28.940327305 -62.700482737 0 -28.449901085 -65.758562048 
0 -28.2764348 -67.436046761 0 -28.078543835 -69.983279103 0 -27.865506248 -72.287390068 
0 -28.013294967 -75.068886068 0 -27.18242527 -83.728944261 0 -26.953782257 -86.420311827 
0 -26.685926163 -88.786252083 0 -26.459444533 -90.649824421 0 -26.257597018 -92.289542763 
0 -26.130469193 -93.740170494 0 -26.019603222 -94.908257584 0 -25.927122823 -96.020121551 
0 -26.346975556 -97.145400375 0 -25.904939407 -97.671142741 0 -25.95879638 -97.815924195 
0 -25.984302536 -97.652856323 0 -25.950850756 -97.406435007 0 -26.005835404 -96.883470874 
0 -26.341019528 -95.995428542 0 -26.283042342 -94.533717901 0 -26.419951339 -92.774547357 
0 -26.613948997 -90.920680182 0 -26.693797702 -89.037700655 0 -26.775061269 -87.180963241 
0 -26.977402585 -83.999502689 0 -27.175680663 -81.111822029 0 -27.349150238 -78.570854175 
0 -27.789361192 -75.897467472 0 -27.963344547 -69.908883939 0 -28.428820909 -66.461937635 
0 -28.593778524 -64.745599801 0 -29.305122595 -61.797869275 0 -28.92133593 -56.527091734 
0 -29.882448398 -49.811473413 0 -30.5729405 -40.692939637 0 -30.653937508 -37.890610705 
0 -30.860389368 -35.493860841 0 -31.010258087 -33.494743641 0 -31.008478163 -32.511992942 
0 -31.344671855 -30.3674995 0 -31.3454662 -28.959230703 0 -31.364248444 -27.879286345 
0 -31.521536775 -27.12528841 0 -31.478778133 -26.632138115 0 -31.571093345 -26.459157371 
0 -31.536879543 -26.730066071 0 -31.56690725 -28.587844134 0 -31.132769158 -33.162826775 
0 -30.814705223 -35.95414818 0 -30.497147871 -38.380336951 0 -30.319740176 -40.595209097 
0 -30.359532743 -43.076649944 0 -29.641875179 -51.044064843 0 -29.610526669 -53.47127016 
0 -29.129577221 -55.96510998 0 -29.156974817 -59.787714824 0 -29.276003716 -64.398342229 
0 -28.194982107 -78.774814325 0 -28.261829954 -80.358861452 0 -26.539500867 -98.054048293 
0 -28.727959868 -72.964524272 0 -28.852294334 -69.157761155 0 -29.129695556 -67.465041032 
0 -30.075627111 -58.310953053 0 -30.430480352 -54.976010413 0 -30.763845341 -52.052259642 
0 -30.901630569 -47.085998095 0 -32.178657897 -26.320835199 0 -32.262508922 -31.022009705 
0 -31.279356108 -45.99757867 0 -30.730786344 -48.30935425 0 -30.242960246 -64.612355268 
0 -30.022847122 -67.686135064 0 -29.665430227 -70.302809111 0 -29.423669416 -72.953961164 
0 -29.00200109 -75.827904435 0 -29.152148398 -77.496368717 0 -29.065778742 -81.027356081 
0 -28.819107814 -82.648083868 0 -28.579918961 -85.512068028 0 -28.542954555 -87.981888593 
0 -28.158990881 -89.726717545 0 -28.105326522 -91.786855819 0 -28.076156066 -93.457920576 
0 -28.01443319 -94.646066978 0 -27.65872389 -95.715962757 0 -27.56333461 -96.855902902 
0 -28.095656631 -97.817538865 0 -27.332791026 -98.23900049 0 -27.558968021 -98.567343791 
0 -27.481928381 -98.483884618 0 -27.596759175 -98.204877042 0 -27.623334553 -97.684623809 
0 -27.699393731 -94.55540923 0 -27.912570311 -92.937087807 0 -27.955217323 -91.059630403 
0 -28.302608991 -89.440424671 0 -28.255587939 -87.697475865 0 -28.513829666 -85.508533138 
0 -28.634070339 -82.917218862 0 -28.900420627 -80.247076246 0 -29.003325299 -78.816486962 
0 -29.715249907 -76.217428319 0 -30.991210452 -53.654851467 0 -31.961204869 -49.225235578 
0 -31.521581887 -44.327886976 0 -31.885522233 -41.625982535 0 -32.110568675 -39.169208238 
0 -32.247367417 -36.911708289 0 -32.572240312 -34.551854183 0 -32.732915457 -32.239720797 
0 -32.782557507 -30.572864788 0 -32.964623244 -29.225026088 0 -32.958539486 -27.997657197 
0 -33.081393258 -27.096917208 0 -33.340276009 -26.386775415 0 -33.155693029 -26.032409768 
0 -33.24120574 -26.014852767 0 -33.118690869 -26.314996082 0 -33.180351642 -26.819339189 
0 -33.141175076 -27.445583089 0 -33.472471525 -28.305614125 0 -32.830690272 -32.772676765 
0 -32.745262502 -34.423422842 0 -32.540970661 -36.278944209 0 -32.09601764 -39.262475194 
0 -32.017511581 -40.989116923 0 -32.128446192 -44.000606758 0 -31.274126124 -51.083050371 
0 -30.763397288 -55.747377913 0 -30.939159005 -58.296071948 0 -31.283005596 -63.11021058 
0 -31.573209842 -65.626090944 0 -30.968667152 -71.304234172 0 -30.742963056 -74.133584912 
0 -30.293209805 -77.092469646 0 -30.058822645 -80.515815834 0 -29.697852865 -83.105232501 
0 -29.593853525 -84.444795131 0 -30.067534745 -86.853243074 0 -29.564519776 -90.539466123 
0 -29.005480496 -96.188755185 0 -29.187044281 -97.365573709 0 -28.68504239 -98.477443707 
0 -28.86562433 -98.884785812 0 -28.902809611 -99.026234597 0 -28.925553262 -98.923648774 
0 -28.537517615 -97.817326136 0 -28.302439522 -97.344350486 0 -28.833514914 -96.671214308 
0 -29.265616924 -94.196861667 0 -29.551542413 -90.990246653 0 -29.824689443 -87.078330065 
0 -30.133611751 -81.834886229 0 -30.502406946 -73.024227243 0 -31.151031287 -71.733660138 
0 -31.379747584 -67.170873101 0 -31.38360605 -61.497220223 0 -31.662066758 -60.140060085 
0 -32.011300595 -56.66109756 0 -32.080441484 -53.697306204 0 -32.570516071 -52.045332719 
0 -32.875347889 -48.688889525 0 -32.885550165 -45.866466966 0 -33.193256264 -43.222308864 
0 -33.371162032 -40.788054453 0 -33.498659126 -38.57947335 0 -33.763440144 -36.372484918 
0 -34.340501281 -29.726230665 0 -34.428308386 -27.400108828 0 -34.746107219 -26.540509021 
0 -34.60114822 -25.744280053 0 -34.751874856 -26.120442454 0 -33.926659742 -29.557076822 
0 -34.291754034 -31.103797814 0 -32.990769574 -44.469880733 0 -32.446530684 -48.789879671 
0 -32.167973135 -51.696696013 0 -32.030432608 -53.283040972 0 -32.305975068 -55.783822882 
0 -31.125676 -61.54163601 0 -29.929323708 -92.50088749 0 -30.13483786 -92.749934082 
0 -32.744862181 -57.994192639 0 -34.716134305 -34.329808472 0 -35.048329102 -28.413888926 
0 -35.337482178 -25.765608957 0 -34.516185375 -37.696877577 0 -33.541002027 -47.250698968 
0 -33.026353994 -63.071871996 0 -33.402406463 -64.636428809 0 -33.297969807 -65.96342233 
0 -32.866254889 -71.433249577 0 -32.29995767 -72.378672202 0 -32.496994742 -75.983295536 
0 -32.398475372 -77.235102823 0 -31.762507762 -79.148890372 0 -32.090951386 -81.596039622 
0 -31.858736578 -84.054566357 0 -31.75222258 -86.073413536 0 -31.67266159 -87.084331768 
0 -30.96214772 -87.595084851 0 -31.293899536 -89.070135995 0 -31.354164569 -90.78858791 
0 -31.10559814 -91.490964431 0 -30.882287259 -93.644432102 0 -30.162999225 -94.108351451 
0 -30.932834222 -95.990090952 0 -30.891039951 -96.534171737 0 -30.58301728 -98.181287803 
0 -30.077354985 -98.349906296 0 -30.678101306 -99.115683085 0 -30.668313707 -99.240046321 
0 -30.681127777 -99.290663638 0 -30.280989646 -99.092677321 0 -30.785369481 -98.766581277 
0 -30.82228906 -97.422143571 0 -30.858540207 -96.961529074 0 -31.042592844 -94.645932148 
0 -30.889756376 -93.959215187 0 -31.257961474 -92.008367468 0 -31.322976465 -91.182273681 
0 -31.61451348 -87.415981168 0 -31.264545726 -86.310950521 0 -31.915111581 -84.142277595 
0 -32.009938103 -82.280436684 0 -32.185241111 -79.956746037 0 -32.195718125 -77.669385588 
0 -31.795484278 -76.61436746 0 -32.560130974 -75.357850378 0 -32.732145712 -73.155521255 
0 -32.197487138 -71.949855195 0 -33.101050198 -68.575346765 0 -33.207455116 -67.2233441 
0 -33.646750998 -61.684354705 0 -33.537487697 -60.537798981 0 -34.052873671 -56.918896919 
0 -34.157111929 -55.594424275 0 -34.301271409 -52.760570725 0 -34.32816459 -50.419582776 
0 -34.856499075 -46.16814398 0 -35.20515437 -41.72986112 0 -35.29463724 -40.612424795 
0 -35.630179773 -36.509945774 0 -35.486620487 -35.716272294 0 -35.874030434 -33.355879294 
0 -35.936914457 -32.55686203 0 -36.165255382 -29.699836951 0 -35.883636189 -29.207344368 
0 -36.403448678 -28.593536384 0 -36.278012936 -27.780853078 0 -36.310640825 -27.366276435 
0 -36.387193495 -26.579447591 0 -36.201524318 -26.127379637 0 -35.730852094 -25.96670405 
0 -36.471591421 -25.673816761 0 -36.256738911 -25.656100072 0 -36.456036714 -25.869396 
0 -36.442713974 -26.047231174 0 -36.116599606 -27.137791586 0 -36.21404826 -28.872207998 
0 -36.164101633 -29.452182862 0 -36.038065734 -30.885754181 0 -35.764948382 -32.219367465 
0 -35.026046846 -32.866768768 0 -35.480256723 -35.234037592 0 -35.205980932 -36.130805475 
0 -35.463454926 -38.663364392 0 -35.381865613 -39.700054901 0 -35.017907978 -44.29822664 
0 -34.743448305 -45.276020024 0 -34.674844072 -48.638631989 0 -34.570641593 -49.904123274 
0 -34.14935984 -55.034262541 0 -33.610297944 -56.441036991 0 -33.979609666 -58.019478473 
0 -33.875347666 -59.344252786 0 28.244788695 -57.53479526 0 28.152269667 -57.36136323 
0 28.115110772 -57.184597832 0 28.102295602 -56.6518303 0 28.108310092 -56.377956718 
0 28.143480113 -56.217164167 0 28.086233348 -55.815885371 0 28.001536107 -55.613723792 
0 28.04668622 -55.244885387 0 27.968157045 -55.144415579 0 27.953134866 -54.984853392 
0 27.941521541 -54.93735273 0 27.888510289 -54.899263236 0 27.909271734 -54.864306155 
0 27.972955483 -54.82844934 0 27.934450514 -54.839971405 0 27.224280185 -54.932190587 
0 27.975149521 -54.915210385 0 27.95377983 -54.960246471 0 27.937173776 -55.015900925 
0 27.932839646 -55.075223763 0 27.442778887 -55.346394868 0 27.471129394 -55.444957518 
0 26.796940467 -55.725176375 0 28.049041295 -55.713963699 0 28.086446124 -55.830579419 
0 28.106106547 -56.0607356 0 28.110325861 -56.216227904 0 28.085824932 -56.650067232 
0 28.130268148 -56.926478605 0 27.411039876 -57.231918108 0 28.160601054 -57.3563053 
0 28.145321098 -57.537512856 0 28.13098878 -57.721558414 0 28.279658987 -58.229638794 
0 28.315485282 -58.364345376 0 28.290612365 -58.515895255 0 28.303815893 -58.686780522 
0 28.349563855 -58.837539326 0 27.682330041 -59.151524991 0 28.410471211 -59.414412503 
0 28.426470538 -59.553130332 0 28.386142596 -59.678717869 0 28.312723098 -60.035090552 
0 28.607523902 -60.095130596 0 28.570011263 -60.300875054 0 28.351918716 -60.392325513 
0 28.364630154 -60.436022421 0 28.347510819 -60.47915979 0 27.67971365 -60.540717252 
0 28.478006717 -60.471202635 0 28.461356611 -60.459751496 0 28.452629674 -60.401804077 
0 27.692182803 -60.401453092 0 28.35694794 -60.26133813 0 28.383876371 -60.185611753 
0 28.374200069 -59.963289408 0 28.350762249 -59.868201583 0 28.336281546 -59.780066938 
0 28.261846846 -59.678632625 0 27.541668546 -59.557285802 0 28.277845656 -59.31385858 
0 28.330179159 -59.171498476 0 28.291674129 -58.916136272 0 27.537402457 -58.787584807 
0 28.229412997 -58.482354765 0 28.209309169 -58.320123971 0 28.219748315 -57.718063035 
0 25.540326322 -57.178334718 0 25.525880341 -56.172529996 0 25.432909652 -55.530516622 
0 25.346408301 -55.161100483 0 25.278500567 -54.944629047 0 25.335717453 -54.975287355 
0 25.960781882 -56.516226205 0 25.639940412 -57.366500275 0 25.795177499 -58.219138149 
0 26.108628608 -59.435842411 0 25.794023094 -60.238726306 0 25.768356507 -60.65318493 
0 25.839607372 -60.759860965 0 25.933527379 -60.530842056 0 25.836846561 -60.317130926 
0 25.820673192 -59.774584487 0 26.160059405 -59.011717545 0 25.681956472 -58.214039265 
0 23.09192293 -55.392024971 0 23.559461494 -56.036211626 0 23.010710002 -56.889228357 
0 23.171666743 -58.721082176 0 23.421239371 -59.496794277 0 23.144392315 -59.72502153 
0 22.011570638 -56.939258862 0 21.917738202 -56.072847727 0 21.745021672 -55.504919975 
0 21.765449978 -55.071750006 0 22.123324752 -55.018851801 0 21.406647472 -55.163495183 
0 21.75537133 -57.39454383 0 22.616987067 -57.89014152 0 22.763439176 -60.484154678 
0 22.527831389 -61.106085152 0 22.689245708 -61.250983401 0 22.483866929 -60.990411127 
0 22.64712593 -60.466737625 0 21.730037399 -60.160854365 0 21.635502404 -59.122397569 
0 22.385257582 -58.041788785 0 18.92841894 -57.37385267 0 18.649881073 -54.80775474 
0 19.246027476 -55.087035816 0 19.666219404 -55.565547574 0 20.108888972 -56.278813514 
0 19.969554895 -57.277098022 0 20.063281545 -58.843645866 0 20.275120299 -59.457702086 
0 20.106212258 -60.447145146 0 19.913976293 -61.300382734 0 19.56839065 -61.886441697 
0 19.496424095 -61.899855934 0 19.23106606 -61.661214412 0 19.705191275 -60.381630131 
0 19.622148479 -59.509956144 0 19.616239605 -58.513596065 0 16.666706137 -58.185950582 
0 17.846155775 -56.409814535 0 17.656851181 -55.743790247 0 17.610640695 -55.184684498 
0 18.075327389 -54.751092851 0 16.513259462 -55.608927953 0 17.120240074 -56.642412675 
0 17.1286067 -57.797199756 0 17.195049081 -58.941624853 0 17.285152577 -60.133416457 
0 17.400632623 -61.216219787 0 16.951487248 -62.162369843 0 17.445480976 -61.801804865 
0 17.548140757 -61.364420323 0 16.651380791 -59.455003204 0 14.824404177 -57.745582716 
0 14.403302572 -54.656265578 0 14.815344284 -54.381009539 0 15.133937131 -54.391139188 
0 15.817507855 -54.690627715 0 15.90985384 -54.922844412 0 16.430546982 -62.690879947 
0 16.406683183 -62.728715477 0 16.366902463 -62.603231839 0 15.19248305 -62.451349747 
0 15.655372829 -61.33489007 0 16.407582135 -60.599163721 0 13.117075654 -58.177241464 
0 13.165751246 -56.569645124 0 13.862811163 -55.686026707 0 13.736556984 -55.272907085 
0 12.937957781 -54.603625348 0 12.740568045 -54.19696405 0 13.246982851 -54.792290368 
0 13.718623398 -55.788066717 0 14.026773204 -57.73135395 0 14.031045803 -58.603985882 
0 14.114834268 -59.866996673 0 13.883586314 -61.345241838 0 13.956535711 -62.412982591 
0 13.60990739 -63.397376871 0 13.414231781 -63.701069519 0 13.09768576 -62.841324531 
0 13.51381697 -61.822115115 0 13.085685393 -60.815518598 0 13.455530729 -59.593324878 
0 11.153570207 -57.901864695 0 11.025353782 -56.57472263 0 10.655763081 -55.489363655 
0 10.440399617 -54.468083606 0 11.193877693 -54.097882425 0 11.561500398 -53.940782608 
0 11.680745472 -53.809141499 0 11.341602521 -53.825809383 0 10.581190325 -54.164903503 
0 10.988319544 -54.933394003 0 11.098877345 -56.062790493 0 11.095411761 -57.587547785 
0 11.302208888 -59.154646747 0 10.646742668 -60.560411553 0 10.629430653 -63.643651326 
0 10.646592383 -64.641117977 0 11.222489531 -63.592035332 0 10.520585575 -59.363098627 
0 8.0688286857 -53.444510961 0 8.2998914366 -53.112261282 0 8.3452144635 -53.058556017 
0 8.2096344554 -54.431019943 0 8.5546936091 -55.562048152 0 8.7012336191 -58.485083265 
0 8.5213048221 -59.975844614 0 9.3317200308 -61.271203239 0 10.124687617 -61.686411096 
0 10.310221556 -62.787771273 0 9.1930912863 -64.463605329 0 10.041596729 -64.50142556 
0 9.2719358395 -65.289076405 0 9.9472068834 -64.981595143 0 9.9599627738 -64.76529958 
0 9.3127444301 -63.988967294 0 9.7034772064 -63.076584239 0 10.15760032 -61.845424038 
0 9.9970677255 -60.672236627 0 9.1641376503 -60.000318867 0 7.2940728771 -58.472208129 
0 7.3833332013 -57.030809429 0 7.531736583 -55.503139792 0 7.4342342951 -54.585605523 
0 7.307648719 -53.829728806 0 6.3679735052 -53.069293394 0 6.1422748401 -52.663945563 
0 7.0030310507 -53.265560863 0 6.84101162 -57.095682038 0 6.9100549182 -60.680465091 
0 7.2464435248 -61.808550456 0 7.0868150844 -63.083564971 0 7.4875655471 -64.30273605 
0 7.6352358059 -65.672333463 0 7.8168832393 -65.16633862 0 7.065022196 -61.300239181 
0 7.3592432724 -59.916042027 0 4.4468123528 -59.486641239 0 3.8751975239 -55.023527071 
0 4.491357359 -54.151137236 0 4.3579484936 -53.23178265 0 4.3928405065 -52.243602725 
0 4.9804981724 -52.25349646 0 4.7840016637 -52.075107872 0 4.1465425592 -51.975562186 
0 4.0099865834 -52.797046831 0 4.7148242449 -53.762773963 0 5.1092943417 -54.915790634 
0 5.2071499095 -55.90588705 0 5.1104793698 -57.898018905 0 5.9600108853 -59.387224209 
0 5.309557675 -65.973027731 0 5.7149677304 -66.446922739 0 5.857131462 -66.755849819 
0 6.3629097327 -66.642600181 0 6.315032638 -66.619760584 0 6.3476998169 -66.292369058 
0 6.0988577853 -66.11605716 0 6.1096586085 -65.29553334 0 5.8388103391 -64.444632886 
0 5.1113933167 -63.474382135 0 4.5614896674 -60.467979844 0 3.1187545036 -59.093060303 
0 3.6744369219 -57.640006396 0 3.3354488881 -56.360336695 0 2.1960326795 -54.957871634 
0 2.5699520541 -52.048124843 0 2.5603603563 -51.702861384 0 2.1508077338 -51.410640712 
0 3.2812000235 -52.10195181 0 3.0229903885 -56.744575058 0 3.3978511867 -57.509001353 
0 2.9062197257 -58.940003497 0 3.7309886275 -60.905788426 0 4.0722483798 -62.24802875 
0 3.8054948181 -63.578496444 0 3.8163560642 -64.732891528 0 3.8619480092 -65.73534634 
0 3.5652951257 -68.108827486 0 3.5222112529 -67.904612715 0 3.856196773 -66.814093612 
0 3.451198666 -65.852983423 0 3.713654529 -61.940133323 0 1.6254576445 -59.647942692 
0 0.87321831481 -58.2471759 0 1.1523145796 -53.370848561 0 0.98100641709 -52.306969317 
0 0.60876344813 -51.373495108 0 0.88937312533 -50.996430189 0 1.1080331489 -50.807954561 
0 1.1515460691 -50.812026291 0 0.56525320161 -50.732333011 0 0.67662331441 -51.609278808 
0 0.97489805696 -52.548210173 0 1.3818145573 -53.855962094 0 1.1918753605 -55.032798642 
0 1.0170252175 -56.273563249 0 0.80107585608 -60.956580592 0 1.2273365042 -62.467558309 
0 1.8470739743 -67.363493476 0 2.5525458992 -67.80417461 0 2.6331824761 -68.299116606 
0 1.2810529277 -68.411412922 0 1.6317024781 -67.409365283 0 1.8163369127 -66.25491387 
0 1.960186293 -64.956489613 0 1.264148609 -63.802331286 0 -0.31115847735 -55.174076666 
0 -0.11526201828 -53.93984261 0 -0.47085940387 -53.210920699 0 -1.5592294542 -51.763138601 
0 -2.0026102551 -49.908410534 0 -1.7257310247 -49.690889645 0 -1.6981572222 -49.606917968 
0 -1.3771740755 -50.048514574 0 -1.4616964408 -52.506170391 0 -0.80047886451 -58.244985769 
0 0.090092094237 -59.659839794 0 -0.52947233239 -60.580973523 0 0.38649248728 -65.537814537 
0 0.30103129817 -66.879603327 0 -0.025722165411 -68.12463982 0 -0.21437554319 -69.211503814 
0 -0.19629752922 -69.871947313 0 0.17341120212 -70.037168876 0 0.54084688757 -69.912009424 
0 0.50750879282 -69.802350404 0 0.37677224559 -69.514794287 0 -0.59814773598 -63.680474846 
0 -0.17470900921 -62.378414762 0 -0.62891735688 -60.724388656 0 -2.5812710301 -58.928220644 
0 -2.0802284044 -57.674179843 0 -2.5983090007 -55.259774859 0 -3.188167596 -53.433273157 
0 -3.3735291717 -51.763626406 0 -3.2564771734 -50.707125341 0 -2.9608462214 -50.06253644 
0 -3.2407208524 -49.804764946 0 -2.4807655697 -50.929347269 0 -3.0464011705 -51.778326229 
0 -2.9948306979 -53.161293263 0 -2.5968433861 -54.775026518 0 -2.5934685107 -56.629029836 
0 -2.7398744321 -58.118639573 0 -2.7569623006 -59.582194954 0 -2.0591183219 -61.023680356 
0 -1.6623768626 -62.607352823 0 -1.7903921612 -64.486895587 0 -2.549753555 -66.437765645 
0 -2.074863623 -70.563419858 0 -1.4709969548 -69.696103661 0 -1.1652008504 -68.010751342 
0 -1.3149805886 -66.663432472 0 -1.4132650076 -65.185187716 0 -4.4062367799 -58.863420844 
0 -4.8957233966 -56.541596527 0 -4.9966722443 -55.377347994 0 -5.3862747907 -53.231985189 
0 -5.5153801129 -48.293453697 0 -4.8772812836 -48.212818882 0 -4.6510113645 -48.20359475 
0 -4.616259102 -48.269895409 0 -4.6261780873 -48.565209493 0 -5.1269557227 -48.908744718 
0 -5.4663182355 -49.648033681 0 -4.1599782557 -62.201514349 0 -4.2618412996 -64.17647117 
0 -3.9139388826 -67.681004941 0 -3.1999994071 -68.122736955 0 -3.2536325212 -69.366434595 
0 -3.2313624075 -70.461165867 0 -3.2008982456 -70.885646782 0 -3.101364553 -71.678793367 
0 -2.7493981826 -71.900111125 0 -2.6534099852 -72.036311945 0 -2.5986652381 -71.966607162 
0 -2.7337761626 -71.597604514 0 -4.0090049945 -69.969329315 0 -3.9745397319 -68.004676917 
0 -4.0494958127 -66.934808797 0 -3.9118504064 -64.547631909 0 -3.7718562004 -63.085537073 
0 -3.9060290076 -61.553795317 0 -6.7258728673 -51.978198612 0 -6.0688535429 -51.425900324 
0 -6.374791939 -49.526711742 0 -6.5168156354 -48.542089534 0 -7.7236976484 -46.543583889 
0 -7.4594761129 -46.732144346 0 -7.1400980646 -47.170580958 0 -6.9295295397 -50.093528989 
0 -6.1990432461 -51.207917919 0 -6.0311957081 -53.255773322 0 -5.9788604223 -54.762100418 
0 -5.8938705451 -56.307769242 0 -5.7426301903 -57.870204204 0 -5.5262517253 -59.387513105 
0 -5.9958510741 -61.297537268 0 -5.6648952958 -67.063756328 0 -5.5892010366 -73.941734021 
0 -5.3475954991 -74.035185864 0 -5.3751326062 -74.12749016 0 -5.3319018234 -73.948298105 
0 -5.3320764219 -73.605585833 0 -5.1912152455 -72.931087311 0 -4.947621903 -71.719719682 
0 -7.4893743344 -59.12877484 0 -7.5549966326 -56.779786222 0 -7.8227957055 -54.03754522 
0 -8.2209855479 -52.505451912 0 -8.6645490613 -51.111881134 0 -9.0182802519 -49.721305216 
0 -9.0682188099 -48.496493098 0 -9.1903622474 -47.521430974 0 -9.6317123562 -46.520688018 
0 -8.5102952655 -46.309031112 0 -9.6359273585 -45.621943018 0 -8.8868050325 -46.892577725 
0 -8.1812869748 -48.148662578 0 -8.8062196774 -49.416797383 0 -8.6613187496 -50.693673206 
0 -8.7176076127 -52.183836832 0 -8.6896617882 -53.762586865 0 -8.5280000993 -55.587652439 
0 -8.3587246003 -57.735293944 0 -8.2579824128 -58.936121127 0 -7.517572402 -64.341344649 
0 -6.8308115122 -65.927206197 0 -7.0460693148 -67.59524759 0 -6.8090825818 -69.175917397 
0 -6.3588964348 -70.646763194 0 -6.370617851 -71.871794104 0 -6.3323477644 -72.422876402 
0 -6.2052693314 -73.202046514 0 -6.1177816546 -73.889281206 0 -6.6878783383 -74.666811396 
0 -7.217273066 -72.399600276 0 -6.4826012189 -70.557333909 0 -6.5996777038 -69.664550129 
0 -6.8394656649 -67.110484717 0 -6.9065487522 -65.901173957 0 -6.9144749763 -64.185999298 
0 -6.9557842677 -62.732629793 0 -7.0582120444 -61.046880839 0 -10.01739334 -57.289123245 
0 -10.307306054 -55.024407392 0 -10.475626574 -53.18563243 0 -11.180893599 -45.348643883 
0 -10.847638352 -44.617470088 0 -10.213291591 -45.060732053 0 -11.134818494 -45.061146628 
0 -10.78240077 -45.616931818 0 -10.967601961 -46.290621866 0 -11.183239959 -47.143368103 
0 -10.882942806 -50.600920304 0 -9.7854278984 -61.67326741 0 -9.0021257412 -63.320485946 
0 -9.2258007912 -64.338007968 0 -9.3832671759 -66.162575996 0 -9.2812700985 -68.434713336 
0 -9.0932351884 -70.197058427 0 -8.9138366279 -71.939711397 0 -8.8687400981 -73.733683309 
0 -8.7733202698 -74.803418012 0 -8.369028751 -75.510852855 0 -8.3204602062 -76.210075099 
0 -8.0913720631 -76.350429375 0 -8.1148533336 -76.477466025 0 -8.0626402124 -76.299068703 
0 -7.7773736653 -75.739430702 0 -8.0806452786 -75.478966313 0 -7.9056346018 -74.669072721 
0 -8.2665891258 -74.18299411 0 -9.0042336448 -72.177522723 0 -9.0844679187 -70.426248909 
0 -9.482932642 -66.002995555 0 -9.2965386203 -64.000434221 0 -9.4370936132 -62.038169745 
0 -11.094229306 -57.531713516 0 -11.994877755 -51.134453371 0 -11.434501008 -50.471243445 
0 -11.58582124 -48.9818239 0 -11.9291831 -47.58028819 0 -12.06240477 -46.325924172 
0 -11.936423882 -45.494531915 0 -12.832956389 -43.768091142 0 -12.279042273 -43.753700858 
0 -12.626092286 -43.397835906 0 -12.941042915 -43.181739598 0 -12.603213304 -43.600127116 
0 -12.551271384 -44.086135366 0 -12.639806923 -46.788029367 0 -11.679488589 -48.311279997 
0 -11.94787056 -51.125415624 0 -11.256531502 -52.327913792 0 -11.452168632 -54.294774269 
0 -10.986096118 -56.736571407 0 -10.769230736 -59.941380944 0 -10.538465855 -77.377849317 
0 -10.55642858 -76.936226662 0 -10.437590812 -74.787582019 0 -10.257649287 -73.246907522 
0 -10.629631484 -72.046210108 0 -10.401167997 -70.409332543 0 -11.498930563 -65.240330286 
0 -11.379554262 -63.354808794 0 -11.744978455 -61.209414776 0 -12.955777312 -58.704942874 
0 -13.48066939 -56.337870705 0 -13.388588787 -54.450804268 0 -13.275897929 -52.542987027 
0 -13.675340839 -50.616597475 0 -13.820939829 -48.299620346 0 -14.8031926 -43.708595744 
0 -14.322618981 -43.26735156 0 -14.556669948 -42.478467517 0 -14.240860443 -43.232039398 
0 -13.58758653 -44.308729825 0 -13.528351379 -45.355112188 0 -14.575949118 -46.935651644 
0 -13.826120851 -48.573010139 0 -13.437158786 -50.497410319 0 -13.559452345 -55.269554231 
0 -13.126347069 -60.348556928 0 -12.552504975 -61.582813976 0 -12.078101637 -63.636054564 
0 -11.855816387 -66.252723427 0 -11.738590368 -68.214941162 0 -11.734080338 -69.303656308 
0 -11.584558644 -71.103538043 0 -11.326832056 -73.160786338 0 -11.228932073 -74.624217946 
0 -11.244690747 -75.411735207 0 -11.173081047 -76.574619152 0 -11.677683424 -79.325439471 
0 -11.13015574 -79.209154025 0 -10.871767205 -79.093896356 0 -10.826972316 -79.00710651 
0 -11.708277743 -78.768122358 0 -11.878806534 -77.224394986 0 -12.145343859 -69.53509764 
0 -11.841553023 -67.250785334 0 -15.553789807 -45.72604564 0 -15.150654744 -44.593408669 
0 -16.260437555 -41.183658711 0 -15.636305911 -41.251358804 0 -15.716605305 -41.045519397 
0 -15.657791516 -41.198769159 0 -15.702839094 -41.48684822 0 -16.527033403 -41.459568585 
0 -16.036661384 -43.672381865 0 -15.457992488 -45.152459597 0 -15.576360551 -48.88235579 
0 -15.513553551 -50.809688177 0 -15.073203429 -52.886439662 0 -14.952884849 -54.275419702 
0 -14.363171734 -57.699591791 0 -14.183979825 -60.255556682 0 -14.524894017 -62.761302811 
0 -14.364481449 -65.219458876 0 -14.21986873 -67.273733588 0 -14.081842109 -69.455977464 
0 -13.865665595 -71.659472446 0 -13.695746325 -73.598905262 0 -13.618292274 -74.596468376 
0 -13.245885015 -76.105128864 0 -13.094756141 -77.675413857 0 -13.046601944 -78.919405615 
0 -12.710803569 -79.603879292 0 -13.342137769 -81.759052429 0 -13.083999123 -81.505567674 
0 -12.867465625 -81.06459509 0 -12.787440023 -80.554528065 0 -13.050701958 -79.325799202 
0 -13.150352797 -77.06529701 0 -12.784146664 -75.151706662 0 -12.85421887 -74.216142376 
0 -13.003382934 -71.886146779 0 -13.369740885 -70.750853303 0 -13.863919424 -68.535420684 
0 -13.810163542 -66.297157243 0 -13.749629406 -64.294658747 0 -13.917292987 -62.221773947 
0 -16.142448366 -59.347294097 0 -15.814577161 -57.071073916 0 -15.96843239 -54.684093544 
0 -16.069966206 -52.488945236 0 -16.235420624 -50.269288542 0 -16.400813632 -48.24862407 
0 -17.921201441 -42.982793956 0 -17.244978247 -42.13783484 0 -17.105403575 -41.283730915 
0 -17.961742296 -39.877349556 0 -18.094875343 -39.350871726 0 -17.85428592 -40.741938198 
0 -17.267886056 -45.361295855 0 -16.525998961 -47.138579952 0 -16.66069162 -47.964494428 
0 -17.017181673 -54.932754883 0 -16.504799947 -57.61109307 0 -16.32052225 -60.123153784 
0 -16.422978181 -61.620403074 0 -15.177024837 -77.018836922 0 -14.806318158 -78.726045772 
0 -14.678598235 -80.298424535 0 -14.627558417 -81.442069438 0 -14.071548979 -81.916152334 
0 -13.828211915 -82.121037426 0 -14.826934772 -83.452276292 0 -14.269724067 -81.690570569 
0 -14.360951722 -80.768244241 0 -14.48876562 -79.853892835 0 -14.54810439 -78.687205623 
0 -14.7025436 -77.044080742 0 -15.26890515 -73.154141442 0 -15.437728112 -70.760526412 
0 -15.47360145 -67.530229031 0 -15.593460745 -66.072290699 0 -15.731516649 -63.778883789 
0 -16.108622634 -61.468052932 0 -17.983368907 -57.342958375 0 -17.939968505 -54.805758621 
0 -18.110574999 -52.540673636 0 -18.548960669 -49.94192893 0 -18.504663454 -47.507491151 
0 -18.46047238 -45.424443563 0 -18.31341962 -43.935670021 0 -19.319556878 -41.014602587 
0 -19.113817307 -39.944845297 0 -19.279598206 -38.471730432 0 -18.65726883 -38.687706624 
0 -18.611572727 -38.56878459 0 -18.583725409 -38.651317956 0 -19.219216857 -38.871342204 
0 -19.119101039 -40.494620223 0 -18.48150477 -41.94602071 0 -18.633705608 -49.74441827 
0 -17.861846838 -51.975235157 0 -17.298158154 -62.849712271 0 -16.636793515 -64.430364089 
0 -16.363826815 -68.228892914 0 -16.291351097 -69.897190357 0 -16.13220904 -72.569949639 
0 -15.867000303 -74.860603591 0 -16.234754105 -84.607015774 0 -15.628477346 -84.309384806 
0 -15.379657698 -84.235521677 0 -15.663746867 -84.042831256 0 -15.358707045 -83.294378542 
0 -15.903661234 -83.010637099 0 -16.504212353 -79.539511031 0 -16.557668062 -75.965700054 
0 -16.381490373 -74.592979099 0 -17.399687142 -68.397797714 0 -17.168330802 -64.934902656 
0 -17.480224847 -63.080785208 0 -18.460413916 -59.621244345 0 -18.877748685 -58.038426606 
0 -19.632492756 -54.356258422 0 -19.7752091 -52.685055355 0 -20.532668008 -46.630911603 
0 -20.17222335 -44.77112214 0 -20.540938534 -42.743352311 0 -20.221035767 -41.48473974 
0 -20.27818884 -40.602741329 0 -20.830224818 -38.652511895 0 -20.738594087 -37.756084129 
0 -20.807481385 -36.972358569 0 -20.806346645 -36.630703053 0 -20.823240771 -36.456316562 
0 -20.820103188 -36.476326491 0 -20.53113266 -37.085255831 0 -20.707510122 -37.438106651 
0 -20.670878625 -38.247128087 0 -20.604756849 -39.10576704 0 -20.76218351 -39.882449893 
0 -20.436020762 -41.700792472 0 -20.103201664 -43.51947321 0 -20.150673763 -45.441715874 
0 -19.974487257 -47.434382065 0 -19.440674994 -54.133202114 0 -18.791826229 -57.220583923 
0 -18.550859868 -59.956648854 0 -18.53199493 -62.76918532 0 -18.490614014 -65.795566083 
0 -18.460286782 -68.814002664 0 -18.200442261 -72.464178692 0 -18.01408541 -75.101661712 
0 -17.812858525 -77.213953206 0 -17.203411549 -78.760520652 0 -17.059482037 -80.611288312 
0 -16.77533977 -82.014494661 0 -16.686607929 -83.282286679 0 -16.848588481 -84.678301263 
0 -17.224918225 -86.436732251 0 -16.905496791 -86.212680083 0 -16.976869338 -86.303764536 
0 -16.813760984 -85.654008026 0 -16.976266683 -85.02671029 0 -16.787352303 -83.777128966 
0 -16.651990878 -82.514587945 0 -16.810751254 -81.480844896 0 -17.763512439 -78.86304702 
0 -18.224426391 -72.646407561 0 -17.892846458 -70.70599905 0 -19.057976179 -65.383871474 
0 -18.51102756 -62.199475555 0 -20.579508677 -59.858697584 0 -21.468353461 -48.776990947 
0 -22.129336515 -43.499237347 0 -22.331555841 -39.971246714 0 -22.787503803 -34.582041506 
0 -22.542177471 -34.660221497 0 -22.849309507 -34.715384179 0 -21.254238317 -48.278203499 
0 -20.536717362 -50.777576245 0 -21.091371933 -56.88316307 0 -20.629696008 -59.309980971 
0 -20.444105177 -61.823452151 0 -20.202209083 -64.785096898 0 -19.163081118 -79.89536207 
0 -18.862460579 -84.222450295 0 -18.576813822 -85.298245798 0 -18.475957263 -87.634733291 
0 -18.239208115 -87.854940571 0 -18.336040142 -87.991996069 0 -18.174801236 -87.046472801 
0 -18.518399913 -86.377954682 0 -18.594689134 -85.158717604 0 -18.68769275 -83.792453352 
0 -18.413707362 -81.567753796 0 -19.125680334 -78.239156626 0 -18.912497768 -75.146800282 
0 -19.817042447 -69.822708674 0 -19.512162287 -67.762261745 0 -20.693960498 -62.15517613 
0 -21.938804503 -56.110550549 0 -21.677842527 -53.704512852 0 -21.964944217 -50.902492038 
0 -22.878983338 -44.805083253 0 -22.996913928 -43.362359458 0 -23.147691666 -40.898828975 
0 -23.397093766 -36.713663168 0 -23.067170038 -35.765698298 0 -23.185425914 -34.920503425 
0 -23.243536018 -34.403624609 0 -23.789150946 -33.405220836 0 -23.718277157 -34.259857875 
0 -23.081558449 -35.748451652 0 -23.024324476 -36.780862498 0 -22.972121991 -37.379725075 
0 -22.894343848 -38.622539421 0 -22.825969081 -39.814480452 0 -22.687362272 -41.446399325 
0 -22.483458888 -43.413070992 0 -22.332855519 -45.477554701 0 -22.406641983 -47.492083567 
0 -22.433480635 -49.806535837 0 -21.976006323 -52.587134097 0 -21.612334555 -54.83591956 
0 -20.967007398 -69.060905702 0 -20.309185426 -71.210832633 0 -20.124557616 -73.688799332 
0 -19.953842262 -76.014176131 0 -19.753110163 -78.241638396 0 -19.769928153 -83.666904561 
0 -19.693639285 -84.814347062 0 -19.498298924 -87.787227354 0 -19.042088747 -87.677028303 
0 -19.301599846 -89.833306591 0 -18.880234159 -89.107331835 0 -19.084382083 -89.264652702 
0 -19.341272926 -89.005545933 0 -20.024464482 -83.464292334 0 -19.775767802 -80.903631232 
0 -20.528724707 -74.166871037 0 -20.27611786 -72.046258306 0 -21.202569065 -65.973949205 
0 -20.89961719 -64.527525585 0 -22.68616774 -60.488217409 0 -22.835397584 -57.909048281 
0 -23.126434526 -56.502042806 0 -23.942053262 -55.241404162 0 -24.191716468 -52.21543649 
0 -23.750100193 -50.981874416 0 -24.47105073 -45.919932577 0 -24.048942257 -44.501533096 
0 -24.284775071 -41.470981887 0 -25.266151375 -38.739561425 0 -24.552600207 -38.512988526 
0 -25.178024214 -37.363522804 0 -25.22097679 -36.106425692 0 -25.548130071 -34.343519577 
0 -25.071336962 -33.603737868 0 -25.188937944 -32.620941936 0 -25.230127255 -32.241976945 
0 -25.85940722 -31.245572636 0 -25.071927136 -31.977957948 0 -24.846333859 -32.108655192 
0 -25.708862842 -30.953700782 0 -25.065800338 -32.19396403 0 -25.056434563 -32.522686203 
0 -25.720696795 -32.970760492 0 -25.062214454 -34.388978373 0 -25.612895586 -34.32171711 
0 -25.472348603 -36.018256463 0 -25.340302926 -37.660262653 0 -24.680852011 -39.26944803 
0 -24.492798875 -41.389396792 0 -24.849109724 -44.072436478 0 -24.169613504 -45.699923449 
0 -24.642334967 -46.567863672 0 -23.941795223 -48.296318418 0 -24.396683405 -49.430871128 
0 -24.169020776 -52.422679616 0 -23.504143867 -53.95628666 0 -23.137546905 -56.401731354 
0 -22.769034344 -58.954532869 0 -23.30484138 -61.467485954 0 -23.143372212 -63.347613761 
0 -22.894189569 -66.486183538 0 -22.116653253 -71.8320221 0 -21.873584198 -74.840188934 
0 -22.249028033 -76.998815831 0 -21.551097541 -79.091355392 0 -21.62234116 -82.736134686 
0 -20.886022481 -85.043818272 0 -20.765960092 -86.736432995 0 -21.154119071 -88.374955529 
0 -20.543905155 -89.060189316 0 -21.159582324 -90.510486986 0 -21.117247328 -91.281569173 
0 -20.861847611 -91.871616988 0 -20.259406292 -91.272561198 0 -20.40739218 -91.658166998 
0 -20.521501061 -91.852269302 0 -21.026809213 -92.62348387 0 -21.003321608 -92.314684929 
0 -20.530841092 -91.309394971 0 -21.05070798 -91.75479248 0 -21.135544682 -90.918635118 
0 -20.509921761 -87.916654984 0 -20.61045448 -86.44499965 0 -21.347119454 -86.246752321 
0 -21.90487807 -82.172064324 0 -21.862028398 -79.107235973 0 -21.262957714 -77.141486892 
0 -21.635529917 -75.152460922 0 -21.936761783 -74.046224428 0 -22.526806244 -73.299329417 
0 -21.845740357 -69.799131255 0 -22.600585375 -69.500990592 0 -23.180894267 -65.069689725 
0 -23.287458568 -61.931219876 0 -22.657424235 -63.389359627 0 -22.328560595 -66.39211284 
0 -22.736541365 -67.752121665 0 -21.944549365 -71.262400751 0 -22.070258961 -76.687070894 
0 -21.094446174 -79.221047384 0 -21.204057849 -80.575441059 0 -21.313570978 -82.869475034 
0 -21.748744705 -84.40441728 0 -20.918385334 -84.752488503 0 -21.204228044 -87.963992139 
0 -21.107200397 -89.462264962 0 -20.566970424 -89.470838392 0 -20.596144916 -90.639580553 
0 -21.079451079 -92.850708819 0 -20.900870499 -92.263053719 0 -20.228843547 -90.64119835 
0 -20.439194251 -90.516962052 0 -20.457527697 -87.97270351 0 -21.462259013 -87.001111979 
0 -21.452652389 -84.810490979 0 -20.865574698 -82.908643226 0 -21.192085726 -81.225866015 
0 -21.982564349 -80.569990227 0 -21.670710271 -77.500556097 0 -22.491482916 -73.893669804 
0 -22.771445387 -70.420342633 0 -22.179669925 -68.873619777 0 -22.121337003 -67.412941515 
0 -22.345163013 -64.479810308 0 -22.63653806 -60.708116758 0 -23.570794767 -57.826550337 
0 -23.947771152 -55.134307518 0 -23.705546656 -51.208327097 0 -24.337820752 -43.534262618 
0 -24.994328269 -41.878466982 0 -25.184920859 -39.676201993 0 -24.79322229 -37.584120398 
0 -24.932012825 -35.990191716 0 -25.167683032 -33.224224152 0 -25.789171461 -31.973750917 
0 -25.843140379 -31.084121841 0 -25.08379397 -31.813148456 0 -24.875811614 -31.957570554 
0 -25.671473684 -31.035711593 0 -25.756228522 -32.174567367 0 -25.621570532 -33.378650027 
0 -24.672648122 -35.833163907 0 -24.397443761 -37.419408491 0 -24.403970605 -40.229566866 
0 -25.022539649 -41.343790743 0 -24.904637425 -42.931618158 0 -23.612867209 -47.159917916 
0 -23.719486989 -48.36722589 0 -24.398824412 -49.287377289 0 -23.52283221 -53.774860664 
0 -23.47530928 -58.932327003 0 -21.502138688 -63.265359122 0 -20.800666191 -70.994919525 
0 -20.829956573 -73.060634544 0 -20.089164038 -79.922864032 0 -20.299354521 -82.253618969 
0 -19.658525875 -88.410741033 0 -19.736835716 -89.230202016 0 -19.680715238 -89.969526961 
0 -19.443739678 -90.046281485 0 -19.392753162 -88.661168656 0 -20.072857061 -79.9157373 
0 -20.440872019 -78.073132276 0 -20.620696091 -75.734637355 0 -20.799127962 -73.296091178 
0 -21.008811999 -70.693282685 0 -22.020996137 -56.055917246 0 -22.285258038 -54.00371281 
0 -22.731418033 -51.325355428 0 -22.952721076 -48.554954796 0 -22.922994666 -46.365506965 
0 -23.068185385 -44.273797325 0 -23.251564861 -42.184466095 0 -23.424527439 -40.244576059 
0 -23.535213017 -38.763210167 0 -23.612017342 -37.415384904 0 -23.754741552 -35.750802676 
0 -23.836017588 -34.640091008 0 -23.809268496 -33.546434324 0 -23.742674128 -33.623245499 
0 -23.94350906 -33.754741368 0 -23.848874277 -34.366704055 0 -23.722342145 -35.449106679 
0 -23.242429225 -39.822667043 0 -22.522986649 -49.233290016 0 -22.512720339 -51.730925039 
0 -22.246338124 -54.514886402 0 -20.046179024 -66.674141457 0 -20.32168808 -68.720218982 
0 -19.466865834 -74.036108131 0 -19.677242674 -76.30561202 0 -19.596005433 -77.501393344 
0 -18.736061233 -80.514944785 0 -19.178523893 -83.167113608 0 -19.288492148 -85.089464309 
0 -19.222345184 -86.46691579 0 -18.874435806 -87.316730217 0 -18.563328514 -87.915827534 
0 -18.558093272 -88.635153737 0 -18.954724533 -89.127105984 0 -18.852260167 -88.549055258 
0 -18.750545276 -86.255703138 0 -19.238190013 -85.742284208 0 -18.996526684 -81.902933368 
0 -19.525543321 -81.377999326 0 -20.189364196 -67.667165476 0 -20.769722268 -66.520578362 
0 -21.004797263 -63.671086821 0 -21.205816521 -60.928764201 0 -21.406162277 -58.35695971 
0 -20.849463311 -52.132063547 0 -21.365322976 -49.713827205 0 -22.767683944 -35.100085557 
0 -22.845756361 -34.385084272 0 -23.307348157 -33.796881663 0 -23.285501103 -33.893853987 
0 -22.409125043 -38.284970347 0 -22.86114637 -38.717453885 0 -22.160918719 -42.277121884 
0 -21.664203247 -46.563144222 0 -21.975978645 -47.499579404 0 -20.980001678 -57.246276916 
0 -21.377809504 -58.487462103 0 -21.247955216 -60.836174168 0 -19.454034154 -62.924134254 
0 -19.587426616 -64.241834993 0 -18.452894023 -69.817252277 0 -18.732446551 -71.762794229 
0 -17.839735304 -77.568026061 0 -17.326479766 -81.046470735 0 -17.407147708 -82.627467701 
0 -17.238732906 -83.748826891 0 -17.43936326 -85.098058571 0 -17.355668766 -86.036348985 
0 -17.405605081 -86.740300377 0 -17.703156475 -87.398139361 0 -17.52315542 -87.138936156 
0 -17.302895685 -85.794396653 0 -17.670985643 -85.534497548 0 -17.509885603 -84.793059002 
0 -17.340495825 -83.489023671 0 -17.635928333 -82.303882874 0 -17.71295377 -80.509473348 
0 -18.124522261 -78.671343416 0 -18.531670484 -76.763872956 0 -18.748495332 -74.520471007 
0 -18.909650717 -71.912045794 0 -19.026350669 -70.294944099 0 -19.046298939 -67.425848578 
0 -19.066166087 -64.301401516 0 -19.10734584 -61.405246031 0 -19.311498691 -58.756071744 
0 -19.795233201 -56.30069651 0 -20.095188416 -54.945898166 0 -19.882535549 -52.863684921 
0 -20.139481486 -48.331985773 0 -20.955773639 -46.0477754 0 -20.943029146 -44.010768841 
0 -21.079428817 -42.183708591 0 -21.445395859 -40.533387598 0 -21.475847169 -39.774329587 
0 -21.540784837 -38.694999897 0 -21.362468011 -38.060512105 0 -21.659551987 -36.965127456 
0 -21.216270643 -36.712367234 0 -21.565242978 -35.955204346 0 -21.581807382 -35.766117926 
0 -21.316959711 -35.986004151 0 -21.533567104 -35.993107918 0 -21.562279974 -36.341671267 
0 -21.527787405 -36.688548561 0 -21.614528358 -37.387033235 0 -21.233176048 -39.072689583 
0 -21.085316531 -41.283006539 0 -20.973698966 -43.080304038 0 -20.879870686 -45.009728523 
0 -20.250819485 -50.003894452 0 -20.590924032 -51.457587494 0 -20.22757484 -55.032274804 
0 -19.837267611 -56.978374721 0 -19.082507365 -60.453040847 0 -17.850921665 -65.863968246 
0 -17.954309774 -67.445296874 0 -17.026068421 -72.662934474 0 -17.369137807 -74.298730086 
0 -16.618891155 -78.408896326 0 -16.12931908 -83.895916616 0 -15.710701576 -84.638057921 
0 -16.047055201 -85.036363821 0 -16.375994427 -85.147576459 0 -16.15165107 -77.218057573 
0 -16.474210867 -76.281187499 0 -16.688062887 -74.131158054 0 -16.910178492 -71.484160983 
0 -17.125798778 -67.782789207 0 -17.295078217 -65.844001705 0 -18.069919059 -53.999564933 
0 -18.511779613 -52.730047741 0 -18.919856825 -50.754385037 0 -18.78361301 -47.550899942 
0 -18.919613561 -46.26214335 0 -18.927043191 -42.390716556 0 -19.315424973 -40.943430973 
0 -19.18302825 -39.407992728 0 -19.161521649 -38.273563222 0 -19.469834754 -37.784279803 
0 -19.459853321 -37.798558416 0 -19.510043214 -37.990163672 0 -19.482072987 -39.05055308 
0 -19.586034868 -39.915855005 0 -18.924471706 -42.844966239 0 -19.065605684 -44.035789295 
0 -19.134329612 -45.822824682 0 -19.195354513 -48.07697169 0 -18.980515586 -50.65920753 
0 -18.565163967 -53.112828418 0 -18.34780575 -55.606890108 0 -16.498109669 -62.637372421 
0 -16.143982158 -65.195601688 0 -16.152091095 -68.53510645 0 -16.265081307 -70.03187674 
0 -15.824356076 -72.053594824 0 -15.359203212 -75.77055683 0 -15.496649169 -76.918732143 
0 -15.318517434 -78.648394389 0 -15.218070797 -80.012696426 0 -15.326289248 -81.209161549 
0 -14.783847498 -81.715019611 0 -14.761477161 -83.121961998 0 -14.272700688 -82.809664165 
0 -14.51659107 -82.819915922 0 -15.042194933 -82.865060533 0 -15.325887018 -82.699996327 
0 -15.37015206 -81.721351298 0 -15.429898049 -80.384830906 0 -15.575313583 -78.663114965 
0 -17.143453782 -59.390683393 0 -17.39253357 -56.64157071 0 -17.397551801 -49.576492047 
0 -17.712453431 -48.280577426 0 -17.713761324 -46.165906358 0 -18.361169559 -44.189768727 
0 -17.828419142 -43.543928192 0 -17.843175274 -41.240917213 0 -18.172770054 -39.591561938 
0 -18.198611806 -40.019323938 0 -17.833184023 -41.146999003 0 -18.259133541 -42.034428716 
0 -17.087387047 -46.705647468 0 -17.144232807 -48.652086636 0 -16.949457427 -50.989650298 
0 -16.79952886 -53.322689973 0 -16.654283066 -55.59500741 0 -16.735825757 -58.017893393 
0 -16.972656748 -60.255176818 0 -14.713753773 -61.349235005 0 -14.545568828 -63.482103243 
0 -14.385055813 -65.468128304 0 -14.444010203 -67.646651889 0 -14.236985046 -70.11272607 
0 -14.002724651 -73.100004202 0 -13.916845024 -74.343698634 0 -13.483375344 -76.218416232 
0 -13.076503463 -78.689058943 0 -13.06420597 -80.450076533 0 -13.511282906 -81.569296428 
0 -13.558890885 -81.984537267 0 -12.914732197 -80.381661396 0 -13.458206023 -80.023377182 
0 -13.524400513 -78.915171108 0 -13.625373973 -77.399882151 0 -14.028540454 -75.787014442 
0 -14.473410174 -73.568088071 0 -14.703401877 -71.390779552 0 -14.891821877 -69.048176925 
0 -15.009874309 -66.783028555 0 -15.15811415 -64.293880272 0 -15.12839341 -61.66847743 
0 -14.763947861 -59.259160356 0 -15.281092288 -56.783994895 0 -15.685547125 -55.043304229 
0 -16.208670317 -51.966321656 0 -16.063446912 -49.92817422 0 -15.686954671 -45.811237712 
0 -16.506173456 -44.056677205 0 -16.913368649 -42.714937006 0 -16.471363088 -42.458644259 
0 -16.809328929 -40.84584285 0 -16.452576998 -40.679762542 0 -16.722293621 -40.247633077 
0 -16.719775066 -40.233709063 0 -16.725519081 -40.475582539 0 -15.865901841 -43.320982472 
0 -16.191799051 -44.358626277 0 -16.672140112 -45.440917101 0 -16.051240844 -46.822240279 
0 -14.607904946 -60.003952735 0 -12.514070742 -66.168650358 0 -12.557555043 -68.268061014 
0 -11.902777459 -76.447095566 0 -11.798482722 -78.376035423 0 -11.354085751 -79.172118931 
0 -11.596599783 -79.693326656 0 -11.622946396 -79.899405351 0 -11.881683685 -80.118527801 
0 -12.146121051 -80.161051913 0 -11.566684258 -78.052624719 0 -11.857337078 -77.692220033 
0 -11.932701541 -76.562047484 0 -11.995756131 -74.78668159 0 -12.16671276 -73.288687546 
0 -12.24416681 -72.291124432 0 -12.428393578 -70.502703249 0 -12.553110028 -67.967702798 
0 -12.71259532 -65.966554754 0 -12.802724615 -64.740296868 0 -13.006638338 -62.58263911 
0 -13.374194067 -56.953035653 0 -13.798917924 -52.388383258 0 -14.164955373 -51.090211993 
0 -14.298670604 -49.171068072 0 -14.969118139 -47.458383381 0 -14.112917772 -45.68840818 
0 -14.403914023 -44.434868266 0 -14.77832833 -43.289950677 0 -15.117373232 -42.46814943 
0 -14.605577459 -42.673027256 0 -15.454488558 -42.662180023 0 -14.157619327 -47.021101944 
0 -14.596211041 -48.385887219 0 -14.779095824 -49.300128907 0 -14.388246464 -51.182294545 
0 -14.243580867 -53.129275963 0 -14.383877655 -55.171877112 0 -14.225518219 -57.326153643 
0 -13.215111743 -59.892135823 0 -12.341310871 -62.193770632 0 -12.159596956 -64.195367614 
0 -10.739853661 -69.477715405 0 -11.440300245 -71.602008254 0 -11.34415293 -73.106381038 
0 -10.985937468 -74.339073894 0 -10.610950886 -76.421326483 0 -10.395967094 -77.740038998 
0 -10.318541049 -78.039584039 0 -10.445536393 -77.872881965 0 -11.229943201 -61.309022697 
0 -11.829802893 -59.303104438 0 -11.941582779 -57.762952502 0 -12.205908954 -55.186474691 
0 -12.379782279 -52.998079752 0 -12.238564333 -48.985063682 0 -12.873876085 -47.376494717 
0 -13.148926953 -43.396855302 0 -13.780312408 -42.651312031 0 -13.812833707 -42.527083046 
0 -13.398603315 -43.054498861 0 -12.587845503 -44.658325723 0 -13.019901402 -45.149973474 
0 -13.130448871 -46.156972639 0 -12.768584692 -47.641417795 0 -12.389284271 -49.296420074 
0 -11.959752441 -55.3367084 0 -12.082412053 -56.474066412 0 -11.222745736 -58.774307041 
0 -10.294682866 -61.146534579 0 -9.9256325929 -63.262088104 0 -10.089793897 -65.138117583 
0 -10.21955159 -67.187343234 0 -9.5300634111 -68.147236679 0 -9.3252397789 -71.462322535 
0 -8.8592368682 -73.968380972 0 -9.0258426331 -75.063602399 0 -8.9309409614 -75.762838628 
0 -8.8407468796 -76.34818757 0 -8.7855709204 -76.774782059 0 -9.0863465377 -77.313931718 
0 -9.1042999206 -77.365131823 0 -9.1073114021 -77.169820132 0 -9.1178049869 -76.689755625 
0 -9.2548977444 -75.886291503 0 -9.6437888217 -75.128109421 0 -9.7100215299 -74.029880763 
0 -9.6942628556 -73.242363502 0 -9.7795817701 -71.69567059 0 -10.022433695 -69.996358647 
0 -10.149081807 -68.34284579 0 -10.153591837 -67.254130645 0 -10.270972066 -65.408407141 
0 -10.179452971 -63.000474142 0 -11.067017592 -49.717203372 0 -11.807640368 -46.236789472 
0 -11.871985479 -45.282806142 0 -10.839952942 -44.768685015 0 -11.13728246 -44.422601721 
0 -11.143046007 -45.052733606 0 -10.806944834 -52.145392811 0 -11.319667348 -53.514715135 
0 -10.803770395 -55.684272912 0 -10.031784577 -59.898619792 0 -7.9350813284 -61.876528988 
0 -7.8287025799 -63.632616666 0 -7.7754497622 -65.418694825 0 -7.8326652201 -68.125968396 
0 -7.7257553907 -69.473363487 0 -7.5613075111 -71.699349463 0 -7.0015872867 -74.253642139 
0 -7.091133321 -73.376383738 0 -7.1960603821 -72.114745449 0 -7.2668915078 -70.619198391 
0 -7.7696811201 -68.99781824 0 -7.6284597869 -67.232842465 0 -7.7144897519 -65.506727891 
0 -8.4085168729 -60.904646775 0 -9.0772775153 -59.6977501 0 -9.283105198 -56.832265316 
0 -9.4772506967 -54.600258109 0 -9.5413289454 -52.786937065 0 -9.3678824154 -51.20031824 
0 -9.6318827026 -49.781994225 0 -9.6822788231 -48.678222844 0 -9.4200993556 -48.0987763 
0 -9.1043891717 -47.247086775 0 -9.6795644952 -45.795971856 0 -9.2501685189 -45.645846207 
0 -9.8193961384 -45.396313806 0 -9.2381571592 -46.10138355 0 -10.14642805 -46.635521105 
0 -10.022861447 -47.556392482 0 -9.9064963616 -48.689340339 0 -9.8582035383 -49.952659173 
0 -9.4373835001 -51.315869232 0 -9.0301701349 -52.671765566 0 -8.6419526557 -54.323500014 
0 -8.5318170761 -55.547350459 0 -8.5441085563 -57.861693488 0 -8.2973260406 -59.960606808 
0 -5.4401943718 -71.462288337 0 -6.1320528546 -72.871644759 0 -6.060948254 -73.294757193 
0 -6.1856059105 -74.021530525 0 -6.1637425757 -74.454264753 0 -6.2226022049 -74.757750698 
0 -6.2436774096 -74.832342473 0 -6.2058435655 -74.665606968 0 -5.4904879498 -68.004799373 
0 -6.4432886715 -63.424949419 0 -7.1147489435 -62.52964147 0 -6.5990218362 -60.588534919 
0 -6.5164516595 -58.941995989 0 -6.6687045702 -57.262523278 0 -6.8287854764 -55.535927031 
0 -6.8904861366 -53.976154582 0 -7.006650027 -52.439105372 0 -7.1051694307 -51.442865294 
0 -7.6733807265 -47.339357212 0 -8.1137224645 -46.798536533 0 -8.0715655081 -46.492796299 
0 -8.3971766122 -46.153338103 0 -7.4369500372 -47.364637913 0 -7.7926576423 -47.488032104 
0 -7.3998045465 -48.460655316 0 -7.210707003 -49.527588015 0 -7.1676064505 -50.32822889 
0 -5.0295843183 -60.915345081 0 -4.955359673 -62.541431879 0 -4.8580531915 -63.830117619 
0 -5.0993711812 -65.38599272 0 -5.032288094 -66.59530348 0 -4.8244538814 -68.87184192 
0 -4.7073773964 -69.7646257 0 -3.5111294016 -71.759679417 0 -3.5603325179 -72.353067717 
0 -3.537907834 -72.56873054 0 -3.5451896289 -72.71591419 0 -3.587271052 -72.650731306 
0 -3.8930801008 -72.560692736 0 -4.2273888052 -72.282304462 0 -4.2707131865 -71.903501244 
0 -4.3833270764 -71.01520682 0 -4.421597163 -70.464124522 0 -4.3654892619 -69.306121921 
0 -4.5252724082 -66.017012191 0 -5.1087981524 -65.242867186 0 -4.9841827516 -63.315796851 
0 -4.5001863061 -61.078562716 0 -5.6934860405 -50.172691629 0 -6.3396084996 -48.880182781 
0 -5.7759454784 -48.326471285 0 -5.5499889355 -47.950139844 0 -5.594278836 -47.72968457 
0 -5.8427296776 -47.596300313 0 -6.0661674155 -47.702710501 0 -6.1085530324 -53.555250392 
0 -5.9862894147 -54.573589817 0 -5.7276770737 -57.256228906 0 -5.1788221168 -59.654059511 
0 -2.111607397 -64.493176513 0 -2.255510882 -66.107858925 0 -2.1535600287 -67.641345687 
0 -2.2468082533 -69.104856242 0 -2.5925647902 -70.104108024 0 -2.9866797346 -65.714815941 
0 -2.482027982 -63.722695822 0 -2.6179856842 -61.946845669 0 -3.2849675818 -60.425874924 
0 -3.7500195944 -58.93273414 0 -3.7422850937 -57.501626754 0 -3.818979582 -56.042853251 
0 -3.8436181846 -55.139991239 0 -3.8727951953 -53.676754436 0 -4.2656989284 -52.043731779 
0 -3.7437019891 -51.021675009 0 -3.4912377564 -50.207841006 0 -3.6341470397 -49.352389805 
0 -4.3049888203 -49.730380924 0 -4.443291381 -50.584890377 0 -4.1620101643 -52.141096368 
0 -3.755412898 -53.971863692 0 -3.1741893248 -55.730499131 0 -3.0732404771 -56.894747663 
0 -1.5850407899 -61.485965577 0 -1.3121937543 -62.990349697 0 -0.22973430313 -69.558494748 
0 -0.6910038353 -70.357644494 0 -0.57184509323 -70.572248286 0 -0.59419361362 -70.626766057 
0 -1.0479323 -70.696094584 0 -1.1060478639 -70.194064485 0 -1.1827476387 -69.55304534 
0 -1.2132118006 -69.128564425 0 -0.95760382459 -68.149208151 0 -0.82950754374 -66.913444805 
0 -0.61981404854 -65.503867392 0 -0.17841677097 -64.260649178 0 -0.91154861402 -59.258866658 
0 -1.4284682019 -53.42688356 0 -1.6523825731 -50.265421619 0 -2.6662112197 -49.362906088 
0 -2.654812054 -49.1993034 0 -2.7163367987 -49.151420157 0 -2.6949571965 -49.359582807 
0 -1.8084959805 -52.356969641 0 -1.3981603348 -54.119660621 0 -0.94406184128 -55.775600371 
0 -1.2741776233 -59.595732627 0 1.2900055275 -60.655954098 0 0.66422446892 -64.706987856 
0 0.82322710981 -65.99026302 0 0.66648839258 -67.297488976 0 0.70554788017 -68.294433613 
0 2.038264193 -68.844453514 0 1.6199642561 -68.667684698 0 1.6279564346 -68.025876554 
0 1.0158864337 -63.379066941 0 0.22703868824 -62.05979458 0 0.4422403393 -57.727652756 
0 -0.34833864528 -56.728709642 0 -0.051203154159 -55.336967592 0 0.16161172414 -54.147086406 
0 0.082081991245 -52.796453412 0 -0.25323658736 -51.629445261 0 0.01460860327 -51.06567661 
0 0.19173384688 -50.40978579 0 0.20874785389 -50.544556227 0 -0.35275881188 -50.691591334 
0 -0.36778717679 -51.300460943 0 0.082387902317 -52.380724747 0 0.42283404903 -56.736135695 
0 -0.21074117276 -57.507986886 0 0.31082449 -59.080880839 0 2.8979797013 -61.082410315 
0 2.5243520892 -62.49753889 0 3.2491636891 -63.231330264 0 3.2082707085 -66.615792899 
0 2.8551335901 -67.724645304 0 2.5363864858 -68.255169074 0 2.5611096408 -68.608943838 
0 2.6243862586 -68.641995191 0 3.3541987482 -68.16403646 0 3.3552467992 -66.458209623 
0 2.6578704324 -65.723764777 0 2.675516961 -64.51309981 0 2.8994931002 -63.172682197 
0 3.1337437169 -61.836926963 0 2.3986185826 -60.433205784 0 2.0144086679 -59.534484096 
0 2.1824650003 -58.036932658 0 2.6350213698 -52.212479818 0 1.8753716331 -51.527077265 
0 1.9638413334 -55.615994905 0 2.4273449677 -56.87895378 0 2.7538854908 -58.236377324 
0 4.4223400607 -64.294884914 0 5.0385130973 -65.167925781 0 5.1702702417 -66.178891694 
0 5.4038738575 -66.915198925 0 5.4883623235 -67.080989326 0 5.2514909583 -67.148629753 
0 4.554757535 -67.225919619 0 4.7259743146 -66.656609639 0 5.3386742515 -60.389095448 
0 4.8730714833 -58.82370913 0 4.6167754138 -56.453079084 0 3.8116408398 -55.39958288 
0 3.7097316956 -54.257882084 0 3.2797231723 -53.112610733 0 3.3745597058 -51.589879678 
0 3.3860679306 -51.618568355 0 3.9700437362 -52.67782777 0 3.3552136438 -53.282804459 
0 3.1870768095 -54.165425908 0 6.2103171057 -60.609171482 0 6.2318695855 -62.016770551 
0 6.9047967732 -62.817227988 0 7.806863404 -64.747078167 0 7.6682803185 -65.901450912 
0 7.1444159019 -65.003884265 0 6.1594085303 -64.549016232 0 6.0493293402 -64.027719535 
0 5.9838196655 -62.854133598 0 6.2408739571 -61.608259855 0 6.9598547777 -57.776195564 
0 6.7981152759 -53.897071937 0 6.1068278826 -53.278181054 0 5.5523684052 -52.673898633 
0 5.935585037 -53.158254981 0 6.4394771466 -53.927783897 0 6.4888493574 -54.757937054 
0 6.222365299 -55.754441137 0 5.9148080093 -56.433127491 0 6.0510660343 -57.71907125 
0 6.2764498556 -59.19698996 0 9.0468784379 -61.279027485 0 8.8486712658 -62.667093171 
0 8.4158368764 -63.814129571 0 9.3749803551 -64.728249218 0 8.6507076895 -65.379700879 
0 8.5553577913 -65.598824981 0 8.603234886 -65.621664578 0 9.32960606 -64.950697128 
0 9.6096509674 -63.467176707 0 9.14240653 -62.453189686 0 7.9387976132 -59.170421684 
0 8.4821618127 -56.801326068 0 7.5335909502 -56.029512438 0 7.5259060705 -54.954630519 
0 7.9382544863 -53.075109816 0 7.2607447648 -52.795099732 0 7.4004100217 -52.998504907 
0 11.27470562 -63.912056804 0 10.195516613 -59.968891691 0 10.390433104 -58.476261251 
0 10.295896898 -56.890376891 0 10.306244919 -55.506275384 0 9.9204966197 -54.465556194 
0 9.3963745672 -53.749231784 0 9.7416915678 -53.568733807 0 10.622635139 -53.595641677 
0 10.516522312 -53.637379671 0 9.6827662154 -53.944727658 0 9.3757974631 -54.44744549 
0 9.5048181195 -54.930224158 0 9.6280664823 -55.889947759 0 10.046596033 -57.131771048 
0 9.7333142183 -58.554039954 0 12.666213619 -59.150508548 0 12.142832761 -60.477832717 
0 12.05064224 -61.576319061 0 12.47558099 -62.50071116 0 12.928914143 -63.586938166 
0 12.382788549 -63.954560303 0 12.405352369 -64.053104599 0 12.378619933 -64.004441233 
0 12.58987051 -63.584782046 0 12.61850882 -63.183669021 0 12.668028132 -62.193559462 
0 12.508060825 -61.172675059 0 12.831841601 -60.443414426 0 13.036427611 -59.169748857 
0 13.027791367 -57.214284068 0 12.929052116 -56.208504342 0 12.570523252 -55.069471486 
0 12.325472848 -54.355560192 0 12.629258555 -54.893144307 0 12.841855542 -55.84476531 
0 15.301069428 -60.325588303 0 14.971495343 -62.87694191 0 15.47402988 -63.018012607 
0 15.60203634 -62.766872496 0 15.049159365 -55.061846076 0 14.459204615 -54.404059274 
0 13.778411998 -54.183236763 0 13.762655845 -54.310317212 0 14.887837283 -56.976624319 
0 15.748694725 -59.06042566 0 16.252613464 -61.916355168 0 16.320113051 -60.864529586 
0 16.197283037 -59.705850794 0 16.107218504 -58.537007757 0 16.083093908 -57.312720835 
0 15.859183094 -56.057967475 0 17.236195609 -54.641967089 0 17.010001197 -54.698037726 
0 16.635060219 -54.899251333 0 16.155659506 -55.404518906 0 16.350449524 -56.007685024 
0 17.145123512 -56.827175221 0 18.672197137 -59.130454557 0 18.707844839 -60.108080209 
0 19.297696498 -60.902243896 0 18.373475254 -62.037049222 0 18.423322822 -62.19561518 
0 18.508268113 -62.092409335 0 18.86390081 -61.768463973 0 19.14958189 -60.994153223 
0 19.322302517 -59.938098582 0 19.063834415 -58.508323689 0 19.027650263 -57.750644285 
0 19.107657498 -56.653345332 0 18.775547916 -55.818841335 0 18.264625425 -55.216632529 
0 17.905925834 -54.843495279 0 18.513434671 -57.963669634 0 21.415349691 -58.519832349 
0 21.355826641 -60.865806925 0 21.435958997 -61.293957035 0 21.72270122 -61.415854756 
0 21.608036411 -61.425811097 0 21.561306695 -61.041925224 0 22.072739142 -60.195604111 
0 21.850469758 -58.459672879 0 20.706659994 -54.906651895 0 20.472043738 -54.913157672 
0 20.426448486 -55.260123638 0 20.430405557 -55.768752176 0 20.639890077 -56.45001531 
0 21.001131764 -57.445735537 0 23.109746548 -59.230211762 0 22.40753027 -59.267938816 
0 22.226125041 -56.397250731 0 22.332896913 -55.66448065 0 24.499360733 -57.909337818 
0 25.035512204 -58.801065812 0 25.11809826 -59.56240796 0 24.764055777 -60.243081318 
0 24.938123625 -60.74769538 0 24.856760181 -60.886369932 0 24.623360199 -60.690032042 
0 24.900626765 -60.09700887 0 25.319941248 -59.124178384 0 25.110305387 -58.582052171 
0 24.623056165 -57.788636794 0 24.889209987 -56.962689527 0 25.41561835 -56.08172593 
0 25.026524532 -55.284945442 0 24.324279959 -55.052692824 0 24.143804555 -55.068426943 
0 24.28662691 -55.409219883 0 24.378637059 -55.930312266 0 24.436662045 -56.804309011 
0 27.4570443 -57.983078932 0 28.167839256 -58.183741948 0 28.323958276 -59.050144326 
0 27.622430415 -60.112015584 0 28.436066978 -60.439272742 0 28.362909799 -60.461806913 
0 27.867003411 -60.307732722 0 27.634551855 -59.955006326 0 28.318573655 -59.777705243 
0 28.366426574 -59.291266268 0 27.547290606 -58.10543438 0 28.097528982 -56.781559309 
0 27.419036528 -56.483105372 0 28.096023357 -55.937300699 0 26.72197446 -55.278012097 
0 27.949479208 -54.828631201 0 27.230071493 -54.889791857 0 27.244680644 -55.074133111 
0 27.352935588 -55.40358204 0 28.077583287 -55.5036526 0 28.008539641 -55.711978654 
0 27.400147696 -56.022129085 0 28.119551041 -56.517438855 0 27.409284463 -56.947923307 
0 42.738397173 -56.289236639 0 56.556347584 -55.106432225 0 42.830916201 -56.462668669 
0 42.679408632 -55.785800877 0 42.688397697 -55.949316194 0 56.522067513 -54.621564218 
0 42.672972697 -55.353729653 0 56.486694169 -54.175450917 0 42.684213645 -55.49321179 
0 42.696950103 -54.904582792 0 42.696460746 -55.044503578 0 56.464942987 -53.752937284 
0 42.601694294 -54.568261891 0 56.43826654 -53.404714367 0 42.625559521 -54.226825878 
0 56.3786914 -53.079410187 0 42.56651129 -53.958622519 0 42.539637159 -54.03241671 
0 42.549450576 -53.841906215 0 56.392724954 -52.842460995 0 42.496439324 -53.803816721 
0 56.330930229 -52.692766904 0 42.559409394 -53.706729384 0 42.513864685 -53.726470685 
0 56.372015451 -52.616362447 0 42.519781022 -53.703977248 0 56.356986758 -52.627702651 
0 42.501155895 -53.791752693 0 42.522525586 -53.746716607 0 56.340076554 -52.729401893 
0 42.483551795 -53.949118939 0 56.344525896 -52.900329328 0 42.487885925 -53.889796102 
0 42.542968681 -54.193379572 0 56.38571698 -53.162046979 0 42.514618174 -54.094816922 
0 42.60338335 -54.519027969 0 42.565978521 -54.402412249 0 56.439629342 -53.488410791 
0 42.632158118 -54.864992883 0 56.469385445 -53.861813748 0 42.622074928 -54.741557982 
0 42.639566788 -55.307896426 0 42.646936 -55.15464451 0 56.484256772 -54.297658511 
0 42.695691975 -55.732741323 0 56.541128333 -54.749208972 0 42.709985728 -56.248541002 
0 42.725265684 -56.067333446 0 56.551139383 -55.251769218 0 42.752692663 -56.760876935 
0 42.70849399 -56.595741608 0 42.801359539 -57.058738565 0 56.621019217 -55.743214642 
0 42.776486623 -57.210288444 0 56.621437305 -56.216117211 0 42.847888536 -57.690130157 
0 42.802140575 -57.539371353 0 56.691317663 -56.67350718 0 42.921134151 -58.083803862 
0 56.757602839 -57.079246262 0 42.907364104 -58.48226855 0 42.947692046 -58.356681013 
0 56.73694781 -57.454801855 0 42.873935877 -58.776480061 0 43.176129869 -58.930459464 
0 56.778481713 -57.743965351 0 43.170089552 -59.021487475 0 56.785281972 -57.998148363 
0 42.970155832 -59.225850484 0 42.957444395 -59.182153576 0 56.806776882 -58.153449868 
0 42.956372581 -59.311376808 0 56.79583739 -58.227465901 0 42.97177156 -59.294023931 
0 42.968618589 -59.314283128 0 42.985268695 -59.325734267 0 56.779187284 -58.216014762 
0 42.958768248 -59.242061508 0 56.791290492 -58.121882942 0 42.976845486 -59.065784173 
0 42.949917056 -59.14151055 0 56.80943545 -57.934551967 0 42.944798169 -58.810565546 
0 42.968235988 -58.905653372 0 42.922924277 -58.628491542 0 56.773157053 -57.67630914 
0 42.848489577 -58.527057229 0 56.682214821 -57.365126735 0 42.884082703 -58.130914804 
0 42.831749199 -58.273274908 0 56.714875412 -56.972798575 0 42.835019105 -57.741393279 
0 56.660350726 -56.556197675 0 42.788912463 -57.263479833 0 42.809016291 -57.425710627 
0 56.616114502 -56.087335716 0 42.818716402 -56.809091493 0 56.674547773 -55.606174351 
0 42.734992125 -56.968900168 0 42.867303251 -57.875401333 0 42.942205552 -59.279530172 
0 42.848909508 -58.697064657 0 42.877089514 -57.960657626 0 42.66295281 -55.587822027 
0 42.534809715 -53.692637044 0 42.668627129 -54.342381965 0 42.608697828 -54.666516753 
0 70.427407974 -54.000852482 0 70.451540371 -54.307483647 0 70.47378091 -54.590076493 
0 70.493453823 -54.840044549 0 70.509961355 -55.049792642 0 70.522801933 -55.212947643 
0 70.531585405 -55.32455224 0 70.536044892 -55.381215396 0 70.536044892 -55.381215396 
0 70.531585405 -55.32455224 0 70.522801933 -55.212947643 0 70.509961355 -55.049792642 
0 70.493453823 -54.840044549 0 70.47378091 -54.590076493 0 70.451540371 -54.307483647 
0 70.427407974 -54.000852482 0 70.402116969 -53.679499792 0 70.376435808 -53.353189696 
0 70.351144803 -53.031837006 0 70.327012407 -52.725205841 0 70.304771867 -52.442612995 
0 70.285098955 -52.192644939 0 70.246967372 -51.708137248 0 70.242507885 -51.651474092 
0 70.242507885 -51.651474092 0 70.246967372 -51.708137248 0 70.255750845 -51.819741845 
0 70.268591422 -51.982896847 0 70.285098955 -52.192644939 0 70.304771867 -52.442612995 
0 70.327012407 -52.725205841 0 70.351144803 -53.031837006 0 70.376435808 -53.353189696 
0 70.402116969 -53.679499792 0 64.163993302 -54.498929233 0 64.147851409 -54.293827046 
0 64.13297496 -54.104803831 0 64.119815969 -53.937602995 0 64.108774266 -53.797304854 
0 64.100185346 -53.688172287 0 64.094310178 -53.613521191 0 64.091327274 -53.57561981 
0 64.091327274 -53.57561981 0 64.094310178 -53.613521191 0 64.100185346 -53.688172287 
0 64.108774266 -53.797304854 0 64.119815969 -53.937602995 0 64.13297496 -54.104803831 
0 64.147851409 -54.293827046 0 64.163993302 -54.498929233 0 64.215004891 -55.147092933 
0 64.231146783 -55.35219512 0 64.246023233 -55.541218335 0 64.259182224 -55.708419171 
0 64.270223927 -55.848717311 0 64.278812847 -55.957849879 0 64.284688015 -56.032500974 
0 64.287670919 -56.070402356 0 64.287670919 -56.070402356 0 64.284688015 -56.032500974 
0 64.278812847 -55.957849879 0 64.270223927 -55.848717311 0 64.259182224 -55.708419171 
0 64.246023233 -55.541218335 0 64.231146783 -55.35219512 0 64.215004891 -55.147092933 
0 64.198088018 -54.932143682 0 64.180910175 -54.713878484 0 22.155722156 -58.412181678 
0 22.13287384 -58.156717578 0 43.137100489 -56.638086207 0 22.175187449 -58.659511668 
0 43.233626559 -56.921188404 0 22.103865434 -58.774149929 0 22.118702889 -58.962677673 
0 43.178446436 -57.240928851 0 22.125514624 -59.051520142 0 22.151723413 -59.306099889 
0 22.139086225 -59.223963688 0 43.200134621 -57.518794535 0 22.237011092 -59.538509946 
0 22.157565515 -59.380330838 0 43.228706771 -57.802054386 0 22.24917439 -59.693059295 
0 43.310321597 -57.989145664 0 22.18410482 -59.761000599 0 22.191366057 -59.853263356 
0 43.253840947 -58.166219535 0 22.194958582 -59.894251997 0 22.230537699 -59.983914869 
0 22.199749681 -59.955128686 0 43.263308641 -58.281859272 0 22.239526216 -60.015387993 
0 43.297079562 -58.348546837 0 22.207222376 -60.009931824 0 22.214769152 -60.023085907 
0 43.272322499 -58.356244752 0 22.187007401 -60.00121027 0 22.137400479 -59.9518597 
0 43.249124621 -58.309621816 0 22.226647471 -59.793170363 0 22.153324035 -59.906053612 
0 43.259173008 -58.189164633 0 22.215904816 -59.656671987 0 43.28417714 -58.043291558 
0 22.175539331 -59.59239158 0 22.164404669 -59.450912277 0 43.232769953 -57.838713011 
0 22.152386888 -59.379981315 0 22.216035682 -59.10712945 0 22.139482277 -59.216012685 
0 43.207593181 -57.600581212 0 22.203371502 -58.874603902 0 43.269270136 -57.302674763 
0 22.094734081 -58.580632518 0 22.115397987 -58.771580449 0 43.165154728 -56.994549123 
0 22.078662543 -58.49141571 0 22.131792425 -58.257968332 0 43.132166318 -56.690383063 
0 22.111757771 -57.853561196 0 22.12915412 -58.109454053 0 43.112350169 -56.323603586 
0 22.092292479 -57.606231207 0 43.163400929 -56.02888717 0 22.003915181 -57.504161555 
0 21.989077726 -57.31563381 0 43.058881739 -55.721715331 0 21.981907573 -57.226819549 
0 21.967968642 -56.971274144 0 21.968335971 -57.054376003 0 43.036835136 -55.443877855 
0 22.015849345 -56.728383508 0 21.962126539 -56.897043195 0 43.020743913 -55.159635735 
0 22.003686047 -56.573834158 0 43.072086401 -54.962080488 0 21.928789231 -56.516908449 
0 21.921527995 -56.424645691 0 42.988600665 -54.796022211 0 21.918664254 -56.383599693 
0 21.93977897 -56.28947492 0 21.913873154 -56.322723005 0 42.979861755 -54.680325117 
0 21.943733341 -56.256983169 0 43.002784667 -54.609175651 0 21.912680748 -56.267425597 
0 21.918076859 -56.253252887 0 42.977128185 -54.605445369 0 21.894079005 -56.279202093 
0 21.852802956 -56.335705308 0 42.961509346 -54.655123246 0 21.965775651 -56.478479611 
0 21.875696118 -56.378456454 0 42.990277676 -54.772525487 0 21.976518306 -56.614977987 
0 43.037793542 -54.912691115 0 21.946705459 -56.684781548 0 21.957840122 -56.826260851 
0 43.019022398 -55.122792817 0 21.957066347 -56.898198531 0 22.062614954 -57.157734271 
0 21.969970958 -57.06216716 0 43.031407614 -55.361931332 0 22.086481701 -57.389378158 
0 43.13892806 -55.646521657 0 22.025169043 -57.696724903 0 22.015707704 -57.504895311 
0 43.084295955 -55.967140998 0 22.023253895 -57.787356621 0 22.112248849 -58.009618208 
0 43.099297655 -56.27272164 0 -15.525930878 -60.522487773 0 -15.771630776 -60.950849194 
0 -15.862243752 -59.767094789 0 -15.912215839 -59.142551334 0 -15.69466821 -58.60240068 
0 -16.035787558 -57.78779405 0 -16.077055278 -57.197426702 0 -16.116283553 -56.612581532 
0 -15.898858348 -56.015912623 0 -16.216720454 -55.094869132 0 -16.266768547 -54.55991219 
0 -16.128098933 -53.539221443 0 -16.28063613 -54.015719971 0 -16.412247477 -51.506371865 
0 -16.765960277 -49.53524269 0 -16.782425092 -49.323364345 0 -16.795972894 -49.154787243 
0 -16.682737354 -49.246676872 0 -16.908850909 -48.657294946 0 -16.602255162 -49.148330888 
0 -16.719589361 -48.935856776 0 -16.709003162 -49.008811008 0 -16.417663932 -49.555783318 
0 -16.701283246 -49.212092152 0 -16.688746806 -49.374055751 0 -16.35603858 -50.027895462 
0 -16.606148574 -49.85866434 0 -16.271840865 -50.880296533 0 -16.204517929 -51.977128818 
0 -16.368739511 -53.749493253 0 -16.107071812 -53.520356103 0 -16.090890415 -55.02044762 
0 -16.329347874 -54.263682124 0 -16.308917204 -55.369561393 0 -16.266151185 -55.931284569 
0 -16.218737108 -56.510622143 0 -15.973766578 -57.29614875 0 -16.093054789 -57.963376263 
0 -16.005733115 -58.644683065 0 -15.629492076 -59.797918868 0 -15.472072468 -62.980650012 
0 -15.421533724 -65.03694316 0 -15.188774754 -68.878590011 0 -15.186645301 -70.394069725 
0 -15.006628404 -70.435135123 0 -15.06186051 -71.208885638 0 -15.029116999 -71.535804758 
0 -14.903524624 -71.621520424 0 -14.871547793 -72.968274796 0 -14.778024591 -73.141253633 
0 -14.782037484 -73.20306708 0 -14.796580297 -72.928596425 0 -14.923207193 -72.915451262 
0 -14.727608343 -71.878473434 0 -14.939677118 -72.702209655 0 -14.90684169 -71.926384002 
0 -14.931852082 -71.632959649 0 -14.955163906 -71.286883637 0 -14.749233708 -70.424913989 
0 -15.018045576 -70.455132486 0 -15.054509304 -70.047543316 0 -14.861112271 -69.02141142 
0 -15.134676237 -68.958968706 0 -15.010850449 -66.777524499 0 -15.369347751 -64.608819417 
0 -15.530977891 -62.751594601 0 -15.722009669 -61.581752451 0 -15.205761234 -56.416715852 
0 -15.86494271 -52.300184671 0 -15.952199632 -51.011114109 0 -16.144748505 -50.025578911 
0 -15.486878758 -57.152184563 0 -15.17312352 -59.75444513 0 -14.965811595 -64.560955984 
0 -14.829867049 -66.484648756 0 -14.750395282 -68.194641265 0 -14.579905583 -69.598543161 
0 -14.468257441 -70.874376306 0 -14.490017599 -71.486582437 0 -14.442692182 -72.011714635 
0 -14.358096384 -72.269344697 0 -14.356162067 -72.294075266 0 -14.373691488 -72.051002332 
0 -14.32449136 -71.1358699 0 -15.03627574 -62.733116663 0 -14.774777805 -60.680848948 
0 -14.89354305 -59.38530531 0 -14.663193321 -57.67367062 0 -15.060060482 -54.397871589 
0 -15.604207179 -50.619048131 0 -15.552330031 -51.07404081 0 -15.49453915 -51.602188905 
0 -15.418843422 -52.775647814 0 -15.339434947 -54.209997171 0 -15.023348599 -55.417225833 
0 -14.431208168 -62.209893647 0 -14.088807767 -69.481876304 0 -14.219453185 -67.921636741 
0 -14.355798437 -65.867118022 0 -14.261921826 -64.298153342 0 -14.713267431 -53.192397404 
0 -14.786076022 -52.151445015 0 -14.714185869 -51.717024305 0 -14.193688891 -57.802602812 
0 -13.720648486 -60.174182552 0 -13.862114779 -64.129436793 0 -13.638663512 -65.707007115 
0 -13.697088055 -67.5071423 0 -13.501970385 -68.787529192 0 -13.390547306 -69.673498052 
0 -13.448339516 -70.421261938 0 -13.451523502 -70.599688968 0 -13.508598808 -70.265148919 
0 -13.326755691 -69.430235008 0 -13.557416567 -61.728526299 0 -13.593622633 -59.46497493 
0 -13.761891462 -58.195042245 0 -13.746462152 -56.456703648 0 -13.586091347 -55.015847016 
0 -13.856967974 -52.556055405 0 -13.996130651 -52.548261557 0 -13.97595366 -53.216256525 
0 -13.846590333 -54.866032327 0 -13.35669046 -56.232520489 0 -12.891985583 -62.19438421 
0 -12.576770445 -66.769514341 0 -12.433266028 -69.119600642 0 -12.46593004 -69.003995887 
0 -12.65447014 -68.437435756 0 -12.846933304 -67.318523193 0 -12.990379556 -65.502306487 
0 -12.701142966 -63.202408097 0 -12.357102864 -58.383778358 0 -13.156450074 -54.132836969 
0 -12.832064373 -54.00516017 0 -12.295969627 -63.553059668 0 -12.12593725 -67.496924123 
0 -11.296628615 -60.81584317 0 -12.024048066 -56.969248245 0 -12.184224102 -54.066809695 
0 -12.247084128 -53.979990298 0 -12.277007112 -54.111452609 0 -12.40769725 -54.570721277 
0 -12.103673419 -55.64782197 0 -12.174337858 -56.995829427 0 -12.104310547 -58.837109534 
0 -11.673773212 -60.768404434 0 -11.608608781 -64.685891287 0 -11.078287195 -67.440170397 
0 -11.175534685 -67.59083638 0 -11.398488471 -67.355519303 0 -11.450362682 -66.8862823 
0 -11.388617832 -65.239661171 0 -11.46740359 -64.136534164 0 -11.65332426 -62.474777899 
0 -10.54306656 -58.305047663 0 -10.683274595 -55.723610744 0 -11.046307499 -62.158826361 
0 -10.167695144 -63.074593735 0 -10.769367999 -66.536509879 0 -9.8753187688 -65.626588323 
0 -10.034789336 -60.29286146 0 -9.6259147132 -59.509060672 0 -10.032454751 -57.425464008 
0 -9.9802486138 -56.528364217 0 -10.101945077 -55.726109792 0 -10.286202033 -55.302589655 
0 -10.105925983 -58.153533183 0 -9.9558786337 -59.583323301 0 -9.6908154323 -60.977068532 
0 -9.1643612778 -61.687257348 0 -9.5257726148 -63.86347097 0 -9.3435814092 -64.81411249 
0 -9.3496549176 -65.650024665 0 -9.4583396904 -66.027325423 0 -9.6924120663 -63.160304423 
0 -9.7877028405 -61.720199361 0 -8.5782916897 -56.285893133 0 -9.5293655611 -56.335304982 
0 -9.1255756214 -57.278441831 0 -7.9139112588 -64.764458427 0 -8.8313063304 -64.841913913 
0 -8.5800268232 -63.847221981 0 -8.2300551564 -59.312762168 0 -8.0904499914 -57.100481844 
0 -8.1785109513 -56.484448307 0 -7.9454395468 -58.764048161 0 -8.0316463068 -60.216573792 
0 -8.0408020278 -61.717451166 0 -7.5568387451 -63.880655589 0 -7.550113357 -64.505808311 
0 -7.6738527266 -62.214885902 0 -7.9862232556 -60.793728381 0 -6.7467759452 -57.107599786 
0 -7.027624129 -57.302795398 0 -6.2308210476 -63.66342835 0 -6.5387468453 -63.514570255 
0 -6.020706125 -59.92620589 0 -5.5719611453 -59.182141305 0 -6.0407053262 -57.558561086 
0 -5.9604381354 -57.203417608 0 -5.9546174805 -60.765941737 0 -5.3949999038 -61.43064707 
0 -5.6039892192 -63.107565352 0 -5.4691535707 -63.44577987 0 -4.2731505621 -59.183505391 
0 -4.3057754083 -58.237822565 0 -4.253702369 -57.670360698 0 -4.7218349033 -57.752922468 
0 -5.2468023331 -58.341575433 0 -4.1123932242 -61.22612104 0 -3.9966790737 -62.165263875 
0 -3.8564765463 -62.717593327 0 -4.3317610987 -62.709280092 0 -4.9423509199 -62.209997421 
0 -3.6293596631 -60.252632083 0 -3.4471518676 -59.007089443 0 -3.6437767215 -60.069445986 
0 -3.268966471 -61.271149573 0 -2.6461987068 -57.981829571 0 -2.8550491115 -57.838266502 
0 -2.3174883882 -62.158490178 0 -2.501309286 -62.332957148 0 -1.8053525195 -59.418363966 
0 -1.9915905015 -58.86076541 0 -1.3295441761 -58.747864506 0 -1.4551161168 -59.612201585 
0 -1.7117178976 -60.608104643 0 -1.8084353492 -61.187972275 0 -1.1368783347 -61.195916132 
0 -1.3961163808 -60.36186431 0 0.13527549202 -59.642902996 0 0.46153803323 -58.718171832 
0 0.059889502963 -58.629892284 0 -0.17772901084 -58.161985932 0 -0.43955232688 -57.973119649 
0 0.18451738774 -57.934842548 0 -0.70254851143 -58.102054458 0 -0.029435108277 -58.133287241 
0 -0.34533323536 -58.495358021 0 0.22850200276 -59.083697158 0 0.56297964395 -59.304941508 
0 0.16989211922 -60.082748949 0 0.63679765276 -60.945056439 0 0.25390404616 -61.095080792 
0 0.092407685532 -61.594398103 0 -0.13664695504 -61.82189732 0 0.48572728365 -61.762077154 
0 -0.41657507281 -61.735691518 0 0.24336530365 -61.599545127 0 -0.12528394207 -61.291349393 
0 0.34944991812 -60.620486133 0 0.64519934299 -60.349641838 0 0.67851065399 -60.050978973 
0 0.61679185092 -60.175293752 0 0.63286338818 -60.26451056 0 0.73317285852 -60.452665291 
0 0.76641410732 -60.846879432 0 0.68986070227 -60.955762666 0 0.69570280467 -61.029993615 
0 0.7077205857 -61.100924577 0 0.27416951942 -61.395015663 0 0.31453500385 -61.459296069 
0 0.32033243846 -61.53295946 0 0.41134151351 -61.728752328 0 0.45871696582 -61.749749386 
0 0.47893194046 -61.758470941 0 0.51048434718 -61.75437924 0 0.52585305089 -61.718274105 
0 0.49506503283 -61.689487921 0 0.49250540336 -61.656964745 0 0.48891287819 -61.615976104 
0 0.72512473764 -61.426466419 0 0.79019430695 -61.358525115 0 0.78297622991 -61.266810751 
0 0.63095555035 -60.87082549 0 0.61831836262 -60.78868929 0 0.61180926985 -60.705983424 
0 0.60499753514 -60.617140955 0 0.59797402084 -60.527898745 0 0.66929603569 -60.413260484 
0 0.65815869453 -60.271747147 0 0.66322893206 -59.74181485 0 0.64260394195 -59.594715481 
0 0.56219788337 -59.481586165 0 0.56411303112 -59.390954447 0 0.63375364067 -59.189424354 
0 0.60491695695 -58.794863575 0 0.51227296083 -58.699296465 0 0.50643085843 -58.625065516 
0 0.50720463351 -58.553127836 0 0.032985313806 -58.330479767 0 0.062798161142 -58.260676206 
0 0.05700072653 -58.187012815 0 0.11626058115 -57.979393588 0 0.15976809952 -57.951243885 
0 0.1783698426 -57.939467389 0 0.21017386988 -57.938572831 0 0.23100144681 -57.971829256 
0 0.20509563154 -58.005077341 0 0.207655261 -58.037600517 0 0.210519002 -58.078646515 
0 0.4734685477 -58.228871346 0 0.54836536405 -58.285797056 0 0.55558344109 -58.37751142 
0 0.46738013563 -58.792402781 0 0.46774746522 -58.87550464 0 0.47425655799 -58.958210506 
0 0.48142671115 -59.047024767 0 0.48845022545 -59.136266977 0 0.57682752293 -59.238336629 
0 0.58796486409 -59.379849966 0 0.67587234888 -59.902464693 0 -0.72668009855 -60.704867068 
0 -1.0693036091 -61.732293655 0 -0.90230369501 -61.347710785 0 -0.85908611973 -60.143203673 
0 -0.84757915898 -59.168698854 0 -1.3467093286 -58.207519789 0 -1.1216034401 -58.561243325 
0 -0.89049151975 -59.74416023 0 -1.7240652434 -61.995263783 0 -1.5165596907 -62.064485017 
0 -2.0345473568 -58.050214483 0 -1.8404251235 -57.94938452 0 -2.8008334751 -60.643319915 
0 -2.2744476129 -61.480743032 0 -2.6069450412 -61.966614632 0 -3.5236063642 -62.401269736 
0 -3.0649564472 -60.592591201 0 -2.886568169 -59.553957341 0 -2.4976648325 -58.644499339 
0 -2.9020757247 -58.216623744 0 -3.8754464593 -57.930717452 0 -3.1395035686 -59.645380214 
0 -4.6607353964 -61.656843952 0 -3.8830794229 -62.310174642 0 -3.4568633548 -61.619201296 
0 -4.8821216969 -58.843864291 0 -4.216243396 -58.076924989 0 -3.6871827091 -58.692716425 
0 -5.2117516363 -60.534821844 0 -5.0242264755 -63.219098774 0 -4.7929919536 -63.019603066 
0 -5.2853229551 -62.542894229 0 -5.2508310752 -60.038270492 0 -5.4855280951 -57.35770595 
0 -5.2259324496 -57.518572486 0 -5.6376283476 -58.066429784 0 -5.7749943737 -61.311204055 
0 -6.2260707263 -62.744564958 0 -5.8074368257 -63.061927444 0 -6.5401543294 -62.682759941 
0 -6.6697106185 -62.213388652 0 -5.928592352 -59.359556696 0 -6.598342205 -58.014407331 
0 -6.2345088133 -57.635463333 0 -6.8988904831 -58.124584926 0 -6.9534258728 -58.608444544 
0 -7.1422918535 -61.491229 0 -7.2947362267 -62.833773916 0 -6.9351652355 -64.224419355 
0 -6.8950989578 -63.815131111 0 -7.5205603807 -63.312955542 0 -7.9133233959 -62.357973359 
0 -7.3568068272 -60.908161127 0 -7.3072182369 -59.395640606 0 -7.6678060155 -58.093472799 
0 -7.5271149309 -56.666173817 0 -7.4266070324 -57.061680697 0 -7.9658104207 -57.655517375 
0 -8.2043457445 -58.660183815 0 -7.4278802644 -60.005087482 0 -8.2426713424 -64.210655833 
0 -7.654494166 -64.430148517 0 -8.8492271265 -56.866708428 0 -8.2728627442 -56.573030759 
0 -9.1972727702 -60.885203855 0 -9.1082141989 -62.35238079 0 -9.5433411904 -64.036257601 
0 -9.1408888879 -65.640254463 0 -8.8463101828 -65.432918342 0 -8.7151978791 -64.788439111 
0 -8.8268189779 -63.918359939 0 -9.1252022389 -63.078683133 0 -9.242095662 -60.315675015 
0 -9.3836505884 -58.852629633 0 -10.125484547 -57.249920742 0 -9.9271760823 -55.612818704 
0 -9.5887136609 -55.793938573 0 -9.3555853264 -56.455420673 0 -9.35069292 -57.261910375 
0 -9.5140481959 -58.137926792 0 -9.9254842336 -66.090618961 0 -10.322755116 -65.590105144 
0 -10.079375551 -62.323690142 0 -10.794360268 -61.261312531 0 -10.775656171 -55.288262093 
0 -11.109528104 -55.256531313 0 -11.065574843 -55.794186231 0 -10.629223666 -59.02360319 
0 -11.097952792 -61.711743894 0 -10.927272177 -63.291157 0 -10.699415543 -65.270237186 
0 -10.804858177 -66.072759297 0 -10.803149431 -67.006026938 0 -10.61532029 -67.062499364 
0 -10.42465133 -66.622102778 0 -11.074916384 -65.6407192 0 -10.794696314 -64.809837577 
0 -11.382177987 -63.735435282 0 -11.284011349 -59.751808721 0 -11.498453226 -57.969527664 
0 -11.424313155 -56.535645495 0 -11.68240535 -55.338669577 0 -11.796464269 -54.61879585 
0 -11.594993037 -54.457860622 0 -11.891331418 -54.552642095 0 -11.826045853 -55.796596155 
0 -11.422481455 -56.694327774 0 -11.663039726 -57.867505349 0 -11.720077756 -67.459946623 
0 -11.927388761 -66.624101436 0 -12.048418732 -62.727354339 0 -12.812487704 -54.968929565 
0 -11.821048701 -59.182623009 0 -12.079579028 -60.191062202 0 -12.569865171 -64.359799056 
0 -12.442778004 -66.167435029 0 -12.343849636 -67.575860211 0 -12.15852637 -68.302966171 
0 -12.078277395 -68.641358461 0 -11.993490223 -68.446749594 0 -12.290564114 -68.55211872 
0 -12.538210535 -65.662185816 0 -12.769287295 -61.132948134 0 -13.343597995 -54.741517739 
0 -13.412563827 -54.043655236 0 -13.451629926 -53.235979325 0 -13.424495177 -52.959672881 
0 -13.26878799 -53.185321895 0 -13.577661783 -53.128539475 0 -13.201216107 -56.118434076 
0 -13.263357249 -57.823790824 0 -13.031767642 -60.476455089 0 -13.454370835 -63.066664332 
0 -13.143716928 -69.973379383 0 -13.128725246 -70.108547653 0 -13.049954189 -69.537684053 
0 -13.037016726 -68.724910219 0 -13.240272594 -67.704956003 0 -13.243236569 -66.094761167 
0 -13.278343849 -64.384997058 0 -13.723307408 -62.764529274 0 -13.445433602 -58.894939664 
0 -14.078731294 -56.482251605 0 -14.448635952 -52.216497341 0 -14.239487553 -53.191163949 
0 -14.403833595 -54.180987876 0 -14.475125828 -61.716528867 0 -13.876355533 -66.379781972 
0 -13.737632507 -68.195249419 0 -13.86661059 -69.894666771 0 -14.551247535 -60.680983 
0 -14.884717515 -53.908534781 0 -14.991394561 -52.492409221 0 -15.07905349 -51.414899288 
0 -15.358270308 -50.900550119 0 -14.787564278 -55.5710003 0 -14.494924492 -58.943603306 
0 -14.926117469 -63.976603104 0 -14.099928634 -71.24848309 0 -14.090168237 -71.693977745 
0 -14.089424291 -71.541088123 0 -14.142200523 -71.027702449 0 -14.182201362 -69.771961093 
0 -14.356490067 -68.416297557 0 -14.486420213 -66.897731956 0 -14.565881278 -65.03836365 
0 -14.969945856 -63.097393499 0 -15.090779759 -58.15530783 0 -15.534405195 -55.734453773 
0 -16.061006395 -50.001774289 0 -15.657733502 -51.024769576 0 -15.554322029 -52.139023003 
0 -15.680114998 -53.570442786 0 -15.671359946 -62.207548887 0 -15.409774412 -65.278922784 
0 -15.367308222 -65.874513349 0 -15.31773793 -66.436366696 0 -15.215372638 -67.757661609 
0 -15.176982243 -68.326667188 0 -14.909464501 -73.081922324 0 -14.880094053 -73.50128911 
0 -14.874146843 -73.464206232 0 -15.256560653 -67.201325374 0 -15.40512022 -66.812760775 
0 -15.451784404 -66.254891045 0 -15.494961195 -65.673157714 0 -15.631237843 -62.393733061 
0 -15.685752549 -61.576392766 0 -15.740542945 -60.541299354 0 -16.406982736 -52.838885339 
0 -16.445375315 -52.38120302 0 -16.476421467 -51.962692397 0 -16.548970958 -51.119603701 
0 -16.567677978 -50.791712619 0 -16.57974174 -50.182917314 0 -16.535985359 -50.13191216 
0 -16.716445313 -50.120628545 0 -16.691304238 -50.421110377 0 -16.660271448 -50.766490078 
0 -16.575218429 -51.700276038 0 -16.539637159 -52.11862233 0 -16.455619787 -52.690634418 
0 -18.578028713 -60.581264083 0 -21.037242533 -61.092169953 0 -21.218547807 -58.754227721 
0 -18.653646449 -59.580532313 0 -21.380313322 -56.737344584 0 -21.292924259 -57.831104174 
0 -18.777994989 -58.032865311 0 -18.896514527 -56.510613551 0 -21.451262099 -55.832087194 
0 -21.541790898 -54.646958446 0 -21.621921545 -53.602249895 0 -18.966437532 -55.559913998 
0 -21.685993071 -52.788143961 0 -21.764850326 -51.72873547 0 -19.069737333 -54.160962894 
0 -19.165350113 -52.802456232 0 -21.827974602 -50.927047352 0 -21.905741444 -49.852650535 
0 -21.992834546 -48.898365307 0 -19.243558145 -51.909311465 0 -19.317192175 -50.503655503 
0 -22.052600993 -48.036901564 0 -22.115968144 -46.71060551 0 -22.261483648 -45.463954229 
0 -19.541648743 -48.158319154 0 -22.373283949 -44.039298061 0 -19.621703404 -47.174884864 
0 -22.471868059 -42.788271993 0 -22.531829543 -42.078627854 0 -19.744232315 -45.72487793 
0 -22.571622012 -41.575104105 0 -19.802129426 -44.988156171 0 -22.698688225 -39.945223934 
0 -22.723162165 -39.654135321 0 -19.822797141 -44.733541605 0 -19.874678186 -44.091692422 
0 -22.746124926 -39.362365781 0 -22.795156471 -38.730959973 0 -19.895384294 -43.821188242 
0 -19.79819384 -43.7201779 0 -22.811201556 -38.538060002 0 -22.702581288 -38.574692891 
0 -19.816351239 -43.53287128 0 -22.71256052 -38.467751554 0 -22.844528241 -38.159154911 
0 -22.839008851 -38.152251072 0 -19.937027911 -43.283578577 0 -19.930564165 -43.329838669 
0 -22.841436019 -38.167718139 0 -19.908057979 -43.508070822 0 -22.820834977 -38.358300079 
0 -22.803340544 -38.544540145 0 -22.779548486 -38.779842815 0 -19.88790504 -43.701589165 
0 -19.858120568 -44.09072891 0 -22.762300453 -39.007018962 0 -19.813249461 -44.567797834 
0 -22.675663987 -40.094219878 0 -19.753120094 -45.321885466 0 -22.604467435 -41.062730662 
0 -19.70910758 -46.061585556 0 -22.531868091 -42.077858019 0 -22.477985357 -42.780119649 
0 -19.60294508 -47.545789065 0 -22.377470332 -44.065303243 0 -22.308252429 -44.936068174 
0 -22.203446297 -46.06063429 0 -19.482371852 -49.072827519 0 -19.370017675 -50.498844331 
0 -22.129524103 -46.998784691 0 -21.987483038 -49.003683335 0 -19.30608004 -51.319599055 
0 -19.200569087 -52.656169632 0 -21.925424236 -49.797535787 0 -21.847551635 -50.773941311 
0 -19.093957093 -54.044814651 0 -21.78370566 -51.600863154 0 -21.697261238 -52.731498305 
0 -21.610596613 -53.770738725 0 -19.01704656 -54.983258426 0 -18.896041429 -56.464742486 
0 -21.544725884 -54.65403831 0 -21.448418403 -55.82163259 0 -21.304059329 -57.16863238 
0 -18.776249237 -57.512293727 0 -21.207674018 -58.399026351 0 -18.601078667 -59.673410316 
0 -21.10189945 -60.114011523 0 -20.857865929 -63.105233321 0 -18.31558049 -63.758886824 
0 -20.704191498 -65.28587475 0 -18.088979004 -65.202660815 0 -20.434565157 -67.194638294 
0 -20.459670855 -68.399677624 0 -18.017660745 -67.681150057 0 -20.3111177 -70.32225392 
0 -20.220089746 -71.47138923 0 -20.131989157 -72.573247696 0 -20.078228289 -73.243793751 
0 -17.860126101 -69.684955929 0 -19.890337728 -74.151351866 0 -17.657805666 -70.744066583 
0 -19.865875837 -75.969965259 0 -19.831845034 -74.903049348 0 -17.560081446 -72.01413016 
0 -17.469401932 -73.154586729 0 -19.81268519 -76.645816504 0 -19.64104826 -77.303905883 
0 -17.382845013 -74.26600527 0 -19.589438401 -77.958092964 0 -19.629095015 -78.990541331 
0 -19.571146749 -79.703601181 0 -17.432895303 -75.118605786 0 -17.355118223 -76.067983715 
0 -19.526677512 -80.274593458 0 -19.469876211 -80.976312839 0 -19.41767215 -81.555975049 
0 -17.305658409 -76.601346551 0 -19.383387032 -81.991608776 0 -19.24586775 -82.307253753 
0 -17.145780916 -77.122695944 0 -19.216066566 -82.686295558 0 -19.188879644 -83.228397177 
0 -19.168920609 -83.496282412 0 -19.227722605 -84.072768399 0 -17.023345971 -78.730134477 
0 -19.088687503 -84.260402159 0 -19.171392344 -84.698520042 0 -19.161216363 -84.882933579 
0 -19.163454545 -84.799481172 0 -17.096120454 -79.380653995 0 -19.162443762 -84.88683842 
0 -19.0658628 -84.518977528 0 -19.192506736 -84.517249918 0 -19.076499991 -84.421827216 
0 -17.141794499 -78.850130516 0 -19.258000055 -83.695235933 0 -19.233478354 -84.038380955 
0 -17.161742204 -78.575006575 0 -17.20117489 -78.069995428 0 -19.280962816 -83.403466392 
0 -19.312533896 -82.982053621 0 -19.352051671 -82.459490334 0 -17.230269471 -77.662178417 
0 -19.434253821 -81.488050491 0 -19.386806094 -82.035942875 0 -17.290034286 -76.945206604 
0 -17.352789649 -76.095432622 0 -19.47369736 -80.984352521 0 -19.522179506 -80.266142122 
0 -19.576153045 -79.580419656 0 -17.393365632 -75.487811634 0 -19.620626435 -79.015331658 
0 -19.685801579 -78.240561818 0 -17.47430275 -74.515134466 0 -17.575842082 -73.222969234 
0 -19.742365013 -77.490338879 0 -19.844193954 -76.170207388 0 -19.940599847 -74.914959971 
0 -17.759106197 -70.749932127 0 -20.073670252 -73.207007284 0 -20.168365186 -72.13607113 
0 -17.949473189 -68.510285359 0 -20.310438485 -70.266782227 0 -18.056010906 -67.10058886 
0 -20.45743726 -68.404840914 0 -20.462826378 -67.141569798 0 -18.166660175 -64.551157522 
0 -20.533759768 -66.23668611 0 -18.378448693 -63.083946671 0 -20.968672381 -61.963436349 
0 -20.878462015 -63.089250822 0 -18.459837454 -62.083433736 0 -20.782616788 -64.301555636 
0 -20.711210326 -65.224720774 0 -18.044254916 -66.069779584 0 -20.374510011 -69.452676293 
0 -20.231443909 -71.334630872 0 -17.836824174 -69.873578963 0 -20.000912543 -74.150931141 
0 -17.660403107 -72.082966536 0 -19.209505114 -84.331075748 0 -17.011911916 -78.882978787 
0 -16.996775734 -79.060791452 0 -19.159655512 -84.902766067 0 -17.091734095 -79.323738629 
0 -17.003549641 -78.899824901 0 -19.208784868 -84.298731651 0 -17.06977948 -78.395377499 
0 -17.00869998 -77.62981209 0 -17.945912212 -68.619990197 0 -20.389708916 -69.284427862 
0 -18.014195213 -66.160185264 0 -20.636755386 -66.142731791 0 -20.786043553 -64.153918818 
0 -18.441917572 -61.892861033 0 -20.997528751 -61.298368827 0 -22.067148091 -47.998469127 
0 -19.551046401 -48.223477313 0 -22.431895604 -43.35207482 0 -19.675304773 -46.59495746 
0 -22.570182317 -41.498364389 0 -22.641941454 -40.524054537 0 -22.732513229 -39.453702116 
0 -22.832754964 -38.253022157 0 -22.772961917 -39.0239916 0 -22.647457885 -40.583387464 
0 -22.61470185 -41.019627392 0 -19.673407056 -46.57378138 0 -22.417757339 -43.474210063 
0 -22.312182067 -44.820202517 0 -19.406932953 -49.374082953 0 -21.123731512 -59.966340186 
0 -23.730175901 -61.383686197 0 -23.900722542 -59.269637216 0 -24.347109447 -56.705959314 
0 -24.207751607 -55.674563796 0 -24.293092026 -54.706933497 0 -24.417650287 -52.641978789 
0 -24.543354258 -51.015685948 0 -24.701521579 -49.137314725 0 -24.82105683 -47.612620125 
0 -25.116644374 -46.833974668 0 -24.957533833 -46.004326255 0 -25.283576309 -44.782147678 
0 -25.118846766 -43.710793907 0 -25.434871202 -42.579706056 0 -25.241147146 -42.122605382 
0 -25.391558328 -40.4287297 0 -25.484155351 -39.263246968 0 -25.578347021 -38.038756048 
0 -25.698435885 -36.497404201 0 -25.732721003 -36.061770474 0 -25.765867451 -35.679554862 
0 -25.837245601 -34.782385148 0 -25.87201558 -34.309659846 0 -26.154291644 -33.559983895 
0 -25.918969178 -33.620316216 0 -25.952537284 -33.226404023 0 -26.232858602 -32.687430531 
0 -25.99643886 -32.85579591 0 -26.008358846 -32.750517988 0 -26.280676085 -32.26434215 
0 -26.015944056 -32.604725789 0 -26.01411803 -32.601986483 0 -26.259344315 -32.262432895 
0 -25.985963808 -32.754481598 0 -25.966557897 -32.987691899 0 -26.182020356 -32.869098183 
0 -25.911399944 -33.520342566 0 -25.875916202 -33.983171272 0 -26.088888612 -34.052347359 
0 -25.802786059 -35.048626278 0 -25.772223434 -35.432175242 0 -26.010170156 -35.603281829 
0 -25.698147424 -36.795612488 0 -25.606531236 -37.846853522 0 -25.526593502 -38.866657387 
0 -25.837788173 -38.976153431 0 -25.517074093 -39.987506374 0 -25.47625002 -40.540643914 
0 -25.248756471 -42.190196853 0 -25.330617791 -43.915674362 0 -25.015014223 -45.06692297 
0 -24.904687325 -46.607069606 0 -25.120575421 -46.968414513 0 -24.784254029 -48.338586563 
0 -24.95032838 -49.270402447 0 -24.583271877 -50.830878037 0 -24.735739148 -51.771667553 
0 -24.382593559 -53.212973038 0 -24.217920502 -55.312419798 0 -24.086140914 -56.997428524 
0 -23.913613586 -59.202375731 0 -23.780157002 -60.914344282 0 -23.595620334 -63.081742717 
0 -23.53059622 -63.892092413 0 -23.460214464 -64.794065567 0 -23.599605677 -66.004461359 
0 -23.257343849 -67.593388498 0 -23.107460962 -69.448290891 0 -22.978717935 -71.089294019 
0 -23.108858172 -72.423548062 0 -22.813334405 -73.265994232 0 -22.753785967 -74.028331359 
0 -22.690707243 -74.829771617 0 -22.919492478 -76.212975856 0 -22.580627119 -77.535051895 
0 -22.356610456 -78.967214118 0 -22.390658493 -81.453420098 0 -22.122168749 -81.975965522 
0 -22.022102129 -83.283887599 0 -22.1683145 -84.36038873 0 -21.874389025 -85.140216356 
0 -21.777485914 -86.263471031 0 -21.706040373 -87.160936975 0 -21.633418636 -88.125204781 
0 -21.58096928 -88.812257595 0 -21.764296171 -89.511748572 0 -21.54223087 -89.457678869 
0 -21.525104263 -89.705205584 0 -21.703434761 -90.392420298 0 -21.479519468 -90.2065409 
0 -21.45305095 -90.521471023 0 -21.635780544 -91.071275068 0 -21.423609463 -90.776037716 
0 -21.419345606 -90.861604224 0 -21.62834334 -91.310550398 0 -21.437825555 -90.85970469 
0 -21.442029901 -90.806716182 0 -21.449967701 -90.705755053 0 -21.672876199 -90.925785817 
0 -21.491645241 -90.117741318 0 -21.510582978 -89.891778066 0 -21.732306004 -89.963332834 
0 -21.568545796 -88.977342844 0 -21.624044408 -88.163793637 0 -21.683441643 -87.408010986 
0 -21.780302694 -86.399594817 0 -21.81483761 -85.966744143 0 -21.903896194 -84.73680531 
0 -21.98808022 -83.651031249 0 -22.093577023 -82.192597314 0 -22.193336804 -80.94218745 
0 -22.476948345 -80.31324216 0 -22.344116415 -79.214277959 0 -22.396083754 -78.550100776 
0 -22.454576447 -77.798403294 0 -22.746170562 -77.029003472 0 -22.656115334 -75.211133157 
0 -22.797421407 -73.486211943 0 -22.923863785 -71.880983907 0 -23.238528401 -70.819311118 
0 -23.096364168 -69.622001889 0 -23.227044217 -67.957786718 0 -23.549797656 -66.737023753 
0 -23.463271539 -64.893939555 0 -23.535093915 -63.845254059 0 -23.851792708 -62.718199139 
0 -24.588548889 -59.719692139 0 -24.947952671 -56.689342064 0 -25.170458132 -52.881163613 
0 -25.389832762 -49.327118114 0 -25.648135569 -46.381363073 0 -25.85061898 -43.812818794 
0 -26.036147459 -41.466377206 0 -26.150439869 -40.009266616 0 -26.366510753 -37.224035678 
0 -26.48192665 -35.407293661 0 -26.622301301 -33.868972879 0 -26.795773304 -32.709984376 
0 -26.78585529 -31.965791672 0 -26.908028902 -31.435215588 0 -26.81595605 -31.480120626 
0 -26.719197962 -32.1805932 0 -26.706591631 -33.290132147 0 -26.541332207 -36.655468975 
0 -26.156001407 -40.912145503 0 -25.823133579 -43.862012067 0 -25.753071955 -46.438100072 
0 -25.489565288 -49.381190317 0 -25.169700273 -52.403460597 0 -24.99781215 -54.431426474 
0 -24.713580195 -59.256646681 0 -24.326082544 -63.026207241 0 -24.114511491 -66.635676712 
0 -23.802204107 -69.821304446 0 -23.56053984 -72.989264041 0 -23.118124994 -79.885537309 
0 -22.799425651 -82.504515177 0 -22.670819631 -85.312224859 0 -22.496645199 -87.363284002 
0 -22.286858045 -88.964327116 0 -22.294417049 -90.427118699 0 -22.120295013 -91.30776636 
0 -22.063055244 -91.940899368 0 -22.055273345 -92.155660216 0 -22.198537263 -91.860146191 
0 -22.283206698 -90.947552364 0 -22.239111146 -89.535088484 0 -22.371619464 -87.974293917 
0 -22.613447774 -86.128904441 0 -22.735045252 -83.253275908 0 -22.969106225 -80.454854962 
0 -23.226280003 -77.266146848 0 -23.550497516 -74.352417171 0 -23.740785154 -70.631898805 
0 -24.151281963 -66.689909126 0 -24.410068227 -62.990681398 0 -25.426784944 -60.916524108 
0 -25.954285243 -55.053075839 0 -26.198103064 -50.435570654 0 -26.41367132 -47.146049181 
0 -26.717763899 -43.445318132 0 -26.949450244 -40.65604182 0 -27.141242475 -38.144067267 
0 -27.294360166 -36.211276739 0 -27.392698935 -34.549454873 0 -27.506164651 -33.065349545 
0 -27.794310706 -31.082467484 0 -27.817583717 -30.34178456 0 -27.764699854 -30.472053507 
0 -27.707977706 -30.909104035 0 -27.718681112 -31.593649842 0 -27.645754395 -33.097952767 
0 -27.082309054 -37.930238254 0 -26.855689141 -39.521874292 0 -26.755305479 -42.686136431 
0 -26.505120392 -48.24979421 0 -26.076709455 -52.094134259 0 -25.33476822 -62.527954781 
0 -25.19907259 -65.844369286 0 -24.724240748 -70.055484425 0 -24.399354885 -72.902403062 
0 -24.185863195 -75.473172194 0 -23.854663618 -77.9313874 0 -23.655708529 -80.290186539 
0 -23.603747119 -83.033349831 0 -23.16849829 -89.692113341 0 -22.818916861 -93.007956771 
0 -22.794309734 -93.301246818 0 -23.08909715 -91.314092955 0 -23.074517839 -89.647843638 
0 -23.625746378 -83.959107107 0 -23.684320395 -82.288710547 0 -23.995771567 -78.593483852 
0 -24.576685633 -71.79883658 0 -26.216889608 -58.248811149 0 -28.264223857 -31.581647726 
0 -28.28571238 -30.162208938 0 -28.1589166 -31.599274745 0 -27.990345147 -33.588662388 
0 -27.6723506 -34.76471607 0 -27.219529538 -44.887594942 0 -26.255798062 -55.694209467 
0 -25.759706386 -59.046188084 0 -25.687329748 -67.798144958 0 -23.873775054 -86.088732623 
0 -23.474668047 -88.049905895 0 -23.60568319 -91.531048279 0 -23.420192494 -93.708379442 
0 -23.287588488 -93.057498435 0 -23.804663183 -88.409481189 0 -23.75111771 -86.323045699 
0 -24.798851879 -76.578975757 0 -25.299529634 -68.120150916 0 -25.28295262 -64.436220266 
0 -26.349330196 -61.159847013 0 -27.10032134 -55.954790553 0 -27.026223155 -54.069498748 
0 -27.296025489 -50.698945324 0 -27.338839864 -47.738844103 0 -27.488982488 -46.000546177 
0 -27.735592659 -43.188925758 0 -27.92835474 -40.674225573 0 -28.282516396 -37.961799267 
0 -28.439816838 -35.693818424 0 -28.547411813 -33.822916592 0 -28.56222057 -32.368167511 
0 -29.236963137 -30.219047081 0 -29.154886445 -29.528708764 0 -29.060228143 -29.296265666 
0 -28.958787441 -29.328407147 0 -28.932378111 -29.643348941 0 -28.86752478 -30.194433551 
0 -29.092236463 -30.794315466 0 -28.854735586 -31.866869686 0 -28.749596072 -33.199764437 
0 -28.72895588 -34.816488146 0 -28.432277399 -36.948949695 0 -28.032957299 -39.361162248 
0 -27.786221016 -41.93750322 0 -27.75170932 -47.193742057 0 -27.112003738 -51.018334336 
0 -26.890106752 -54.733218797 0 -26.812744905 -58.661828287 0 -26.485235546 -61.878502197 
0 -25.530885578 -73.195094981 0 -25.101176275 -76.106215604 0 -24.968293288 -77.840961199 
0 -24.765623353 -80.652372296 0 -24.56448481 -83.204821237 0 -24.600323862 -86.081877886 
0 -24.494999592 -88.511359021 0 -24.22418097 -90.399224148 0 -24.000243107 -93.605433338 
0 -23.753108732 -94.102654156 0 -23.795949151 -94.469743698 0 -23.710004039 -94.441472594 
0 -24.061715953 -92.334417582 0 -23.955223894 -90.618093729 0 -24.778228753 -85.132289363 
0 -24.813255107 -81.841167506 0 -25.103886864 -79.285755619 0 -25.984454528 -75.459971177 
0 -25.758706729 -69.165432903 0 -26.289560256 -64.656789778 0 -27.477333159 -62.037443411 
0 -27.477600247 -58.897357319 0 -28.653404679 -47.565612244 0 -28.738235328 -44.279784003 
0 -28.982951972 -41.317610284 0 -29.851864207 -31.89131776 0 -29.663232733 -30.843761828 
0 -29.320909878 -38.513066889 0 -29.029273421 -40.352677087 0 -28.590842399 -43.796397176 
0 -28.494928771 -49.403735719 0 -28.077468724 -52.772078138 0 -27.041973772 -65.092679855 
0 -26.727001682 -67.4805464 0 -26.373654837 -76.514811168 0 -25.945281884 -79.774037564 
0 -25.717440834 -82.748510845 0 -24.962766079 -92.205031152 0 -24.638101133 -93.13914446 
0 -24.699031962 -94.071792493 0 -24.809150652 -94.991294567 0 -24.854724537 -95.576877677 
0 -24.674058736 -95.107313826 0 -24.587806991 -94.075815517 0 -24.759820492 -93.140928179 
0 -24.986300241 -91.904728395 0 -25.048657202 -89.659778842 0 -25.076482943 -87.773322611 
0 -26.620041566 -74.068137046 0 -26.445928267 -72.073276837 0 -28.703724399 -55.707237058 
0 -28.530052796 -51.96315635 0 -29.988483027 -38.76014094 0 -29.763408582 -35.784415826 
0 -29.901288341 -33.644337187 0 -30.623256162 -28.319629818 0 -30.655590583 -28.495678764 
0 -30.249760418 -29.110803802 0 -30.289782128 -30.709013477 0 -29.949152994 -32.342620986 
0 -29.864743161 -34.132235888 0 -29.783850392 -35.36905643 0 -29.246008569 -46.044874795 
0 -28.437103202 -58.535145137 0 -27.657780949 -61.410370647 0 -27.31595823 -69.405210029 
0 -26.846219427 -71.858205898 0 -26.309326241 -85.427661943 0 -25.627210323 -88.320551877 
0 -25.398015919 -90.621763391 0 -25.489560915 -95.902498409 0 -25.158905631 -95.759553275 
0 -26.221383545 -82.298975923 0 -26.237815527 -80.710825192 0 -27.61560304 -65.363474713 
0 -28.851300415 -59.98505148 0 -29.492938735 -56.40969662 0 -30.083996504 -52.613994601 
0 -29.859837177 -49.855886401 0 -29.981946318 -47.212598652 0 -30.105721743 -44.445010498 
0 -30.287667076 -41.897515965 0 -31.033994382 -36.952731451 0 -30.971854749 -35.2938918 
0 -31.109250582 -33.594470283 0 -31.232310232 -31.850584762 0 -31.233296249 -30.181741702 
0 -31.10270844 -29.312911234 0 -31.023126281 -28.926737388 0 -31.024609067 -28.418247648 
0 -31.765105576 -27.66295564 0 -31.352222718 -27.916001576 0 -31.694832332 -28.378499608 
0 -31.239350452 -29.211563729 0 -31.171756771 -30.116908233 0 -31.273524812 -31.409106082 
0 -31.086748209 -33.629684787 0 -30.991886728 -35.456558546 0 -30.737379112 -37.765539649 
0 -30.394564282 -40.889273068 0 -30.193677233 -43.004705571 0 -30.01037332 -45.83948999 
0 -29.887465895 -48.931986053 0 -29.535315771 -52.080983046 0 -29.11608497 -55.649365502 
0 -29.221036519 -60.989075086 0 -28.562387098 -64.497871161 0 -28.32072598 -69.05513269 
0 -27.984884727 -74.057739706 0 -27.632025179 -77.071406876 0 -27.321332934 -79.824279348 
0 -27.096812348 -82.379842353 0 -27.066107477 -87.369514834 0 -26.745233193 -88.998210636 
0 -26.565254668 -90.852837531 0 -26.279693008 -93.113361166 0 -26.138010073 -94.17353916 
0 -26.080500709 -94.935552158 0 -26.081223558 -95.665703608 0 -26.359347102 -96.650180574 
0 -26.052377543 -96.399654786 0 -26.082298984 -95.877464999 0 -26.083823053 -95.513812923 
0 -26.15841003 -94.693892063 0 -26.261535373 -93.600763558 0 -26.372220555 -91.940818478 
0 -26.471590756 -90.61119627 0 -26.554662257 -89.198886207 0 -26.775016175 -87.373358315 
0 -26.814774438 -85.079641016 0 -27.038595356 -82.781713161 0 -27.682534318 -77.175887968 
0 -27.632342705 -73.985082536 0 -28.049561256 -70.880162257 0 -28.105451935 -67.916278645 
0 -28.319256685 -66.396820601 0 -28.71398654 -63.375182954 0 -31.637198019 -38.390802525 
0 -32.494259533 -27.515136005 0 -32.684256113 -27.64527198 0 -27.886848555 -86.04351064 
0 -26.853495421 -96.857029244 0 -28.394493775 -79.60594437 0 -30.404556431 -61.224447235 
0 -30.567063221 -57.970381992 0 -30.756268023 -55.221689141 0 -31.466645559 -50.072660859 
0 -31.553852382 -47.136033271 0 -31.739169227 -44.230306897 0 -31.961733421 -41.667780365 
0 -32.051446613 -40.364480081 0 -32.731876224 -36.341523995 0 -32.515155249 -35.343047175 
0 -32.617831742 -33.631277162 0 -32.747809551 -32.120379631 0 -32.965559655 -30.749537654 
0 -32.888977647 -29.615717872 0 -33.108157177 -28.761574959 0 -33.064845871 -27.845368266 
0 -33.588634116 -27.056887385 0 -33.103346723 -27.242424531 0 -33.565556627 -27.767388235 
0 -33.116761866 -28.481524162 0 -32.95939831 -29.283574259 0 -32.7210531 -30.338115255 
0 -32.744618952 -31.743060964 0 -32.692125641 -33.042899201 0 -32.573183505 -34.585998732 
0 -32.245678227 -36.438761776 0 -32.252180147 -38.566543613 0 -32.063033038 -40.554954053 
0 -31.91291243 -42.486550926 0 -31.649764731 -44.9133338 0 -31.40597146 -48.137824719 
0 -31.289558711 -51.328266172 0 -30.748625714 -55.439004103 0 -30.502523994 -58.667776494 
0 -30.378129798 -60.248329161 0 -30.246411799 -63.303236936 0 -30.037395019 -66.931089873 
0 -29.555505051 -74.490648038 0 -29.172584535 -77.392910065 0 -28.901064072 -80.291852067 
0 -28.720020664 -82.857646356 0 -28.604748254 -84.158935087 0 -28.647471665 -88.23880455 
0 -28.277222698 -89.191085833 0 -28.110855246 -90.897843259 0 -27.998458651 -92.414747647 
0 -28.000274299 -93.802658449 0 -27.750491026 -94.906380915 0 -27.846837188 -95.702314221 
0 -27.668242643 -96.360445567 0 -27.642963342 -96.836507386 0 -27.854331177 -97.464344469 
0 -27.610533851 -97.202637846 0 -27.625729388 -96.783854228 0 -27.558898809 -95.982761603 
0 -27.823760453 -94.999813549 0 -27.902037759 -93.842074536 0 -27.926623109 -92.657642097 
0 -28.092191873 -91.490599437 0 -28.200047764 -89.933938936 0 -28.275001596 -88.011197461 
0 -28.466483247 -85.835287478 0 -28.682148841 -83.918393004 0 -28.807723533 -81.802311634 
0 -29.461651658 -77.49329709 0 -29.269621661 -75.528896478 0 -29.603689896 -71.489369834 
0 -29.697274366 -68.297933801 0 -30.10612101 -64.865847809 0 -32.118339445 -58.607279248 
0 -33.370860448 -38.447685365 0 -34.19038206 -26.977834175 0 -32.341595153 -55.640917029 
0 -29.60806516 -86.258532676 0 -28.426922049 -97.648514622 0 -29.114559634 -97.05245079 
0 -29.003536798 -96.04153785 0 -30.296904669 -79.889784295 0 -30.420485746 -78.161192315 
0 -31.28043343 -69.116821545 0 -33.157154137 -55.77781314 0 -33.459316231 -49.914279146 
0 -33.325800418 -48.209410023 0 -33.571377354 -44.448294442 0 -33.741051673 -41.791654637 
0 -34.513508371 -36.117728035 0 -34.430739543 -33.97097891 0 -34.516189988 -32.165214169 
0 -34.812151679 -29.773411168 0 -35.034116751 -27.955465776 0 -34.9876368 -27.117044859 
0 -35.122629829 -26.855366956 0 -35.100222949 -26.796881075 0 -34.814262072 -27.075622795 
0 -34.81540528 -27.531958506 0 -34.896381192 -28.912739704 0 -34.882485924 -31.44151601 
0 -34.572989369 -32.215558593 0 -34.435850099 -34.152420632 0 -34.623831816 -38.289580359 
0 -33.99183321 -39.511484812 0 -33.770953275 -42.018905103 0 -33.672861344 -43.343002954 
0 -33.402786887 -46.590846754 0 -32.97182916 -52.848941288 0 -32.903606651 -58.791553631 
0 -32.162166337 -62.29332751 0 -31.709407798 -69.061643602 0 -31.489202369 -74.946949225 
0 -31.090630069 -76.609942106 0 -30.744815441 -80.36316881 0 -30.496810761 -83.013643881 
0 -30.372159563 -88.738553881 0 -29.954584205 -90.845925065 0 -29.755275029 -92.642896226 
0 -29.674625858 -95.051433315 0 -29.581851114 -96.772008822 0 -29.429335027 -97.35473145 
0 -29.416582969 -97.751377842 0 -29.506745407 -97.977277149 0 -29.480994701 -98.028944585 
0 -29.35887007 -97.731988452 0 -29.814135835 -95.937213738 0 -29.72910996 -93.362410465 
0 -29.820474461 -92.60198602 0 -29.987578456 -90.668768534 0 -30.187868794 -86.605299843 
0 -30.397658218 -84.645150144 0 -30.612342928 -82.507273884 0 -31.376052742 -77.613433172 
0 -31.46513149 -71.95302571 0 -32.277972037 -66.491079049 0 -32.108903225 -62.982268189 
0 -34.016071946 -51.1163809 0 -35.240549057 -38.14842623 0 -35.642878499 -31.039410367 
0 -35.73589585 -28.855455552 0 -35.916873277 -26.705991151 0 -35.764219317 -28.027408735 
0 -32.227153642 -73.846743121 0 -31.407920357 -86.846591172 0 -30.693170959 -93.930974973 
0 -30.443427712 -96.102639271 0 -30.267842876 -98.24906094 0 -30.382351402 -96.90847262 
0 -30.766109472 -87.66681361 0 -33.956391928 -61.396217525 0 -34.551258972 -59.881269781 
0 -34.004920198 -58.422804853 0 -34.215792474 -56.214229162 0 -34.951834014 -55.238718285 
0 -34.569102369 -53.73436016 0 -34.835854372 -51.101169022 0 -35.393361122 -50.102602711 
0 -35.490682312 -48.866019745 0 -35.131146606 -47.403528068 0 -35.808273236 -44.354207719 
0 -35.274336502 -45.083964846 0 -35.421958562 -42.901944331 0 -36.134351404 -40.178940791 
0 -35.588841774 -40.881489053 0 -36.215424122 -39.144868332 0 -36.232150417 -36.466961917 
0 -36.493477893 -35.721327351 0 -36.097742453 -34.614268496 0 -36.734156821 -32.49654149 
0 -36.22638386 -32.983899461 0 -36.790128518 -31.77430511 0 -36.765465217 -30.030590426 
0 -37.001028991 -29.58364961 0 -36.717216139 -28.930568383 0 -37.090128394 -27.907508026 
0 -36.76040919 -28.130356033 0 -36.634994097 -27.513000158 0 -37.126342683 -27.394868528 
0 -36.682624857 -26.942899836 0 -37.180308317 -26.79676932 0 -36.874921002 -26.692376551 
0 -37.357113651 -26.66400452 0 -37.183286977 -26.716789735 0 -36.873735212 -26.673839574 
0 -36.683120344 -26.832686641 0 -37.14252847 -27.349667097 0 -36.666793194 -27.181839082 
0 -37.121175158 -27.620630244 0 -36.777835855 -27.949228445 0 -37.232198687 -28.193436614 
0 -36.727661366 -28.64938117 0 -37.015336521 -29.028063032 0 -36.502432314 -29.657017563 
0 -36.851023743 -31.321882213 0 -36.44310435 -30.871987603 0 -36.798445644 -31.989950302 
0 -36.263743479 -32.716831704 0 -36.117832764 -34.043935119 0 -36.542639205 -34.729144017 
0 -35.868390672 -35.900809772 0 -36.282658405 -38.463737541 0 -35.760096011 -37.873343565 
0 -36.203659423 -39.467514783 0 -35.636182598 -40.498392025 0 -35.485216927 -42.276780266 
0 -35.892787006 -43.201822135 0 -35.295857889 -44.475311055 0 -35.130576018 -46.51531124 
0 -35.532241951 -47.512266581 0 -34.994079064 -48.925921967 0 -35.427425129 -49.751267856 
0 -34.726038462 -52.369505089 0 -35.041779001 -53.765573518 0 -34.199922545 -55.415625908 
0 -34.050995201 -58.09377416 0 -34.683835269 -58.997696885 0 -34.577744361 -60.361136906 
0 -33.970449953 -61.845629394 0 -34.158434108 -65.730270863 0 -33.740236227 -64.812064165 
0 -33.473216704 -68.473343463 0 -33.79627057 -69.921543988 0 -33.182917528 -71.347508549 
0 -33.034463524 -73.990009941 0 -33.428896255 -75.063495514 0 -33.331575065 -76.30007848 
0 -32.747681737 -77.688320681 0 -32.939453017 -80.806024779 0 -32.526249095 -80.001726066 
0 -32.330710471 -82.179975466 0 -32.608360973 -84.980897106 0 -32.179470233 -84.201661872 
0 -32.526670979 -86.014920985 0 -32.124274488 -88.662474497 0 -32.265741645 -89.439809688 
0 -31.701696205 -90.47133215 0 -31.998989765 -92.662543564 0 -31.573707915 -92.101752587 
0 -31.941289696 -93.384643917 0 -31.644152968 -95.10303239 0 -31.806899613 -95.581320916 
0 -31.424416556 -96.181963518 0 -31.632695742 -97.250764633 0 -31.341897037 -96.979080807 
0 -31.121450276 -97.569216765 0 -31.588269688 -97.762757851 0 -31.079311284 -98.139749298 
0 -31.548007586 -98.361935551 0 -31.230049468 -98.417269971 0 -31.701867162 -98.520724244 
0 -31.538438009 -98.44139642 0 -31.225978455 -98.435393228 0 -31.062559529 -98.248683097 
0 -31.451051438 -97.781358591 0 -30.954919167 -97.872698971 0 -31.472348996 -97.510391056 
0 -31.184640853 -97.132128344 0 -31.817746 -96.990580991 0 -31.390745814 -96.461322843 
0 -31.734118105 -96.132305492 0 -31.325918765 -95.43085854 0 -31.930660666 -93.84102285 
0 -31.457384415 -94.221565859 0 -31.983238765 -93.172954761 0 -31.568828973 -92.371376628 
0 -31.632319375 -91.037786594 0 -32.159086031 -90.427468123 0 -31.74725776 -89.38235164 
0 -31.925368526 -87.691065688 0 -32.461194962 -86.970901504 0 -32.067584577 -85.679157632 
0 -32.56631387 -85.220027644 0 -32.253470054 -82.991733914 0 -32.83123127 -81.943619623 
0 -32.26979213 -80.342435391 0 -32.439403679 -78.280108829 0 -33.171778826 -77.608839041 
0 -32.861521903 -76.123212364 0 -33.40771586 -75.410645126 0 -33.124664586 -72.714929194 
0 -33.65477519 -71.390629899 0 -33.080638433 -69.63004541 0 -33.310653652 -67.338286741 
0 -34.077759471 -66.543634916 0 -33.737571476 -64.838005759 0 -34.245540059 -64.132919189 
0 -34.30596034 -63.365206727 0 -34.143430956 -65.724626813 0 -33.681006848 -68.310310315 
0 -33.720665459 -70.450082748 0 -33.554799434 -73.573643879 0 -33.465279395 -74.679231057 
0 -33.228760725 -76.868395291 0 -32.856061013 -79.106539032 0 -32.887887938 -81.123222271 
0 -32.682192703 -83.665343443 0 -32.609197152 -84.599255139 0 -32.507515828 -86.382339089 
0 -32.31532599 -88.473538463 0 -32.193114557 -89.805360103 0 -32.087339854 -91.581113991 
0 -32.018997043 -92.734335483 0 -31.96093153 -93.456395055 0 -31.843302474 -94.915704402 
0 -31.742596943 -95.769462231 0 -31.84279241 -96.776355431 0 -31.487682707 -97.315557775 
0 -31.462659498 -97.633507792 0 -31.550239614 -98.184546855 0 -31.541165845 -98.380031084 
0 -31.701867162 -98.520724244 0 -31.701627001 -98.523775779 0 -31.542509023 -98.423273163 
0 -31.55928823 -98.093579687 0 -31.573029502 -97.910452024 0 -31.61736203 -97.445597914 
0 -31.82998915 -96.902326596 0 -31.853229216 -96.687962881 0 -31.755545697 -95.941200562 
0 -31.711682306 -93.755901692 0 -31.963596931 -93.101203623 0 -32.109639017 -91.383084274 
0 -32.203576642 -90.058845801 0 -32.278720079 -86.59059004 0 -32.559349095 -85.599706158 
0 -32.735851204 -83.174529544 0 -32.86475306 -81.623129778 0 -33.083379297 -79.0848513 
0 -33.275164997 -77.040562726 0 -33.371332719 -75.794909583 0 -33.551114974 -72.7359138 
0 -33.700464387 -70.856680796 0 -34.011007502 -67.683287241 0 -34.092122408 -66.549267274 
0 -34.233201658 -64.101333545 0 -34.293621939 -63.333621083 0 -34.51732408 -61.128849368 
0 -34.620577134 -59.816894923 0 -34.586447375 -56.813031186 0 -34.959841405 -54.70485947 
0 -35.285210209 -51.588650521 0 -35.369861594 -50.482681926 0 -35.472691386 -48.252508173 
0 -35.675687321 -45.800258547 0 -35.81180316 -44.020209728 0 -36.008152312 -41.691085396 
0 -36.148904525 -40.087352972 0 -36.236337538 -39.052299956 0 -36.287295336 -36.8872994 
0 -36.480922704 -35.348031101 0 -36.652246317 -33.578477869 0 -36.765148507 -32.428763276 
0 -36.820752879 -31.706510008 0 -36.932858309 -30.246765942 0 -36.96694978 -29.387765473 
0 -37.223424474 -28.408942823 0 -37.105841447 -27.815463525 0 -37.130864656 -27.497513508 
0 -37.15476316 -26.972323233 0 -37.176381575 -26.777826289 0 -37.357113651 -26.66400452 
0 -37.357353812 -26.660952985 0 -37.184472767 -26.735326711 0 -37.149469972 -27.063585959 
0 -37.134394588 -27.246608625 0 -37.105462105 -27.712674745 0 -37.230485074 -28.282519701 
0 -37.219905144 -28.497879791 0 -37.006604907 -29.220167157 0 -36.621425488 -31.371699626 
0 -36.767821283 -32.057745404 0 -36.643292268 -33.77755787 0 -36.528916827 -35.100187851 
0 -36.060580389 -38.537498652 0 -36.182746006 -39.560083159 0 -35.977693876 -41.983012838 
0 -35.862316343 -43.535476991 0 -35.681176693 -46.076705728 0 -35.550804003 -48.12582761 
0 -35.450924658 -49.371188642 0 -35.149961126 -52.420647251 0 -35.003494991 -54.300107175 
0 -34.623370153 -57.078687496 0 -34.613882944 -59.061983139 0 -34.508426199 -60.425511764 
0 -34.391803813 -62.274461987 0 -32.035419552 -73.163676233 0 -30.371249164 -94.064294062 
0 -30.563409952 -96.451892679 0 -30.263771863 -98.267184197 0 -30.38414826 -96.685392845 
0 -30.638412489 -94.742273343 0 -31.303653617 -88.089172599 0 -32.454265295 -67.828676777 
0 -33.725160969 -51.737262704 0 -35.626518114 -30.848726469 0 -35.722819041 -28.51205525 
0 -35.915687487 -26.687454175 0 -35.76850897 -28.270603292 0 -35.715709223 -30.229534315 
0 -35.331948574 -36.904832131 0 -32.639218376 -64.809806171 0 -31.947943589 -70.225515186 
0 -31.287658028 -74.82757308 0 -31.741189067 -76.196980456 0 -31.137473403 -80.833765597 
0 -31.14240007 -83.482286094 0 -30.937003358 -85.547639648 0 -30.064215598 -88.719445243 
0 -30.655406423 -89.652510498 0 -30.538787212 -91.325712857 0 -30.508029081 -92.276927458 
0 -29.661762344 -94.758910844 0 -30.230513886 -95.43133678 0 -29.859800295 -97.624794944 
0 -29.966308857 -98.044028722 0 -30.02144369 -97.806978571 0 -30.03412448 -97.310833427 
0 -29.648023576 -95.692747761 0 -29.795575993 -93.49106797 0 -30.469240098 -91.997713783 
0 -30.65110921 -90.038211745 0 -30.573557219 -85.81024237 0 -31.048144317 -84.359791176 
0 -31.222995943 -81.860960499 0 -31.467671067 -79.477224585 0 -31.655773158 -77.736148427 
0 -31.725736025 -71.922945667 0 -32.164848461 -70.677807236 0 -31.968120871 -65.846121509 
0 -32.649989304 -64.43856153 0 -32.946739818 -60.956498364 0 -33.17432505 -54.650294841 
0 -33.27253538 -49.81107674 0 -33.924718193 -48.512004639 0 -34.092298043 -45.730607417 
0 -34.223306678 -44.262796651 0 -34.429773802 -41.558555603 0 -34.552890601 -40.300232713 
0 -34.830486844 -35.465363669 0 -35.082805388 -33.588487587 0 -35.201228688 -32.644172384 
0 -35.028553244 -30.06122774 0 -35.414713486 -29.494740495 0 -34.995467523 -27.876736018 
0 -35.446116887 -27.257921551 0 -35.563295564 -26.859903734 0 -35.593748553 -27.15674973 
0 -35.56511262 -27.494026138 0 -34.8861633 -29.135871996 0 -34.688715372 -31.333748144 
0 -35.11923862 -32.913880542 0 -34.992334968 -34.877708455 0 -34.254337644 -39.041492708 
0 -34.496181231 -40.548328219 0 -34.277976903 -43.043746965 0 -34.146741217 -45.436410756 
0 -34.060163142 -47.185477028 0 -33.219879386 -52.938054218 0 -33.458803054 -54.236555248 
0 -32.800670475 -59.432724914 0 -32.832264722 -61.364510853 0 -31.434892017 -67.038382129 
0 -29.434330828 -96.734015014 0 -29.510934243 -87.944262762 0 -30.498814356 -73.844470161 
0 -30.686401126 -72.038202602 0 -32.174124062 -57.740479361 0 -33.847663815 -37.534917202 
0 -33.972329156 -36.232962724 0 -34.075563218 -31.031244903 0 -34.169999869 -30.191205863 
0 -33.538631658 -36.767514791 0 -32.29725667 -50.858449301 0 -32.199971436 -52.671823744 
0 -32.323944646 -56.525580449 0 -30.880331079 -62.895471919 0 -30.432336807 -66.547412799 
0 -30.239457937 -69.722589242 0 -30.161853291 -72.611112661 0 -30.000863555 -74.363512879 
0 -29.202012356 -80.54452411 0 -29.377485372 -82.821080107 0 -29.172264545 -84.767450831 
0 -28.942742355 -86.770646986 0 -28.818234161 -88.898481951 0 -28.778201234 -90.771160264 
0 -28.59515317 -92.179213394 0 -28.485558617 -93.338502795 0 -28.436102282 -94.56059899 
0 -28.174705827 -95.69128884 0 -28.067958586 -96.651446388 0 -28.171400212 -97.292052138 
0 -28.312689554 -97.627490024 0 -27.712628078 -97.224257887 0 -28.21214026 -97.259314815 
0 -28.255297388 -96.876323292 0 -28.390006916 -96.30002912 0 -28.428987454 -95.563142938 
0 -28.465173766 -94.632643462 0 -28.606944672 -93.443983915 0 -28.587677156 -92.02161605 
0 -28.763797227 -90.367334717 0 -28.796778335 -85.47111401 0 -29.326209248 -82.375387678 
0 -29.593485083 -79.432316582 0 -29.823012597 -76.46515624 0 -29.935342611 -70.475531356 
0 -30.519236848 -68.744110787 0 -30.741421545 -65.26606742 0 -30.985288158 -61.738057006 
0 -31.164773246 -57.769600922 0 -31.448823044 -54.414726258 0 -31.794817908 -52.613529217 
0 -32.013944374 -49.637492279 0 -32.142631159 -46.390251295 0 -32.430912911 -43.517357215 
0 -32.594504251 -41.528342482 0 -32.727229016 -39.667657995 0 -32.74061634 -37.655707272 
0 -32.893496003 -35.643917183 0 -33.257379913 -33.862101236 0 -33.296617606 -32.441443706 
0 -33.214068008 -31.106904743 0 -33.321611422 -29.842800636 0 -33.678113115 -28.877573414 
0 -33.74561887 -28.112165747 0 -33.578431989 -27.25767135 0 -33.876104191 -26.997353317 
0 -33.400262058 -27.286826514 0 -33.721421561 -27.414331301 0 -33.782620389 -28.152108389 
0 -33.661860874 -29.073181905 0 -33.552076783 -29.997845033 0 -33.509849423 -31.198962011 
0 -33.26577755 -32.596192807 0 -33.179745103 -34.257396893 0 -32.446382492 -39.09849638 
0 -32.485016939 -42.238930426 0 -32.288604413 -45.187578586 0 -32.051139922 -48.154114273 
0 -31.035942655 -53.696665263 0 -31.326010983 -56.243115961 0 -31.006999652 -59.404560077 
0 -28.530552 -78.283309331 0 -27.834672802 -87.125471094 0 -32.670337285 -27.892568298 
0 -32.535170224 -27.399784828 0 -31.75492054 -37.314000713 0 -29.074289067 -64.997987208 
0 -28.686834631 -68.891282098 0 -28.424232949 -72.053594552 0 -28.0581173 -75.38006583 
0 -27.59443284 -80.360052259 0 -27.767756995 -81.786418258 0 -27.383225363 -83.894919436 
0 -27.407916618 -86.170951231 0 -27.165842046 -88.278245036 0 -27.04563541 -89.967295617 
0 -26.939993749 -91.297278763 0 -26.855888617 -92.612567855 0 -26.822031257 -93.378703308 
0 -26.729200046 -94.503349344 0 -26.637163418 -95.481829031 0 -26.563904487 -96.315424435 
0 -26.558664131 -96.605908013 0 -26.645888887 -96.833239064 0 -26.262634002 -96.355457786 
0 -26.552589742 -96.299879 0 -26.584542414 -95.686454269 0 -26.62103121 -95.011828557 
0 -26.685319622 -94.207262802 0 -26.879964945 -92.982494267 0 -26.976577634 -91.968705575 
0 -27.110313776 -90.175106812 0 -27.259200135 -88.544698199 0 -27.128732606 -84.936183838 
0 -27.500044151 -83.846906995 0 -27.700502246 -81.529675527 0 -27.915706176 -79.068714567 
0 -28.196482526 -76.255137861 0 -28.69347919 -73.22100371 0 -28.88572998 -71.012154586 
0 -28.888496783 -66.705488546 0 -29.216275589 -62.760642005 0 -29.338089143 -57.650257999 
0 -29.864372289 -54.336287178 0 -30.153647266 -50.903437155 0 -30.415404425 -47.85714751 
0 -30.508073926 -44.643249704 0 -30.817367557 -42.243983379 0 -30.958637942 -40.158452186 
0 -31.099681486 -38.764046242 0 -31.39493966 -36.351091524 0 -31.522312797 -34.486310347 
0 -31.572364645 -32.910171138 0 -31.67073494 -31.963991223 0 -31.854393916 -30.419386335 
0 -31.676202844 -29.476410776 0 -31.96119467 -28.622677959 0 -31.515581565 -27.980897326 
0 -32.045812 -27.565129411 0 -31.433317442 -28.029730917 0 -31.737666633 -28.315104538 
0 -31.797912553 -29.263430519 0 -31.770657646 -30.222422109 0 -31.743263399 -30.96020212 
0 -31.692566617 -32.561337915 0 -31.516547708 -34.188596354 0 -31.408548929 -35.82222289 
0 -30.719095855 -39.37764585 0 -30.915435498 -40.511597809 0 -30.747024961 -42.819908717 
0 -30.574582492 -45.284258618 0 -30.411781023 -48.107101617 0 -30.417414174 -50.803364641 
0 -29.545876581 -58.203301758 0 -29.270043835 -61.572018871 0 -27.875103492 -63.618936885 
0 -26.833746435 -77.90566718 0 -26.881703182 -79.767196432 0 -25.980091971 -85.269461439 
0 -25.461654663 -96.033920698 0 -25.801007074 -90.115290672 0 -26.026377334 -87.88120256 
0 -26.298876865 -86.779032485 0 -26.946326811 -75.654677855 0 -27.227371381 -73.596020481 
0 -27.780484203 -63.843265333 0 -28.444444774 -60.293409556 0 -29.127045025 -48.116769073 
0 -29.886335782 -37.598903152 0 -30.112629077 -35.999757659 0 -30.254555868 -33.412163682 
0 -30.404656931 -31.577146258 0 -30.373988354 -29.432204452 0 -30.848760178 -28.645984728 
0 -30.524798904 -28.269821601 0 -30.914133606 -28.068205718 0 -30.311248143 -32.324672264 
0 -30.239034396 -34.203382053 0 -30.088931809 -36.280799503 0 -30.185659032 -37.412028353 
0 -29.085008277 -48.504312424 0 -29.041364767 -50.193113794 0 -29.015107535 -53.436558917 
0 -27.101028109 -68.949643447 0 -27.083557713 -70.816790032 0 -26.110791845 -77.31931357 
0 -25.516515235 -86.148050206 0 -25.718297259 -87.160636867 0 -25.52202207 -88.90668523 
0 -25.507252736 -90.595880471 0 -25.454584734 -91.499452434 0 -25.325210127 -92.967019643 
0 -25.125355722 -93.965214813 0 -25.067520933 -94.836476659 0 -25.065996865 -95.200128735 
0 -24.886996099 -95.363462176 0 -25.194824521 -94.970482175 0 -25.081389295 -94.016111815 
0 -25.15419141 -93.220295406 0 -25.540958128 -92.06437327 0 -25.719233478 -84.514426561 
0 -26.197944958 -81.761378769 0 -26.464979963 -78.68710497 0 -28.22747903 -54.769640919 
0 -28.637018146 -51.39649859 0 -28.613398554 -45.480992152 0 -29.257540398 -42.618356446 
0 -29.392928038 -41.167840824 0 -29.974138193 -30.149090451 0 -30.227186676 -30.925893795 
0 -29.262793797 -39.569822033 0 -29.303117215 -42.367751397 0 -29.081481971 -45.434650352 
0 -27.755619667 -56.893481831 0 -27.897472787 -60.206722089 0 -26.795765505 -65.963050446 
0 -26.494995325 -68.029761136 0 -25.727110067 -71.341802018 0 -25.414908241 -78.095125302 
0 -25.436287518 -80.392415537 0 -25.32041825 -82.971616295 0 -25.241805489 -84.253700595 
0 -24.271560722 -89.59469307 0 -24.23054076 -91.501653532 0 -23.942290411 -94.476233103 
0 -24.13759127 -94.889877719 0 -24.150190685 -94.750229325 0 -24.105237679 -94.22903098 
0 -24.290764747 -91.384888149 0 -24.753240092 -89.776757271 0 -24.965978667 -87.561626345 
0 -24.943962285 -84.825397961 0 -25.006974482 -82.070534131 0 -25.22342663 -79.343007806 
0 -25.682951698 -75.243341377 0 -25.973529104 -71.791523972 0 -26.393022002 -63.930964241 
0 -27.011484062 -60.607323125 0 -27.45170022 -57.706611389 0 -27.464080222 -55.941999669 
0 -27.295180005 -52.753058257 0 -27.752203081 -49.044591346 0 -27.863957274 -43.556896342 
0 -28.244029817 -40.720351918 0 -28.596503801 -38.122238404 0 -28.98886673 -35.788776701 
0 -29.156841913 -33.887843814 0 -29.152094447 -32.374613816 0 -29.53691933 -30.966744076 
0 -29.484183236 -30.116728133 0 -29.374210447 -29.574943232 0 -29.614758487 -29.028903547 
0 -29.647325655 -28.867942135 0 -29.674470326 -28.940055354 0 -29.694963905 -29.29679996 
0 -29.707398175 -29.568657122 0 -28.856033329 -31.526128391 0 -28.994097505 -32.651224914 
0 -28.995218712 -34.382674361 0 -28.870260653 -36.536515024 0 -28.546702318 -39.150610013 
0 -28.183062642 -41.842813401 0 -27.970600101 -44.575755246 0 -27.775066417 -48.700649879 
0 -27.647910424 -52.280440873 0 -26.695163357 -59.412205083 0 -26.711627458 -62.475720572 
0 -25.529612981 -65.678218482 0 -25.055190867 -72.905930338 0 -25.13842203 -75.029239287 
0 -24.078685256 -85.112190983 0 -24.136220537 -87.341204342 0 -23.561354784 -92.240394562 
0 -23.721910592 -93.157505864 0 -23.506093552 -92.680648535 0 -23.761594246 -92.270040334 
0 -23.593530223 -89.513637884 0 -23.847078294 -87.670093908 0 -25.403595974 -69.65612666 
0 -25.855386557 -61.120988208 0 -26.190816218 -57.858207236 0 -26.53190494 -50.577433576 
0 -27.084725429 -46.839845681 0 -27.760917369 -36.757171534 0 -28.003715493 -35.304462451 
0 -28.107646459 -32.201310687 0 -28.274140736 -29.979642626 0 -28.334248206 -30.969237793 
0 -26.344028171 -56.795272107 0 -24.789427739 -69.189426273 0 -24.232804261 -76.688690953 
0 -24.250797809 -79.674398974 0 -24.093672866 -81.432756866 0 -23.248702742 -88.556169315 
0 -23.314141452 -90.524556172 0 -22.907359365 -93.300693285 0 -23.079581058 -93.706068107 
0 -23.083090597 -93.616517284 0 -23.134693463 -93.213608016 0 -22.992672855 -92.415200036 
0 -23.11406748 -90.723859733 0 -23.541229426 -84.864519199 0 -23.964783256 -82.351917276 
0 -24.014058954 -79.724928665 0 -24.351094674 -77.356784423 0 -24.551938301 -74.762972083 
0 -24.796526738 -72.197400187 0 -25.589792754 -64.365055114 0 -25.915612543 -54.556097894 
0 -26.717221229 -44.456587352 0 -27.17987753 -41.497750898 0 -27.317744219 -39.895907625 
0 -28.035342519 -30.866395982 0 -28.098327631 -30.305547314 0 -28.100161977 -30.054980821 
0 -27.815417303 -30.693919782 0 -27.675870319 -32.226255491 0 -27.800705431 -33.262780901 
0 -27.707528382 -34.826533161 0 -27.578841723 -36.518804233 0 -27.414473334 -38.744365701 
0 -27.199145727 -41.397090945 0 -26.999502929 -44.068565117 0 -26.856391068 -45.717528739 
0 -26.614669432 -48.556313805 0 -26.443232569 -51.616396396 0 -26.311245857 -53.502146994 
0 -25.617238758 -58.814059184 0 -25.680602633 -62.098918004 0 -24.6324926 -64.868977612 
0 -24.262620996 -68.588885386 0 -23.947340446 -72.572527473 0 -23.697026248 -75.811750423 
0 -23.374876429 -78.841336656 0 -23.122961235 -81.830263704 0 -23.00777375 -84.322010697 
0 -22.990121389 -85.66796176 0 -22.771932127 -87.541135565 0 -22.535171291 -89.205592331 
0 -22.553413392 -90.766876575 0 -22.574938199 -91.971744716 0 -22.398354422 -92.538213754 
0 -22.279006963 -92.513318459 0 -22.314184279 -92.120267214 0 -22.483006986 -91.397047937 
0 -22.567967901 -90.227474052 0 -22.660266025 -88.655007313 0 -22.886015288 -86.936658041 
0 -22.989937853 -84.536595868 0 -23.130968425 -81.639752486 0 -23.399127231 -76.419262811 
0 -23.681572104 -74.839437424 0 -23.912247514 -71.76242979 0 -24.217025487 -68.819361956 
0 -24.477055734 -65.368322008 0 -24.793074867 -61.665154186 0 -25.159593377 -58.044647152 
0 -25.25051769 -55.718554731 0 -25.583502725 -51.228625218 0 -25.955987471 -47.919059992 
0 -26.089466095 -45.161629127 0 -26.193484433 -42.474564369 0 -26.524462469 -37.758947249 
0 -26.92352961 -35.498416862 0 -27.000829956 -33.69529551 0 -27.048179974 -32.310431674 
0 -27.062334287 -31.506519422 0 -27.097567894 -31.232963153 0 -27.20050975 -31.006014719 
0 -27.183894872 -31.261040914 0 -27.129767598 -31.881941791 0 -27.059120732 -32.749377316 
0 -26.851759448 -34.055806427 0 -26.728325358 -35.703510751 0 -26.617716115 -37.454723378 
0 -26.51566137 -38.7803461 0 -26.262619697 -41.934702025 0 -26.056067698 -44.582385776 
0 -25.820668779 -47.448594621 0 -25.566268935 -50.903829522 0 -25.397884026 -54.834881848 
0 -25.063340315 -58.343373555 0 -24.806710559 -61.375530156 0 -26.596599718 -34.919705922 
0 -23.400910399 -65.692295477 0 -23.164528448 -68.756376281 0 -22.865115076 -72.622009132 
0 -22.961583938 -74.337664104 0 -22.602354466 -75.881679212 0 -22.145186883 -81.538410232 
0 -22.245968841 -83.160999538 0 -21.94836543 -84.165813032 0 -22.077298303 -85.52062687 
0 -21.932855805 -87.234587024 0 -21.653845591 -87.784751833 0 -21.796343973 -88.856255837 
0 -21.548586761 -89.24522808 0 -21.479438705 -90.279128063 0 -21.418152811 -90.839057599 
0 -21.462521089 -90.39271507 0 -21.603465529 -88.508468124 0 -21.859933408 -88.081217444 
0 -21.738042376 -86.767169001 0 -22.008787722 -86.248625367 0 -21.913570794 -84.645012359 
0 -22.065605315 -82.726188461 0 -22.279206629 -79.915031608 0 -22.710279166 -78.771795201 
0 -22.633996498 -76.85270369 0 -23.03862513 -70.331537687 0 -23.389192027 -68.830637858 
0 -23.319875823 -66.815137215 0 -23.889171204 -62.272816457 0 -23.842211126 -60.103952995 
0 -24.208976132 -58.357650297 0 -24.146971725 -56.217677188 0 -24.50397559 -54.556960748 
0 -24.442468994 -52.455645721 0 -24.643156068 -50.068933482 0 -24.955247776 -45.928386714 
0 -25.16698053 -43.092602963 0 -25.655122951 -41.090853187 0 -25.565400761 -38.371298693 
0 -25.917026463 -37.078196432 0 -25.729025481 -36.400316508 0 -25.82726 -34.757537665 
0 -25.894016798 -33.742361968 0 -25.975984575 -32.861422935 0 -26.013516889 -32.589258722 
0 -25.936217211 -33.39314007 0 -26.05963522 -34.836101704 0 -25.924415617 -36.499546999 
0 -25.61892256 -37.51677965 0 -25.789139237 -38.261546814 0 -25.442692824 -39.777884189 
0 -25.6033786 -40.627460136 0 -25.074593564 -44.46037483 0 -24.765367554 -48.310392882 
0 -24.857866033 -49.865453866 0 -24.483521016 -51.758679204 0 -24.613639455 -53.337983872 
0 -23.986730506 -58.106005171 0 -24.070289751 -60.000330439 0 -54.471765292 -65.483073478 
0 -44.544039389 -65.474212146 0 -44.37536313 -67.60201999 0 -54.308340237 -67.55958568 
0 -54.093709159 -70.215272951 0 -44.280580516 -68.73488815 0 -53.942800813 -72.204204442 
0 -44.009336543 -72.300128741 0 -43.925844513 -73.36099557 0 -53.742420328 -74.750279904 
0 -53.588113811 -76.710930108 0 -43.66407652 -76.655200523 0 -43.512059466 -78.603180411 
0 -53.436346986 -78.639310455 0 -53.237694417 -81.056509252 0 -43.422280497 -79.637008955 
0 -53.10790343 -82.812581519 0 -43.181219555 -82.78406469 0 -43.102786977 -83.704756335 
0 -52.928195821 -85.020094449 0 -52.804633253 -86.665994486 0 -42.890064848 -86.489951296 
0 -42.766315096 -88.062340984 0 -52.679941584 -88.250352363 0 -52.517042127 -90.179711838 
0 -42.690221382 -88.888728921 0 -42.514788723 -91.307546796 0 -52.421924947 -91.528764573 
0 -42.425747279 -92.454658337 0 -52.326429491 -92.791409613 0 -52.200848637 -94.337805426 
0 -42.300564719 -93.980260628 0 -42.218322074 -95.025252507 0 -52.11589856 -95.417198506 
0 -52.00616554 -96.660398584 0 -42.164482472 -95.558259377 0 -42.070499501 -97.007535654 
0 -51.954492816 -97.468052926 0 -42.022703544 -97.614840865 0 -51.907038343 -98.175038439 
0 -41.997657133 -97.829066425 0 -51.838045839 -98.947652061 0 -41.955406506 -98.365911547 
0 -41.92255309 -98.783710176 0 -51.801466772 -99.412433172 0 -51.765668631 -99.840586789 
0 -41.906041092 -98.966810115 0 -41.881872499 -99.300249695 0 -51.753051255 -100.02761065 
0 -41.879678297 -99.328129673 0 -51.747224079 -100.10165193 0 -41.879918458 -99.325078138 
0 -51.753051255 -100.02761065 0 -41.891244197 -99.189699239 0 -41.897449408 -99.064903797 
0 -51.770859887 -99.755379776 0 -51.801466772 -99.412433172 0 -41.945717009 -98.489028283 
0 -41.986073929 -97.976244986 0 -51.838045839 -98.947652061 0 -51.905231999 -98.174900283 
0 -42.0208972 -97.614702709 0 -51.954492816 -97.468052926 0 -42.142732453 -96.35927276 
0 -41.979985808 -95.880984234 0 -51.840660424 -96.368249889 0 -52.11589856 -95.417198506 
0 -42.278257484 -94.263700922 0 -42.368935851 -93.122571572 0 -52.200848637 -94.337805426 
0 -52.324207877 -92.7912528 0 -42.423160222 -92.454460742 0 -52.421924947 -91.528764573 
0 -42.613918395 -90.190444938 0 -42.514506211 -88.878750654 0 -52.54295699 -90.182626932 
0 -52.679941584 -88.250352363 0 -42.857386732 -86.905166123 0 -42.98633951 -85.27061164 
0 -52.804633253 -86.665994486 0 -52.978283379 -84.500063282 0 -43.063146339 -84.335191196 
0 -43.311425308 -81.308609814 0 -53.10790343 -82.812581519 0 -43.444706895 -79.638833055 
0 -53.259548984 -81.058292857 0 -53.436346986 -78.639310455 0 -43.624318865 -77.16036942 
0 -43.778371725 -75.202942244 0 -53.588113811 -76.710930108 0 -53.776070064 -74.143880687 
0 -43.851643559 -74.09309653 0 -44.147830226 -70.611884261 0 -53.942800813 -72.204204442 
0 -44.29360801 -68.736028264 0 -54.107376868 -70.216424758 0 -54.308340237 -67.55958568 
0 -44.501206616 -66.018454129 0 -44.664879951 -63.938787222 0 -54.471765292 -65.483073478 
0 -54.678449327 -62.856903814 0 -44.871563986 -61.312617558 0 -45.037826894 -59.18461978 
0 -54.841874381 -60.780391612 0 -55.045326786 -58.123824561 0 -45.121430835 -58.050871839 
0 -55.207413805 -56.13577285 0 -45.411135486 -54.487082382 0 -45.494627516 -53.426215553 
0 -55.40779429 -53.589697389 0 -55.562100807 -51.629047185 0 -45.751526856 -50.131629181 
0 -45.906112575 -48.183851452 0 -55.713867632 -49.700666838 0 -55.894748815 -47.282066897 
0 -45.978120159 -47.148621765 0 -56.042311188 -45.527395774 0 -46.240939612 -44.00337363 
0 -46.307500575 -43.081747669 0 -56.210147182 -43.318948527 0 -56.345581365 -41.673982807 
0 -46.525538528 -40.296878408 0 -46.64928828 -38.72448872 0 -56.470273035 -40.089624929 
0 -56.613190513 -38.157650994 0 -46.705400016 -37.895486323 0 -46.908520649 -35.479889384 
0 -56.728289671 -36.81121272 0 -47.000023233 -34.332971538 0 -56.831491124 -35.549174155 
0 -56.949365981 -34.002171867 0 -47.115038657 -32.806569076 0 -47.197281301 -31.761577197 
0 -57.034316059 -32.922778786 0 -57.120413373 -31.677718538 0 -47.227485198 -31.226710157 
0 -47.361376072 -29.7805747 0 -57.195721802 -30.871924367 0 -47.409172029 -29.173269489 
0 -57.259448472 -30.166219504 0 -47.417946242 -28.95776328 0 -57.312168936 -29.392323241 
0 -47.460197026 -28.420916166 0 -47.493106039 -28.003123916 0 -57.348748003 -28.927542129 
0 -57.380368421 -28.499061722 0 -47.505440472 -27.819695195 0 -47.533730877 -27.486580009 
0 -57.397163363 -28.312366647 0 -57.402990539 -28.238325361 0 -47.535925078 -27.458700032 
0 -47.535684917 -27.461751567 0 -57.397163363 -28.312366647 0 -47.525693292 -27.597235462 
0 -47.512299799 -27.721465174 0 -57.37216645 -28.584031787 0 -57.348747846 -28.927544121 
0 -47.469886367 -28.297801421 0 -47.429529446 -28.810584718 0 -57.312168779 -29.392325232 
0 -57.257642755 -30.166073384 0 -47.407366312 -29.173123369 0 -57.195721802 -30.871924367 
0 -47.331309058 -30.432156125 0 -47.095745285 -30.879096941 0 -56.911243775 -31.940379694 
0 -57.034316059 -32.922778786 0 -47.137345892 -32.523128782 0 -47.048395898 -33.664394158 
0 -56.949365981 -34.002171867 0 -56.829272331 -35.5489815 0 -46.997437117 -34.332761995 
0 -56.728289671 -36.81121272 0 -46.831676639 -36.598745161 0 -46.528294191 -37.87873882 
0 -56.637249287 -38.159710755 0 -56.470273035 -40.089624929 0 -46.558216643 -39.881663581 
0 -46.429881142 -41.516266645 0 -56.345581365 -41.673982807 0 -56.178267281 -43.840412668 
0 -46.359410355 -42.452185746 0 -46.131170959 -45.480344277 0 -56.042311188 -45.527395774 
0 -46.001600994 -47.150413147 0 -55.917658525 -47.283808823 0 -55.713867632 -49.700666838 
0 -45.79128451 -49.626460284 0 -45.63723165 -51.58388746 0 -55.562100807 -51.629047185 
0 -55.346168004 -54.193894804 0 -45.535983266 -52.691531372 0 -45.283941804 -56.176217944 
0 -55.207413805 -56.13577285 0 -45.134476292 -58.05178371 0 -55.059006404 -58.124825035 
0 -54.841874381 -60.780391612 0 -44.914396759 -60.768375575 0 -44.750723424 -62.848042482 
0 -54.678449327 -62.856903814 0 -44.871563986 -61.312617558 0 -45.037192732 -59.184531177 
0 -45.394538486 -54.488757698 0 -45.751526856 -50.131629181 0 -45.906683701 -48.183900908 
0 -46.236908584 -44.00477242 0 -46.525538528 -40.296878408 0 -46.448123681 -38.705681455 
0 -46.906301856 -35.479696729 0 -47.115038657 -32.806569076 0 -46.998307407 -31.743599508 
0 -47.359570355 -29.78042858 0 -47.417946242 -28.95776328 0 -47.460196869 -28.420918157 
0 -47.489494129 -28.002710424 0 -47.533730877 -27.486580009 0 -47.535684917 -27.461751567 
0 -47.52295234 -27.596829407 0 -47.469886523 -28.29779943 0 -47.429529446 -28.810584718 
0 -47.29030395 -30.428522233 0 -47.137345892 -32.523128782 0 -47.048763222 -33.664411046 
0 -46.807617865 -36.5966854 0 -46.558216643 -39.881663581 0 -46.423520847 -41.517247201 
0 -46.108261249 -45.478602352 0 -45.79128451 -49.626460284 0 -45.63723165 -51.58388746 
0 -45.270262185 -56.17521747 0 -44.914396759 -60.768375575 0 -44.750723424 -62.848042482 
0 -44.544039389 -65.474212146 0 -44.374722916 -67.602008297 0 -43.993088338 -72.295870204 
0 -43.66407652 -76.655200523 0 -43.512631297 -78.603220907 0 -43.185030833 -82.782555942 
0 -42.890064848 -86.489951296 0 -42.564685062 -88.049447624 0 -42.512567109 -91.307389983 
0 -42.300564719 -93.980260628 0 -42.018985549 -95.011882486 0 -42.068693156 -97.007397499 
0 -41.997657133 -97.829066425 0 -41.955406506 -98.365911547 0 -41.918920965 -98.783553551 
0 -41.881872499 -99.300249695 0 -41.879918458 -99.325078138 0 -41.888473469 -99.189671515 
0 -41.945717009 -98.489028283 0 -41.986073929 -97.976244986 0 -42.10166372 -96.356447301 
0 -42.278257484 -94.263700922 0 -42.369301294 -93.122612354 0 -42.588003532 -90.187529844 
0 -42.857386732 -86.905166123 0 -42.980210913 -85.268648187 0 -43.289570741 -81.30682621 
0 -43.624318865 -77.16036942 0 -43.778371725 -75.202942244 0 -44.134162517 -70.610732454 
0 -44.501206616 -66.018454129 0 -44.664879951 -63.938787222 0 -65.180788937 -55.564605736 
0 -65.060940473 -57.087424846 0 -64.942328305 -58.594535335 0 -64.825439851 -60.079743967 
0 -64.710755432 -61.536947674 0 -64.598746262 -62.960159125 0 -64.489872662 -64.343529378 
0 -64.384582044 -65.68137352 0 -64.283307013 -66.968194805 0 -64.186463716 -68.198705565 
0 -64.094450162 -69.367848615 0 -64.00764442 -70.470820154 0 -63.926403164 -71.503088178 
0 -63.85106031 -72.460409909 0 -63.781925441 -73.338851705 0 -63.719282598 -74.134804491 
0 -63.663389181 -74.8449977 0 -63.614474928 -75.466512211 0 -63.572740823 -75.996794293 
0 -63.538358387 -76.433664563 0 -63.511468817 -76.775328938 0 -63.492182675 -77.020382617 
0 -63.480579255 -77.167818045 0 -63.47670612 -77.217030889 0 -63.480579255 -77.167818045 
0 -63.492182675 -77.020382617 0 -63.511468817 -76.775328938 0 -63.538358387 -76.433664563 
0 -63.572740823 -75.996794293 0 -63.614474928 -75.466512211 0 -63.663389181 -74.8449977 
0 -63.719282598 -74.134804491 0 -63.781925441 -73.338851705 0 -63.85106031 -72.460409909 
0 -63.926403164 -71.503088178 0 -64.00764442 -70.470820154 0 -64.094450162 -69.367848615 
0 -64.186463716 -68.198705565 0 -64.283307013 -66.968194805 0 -64.384582044 -65.68137352 
0 -64.489872662 -64.343529378 0 -64.598746262 -62.960159125 0 -64.710755432 -61.536947674 
0 -64.825439851 -60.079743967 0 -64.942328305 -58.594535335 0 -65.060940473 -57.087424846 
0 -65.180788937 -55.564605736 0 -65.301381218 -54.032335517 0 -65.42222178 -52.496910593 
0 -65.542814062 -50.964640374 0 -65.662662525 -49.441821263 0 -65.781274693 -47.934710775 
0 -65.898163147 -46.449502142 0 -66.012847566 -44.992298435 0 -66.124856736 -43.569086985 
0 -66.233730337 -42.185716731 0 -66.339020954 -40.847872589 0 -66.440295985 -39.561051305 
0 -66.537139283 -38.330540545 0 -66.629152836 -37.161397494 0 -66.715958579 -36.058425956 
0 -66.797199834 -35.026157932 0 -66.872542688 -34.068836201 0 -66.941677557 -33.190394404 
0 -67.0043204 -32.394441618 0 -67.060213818 -31.68424841 0 -67.10912807 -31.062733899 
0 -67.150862175 -30.532451817 0 -67.185244611 -30.095581546 0 -67.212134181 -29.753917171 
0 -67.231420324 -29.508863493 0 -67.243023743 -29.361428065 0 -67.246896878 -29.312215221 
0 -67.243023743 -29.361428065 0 -67.231420324 -29.508863493 0 -67.150862175 -30.532451817 
0 -67.10912807 -31.062733899 0 -67.060213818 -31.68424841 0 -67.0043204 -32.394441618 
0 -66.941677557 -33.190394404 0 -66.872542688 -34.068836201 0 -66.797199834 -35.026157932 
0 -66.715958579 -36.058425956 0 -66.629152836 -37.161397494 0 -66.537139283 -38.330540545 
0 -66.440295985 -39.561051305 0 -66.339020954 -40.847872589 0 -66.233730337 -42.185716731 
0 -66.124856736 -43.569086985 0 -66.012847566 -44.992298435 0 -65.898163147 -46.449502142 
0 -65.781274693 -47.934710775 0 -65.662662525 -49.441821263 0 -65.542814062 -50.964640374 
0 -65.42222178 -52.496910593 0 -65.301381218 -54.032335517 
