# vtk DataFile Version 4.2
Generated by LIGGGHTS
ASCII
DATASET POLYDATA
POINTS 17232 float
-5.88785 6.49773e-06 20.6357 5.88488 0.186809 20.6357 5.86119 0.559675 20.6357 
5.86119 0.559675 20.6357 5.81389 0.930288 20.6357 -5.88785 6.49773e-06 20.6357 
5.81389 0.930288 20.6357 5.74318 1.29715 20.6357 -5.88785 6.49773e-06 20.6357 
5.74318 1.29715 20.6357 5.64935 1.6588 20.6357 -5.88785 6.49773e-06 20.6357 
5.64935 1.6588 20.6357 5.53277 2.01376 20.6357 -5.88785 6.49773e-06 20.6357 
5.53277 2.01376 20.6357 5.39391 2.36062 20.6357 -5.88785 6.49773e-06 20.6357 
5.39391 2.36062 20.6357 5.23333 2.69797 20.6357 -5.88785 6.49773e-06 20.6357 
5.23333 2.69797 20.6357 5.05167 3.02445 20.6357 -5.88785 6.49773e-06 20.6357 
5.05167 3.02445 20.6357 4.84968 3.33876 20.6357 -5.88785 6.49773e-06 20.6357 
4.84968 3.33876 20.6357 4.62816 3.63963 20.6357 -5.88785 6.49773e-06 20.6357 
4.62816 3.63963 20.6357 4.388 3.92583 20.6357 -5.88785 6.49773e-06 20.6357 
4.388 3.92583 20.6357 4.13018 4.19623 20.6357 -5.88785 6.49773e-06 20.6357 
4.13018 4.19623 20.6357 3.85572 4.44974 20.6357 -5.88785 6.49773e-06 20.6357 
3.85572 4.44974 20.6357 3.56574 4.68532 20.6357 -5.88785 6.49773e-06 20.6357 
3.56574 4.68532 20.6357 3.2614 4.90204 20.6357 -5.88785 6.49773e-06 20.6357 
3.2614 4.90204 20.6357 2.94392 5.09902 20.6357 -5.88785 6.49773e-06 20.6357 
2.94392 5.09902 20.6357 2.6146 5.27547 20.6357 -5.88785 6.49773e-06 20.6357 
2.6146 5.27547 20.6357 2.27474 5.43068 20.6357 -5.88785 6.49773e-06 20.6357 
2.27474 5.43068 20.6357 1.92573 5.56402 20.6357 -5.88785 6.49773e-06 20.6357 
1.92573 5.56402 20.6357 1.56896 5.67495 20.6357 -5.88785 6.49773e-06 20.6357 
1.56896 5.67495 20.6357 1.20587 5.76304 20.6357 -5.88785 6.49773e-06 20.6357 
1.20587 5.76304 20.6357 0.837928 5.82792 20.6357 -5.88785 6.49773e-06 20.6357 
0.837928 5.82792 20.6357 0.466612 5.86933 20.6357 -5.88785 6.49773e-06 20.6357 
0.466612 5.86933 20.6357 0.0934164 5.88711 20.6357 -5.88785 6.49773e-06 20.6357 
0.0934164 5.88711 20.6357 -0.280155 5.88118 20.6357 -5.88785 6.49773e-06 20.6357 
-0.280155 5.88118 20.6357 -0.652598 5.85157 20.6357 -5.88785 6.49773e-06 20.6357 
-0.652598 5.85157 20.6357 -1.02241 5.7984 20.6357 -5.88785 6.49773e-06 20.6357 
-1.02241 5.7984 20.6357 -1.38811 5.72188 20.6357 -5.88785 6.49773e-06 20.6357 
-1.38811 5.72188 20.6357 -1.74822 5.62232 20.6357 -5.88785 6.49773e-06 20.6357 
-1.74822 5.62232 20.6357 -2.10129 5.50012 20.6357 -5.88785 6.49773e-06 20.6357 
-2.10129 5.50012 20.6357 -2.4459 5.35577 20.6357 -5.88785 6.49773e-06 20.6357 
-2.4459 5.35577 20.6357 -2.78066 5.18986 20.6357 -5.88785 6.49773e-06 20.6357 
-2.78066 5.18986 20.6357 -3.10422 5.00305 20.6357 -5.88785 6.49773e-06 20.6357 
-3.10422 5.00305 20.6357 -3.41529 4.7961 20.6357 -5.88785 6.49773e-06 20.6357 
-3.41529 4.7961 20.6357 -3.7126 4.56983 20.6357 -5.88785 6.49773e-06 20.6357 
-3.7126 4.56983 20.6357 -3.99496 4.32516 20.6357 -5.88785 6.49773e-06 20.6357 
-3.99496 4.32516 20.6357 -4.26124 4.06308 20.6357 -5.88785 6.49773e-06 20.6357 
-4.26124 4.06308 20.6357 -4.51035 3.78463 20.6357 -5.88785 6.49773e-06 20.6357 
-4.51035 3.78463 20.6357 -4.74131 3.49095 20.6357 -5.88785 6.49773e-06 20.6357 
-4.74131 3.49095 20.6357 -4.95317 3.18321 20.6357 -5.88785 6.49773e-06 20.6357 
-4.95317 3.18321 20.6357 -5.14509 2.86265 20.6357 -5.88785 6.49773e-06 20.6357 
-5.14509 2.86265 20.6357 -5.31629 2.53057 20.6357 -5.88785 6.49773e-06 20.6357 
-5.31629 2.53057 20.6357 -5.46609 2.18829 20.6357 -5.88785 6.49773e-06 20.6357 
-5.46609 2.18829 20.6357 -5.59387 1.83721 20.6357 -5.88785 6.49773e-06 20.6357 
-5.59387 1.83721 20.6357 -5.69913 1.47872 20.6357 -5.88785 6.49773e-06 20.6357 
-5.69913 1.47872 20.6357 -5.78145 1.11428 20.6357 -5.88785 6.49773e-06 20.6357 
-5.78145 1.11428 20.6357 -5.84048 0.745357 20.6357 -5.88785 6.49773e-06 20.6357 
-5.84048 0.745357 20.6357 -5.87599 0.37343 20.6357 -5.88785 6.49773e-06 20.6357 
-5.87599 -0.37343 20.6357 -5.84048 -0.745357 20.6357 -5.88785 6.49773e-06 20.6357 
-5.84048 -0.745357 20.6357 -5.78145 -1.11428 20.6357 -5.88785 6.49773e-06 20.6357 
-5.78145 -1.11428 20.6357 -5.69913 -1.47872 20.6357 -5.88785 6.49773e-06 20.6357 
-5.69913 -1.47872 20.6357 -5.59387 -1.83721 20.6357 -5.88785 6.49773e-06 20.6357 
-5.59387 -1.83721 20.6357 -5.46609 -2.18829 20.6357 -5.88785 6.49773e-06 20.6357 
-5.46609 -2.18829 20.6357 -5.31629 -2.53057 20.6357 -5.88785 6.49773e-06 20.6357 
-5.31629 -2.53057 20.6357 -5.14509 -2.86265 20.6357 -5.88785 6.49773e-06 20.6357 
-5.14509 -2.86265 20.6357 -4.95317 -3.18321 20.6357 -5.88785 6.49773e-06 20.6357 
-4.95317 -3.18321 20.6357 -4.74131 -3.49095 20.6357 -5.88785 6.49773e-06 20.6357 
-4.74131 -3.49095 20.6357 -4.51035 -3.78463 20.6357 -5.88785 6.49773e-06 20.6357 
-4.51035 -3.78463 20.6357 -4.26124 -4.06308 20.6357 -5.88785 6.49773e-06 20.6357 
-4.26124 -4.06308 20.6357 -3.99496 -4.32516 20.6357 -5.88785 6.49773e-06 20.6357 
-3.99496 -4.32516 20.6357 -3.7126 -4.56983 20.6357 -5.88785 6.49773e-06 20.6357 
-3.7126 -4.56983 20.6357 -3.41529 -4.7961 20.6357 -5.88785 6.49773e-06 20.6357 
-3.41529 -4.7961 20.6357 -3.10422 -5.00305 20.6357 -5.88785 6.49773e-06 20.6357 
-3.10422 -5.00305 20.6357 -2.78066 -5.18986 20.6357 -5.88785 6.49773e-06 20.6357 
-2.78066 -5.18986 20.6357 -2.4459 -5.35577 20.6357 -5.88785 6.49773e-06 20.6357 
-2.4459 -5.35577 20.6357 -2.10129 -5.50012 20.6357 -5.88785 6.49773e-06 20.6357 
-2.10129 -5.50012 20.6357 -1.74822 -5.62232 20.6357 -5.88785 6.49773e-06 20.6357 
-1.74822 -5.62232 20.6357 -1.38811 -5.72188 20.6357 -5.88785 6.49773e-06 20.6357 
-1.38811 -5.72188 20.6357 -1.02241 -5.7984 20.6357 -5.88785 6.49773e-06 20.6357 
-1.02241 -5.7984 20.6357 -0.652598 -5.85157 20.6357 -5.88785 6.49773e-06 20.6357 
-0.652598 -5.85157 20.6357 -0.280155 -5.88118 20.6357 -5.88785 6.49773e-06 20.6357 
-0.280155 -5.88118 20.6357 0.0934164 -5.88711 20.6357 -5.88785 6.49773e-06 20.6357 
0.0934164 -5.88711 20.6357 0.466612 -5.86933 20.6357 -5.88785 6.49773e-06 20.6357 
0.466612 -5.86933 20.6357 0.837928 -5.82792 20.6357 -5.88785 6.49773e-06 20.6357 
0.837928 -5.82792 20.6357 1.20587 -5.76304 20.6357 -5.88785 6.49773e-06 20.6357 
1.20587 -5.76304 20.6357 1.56896 -5.67495 20.6357 -5.88785 6.49773e-06 20.6357 
1.56896 -5.67495 20.6357 1.92573 -5.56402 20.6357 -5.88785 6.49773e-06 20.6357 
1.92573 -5.56402 20.6357 2.27474 -5.43068 20.6357 -5.88785 6.49773e-06 20.6357 
2.27474 -5.43068 20.6357 2.6146 -5.27547 20.6357 -5.88785 6.49773e-06 20.6357 
2.6146 -5.27547 20.6357 2.94392 -5.09902 20.6357 -5.88785 6.49773e-06 20.6357 
2.94392 -5.09902 20.6357 3.2614 -4.90204 20.6357 -5.88785 6.49773e-06 20.6357 
3.2614 -4.90204 20.6357 3.56574 -4.68532 20.6357 -5.88785 6.49773e-06 20.6357 
3.56574 -4.68532 20.6357 3.85572 -4.44974 20.6357 -5.88785 6.49773e-06 20.6357 
3.85572 -4.44974 20.6357 4.13018 -4.19623 20.6357 -5.88785 6.49773e-06 20.6357 
4.13018 -4.19623 20.6357 4.388 -3.92583 20.6357 -5.88785 6.49773e-06 20.6357 
4.388 -3.92583 20.6357 4.62816 -3.63963 20.6357 -5.88785 6.49773e-06 20.6357 
4.62816 -3.63963 20.6357 4.84968 -3.33876 20.6357 -5.88785 6.49773e-06 20.6357 
4.84968 -3.33876 20.6357 5.05167 -3.02445 20.6357 -5.88785 6.49773e-06 20.6357 
5.05167 -3.02445 20.6357 5.23333 -2.69797 20.6357 -5.88785 6.49773e-06 20.6357 
5.23333 -2.69797 20.6357 5.39391 -2.36062 20.6357 -5.88785 6.49773e-06 20.6357 
5.39391 -2.36062 20.6357 5.53277 -2.01376 20.6357 -5.88785 6.49773e-06 20.6357 
5.53277 -2.01376 20.6357 5.64935 -1.6588 20.6357 -5.88785 6.49773e-06 20.6357 
5.64935 -1.6588 20.6357 5.74318 -1.29715 20.6357 -5.88785 6.49773e-06 20.6357 
5.74318 -1.29715 20.6357 5.81389 -0.930288 20.6357 -5.88785 6.49773e-06 20.6357 
5.81389 -0.930288 20.6357 5.86119 -0.559675 20.6357 -5.88785 6.49773e-06 20.6357 
5.86119 -0.559675 20.6357 5.88488 -0.186809 20.6357 -5.88785 6.49773e-06 20.6357 
5.88488 -0.186809 20.6357 5.88785 0 20.6357 -5.88785 6.49773e-06 20.6357 
5.88785 0 20.6357 5.88488 0.186809 20.6357 -5.88785 6.49773e-06 20.6357 
-5.88785 6.49773e-06 20.6357 -5.87599 0.37343 20.6357 -5.88192 0.264157 15.6838 
-5.87599 0.37343 20.6357 -5.87599 0.37343 15.6838 -5.88192 0.264157 15.6838 
-5.84048 0.745357 20.6357 -5.84048 0.745357 15.6838 -5.86414 0.527782 15.6838 
-5.86414 0.527782 15.6838 -5.87599 0.37343 20.6357 -5.84048 0.745357 20.6357 
-5.84048 0.745357 20.6357 -5.78145 1.11428 20.6357 -5.78884 1.07874 15.6876 
-5.78884 1.07874 15.6876 -5.83456 0.790345 15.6838 -5.84048 0.745357 20.6357 
-5.78145 1.11428 20.6357 -5.69913 1.47872 20.6357 -5.74023 1.31017 15.6838 
-5.69913 1.47872 20.6357 -5.68561 1.53293 15.686 -5.74023 1.31017 15.6838 
-5.69913 1.47872 20.6357 -5.59737 1.82725 15.6816 -5.68561 1.53293 15.686 
-5.59737 1.82725 15.6816 -5.69913 1.47872 20.6357 -5.59387 1.83721 20.6357 
-5.59387 1.83721 20.6357 -5.46609 2.18829 20.6357 -5.51241 2.06884 15.6838 
-5.46609 2.18829 20.6357 -5.46609 2.18829 15.6838 -5.51241 2.06884 15.6838 
-5.31629 2.53057 20.6357 -5.31011 2.54417 15.5898 -5.41404 2.31407 15.6838 
-5.41404 2.31407 15.6838 -5.46609 2.18829 20.6357 -5.31629 2.53057 20.6357 
-5.31629 2.53057 20.6357 -5.14509 2.86265 20.6357 -5.16928 2.82027 15.6903 
-5.16928 2.82027 15.6903 -5.31011 2.54417 15.5898 -5.31629 2.53057 20.6357 
-4.95317 3.18321 20.6357 -4.93126 3.21831 15.6816 -5.05441 3.01987 15.6838 
-5.05441 3.01987 15.6838 -5.14509 2.86265 20.6357 -4.95317 3.18321 20.6357 
-4.74131 3.49095 20.6357 -4.76337 3.46079 15.6838 -4.93126 3.21831 15.6816 
-4.93126 3.21831 15.6816 -4.95317 3.18321 20.6357 -4.74131 3.49095 20.6357 
-4.74131 3.49095 20.6357 -4.74131 3.49095 15.6838 -4.76337 3.46079 15.6838 
-4.74131 3.49095 20.6357 -4.51035 3.78463 20.6357 -4.6033 3.67101 15.6838 
-4.51035 3.78463 20.6357 -4.51035 3.78463 15.6838 -4.6033 3.67101 15.6838 
-4.26124 4.06308 20.6357 -4.25814 4.0663 15.5869 -4.43397 3.87384 15.6838 
-4.43397 3.87384 15.6838 -4.51035 3.78463 20.6357 -4.26124 4.06308 20.6357 
-4.26124 4.06308 20.6357 -3.99496 4.32516 20.6357 -4.06887 4.25571 15.6838 
-4.06887 4.25571 15.6838 -4.25814 4.0663 15.5869 -4.26124 4.06308 20.6357 
-3.99496 4.32516 20.6357 -3.99496 4.32516 15.6838 -4.06887 4.25571 15.6838 
-3.7126 4.56983 20.6357 -3.68989 4.58891 15.6814 -3.87384 4.43397 15.6838 
-3.87384 4.43397 15.6838 -3.99496 4.32516 20.6357 -3.7126 4.56983 20.6357 
-3.7126 4.56983 20.6357 -3.41529 4.7961 20.6357 -3.44125 4.77823 15.6854 
-3.44125 4.77823 15.6854 -3.68989 4.58891 15.6814 -3.7126 4.56983 20.6357 
-3.41529 4.7961 20.6357 -3.10422 5.00305 20.6357 -3.2436 4.91384 15.6838 
-3.10422 5.00305 20.6357 -3.10422 5.00305 15.6838 -3.2436 4.91384 15.6838 
-3.10422 5.00305 20.6357 -2.78606 5.18711 15.6818 -3.01987 5.05441 15.6838 
-2.78606 5.18711 15.6818 -3.10422 5.00305 20.6357 -2.78066 5.18986 20.6357 
-3.01987 5.05441 15.6838 -3.10422 5.00305 15.6838 -3.10422 5.00305 20.6357 
-2.78066 5.18986 20.6357 -2.4459 5.35577 20.6357 -2.55464 5.30477 15.6838 
-2.4459 5.35577 20.6357 -2.4459 5.35577 15.6838 -2.55464 5.30477 15.6838 
-2.10129 5.50012 20.6357 -2.08415 5.50704 15.6845 -2.31407 5.41404 15.6838 
-2.31407 5.41404 15.6838 -2.4459 5.35577 20.6357 -2.10129 5.50012 20.6357 
-2.10129 5.50012 20.6357 -1.74822 5.62232 20.6357 -1.78965 5.61001 15.6883 
-1.78965 5.61001 15.6883 -2.08415 5.50704 15.6845 -2.10129 5.50012 20.6357 
-1.74822 5.62232 20.6357 -1.38811 5.72188 20.6357 -1.56638 5.67567 15.6838 
-1.38811 5.72188 20.6357 -1.34266 5.73346 15.6866 -1.56638 5.67567 15.6838 
-1.02241 5.7984 20.6357 -1.03773 5.796 15.6841 -1.34266 5.73346 15.6866 
-1.34266 5.73346 15.6866 -1.38811 5.72188 20.6357 -1.02241 5.7984 20.6357 
-1.02241 5.7984 20.6357 -0.652598 5.85157 20.6357 -0.790345 5.83456 15.6838 
-0.652598 5.85157 20.6357 -0.652598 5.85157 15.6838 -0.790345 5.83456 15.6838 
-0.280155 5.88118 20.6357 -0.271477 5.88156 15.5809 -0.527782 5.86414 15.6838 
-0.527782 5.86414 15.6838 -0.652598 5.85157 20.6357 -0.280155 5.88118 20.6357 
-0.280155 5.88118 20.6357 0.0934164 5.88711 20.6357 0 5.88785 15.6838 
0 5.88785 15.6838 -0.271477 5.88156 15.5809 -0.280155 5.88118 20.6357 
0.0934164 5.88711 20.6357 0.0934164 5.88711 15.6838 0 5.88785 15.6838 
0.466612 5.86933 20.6357 0.501291 5.8671 15.6824 0.264157 5.88192 15.6838 
0.264157 5.88192 15.6838 0.0934164 5.88711 20.6357 0.466612 5.86933 20.6357 
0.837928 5.82792 20.6357 0.811957 5.83211 15.6826 0.501291 5.8671 15.6824 
0.501291 5.8671 15.6824 0.466612 5.86933 20.6357 0.837928 5.82792 20.6357 
0.837928 5.82792 20.6357 1.20587 5.76304 20.6357 1.05132 5.79323 15.6838 
1.20587 5.76304 20.6357 1.20587 5.76304 15.6838 1.05132 5.79323 15.6838 
1.20587 5.76304 20.6357 1.56767 5.67531 15.6838 1.31017 5.74023 15.6838 
1.56767 5.67531 15.6838 1.20587 5.76304 20.6357 1.56896 5.67495 20.6357 
1.31017 5.74023 15.6838 1.20587 5.76304 15.6838 1.20587 5.76304 20.6357 
1.56896 5.67495 20.6357 1.92573 5.56402 20.6357 1.81944 5.59968 15.6838 
1.92573 5.56402 20.6357 1.92573 5.56402 15.6838 1.81944 5.59968 15.6838 
2.27474 5.43068 20.6357 2.27474 5.43068 15.6838 2.06884 5.51241 15.6838 
2.06884 5.51241 15.6838 1.92573 5.56402 20.6357 2.27474 5.43068 20.6357 
2.27474 5.43068 20.6357 2.6146 5.27547 20.6357 2.58085 5.2928 15.688 
2.58085 5.2928 15.688 2.31407 5.41404 15.6838 2.27474 5.43068 20.6357 
2.6146 5.27547 20.6357 2.94392 5.09902 20.6357 2.79007 5.18481 15.6838 
2.94392 5.09902 20.6357 2.99072 5.07263 15.6819 2.79007 5.18481 15.6838 
2.94392 5.09902 20.6357 3.2525 4.90794 15.6838 2.99072 5.07263 15.6819 
3.2525 4.90794 15.6838 2.94392 5.09902 20.6357 3.2614 4.90204 20.6357 
3.2614 4.90204 20.6357 3.56574 4.68532 20.6357 3.46079 4.76337 15.6838 
3.56574 4.68532 20.6357 3.56574 4.68532 15.6838 3.46079 4.76337 15.6838 
3.85572 4.44974 20.6357 3.86585 4.44128 15.5857 3.67101 4.6033 15.6838 
3.67101 4.6033 15.6838 3.56574 4.68532 20.6357 3.85572 4.44974 20.6357 
3.85572 4.44974 20.6357 4.13018 4.19623 20.6357 4.09436 4.23222 15.6905 
4.09436 4.23222 15.6905 3.86585 4.44128 15.5857 3.85572 4.44974 20.6357 
4.388 3.92583 20.6357 4.41491 3.89658 15.6848 4.25571 4.06887 15.6838 
4.25571 4.06887 15.6838 4.13018 4.19623 20.6357 4.388 3.92583 20.6357 
4.62816 3.63963 20.6357 4.61515 3.65681 15.6845 4.41491 3.89658 15.6848 
4.41491 3.89658 15.6848 4.388 3.92583 20.6357 4.62816 3.63963 20.6357 
4.62816 3.63963 20.6357 4.84968 3.33876 20.6357 4.76337 3.46079 15.6838 
4.84968 3.33876 20.6357 4.84968 3.33876 15.6838 4.76337 3.46079 15.6838 
5.05167 3.02445 20.6357 5.05311 3.02218 15.6838 4.91384 3.2436 15.6838 
4.91384 3.2436 15.6838 4.84968 3.33876 20.6357 5.05167 3.02445 20.6357 
5.05167 3.02445 20.6357 5.23333 2.69797 20.6357 5.18481 2.79007 15.6838 
5.18481 2.79007 15.6838 5.05311 3.02218 15.6838 5.05167 3.02445 20.6357 
5.23333 2.69797 20.6357 5.23333 2.69797 15.6838 5.18481 2.79007 15.6838 
5.39391 2.36062 20.6357 5.40553 2.33523 15.6828 5.30477 2.55464 15.6838 
5.30477 2.55464 15.6838 5.23333 2.69797 20.6357 5.39391 2.36062 20.6357 
5.39391 2.36062 20.6357 5.53277 2.01376 20.6357 5.51241 2.06884 15.6838 
5.51241 2.06884 15.6838 5.40553 2.33523 15.6828 5.39391 2.36062 20.6357 
5.53277 2.01376 20.6357 5.53277 2.01376 15.6838 5.51241 2.06884 15.6838 
5.53277 2.01376 20.6357 5.64935 1.6588 20.6357 5.59968 1.81944 15.6838 
5.64935 1.6588 20.6357 5.64935 1.6588 15.6838 5.59968 1.81944 15.6838 
5.64935 1.6588 20.6357 5.7417 1.30366 15.6838 5.67567 1.56638 15.6838 
5.7417 1.30366 15.6838 5.64935 1.6588 20.6357 5.74318 1.29715 20.6357 
5.67567 1.56638 15.6838 5.64935 1.6588 15.6838 5.64935 1.6588 20.6357 
5.74318 1.29715 20.6357 5.81389 0.930288 20.6357 5.79323 1.05132 15.6838 
5.81389 0.930288 20.6357 5.81389 0.930288 15.6838 5.79323 1.05132 15.6838 
5.86119 0.559675 20.6357 5.86322 0.541659 15.5889 5.83456 0.790345 15.6838 
5.83456 0.790345 15.6838 5.81389 0.930288 20.6357 5.86119 0.559675 20.6357 
5.86119 0.559675 20.6357 5.88488 0.186809 20.6357 5.88411 0.230061 15.6864 
5.88411 0.230061 15.6864 5.86322 0.541659 15.5889 5.86119 0.559675 20.6357 
5.88488 -0.186809 20.6357 5.884 -0.231745 15.6803 5.88785 0 15.6838 
5.88411 0.230061 15.6864 5.88488 0.186809 20.6357 5.88785 0 20.6357 
5.88785 0 20.6357 5.88785 0 15.6838 5.88411 0.230061 15.6864 
5.86119 -0.559675 20.6357 5.86267 -0.543729 15.6838 5.884 -0.231745 15.6803 
5.884 -0.231745 15.6803 5.88488 -0.186809 20.6357 5.86119 -0.559675 20.6357 
5.86119 -0.559675 20.6357 5.81389 -0.930288 20.6357 5.83456 -0.790345 15.6838 
5.81389 -0.930288 20.6357 5.81389 -0.930288 15.6838 5.83456 -0.790345 15.6838 
5.74318 -1.29715 20.6357 5.7417 -1.30366 15.6838 5.79323 -1.05132 15.6838 
5.79323 -1.05132 15.6838 5.81389 -0.930288 20.6357 5.74318 -1.29715 20.6357 
5.74318 -1.29715 20.6357 5.64935 -1.6588 20.6357 5.66654 -1.60185 15.6775 
5.66654 -1.60185 15.6775 5.7417 -1.30366 15.6838 5.74318 -1.29715 20.6357 
5.53277 -2.01376 20.6357 5.53277 -2.01376 15.6838 5.59968 -1.81944 15.6838 
5.59968 -1.81944 15.6838 5.64935 -1.6588 20.6357 5.53277 -2.01376 20.6357 
5.39391 -2.36062 20.6357 5.40553 -2.33522 15.6826 5.51241 -2.06884 15.6838 
5.51241 -2.06884 15.6838 5.53277 -2.01376 20.6357 5.39391 -2.36062 20.6357 
5.39391 -2.36062 20.6357 5.23333 -2.69797 20.6357 5.30477 -2.55464 15.6838 
5.23333 -2.69797 20.6357 5.23333 -2.69797 15.6838 5.30477 -2.55464 15.6838 
5.23333 -2.69797 20.6357 5.0533 -3.02187 15.6825 5.18481 -2.79007 15.6838 
5.0533 -3.02187 15.6825 5.23333 -2.69797 20.6357 5.05167 -3.02445 20.6357 
5.18481 -2.79007 15.6838 5.23333 -2.69797 15.6838 5.23333 -2.69797 20.6357 
5.05167 -3.02445 20.6357 4.84968 -3.33876 20.6357 4.91384 -3.2436 15.6838 
4.84968 -3.33876 20.6357 4.84968 -3.33876 15.6838 4.91384 -3.2436 15.6838 
4.62816 -3.63963 20.6357 4.61515 -3.65681 15.6849 4.76337 -3.46079 15.6838 
4.76337 -3.46079 15.6838 4.84968 -3.33876 20.6357 4.62816 -3.63963 20.6357 
4.62816 -3.63963 20.6357 4.388 -3.92583 20.6357 4.41491 -3.89658 15.6839 
4.41491 -3.89658 15.6839 4.61515 -3.65681 15.6849 4.62816 -3.63963 20.6357 
4.388 -3.92583 20.6357 4.13018 -4.19623 20.6357 4.25571 -4.06887 15.6838 
4.13018 -4.19623 20.6357 4.09375 -4.23285 15.682 4.25571 -4.06887 15.6838 
4.13018 -4.19623 20.6357 3.87384 -4.43397 15.6838 4.09375 -4.23285 15.682 
3.85572 -4.44974 20.6357 3.85572 -4.44974 15.6838 3.87384 -4.43397 15.6838 
3.87384 -4.43397 15.6838 4.13018 -4.19623 20.6357 3.85572 -4.44974 20.6357 
3.85572 -4.44974 20.6357 3.56574 -4.68532 20.6357 3.67101 -4.6033 15.6838 
3.56574 -4.68532 20.6357 3.56574 -4.68532 15.6838 3.67101 -4.6033 15.6838 
3.2614 -4.90204 20.6357 3.25197 -4.90827 15.5853 3.46079 -4.76337 15.6838 
3.46079 -4.76337 15.6838 3.56574 -4.68532 20.6357 3.2614 -4.90204 20.6357 
3.2614 -4.90204 20.6357 2.94392 -5.09902 20.6357 3.01987 -5.05441 15.6838 
3.01987 -5.05441 15.6838 3.25197 -4.90827 15.5853 3.2614 -4.90204 20.6357 
2.94392 -5.09902 20.6357 2.94392 -5.09902 15.6838 3.01987 -5.05441 15.6838 
2.6146 -5.27547 20.6357 2.58081 -5.29282 15.682 2.79007 -5.18481 15.6838 
2.79007 -5.18481 15.6838 2.94392 -5.09902 20.6357 2.6146 -5.27547 20.6357 
2.27474 -5.43068 20.6357 2.31407 -5.41404 15.6838 2.58081 -5.29282 15.682 
2.58081 -5.29282 15.682 2.6146 -5.27547 20.6357 2.27474 -5.43068 20.6357 
2.27474 -5.43068 20.6357 2.27474 -5.43068 15.6838 2.31407 -5.41404 15.6838 
2.27474 -5.43068 20.6357 1.92573 -5.56402 20.6357 2.06884 -5.51241 15.6838 
1.92573 -5.56402 20.6357 1.92573 -5.56402 15.6838 2.06884 -5.51241 15.6838 
1.56896 -5.67495 20.6357 1.56767 -5.67531 15.6838 1.81944 -5.59968 15.6838 
1.81944 -5.59968 15.6838 1.92573 -5.56402 20.6357 1.56896 -5.67495 20.6357 
1.56896 -5.67495 20.6357 1.20587 -5.76304 20.6357 1.31017 -5.74023 15.6838 
1.31017 -5.74023 15.6838 1.56767 -5.67531 15.6838 1.56896 -5.67495 20.6357 
1.20587 -5.76304 20.6357 1.20587 -5.76304 15.6838 1.31017 -5.74023 15.6838 
0.837928 -5.82792 20.6357 0.811959 -5.83211 15.6827 1.05132 -5.79323 15.6838 
1.05132 -5.79323 15.6838 1.20587 -5.76304 20.6357 0.837928 -5.82792 20.6357 
0.837928 -5.82792 20.6357 0.466612 -5.86933 20.6357 0.501267 -5.8671 15.6875 
0.501267 -5.8671 15.6875 0.811959 -5.83211 15.6827 0.837928 -5.82792 20.6357 
0.466612 -5.86933 20.6357 0.0934164 -5.88711 20.6357 0.264157 -5.88192 15.6838 
0.0934164 -5.88711 20.6357 0.0346292 -5.88855 15.6808 0.264157 -5.88192 15.6838 
0.0934164 -5.88711 20.6357 -0.272156 -5.88155 15.6838 0.0346292 -5.88855 15.6808 
-0.272156 -5.88155 15.6838 0.0934164 -5.88711 20.6357 -0.280155 -5.88118 20.6357 
-0.280155 -5.88118 20.6357 -0.652598 -5.85157 20.6357 -0.527782 -5.86414 15.6838 
-0.652598 -5.85157 20.6357 -0.652598 -5.85157 15.6838 -0.527782 -5.86414 15.6838 
-1.02241 -5.7984 20.6357 -1.03772 -5.79601 15.6843 -0.790345 -5.83456 15.6838 
-0.790345 -5.83456 15.6838 -0.652598 -5.85157 20.6357 -1.02241 -5.7984 20.6357 
-1.02241 -5.7984 20.6357 -1.38811 -5.72188 20.6357 -1.34268 -5.73345 15.6866 
-1.34268 -5.73345 15.6866 -1.03772 -5.79601 15.6843 -1.02241 -5.7984 20.6357 
-1.74822 -5.62232 20.6357 -1.78967 -5.61 15.6845 -1.56638 -5.67567 15.6838 
-1.56638 -5.67567 15.6838 -1.38811 -5.72188 20.6357 -1.74822 -5.62232 20.6357 
-2.10129 -5.50012 20.6357 -2.08414 -5.50705 15.6843 -1.78967 -5.61 15.6845 
-1.78967 -5.61 15.6845 -1.74822 -5.62232 20.6357 -2.10129 -5.50012 20.6357 
-2.10129 -5.50012 20.6357 -2.4459 -5.35577 20.6357 -2.31407 -5.41404 15.6838 
-2.4459 -5.35577 20.6357 -2.4459 -5.35577 15.6838 -2.31407 -5.41404 15.6838 
-2.78066 -5.18986 20.6357 -2.78551 -5.18739 15.6839 -2.55464 -5.30477 15.6838 
-2.55464 -5.30477 15.6838 -2.4459 -5.35577 20.6357 -2.78066 -5.18986 20.6357 
-2.78066 -5.18986 20.6357 -3.10422 -5.00305 20.6357 -3.05236 -5.03573 15.6846 
-3.05236 -5.03573 15.6846 -2.78551 -5.18739 15.6839 -2.78066 -5.18986 20.6357 
-3.41529 -4.7961 20.6357 -3.44211 -4.77761 15.5918 -3.2436 -4.91384 15.6838 
-3.2436 -4.91384 15.6838 -3.10422 -5.00305 20.6357 -3.41529 -4.7961 20.6357 
-3.7126 -4.56983 20.6357 -3.68998 -4.58883 15.687 -3.44211 -4.77761 15.5918 
-3.44211 -4.77761 15.5918 -3.41529 -4.7961 20.6357 -3.7126 -4.56983 20.6357 
-3.7126 -4.56983 20.6357 -3.99496 -4.32516 20.6357 -3.87384 -4.43397 15.6838 
-3.99496 -4.32516 20.6357 -3.99496 -4.32516 15.6838 -3.87384 -4.43397 15.6838 
-3.99496 -4.32516 20.6357 -4.25847 -4.06598 15.6838 -4.06887 -4.25571 15.6838 
-4.25847 -4.06598 15.6838 -3.99496 -4.32516 20.6357 -4.26124 -4.06308 20.6357 
-4.06887 -4.25571 15.6838 -3.99496 -4.32516 15.6838 -3.99496 -4.32516 20.6357 
-4.26124 -4.06308 20.6357 -4.51035 -3.78463 20.6357 -4.43397 -3.87384 15.6838 
-4.51035 -3.78463 20.6357 -4.51035 -3.78463 15.6838 -4.43397 -3.87384 15.6838 
-4.74131 -3.49095 20.6357 -4.74131 -3.49095 15.6838 -4.6033 -3.67101 15.6838 
-4.6033 -3.67101 15.6838 -4.51035 -3.78463 20.6357 -4.74131 -3.49095 20.6357 
-4.74131 -3.49095 20.6357 -4.95317 -3.18321 20.6357 -4.93127 -3.2183 15.6841 
-4.93127 -3.2183 15.6841 -4.76337 -3.46079 15.6838 -4.74131 -3.49095 20.6357 
-4.95317 -3.18321 20.6357 -5.14509 -2.86265 20.6357 -5.05441 -3.01987 15.6838 
-5.14509 -2.86265 20.6357 -5.16959 -2.8197 15.6795 -5.05441 -3.01987 15.6838 
-5.31629 -2.53057 20.6357 -5.31053 -2.5426 15.6838 -5.16959 -2.8197 15.6795 
-5.16959 -2.8197 15.6795 -5.14509 -2.86265 20.6357 -5.31629 -2.53057 20.6357 
-5.31629 -2.53057 20.6357 -5.46609 -2.18829 20.6357 -5.41404 -2.31407 15.6838 
-5.46609 -2.18829 20.6357 -5.46609 -2.18829 15.6838 -5.41404 -2.31407 15.6838 
-5.59387 -1.83721 20.6357 -5.59709 -1.82807 15.684 -5.51241 -2.06884 15.6838 
-5.51241 -2.06884 15.6838 -5.46609 -2.18829 20.6357 -5.59387 -1.83721 20.6357 
-5.59387 -1.83721 20.6357 -5.69913 -1.47872 20.6357 -5.68585 -1.53187 15.6852 
-5.68585 -1.53187 15.6852 -5.59709 -1.82807 15.684 -5.59387 -1.83721 20.6357 
-5.78145 -1.11428 20.6357 -5.78884 -1.07873 15.6826 -5.74023 -1.31017 15.6838 
-5.74023 -1.31017 15.6838 -5.69913 -1.47872 20.6357 -5.78145 -1.11428 20.6357 
-5.84048 -0.745357 20.6357 -5.83456 -0.790345 15.6838 -5.78884 -1.07873 15.6826 
-5.78884 -1.07873 15.6826 -5.78145 -1.11428 20.6357 -5.84048 -0.745357 20.6357 
-5.84048 -0.745357 20.6357 -5.84048 -0.745357 15.6838 -5.83456 -0.790345 15.6838 
-5.84048 -0.745357 20.6357 -5.87599 -0.37343 20.6357 -5.86414 -0.527782 15.6838 
-5.87599 -0.37343 20.6357 -5.87599 -0.37343 15.6838 -5.86414 -0.527782 15.6838 
-5.88785 6.49773e-06 20.6357 -5.88785 0 15.6838 -5.88192 -0.264157 15.6838 
-5.88192 -0.264157 15.6838 -5.87599 -0.37343 20.6357 -5.88785 6.49773e-06 20.6357 
-5.88192 -0.264157 15.6838 -5.87599 -0.37343 15.6838 -5.87599 -0.37343 20.6357 
-5.86414 -0.527782 15.6838 -5.84048 -0.745357 15.6838 -5.84048 -0.745357 20.6357 
-5.74023 -1.31017 15.6838 -5.68585 -1.53187 15.6852 -5.69913 -1.47872 20.6357 
-5.51241 -2.06884 15.6838 -5.46609 -2.18829 15.6838 -5.46609 -2.18829 20.6357 
-5.41404 -2.31407 15.6838 -5.31053 -2.5426 15.6838 -5.31629 -2.53057 20.6357 
-5.05441 -3.01987 15.6838 -4.93127 -3.2183 15.6841 -4.95317 -3.18321 20.6357 
-4.76337 -3.46079 15.6838 -4.74131 -3.49095 15.6838 -4.74131 -3.49095 20.6357 
-4.6033 -3.67101 15.6838 -4.51035 -3.78463 15.6838 -4.51035 -3.78463 20.6357 
-4.43397 -3.87384 15.6838 -4.25847 -4.06598 15.6838 -4.26124 -4.06308 20.6357 
-3.87384 -4.43397 15.6838 -3.68998 -4.58883 15.687 -3.7126 -4.56983 20.6357 
-3.2436 -4.91384 15.6838 -3.05236 -5.03573 15.6846 -3.10422 -5.00305 20.6357 
-2.55464 -5.30477 15.6838 -2.4459 -5.35577 15.6838 -2.4459 -5.35577 20.6357 
-2.31407 -5.41404 15.6838 -2.08414 -5.50705 15.6843 -2.10129 -5.50012 20.6357 
-1.56638 -5.67567 15.6838 -1.34268 -5.73345 15.6866 -1.38811 -5.72188 20.6357 
-0.790345 -5.83456 15.6838 -0.652598 -5.85157 15.6838 -0.652598 -5.85157 20.6357 
-0.527782 -5.86414 15.6838 -0.272156 -5.88155 15.6838 -0.280155 -5.88118 20.6357 
0.264157 -5.88192 15.6838 0.501267 -5.8671 15.6875 0.466612 -5.86933 20.6357 
1.05132 -5.79323 15.6838 1.20587 -5.76304 15.6838 1.20587 -5.76304 20.6357 
1.81944 -5.59968 15.6838 1.92573 -5.56402 15.6838 1.92573 -5.56402 20.6357 
2.06884 -5.51241 15.6838 2.27474 -5.43068 15.6838 2.27474 -5.43068 20.6357 
2.79007 -5.18481 15.6838 2.94392 -5.09902 15.6838 2.94392 -5.09902 20.6357 
3.46079 -4.76337 15.6838 3.56574 -4.68532 15.6838 3.56574 -4.68532 20.6357 
3.67101 -4.6033 15.6838 3.85572 -4.44974 15.6838 3.85572 -4.44974 20.6357 
4.25571 -4.06887 15.6838 4.41491 -3.89658 15.6839 4.388 -3.92583 20.6357 
4.76337 -3.46079 15.6838 4.84968 -3.33876 15.6838 4.84968 -3.33876 20.6357 
4.91384 -3.2436 15.6838 5.0533 -3.02187 15.6825 5.05167 -3.02445 20.6357 
5.30477 -2.55464 15.6838 5.40553 -2.33522 15.6826 5.39391 -2.36062 20.6357 
5.51241 -2.06884 15.6838 5.53277 -2.01376 15.6838 5.53277 -2.01376 20.6357 
5.59968 -1.81944 15.6838 5.66654 -1.60185 15.6775 5.64935 -1.6588 20.6357 
5.79323 -1.05132 15.6838 5.81389 -0.930288 15.6838 5.81389 -0.930288 20.6357 
5.83456 -0.790345 15.6838 5.86267 -0.543729 15.6838 5.86119 -0.559675 20.6357 
5.88785 0 15.6838 5.88785 0 20.6357 5.88488 -0.186809 20.6357 
5.83456 0.790345 15.6838 5.81389 0.930288 15.6838 5.81389 0.930288 20.6357 
5.79323 1.05132 15.6838 5.7417 1.30366 15.6838 5.74318 1.29715 20.6357 
5.59968 1.81944 15.6838 5.53277 2.01376 15.6838 5.53277 2.01376 20.6357 
5.30477 2.55464 15.6838 5.23333 2.69797 15.6838 5.23333 2.69797 20.6357 
4.91384 3.2436 15.6838 4.84968 3.33876 15.6838 4.84968 3.33876 20.6357 
4.76337 3.46079 15.6838 4.61515 3.65681 15.6845 4.62816 3.63963 20.6357 
4.25571 4.06887 15.6838 4.09436 4.23222 15.6905 4.13018 4.19623 20.6357 
3.67101 4.6033 15.6838 3.56574 4.68532 15.6838 3.56574 4.68532 20.6357 
3.46079 4.76337 15.6838 3.2525 4.90794 15.6838 3.2614 4.90204 20.6357 
2.79007 5.18481 15.6838 2.58085 5.2928 15.688 2.6146 5.27547 20.6357 
2.31407 5.41404 15.6838 2.27474 5.43068 15.6838 2.27474 5.43068 20.6357 
2.06884 5.51241 15.6838 1.92573 5.56402 15.6838 1.92573 5.56402 20.6357 
1.81944 5.59968 15.6838 1.56767 5.67531 15.6838 1.56896 5.67495 20.6357 
1.05132 5.79323 15.6838 0.811957 5.83211 15.6826 0.837928 5.82792 20.6357 
0.264157 5.88192 15.6838 0.0934164 5.88711 15.6838 0.0934164 5.88711 20.6357 
-0.527782 5.86414 15.6838 -0.652598 5.85157 15.6838 -0.652598 5.85157 20.6357 
-0.790345 5.83456 15.6838 -1.03773 5.796 15.6841 -1.02241 5.7984 20.6357 
-1.56638 5.67567 15.6838 -1.78965 5.61001 15.6883 -1.74822 5.62232 20.6357 
-2.31407 5.41404 15.6838 -2.4459 5.35577 15.6838 -2.4459 5.35577 20.6357 
-2.55464 5.30477 15.6838 -2.78606 5.18711 15.6818 -2.78066 5.18986 20.6357 
-3.2436 4.91384 15.6838 -3.44125 4.77823 15.6854 -3.41529 4.7961 20.6357 
-3.87384 4.43397 15.6838 -3.99496 4.32516 15.6838 -3.99496 4.32516 20.6357 
-4.43397 3.87384 15.6838 -4.51035 3.78463 15.6838 -4.51035 3.78463 20.6357 
-4.6033 3.67101 15.6838 -4.74131 3.49095 15.6838 -4.74131 3.49095 20.6357 
-5.05441 3.01987 15.6838 -5.16928 2.82027 15.6903 -5.14509 2.86265 20.6357 
-5.41404 2.31407 15.6838 -5.46609 2.18829 15.6838 -5.46609 2.18829 20.6357 
-5.51241 2.06884 15.6838 -5.59737 1.82725 15.6816 -5.59387 1.83721 20.6357 
-5.74023 1.31017 15.6838 -5.78884 1.07874 15.6876 -5.78145 1.11428 20.6357 
-5.83456 0.790345 15.6838 -5.84048 0.745357 15.6838 -5.84048 0.745357 20.6357 
-5.86414 0.527782 15.6838 -5.87599 0.37343 15.6838 -5.87599 0.37343 20.6357 
-5.88192 0.264157 15.6838 -5.88785 0 15.6838 -5.88785 6.49773e-06 20.6357 
-5.87596 0.093043 15.4462 -5.88785 0 15.6838 -5.88192 0.264157 15.6838 
-5.84901 0.62036 15.4799 -5.87596 0.093043 15.4462 -5.87599 0.37343 15.6838 
-5.87596 0.093043 15.4462 -5.88192 0.264157 15.6838 -5.87599 0.37343 15.6838 
-5.84901 0.62036 15.4799 -5.86414 0.527782 15.6838 -5.84048 0.745357 15.6838 
-5.84901 0.62036 15.4799 -5.83456 0.790345 15.6838 -5.78884 1.07874 15.6876 
-5.75417 1.19445 15.4451 -5.74023 1.31017 15.6838 -5.68561 1.53293 15.686 
-5.68561 1.53293 15.686 -5.63943 1.65235 15.4468 -5.75417 1.19445 15.4451 
-5.63943 1.65235 15.4468 -5.68561 1.53293 15.686 -5.59737 1.82725 15.6816 
-5.47411 2.14496 15.4594 -5.63943 1.65235 15.4468 -5.59737 1.82725 15.6816 
-5.47411 2.14496 15.4594 -5.51241 2.06884 15.6838 -5.46609 2.18829 15.6838 
-5.47411 2.14496 15.4594 -5.41404 2.31407 15.6838 -5.31011 2.54417 15.5898 
-5.12041 2.88604 15.4536 -5.05441 3.01987 15.6838 -4.93126 3.21831 15.6816 
-4.93126 3.21831 15.6816 -4.8554 3.31603 15.4706 -5.12041 2.88604 15.4536 
-4.8554 3.31603 15.4706 -4.93126 3.21831 15.6816 -4.76337 3.46079 15.6838 
-4.51379 3.76655 15.4611 -4.8554 3.31603 15.4706 -4.74131 3.49095 15.6838 
-4.8554 3.31603 15.4706 -4.76337 3.46079 15.6838 -4.74131 3.49095 15.6838 
-4.51379 3.76655 15.4611 -4.6033 3.67101 15.6838 -4.51035 3.78463 15.6838 
-4.51379 3.76655 15.4611 -4.43397 3.87384 15.6838 -4.25814 4.0663 15.5869 
-3.98861 4.29886 15.3406 -4.06887 4.25571 15.6838 -3.99496 4.32516 15.6838 
-3.98861 4.29886 15.3406 -3.87384 4.43397 15.6838 -3.68989 4.58891 15.6814 
-3.68989 4.58891 15.6814 -3.66589 4.578 15.3564 -3.98861 4.29886 15.3406 
-3.66589 4.578 15.3564 -3.68989 4.58891 15.6814 -3.44125 4.77823 15.6854 
-3.35872 4.81154 15.3617 -3.2436 4.91384 15.6838 -3.10422 5.00305 15.6838 
-3.10422 5.00305 15.6838 -2.93448 5.09117 15.4433 -3.35872 4.81154 15.3617 
-2.93448 5.09117 15.4433 -3.01987 5.05441 15.6838 -2.78606 5.18711 15.6818 
-2.45199 5.34385 15.4516 -2.93448 5.09117 15.4433 -2.78606 5.18711 15.6818 
-2.45199 5.34385 15.4516 -2.55464 5.30477 15.6838 -2.4459 5.35577 15.6838 
-2.45199 5.34385 15.4516 -2.31407 5.41404 15.6838 -2.08415 5.50704 15.6845 
-2.08415 5.50704 15.6845 -1.94885 5.5323 15.3494 -2.45199 5.34385 15.4516 
-1.94885 5.5323 15.3494 -2.08415 5.50704 15.6845 -1.78965 5.61001 15.6883 
-1.56227 5.64991 15.3358 -1.94885 5.5323 15.3494 -1.78965 5.61001 15.6883 
-1.56227 5.64991 15.3358 -1.56638 5.67567 15.6838 -1.34266 5.73346 15.6866 
-1.34266 5.73346 15.6866 -1.21855 5.73647 15.3426 -1.56227 5.64991 15.3358 
-1.21855 5.73647 15.3426 -1.34266 5.73346 15.6866 -1.03773 5.796 15.6841 
-0.707878 5.83633 15.4543 -1.21855 5.73647 15.3426 -1.03773 5.796 15.6841 
-0.707878 5.83633 15.4543 -0.790345 5.83456 15.6838 -0.652598 5.85157 15.6838 
-0.707878 5.83633 15.4543 -0.527782 5.86414 15.6838 -0.271477 5.88156 15.5809 
0.116053 5.8767 15.4544 0 5.88785 15.6838 0.0934164 5.88711 15.6838 
0.116053 5.8767 15.4544 0.264157 5.88192 15.6838 0.501291 5.8671 15.6824 
0.501291 5.8671 15.6824 0.529736 5.85208 15.4538 0.116053 5.8767 15.4544 
0.529736 5.85208 15.4538 0.501291 5.8671 15.6824 0.811957 5.83211 15.6826 
0.910234 5.79438 15.344 1.05132 5.79323 15.6838 1.20587 5.76304 15.6838 
1.20587 5.76304 15.6838 1.39703 5.70822 15.4481 0.910234 5.79438 15.344 
1.39703 5.70822 15.4481 1.31017 5.74023 15.6838 1.56767 5.67531 15.6838 
1.90943 5.55911 15.4412 1.39703 5.70822 15.4481 1.56767 5.67531 15.6838 
1.90943 5.55911 15.4412 1.81944 5.59968 15.6838 1.92573 5.56402 15.6838 
1.90943 5.55911 15.4412 2.06884 5.51241 15.6838 2.27474 5.43068 15.6838 
2.27474 5.43068 15.6838 2.31178 5.40868 15.5313 1.90943 5.55911 15.4412 
2.31178 5.40868 15.5313 2.31407 5.41404 15.6838 2.58085 5.2928 15.688 
2.66123 5.24027 15.4552 2.79007 5.18481 15.6838 2.99072 5.07263 15.6819 
2.99072 5.07263 15.6819 3.09713 4.9983 15.4728 2.66123 5.24027 15.4552 
3.09713 4.9983 15.4728 2.99072 5.07263 15.6819 3.2525 4.90794 15.6838 
3.55895 4.6781 15.4577 3.09713 4.9983 15.4728 3.2525 4.90794 15.6838 
3.55895 4.6781 15.4577 3.46079 4.76337 15.6838 3.56574 4.68532 15.6838 
3.55895 4.6781 15.4577 3.67101 4.6033 15.6838 3.86585 4.44128 15.5857 
4.15765 4.15519 15.4531 4.25571 4.06887 15.6838 4.41491 3.89658 15.6848 
4.41491 3.89658 15.6848 4.48552 3.79669 15.4471 4.15765 4.15519 15.4531 
4.48552 3.79669 15.4471 4.41491 3.89658 15.6848 4.61515 3.65681 15.6845 
4.815 3.37336 15.453 4.48552 3.79669 15.4471 4.61515 3.65681 15.6845 
4.815 3.37336 15.453 4.76337 3.46079 15.6838 4.84968 3.33876 15.6838 
4.815 3.37336 15.453 4.91384 3.2436 15.6838 5.05311 3.02218 15.6838 
5.05311 3.02218 15.6838 5.09177 2.93411 15.446 4.815 3.37336 15.453 
5.09177 2.93411 15.446 5.05311 3.02218 15.6838 5.18481 2.79007 15.6838 
5.28072 2.57746 15.4533 5.09177 2.93411 15.446 5.23333 2.69797 15.6838 
5.09177 2.93411 15.446 5.18481 2.79007 15.6838 5.23333 2.69797 15.6838 
5.28072 2.57746 15.4533 5.30477 2.55464 15.6838 5.40553 2.33523 15.6828 
5.40553 2.33523 15.6828 5.45171 2.19257 15.4365 5.28072 2.57746 15.4533 
5.45171 2.19257 15.4365 5.40553 2.33523 15.6828 5.51241 2.06884 15.6838 
5.53185 1.95341 15.3611 5.45171 2.19257 15.4365 5.53277 2.01376 15.6838 
5.45171 2.19257 15.4365 5.51241 2.06884 15.6838 5.53277 2.01376 15.6838 
5.53185 1.95341 15.3611 5.59968 1.81944 15.6838 5.64935 1.6588 15.6838 
5.64935 1.6588 15.6838 5.69548 1.44613 15.436 5.53185 1.95341 15.3611 
5.69548 1.44613 15.436 5.67567 1.56638 15.6838 5.7417 1.30366 15.6838 
5.80055 0.962043 15.4736 5.69548 1.44613 15.436 5.7417 1.30366 15.6838 
5.80055 0.962043 15.4736 5.79323 1.05132 15.6838 5.81389 0.930288 15.6838 
5.80055 0.962043 15.4736 5.83456 0.790345 15.6838 5.86322 0.541659 15.5889 
5.87572 0.169076 15.4562 5.88785 0 15.6838 5.884 -0.231745 15.6803 
5.884 -0.231745 15.6803 5.85653 -0.402615 15.3797 5.87572 0.169076 15.4562 
5.85653 -0.402615 15.3797 5.884 -0.231745 15.6803 5.86267 -0.543729 15.6838 
5.80558 -0.919765 15.4572 5.85653 -0.402615 15.3797 5.86267 -0.543729 15.6838 
5.80558 -0.919765 15.4572 5.83456 -0.790345 15.6838 5.81389 -0.930288 15.6838 
5.80558 -0.919765 15.4572 5.79323 -1.05132 15.6838 5.7417 -1.30366 15.6838 
5.7417 -1.30366 15.6838 5.72914 -1.26559 15.3842 5.80558 -0.919765 15.4572 
5.72914 -1.26559 15.3842 5.7417 -1.30366 15.6838 5.66654 -1.60185 15.6775 
5.63484 -1.67403 15.4595 5.59968 -1.81944 15.6838 5.53277 -2.01376 15.6838 
5.53277 -2.01376 15.6838 5.50028 -2.06745 15.4538 5.63484 -1.67403 15.4595 
5.50028 -2.06745 15.4538 5.51241 -2.06884 15.6838 5.40553 -2.33522 15.6826 
5.36743 -2.37412 15.3681 5.30477 -2.55464 15.6838 5.23333 -2.69797 15.6838 
5.23333 -2.69797 15.6838 5.13086 -2.86511 15.4476 5.36743 -2.37412 15.3681 
5.13086 -2.86511 15.4476 5.18481 -2.79007 15.6838 5.0533 -3.02187 15.6825 
4.92809 -3.2003 15.4526 5.13086 -2.86511 15.4476 5.0533 -3.02187 15.6825 
4.68334 -3.55599 15.4758 4.92809 -3.2003 15.4526 4.84968 -3.33876 15.6838 
4.92809 -3.2003 15.4526 4.91384 -3.2436 15.6838 4.84968 -3.33876 15.6838 
4.68334 -3.55599 15.4758 4.76337 -3.46079 15.6838 4.61515 -3.65681 15.6849 
4.68334 -3.55599 15.4758 4.61515 -3.65681 15.6849 4.41491 -3.89658 15.6839 
4.3433 -3.95962 15.4553 4.25571 -4.06887 15.6838 4.09375 -4.23285 15.682 
4.09375 -4.23285 15.682 3.99401 -4.31511 15.4711 4.3433 -3.95962 15.4553 
3.99401 -4.31511 15.4711 4.09375 -4.23285 15.682 3.87384 -4.43397 15.6838 
3.56214 -4.67567 15.4577 3.99401 -4.31511 15.4711 3.85572 -4.44974 15.6838 
3.99401 -4.31511 15.4711 3.87384 -4.43397 15.6838 3.85572 -4.44974 15.6838 
3.56214 -4.67567 15.4577 3.67101 -4.6033 15.6838 3.56574 -4.68532 15.6838 
3.56214 -4.67567 15.4577 3.46079 -4.76337 15.6838 3.25197 -4.90827 15.5853 
2.91496 -5.10406 15.454 3.01987 -5.05441 15.6838 2.94392 -5.09902 15.6838 
2.91496 -5.10406 15.454 2.79007 -5.18481 15.6838 2.58081 -5.29282 15.682 
2.58081 -5.29282 15.682 2.46141 -5.33999 15.4716 2.91496 -5.10406 15.454 
2.46141 -5.33999 15.4716 2.58081 -5.29282 15.682 2.31407 -5.41404 15.6838 
1.92496 -5.55391 15.4531 2.46141 -5.33999 15.4716 2.27474 -5.43068 15.6838 
2.46141 -5.33999 15.4716 2.31407 -5.41404 15.6838 2.27474 -5.43068 15.6838 
1.92496 -5.55391 15.4531 2.06884 -5.51241 15.6838 1.92573 -5.56402 15.6838 
1.92496 -5.55391 15.4531 1.81944 -5.59968 15.6838 1.56767 -5.67531 15.6838 
1.56767 -5.67531 15.6838 1.4737 -5.68891 15.4462 1.92496 -5.55391 15.4531 
1.4737 -5.68891 15.4462 1.56767 -5.67531 15.6838 1.31017 -5.74023 15.6838 
0.963209 -5.80267 15.4859 1.4737 -5.68891 15.4462 1.20587 -5.76304 15.6838 
1.4737 -5.68891 15.4462 1.31017 -5.74023 15.6838 1.20587 -5.76304 15.6838 
0.963209 -5.80267 15.4859 1.05132 -5.79323 15.6838 0.811959 -5.83211 15.6827 
0.963209 -5.80267 15.4859 0.811959 -5.83211 15.6827 0.501267 -5.8671 15.6875 
0.401376 -5.86328 15.4523 0.264157 -5.88192 15.6838 0.0346292 -5.88855 15.6808 
0.0346292 -5.88855 15.6808 -0.0708477 -5.87917 15.4716 0.401376 -5.86328 15.4523 
-0.0708477 -5.87917 15.4716 0.0346292 -5.88855 15.6808 -0.272156 -5.88155 15.6838 
-0.638131 -5.84299 15.448 -0.0708477 -5.87917 15.4716 -0.272156 -5.88155 15.6838 
-0.638131 -5.84299 15.448 -0.527782 -5.86414 15.6838 -0.652598 -5.85157 15.6838 
-0.638131 -5.84299 15.448 -0.790345 -5.83456 15.6838 -1.03772 -5.79601 15.6843 
-1.03772 -5.79601 15.6843 -1.08546 -5.77487 15.4494 -0.638131 -5.84299 15.448 
-1.08546 -5.77487 15.4494 -1.03772 -5.79601 15.6843 -1.34268 -5.73345 15.6866 
-1.47502 -5.6788 15.3649 -1.56638 -5.67567 15.6838 -1.78967 -5.61 15.6845 
-1.78967 -5.61 15.6845 -1.90292 -5.56001 15.4472 -1.47502 -5.6788 15.3649 
-1.90292 -5.56001 15.4472 -1.78967 -5.61 15.6845 -2.08414 -5.50705 15.6843 
-2.38926 -5.37128 15.4521 -1.90292 -5.56001 15.4472 -2.08414 -5.50705 15.6843 
-2.38926 -5.37128 15.4521 -2.31407 -5.41404 15.6838 -2.4459 -5.35577 15.6838 
-2.38926 -5.37128 15.4521 -2.55464 -5.30477 15.6838 -2.78551 -5.18739 15.6839 
-2.78551 -5.18739 15.6839 -2.78558 -5.16161 15.3588 -2.38926 -5.37128 15.4521 
-2.78558 -5.16161 15.3588 -2.78551 -5.18739 15.6839 -3.05236 -5.03573 15.6846 
-3.11383 -4.96762 15.3394 -3.2436 -4.91384 15.6838 -3.44211 -4.77761 15.5918 
-3.75968 -4.51736 15.4546 -3.87384 -4.43397 15.6838 -3.99496 -4.32516 15.6838 
-3.99496 -4.32516 15.6838 -4.15512 -4.14357 15.3647 -3.75968 -4.51736 15.4546 
-4.15512 -4.14357 15.3647 -4.06887 -4.25571 15.6838 -4.25847 -4.06598 15.6838 
-4.46715 -3.82521 15.4706 -4.43397 -3.87384 15.6838 -4.51035 -3.78463 15.6838 
-4.46715 -3.82521 15.4706 -4.6033 -3.67101 15.6838 -4.74131 -3.49095 15.6838 
-4.74131 -3.49095 15.6838 -4.81968 -3.36417 15.4457 -4.46715 -3.82521 15.4706 
-4.81968 -3.36417 15.4457 -4.76337 -3.46079 15.6838 -4.93127 -3.2183 15.6841 
-5.11452 -2.8988 15.4638 -4.81968 -3.36417 15.4457 -4.93127 -3.2183 15.6841 
-5.11452 -2.8988 15.4638 -5.05441 -3.01987 15.6838 -5.16959 -2.8197 15.6795 
-5.11452 -2.8988 15.4638 -5.16959 -2.8197 15.6795 -5.31053 -2.5426 15.6838 
-5.45306 -2.193 15.4472 -5.29569 -2.54305 15.4361 -5.31053 -2.5426 15.6838 
-5.45306 -2.193 15.4472 -5.41404 -2.31407 15.6838 -5.46609 -2.18829 15.6838 
-5.45306 -2.193 15.4472 -5.51241 -2.06884 15.6838 -5.59709 -1.82807 15.684 
-5.59709 -1.82807 15.684 -5.59948 -1.7814 15.4497 -5.45306 -2.193 15.4472 
-5.59948 -1.7814 15.4497 -5.59709 -1.82807 15.684 -5.68585 -1.53187 15.6852 
-5.70083 -1.42847 15.4511 -5.74023 -1.31017 15.6838 -5.78884 -1.07873 15.6826 
-5.78884 -1.07873 15.6826 -5.80299 -0.948001 15.472 -5.70083 -1.42847 15.4511 
-5.80299 -0.948001 15.472 -5.78884 -1.07873 15.6826 -5.83456 -0.790345 15.6838 
-5.86589 -0.377595 15.4531 -5.80299 -0.948001 15.472 -5.84048 -0.745357 15.6838 
-5.80299 -0.948001 15.472 -5.83456 -0.790345 15.6838 -5.84048 -0.745357 15.6838 
-5.86589 -0.377595 15.4531 -5.86414 -0.527782 15.6838 -5.87599 -0.37343 15.6838 
-5.86589 -0.377595 15.4531 -5.88192 -0.264157 15.6838 -5.88785 0 15.6838 
-5.8 0.786058 15.3045 -5.84901 0.62036 15.4799 -5.75417 1.19445 15.4451 
-5.233 2.57637 15.1861 -5.31011 2.54417 15.5898 -5.12041 2.88604 15.4536 
-4.59479 3.60718 15.2362 -4.8554 3.31603 15.4706 -4.51379 3.76655 15.4611 
-4.25353 4.01673 15.2937 -4.25814 4.0663 15.5869 -3.98861 4.29886 15.3406 
-0.159803 5.84165 15.2504 -0.271477 5.88156 15.5809 0.116053 5.8767 15.4544 
2.42853 5.32036 15.2747 2.31178 5.40868 15.5313 2.66123 5.24027 15.4552 
3.40411 4.75233 15.2535 3.09713 4.9983 15.4728 3.55895 4.6781 15.4577 
3.9178 4.34039 15.2672 3.86585 4.44128 15.5857 4.15765 4.15519 15.4531 
5.80135 0.61814 15.1965 5.86322 0.541659 15.5889 5.87572 0.169076 15.4562 
4.49337 -3.74384 15.2736 4.68334 -3.55599 15.4758 4.3433 -3.95962 15.4553 
3.85065 -4.408 15.3045 3.99401 -4.31511 15.4711 3.56214 -4.67567 15.4577 
3.13867 -4.93547 15.2755 3.25197 -4.90827 15.5853 2.91496 -5.10406 15.454 
2.30004 -5.38217 15.3045 2.46141 -5.33999 15.4716 1.92496 -5.55391 15.4531 
0.698706 -5.81032 15.2921 0.963209 -5.80267 15.4859 0.401376 -5.86328 15.4523 
-0.15458 -5.8441 15.2657 -0.0708477 -5.87917 15.4716 -0.638131 -5.84299 15.448 
-3.5325 -4.66334 15.2801 -3.44211 -4.77761 15.5918 -3.75968 -4.51736 15.4546 
-5.80011 -0.785287 15.3045 -5.80299 -0.948001 15.472 -5.86589 -0.377595 15.4531 
-5.79664 0.34884 15.0959 -5.87596 0.093043 15.4462 -5.84901 0.62036 15.4799 
-5.79664 0.34884 15.0959 -5.84901 0.62036 15.4799 -5.8 0.786058 15.3045 
-5.71507 1.17701 15.2176 -5.75417 1.19445 15.4451 -5.63943 1.65235 15.4468 
-5.50511 1.93726 15.2236 -5.63943 1.65235 15.4468 -5.47411 2.14496 15.4594 
-5.28031 2.40964 15.089 -5.47411 2.14496 15.4594 -5.233 2.57637 15.1861 
-4.94196 3.10613 15.2295 -5.12041 2.88604 15.4536 -4.8554 3.31603 15.4706 
-4.94196 3.10613 15.2295 -4.8554 3.31603 15.4706 -4.59479 3.60718 15.2362 
-4.59479 3.60718 15.2362 -4.51379 3.76655 15.4611 -4.25353 4.01673 15.2937 
-2.86322 5.07672 15.1829 -2.93448 5.09117 15.4433 -2.45199 5.34385 15.4516 
-2.42953 5.28141 15.1216 -2.45199 5.34385 15.4516 -1.94885 5.5323 15.3494 
-0.675848 5.79591 15.2232 -0.707878 5.83633 15.4543 -0.159803 5.84165 15.2504 
0.393396 5.82376 15.2295 0.116053 5.8767 15.4544 0.529736 5.85208 15.4538 
0.393396 5.82376 15.2295 0.529736 5.85208 15.4538 0.910234 5.79438 15.344 
1.41487 5.66594 15.241 1.39703 5.70822 15.4481 1.90943 5.55911 15.4412 
1.89147 5.52242 15.2319 1.90943 5.55911 15.4412 2.42853 5.32036 15.2747 
2.88128 5.07634 15.2295 2.66123 5.24027 15.4552 3.09713 4.9983 15.4728 
2.88128 5.07634 15.2295 3.09713 4.9983 15.4728 3.40411 4.75233 15.2535 
3.40411 4.75233 15.2535 3.55895 4.6781 15.4577 3.9178 4.34039 15.2672 
4.2862 3.9562 15.2134 4.15765 4.15519 15.4531 4.48552 3.79669 15.4471 
4.56249 3.63847 15.2299 4.48552 3.79669 15.4471 4.815 3.37336 15.453 
4.79848 3.32348 15.2295 4.815 3.37336 15.453 5.09177 2.93411 15.446 
5.06335 2.91236 15.2434 5.09177 2.93411 15.446 5.28072 2.57746 15.4533 
5.30406 2.41001 15.1747 5.28072 2.57746 15.4533 5.45171 2.19257 15.4365 
5.71431 1.14872 15.1897 5.69548 1.44613 15.436 5.80055 0.962043 15.4736 
5.8109 -0.0382898 15.1147 5.87572 0.169076 15.4562 5.85653 -0.402615 15.3797 
5.72753 -0.974952 15.116 5.80558 -0.919765 15.4572 5.72914 -1.26559 15.3842 
5.49219 -1.90418 15.1238 5.63484 -1.67403 15.4595 5.50028 -2.06745 15.4538 
5.49219 -1.90418 15.1238 5.50028 -2.06745 15.4538 5.36743 -2.37412 15.3681 
5.12347 -2.80602 15.24 5.36743 -2.37412 15.3681 5.13086 -2.86511 15.4476 
5.12347 -2.80602 15.24 5.13086 -2.86511 15.4476 4.92809 -3.2003 15.4526 
4.79837 -3.31766 15.2164 4.92809 -3.2003 15.4526 4.68334 -3.55599 15.4758 
4.79837 -3.31766 15.2164 4.68334 -3.55599 15.4758 4.49337 -3.74384 15.2736 
4.12687 -4.12794 15.2295 4.3433 -3.95962 15.4553 3.99401 -4.31511 15.4711 
4.12687 -4.12794 15.2295 3.99401 -4.31511 15.4711 3.85065 -4.408 15.3045 
3.56018 -4.62 15.2127 3.56214 -4.67567 15.4577 3.13867 -4.93547 15.2755 
2.64928 -5.20118 15.2295 2.91496 -5.10406 15.454 2.46141 -5.33999 15.4716 
2.64928 -5.20118 15.2295 2.46141 -5.33999 15.4716 2.30004 -5.38217 15.3045 
1.85699 -5.49859 15.0883 1.92496 -5.55391 15.4531 1.4737 -5.68891 15.4462 
1.17322 -5.71492 15.218 1.4737 -5.68891 15.4462 0.963209 -5.80267 15.4859 
1.17322 -5.71492 15.218 0.963209 -5.80267 15.4859 0.698706 -5.81032 15.2921 
0.261815 -5.82977 15.2299 0.401376 -5.86328 15.4523 -0.0708477 -5.87917 15.4716 
-0.661928 -5.80002 15.2305 -0.638131 -5.84299 15.448 -1.08546 -5.77487 15.4494 
-1.0503 -5.7251 15.163 -1.08546 -5.77487 15.4494 -1.47502 -5.6788 15.3649 
-1.92156 -5.51313 15.2282 -1.90292 -5.56001 15.4472 -2.38926 -5.37128 15.4521 
-2.41464 -5.31417 15.2295 -2.38926 -5.37128 15.4521 -2.78558 -5.16161 15.3588 
-3.93863 -4.30792 15.2295 -3.75968 -4.51736 15.4546 -4.15512 -4.14357 15.3647 
-4.47669 -3.74638 15.2302 -4.46715 -3.82521 15.4706 -4.81968 -3.36417 15.4457 
-4.94276 -3.10486 15.2295 -4.81968 -3.36417 15.4457 -5.11452 -2.8988 15.4638 
-5.15489 -2.69526 15.1307 -5.11452 -2.8988 15.4638 -5.29569 -2.54305 15.4361 
-5.15489 -2.69526 15.1307 -5.29569 -2.54305 15.4361 -5.45306 -2.193 15.4472 
-5.41772 -2.17239 15.2295 -5.45306 -2.193 15.4472 -5.59948 -1.7814 15.4497 
-5.59037 -1.6816 15.2314 -5.59948 -1.7814 15.4497 -5.70083 -1.42847 15.4511 
-5.71855 -1.17011 15.2295 -5.70083 -1.42847 15.4511 -5.80299 -0.948001 15.472 
-5.71855 -1.17011 15.2295 -5.80299 -0.948001 15.472 -5.80011 -0.785287 15.3045 
-5.82386 -0.391897 15.2295 -5.86589 -0.377595 15.4531 -5.87596 0.093043 15.4462 
-5.72023 0.775608 15.0103 -5.8 0.786058 15.3045 -5.71507 1.17701 15.2176 
-5.65323 1.16446 15.0037 -5.71507 1.17701 15.2176 -5.59803 1.50819 15.0779 
-5.44438 1.91096 14.9984 -5.50511 1.93726 15.2236 -5.28031 2.40964 15.089 
-4.89286 3.0771 15.0256 -4.94196 3.10613 15.2295 -4.59479 3.60718 15.2362 
-4.25032 3.90192 14.9983 -4.59479 3.60718 15.2362 -4.25353 4.01673 15.2937 
-4.25032 3.90192 14.9983 -4.25353 4.01673 15.2937 -3.98861 4.29886 15.3406 
-3.9088 4.24974 15.0094 -3.98861 4.29886 15.3406 -3.66589 4.578 15.3564 
-3.59857 4.51364 15.0103 -3.66589 4.578 15.3564 -3.35872 4.81154 15.3617 
-3.18819 4.80514 14.9829 -3.35872 4.81154 15.3617 -2.86322 5.07672 15.1829 
-1.87157 5.46694 15.022 -1.94885 5.5323 15.3494 -1.56227 5.64991 15.3358 
-1.46822 5.56076 14.9454 -1.56227 5.64991 15.3358 -1.21855 5.73647 15.3426 
-1.03001 5.67994 15.0103 -1.21855 5.73647 15.3426 -0.675848 5.79591 15.2232 
-0.662069 5.73908 15.0165 -0.675848 5.79591 15.2232 -0.159803 5.84165 15.2504 
-0.105026 5.78165 15.0302 -0.159803 5.84165 15.2504 0.393396 5.82376 15.2295 
0.561419 5.74541 14.9974 0.393396 5.82376 15.2295 0.910234 5.79438 15.344 
1.20468 5.64927 15.0169 0.910234 5.79438 15.344 1.41487 5.66594 15.241 
1.66648 5.52612 15.0037 1.41487 5.66594 15.241 1.89147 5.52242 15.2319 
2.1428 5.35945 15.0013 1.89147 5.52242 15.2319 2.42853 5.32036 15.2747 
2.61884 5.14419 15.0098 2.42853 5.32036 15.2747 2.88128 5.07634 15.2295 
2.96138 4.95508 15.0103 2.88128 5.07634 15.2295 3.40411 4.75233 15.2535 
3.40751 4.67293 15.0245 3.40411 4.75233 15.2535 3.9178 4.34039 15.2672 
3.89594 4.26044 15.0068 3.9178 4.34039 15.2672 4.2862 3.9562 15.2134 
4.23973 3.92169 15.0121 4.2862 3.9562 15.2134 4.56249 3.63847 15.2299 
4.59147 3.49849 15.0097 4.56249 3.63847 15.2299 4.79848 3.32348 15.2295 
4.89359 3.05883 14.9974 4.79848 3.32348 15.2295 5.06335 2.91236 15.2434 
5.11585 2.60989 14.9238 5.06335 2.91236 15.2434 5.30406 2.41001 15.1747 
5.4561 1.90303 15.0215 5.53185 1.95341 15.3611 5.60888 1.54738 15.1559 
5.74441 -0.588883 15.0071 5.8109 -0.0382898 15.1147 5.85653 -0.402615 15.3797 
5.74441 -0.588883 15.0071 5.85653 -0.402615 15.3797 5.72753 -0.974952 15.116 
5.72753 -0.974952 15.116 5.72914 -1.26559 15.3842 5.6163 -1.53814 15.1713 
5.25675 -2.38748 15.0076 5.36743 -2.37412 15.3681 5.12347 -2.80602 15.24 
4.88955 -3.07228 15.0122 5.12347 -2.80602 15.24 4.79837 -3.31766 15.2164 
4.58702 -3.5054 15.0072 4.79837 -3.31766 15.2164 4.49337 -3.74384 15.2736 
4.26429 -3.88405 14.9949 4.49337 -3.74384 15.2736 4.12687 -4.12794 15.2295 
3.98868 -4.17289 15.0103 4.12687 -4.12794 15.2295 3.85065 -4.408 15.3045 
3.70027 -4.43187 15.0076 3.85065 -4.408 15.3045 3.56018 -4.62 15.2127 
3.28436 -4.74463 14.9974 3.56018 -4.62 15.2127 3.13867 -4.93547 15.2755 
2.85539 -5.01165 14.9949 3.13867 -4.93547 15.2755 2.64928 -5.20118 15.2295 
2.38397 -5.25722 15.0025 2.64928 -5.20118 15.2295 2.30004 -5.38217 15.3045 
2.38397 -5.25722 15.0025 2.30004 -5.38217 15.3045 1.85699 -5.49859 15.0883 
1.13729 -5.65999 15.0061 1.17322 -5.71492 15.218 0.698706 -5.81032 15.2921 
0.652971 -5.74071 15.0166 0.698706 -5.81032 15.2921 0.261815 -5.82977 15.2299 
0.0730592 -5.77764 15.0241 0.261815 -5.82977 15.2299 -0.15458 -5.8441 15.2657 
-0.400177 -5.76322 15.0206 -0.15458 -5.8441 15.2657 -0.661928 -5.80002 15.2305 
-0.919874 -5.67391 14.9393 -0.661928 -5.80002 15.2305 -1.0503 -5.7251 15.163 
-1.39156 -5.60406 15.0098 -1.47502 -5.6788 15.3649 -1.92156 -5.51313 15.2282 
-1.90429 -5.45298 15.0104 -1.92156 -5.51313 15.2282 -2.41464 -5.31417 15.2295 
-2.39075 -5.25684 15.0111 -2.41464 -5.31417 15.2295 -2.78558 -5.16161 15.3588 
-2.73609 -5.08296 15.0103 -2.78558 -5.16161 15.3588 -3.11383 -4.96762 15.3394 
-3.08533 -4.88296 15.0154 -3.11383 -4.96762 15.3394 -3.5325 -4.66334 15.2801 
-3.51016 -4.59073 15.0209 -3.5325 -4.66334 15.2801 -3.93863 -4.30792 15.2295 
-3.90581 -4.25576 15.0144 -3.93863 -4.30792 15.2295 -4.15512 -4.14357 15.3647 
-4.24585 -3.91016 15.0031 -4.15512 -4.14357 15.3647 -4.47669 -3.74638 15.2302 
-5.44551 -1.90671 14.9967 -5.41772 -2.17239 15.2295 -5.59037 -1.6816 15.2314 
-5.56474 -1.53501 15.0103 -5.59037 -1.6816 15.2314 -5.71855 -1.17011 15.2295 
-5.66134 -1.14721 15.0144 -5.71855 -1.17011 15.2295 -5.80011 -0.785287 15.3045 
-5.73582 -0.660929 15.0074 -5.80011 -0.785287 15.3045 -5.82386 -0.391897 15.2295 
-4.97371 2.79124 14.8367 -5.233 2.57637 15.1861 -4.89286 3.0771 15.0256 
-2.64529 5.06048 14.8531 -2.86322 5.07672 15.1829 -2.42953 5.28141 15.1216 
-2.22512 5.26726 14.8743 -2.42953 5.28141 15.1216 -1.87157 5.46694 15.022 
5.26726 2.22512 14.8743 5.30406 2.41001 15.1747 5.4561 1.90303 15.0215 
5.67468 0.897516 14.9385 5.71431 1.14872 15.1897 5.80135 0.61814 15.1965 
5.70511 0.355417 14.8653 5.80135 0.61814 15.1965 5.81672 0.272645 15.1712 
5.70511 0.355417 14.8653 5.81672 0.272645 15.1712 5.8109 -0.0382898 15.1147 
5.57077 -1.405 14.9385 5.72753 -0.974952 15.116 5.6163 -1.53814 15.1713 
5.57077 -1.405 14.9385 5.6163 -1.53814 15.1713 5.49219 -1.90418 15.1238 
-0.919874 -5.67391 14.9393 -1.0503 -5.7251 15.163 -1.39156 -5.60406 15.0098 
-5.67427 0.134665 14.784 -5.79872 -0.0692554 15.079 -5.79664 0.34884 15.0959 
-5.61924 0.650226 14.7383 -5.79664 0.34884 15.0959 -5.72023 0.775608 15.0103 
-5.61924 0.650226 14.7383 -5.72023 0.775608 15.0103 -5.65323 1.16446 15.0037 
-5.5298 1.13755 14.72 -5.65323 1.16446 15.0037 -5.59803 1.50819 15.0779 
-5.47702 1.51156 14.7996 -5.59803 1.50819 15.0779 -5.44438 1.91096 14.9984 
-5.31959 1.8913 14.7235 -5.44438 1.91096 14.9984 -5.20935 2.33571 14.85 
-5.20935 2.33571 14.85 -5.28031 2.40964 15.089 -4.97371 2.79124 14.8367 
-4.5961 3.26478 14.7023 -4.89286 3.0771 15.0256 -4.59125 3.50461 15.0138 
-4.40379 3.5434 14.7366 -4.59125 3.50461 15.0138 -4.25032 3.90192 14.9983 
-4.05611 3.92839 14.7193 -4.25032 3.90192 14.9983 -3.9088 4.24974 15.0094 
-3.63238 4.36232 14.7858 -3.9088 4.24974 15.0094 -3.59857 4.51364 15.0103 
-3.63238 4.36232 14.7858 -3.59857 4.51364 15.0103 -3.18819 4.80514 14.9829 
-3.1739 4.71355 14.7926 -3.18819 4.80514 14.9829 -2.64529 5.06048 14.8531 
-2.64529 5.06048 14.8531 -2.42953 5.28141 15.1216 -2.22512 5.26726 14.8743 
-1.79591 5.34073 14.7003 -1.87157 5.46694 15.022 -1.46822 5.56076 14.9454 
-1.03244 5.56282 14.74 -1.46822 5.56076 14.9454 -1.03001 5.67994 15.0103 
-1.03244 5.56282 14.74 -1.03001 5.67994 15.0103 -0.662069 5.73908 15.0165 
0.131403 5.65048 14.7325 -0.105026 5.78165 15.0302 0.561419 5.74541 14.9974 
0.798733 5.60665 14.7515 0.561419 5.74541 14.9974 1.20468 5.64927 15.0169 
1.27794 5.51348 14.7518 1.20468 5.64927 15.0169 1.66648 5.52612 15.0037 
1.75997 5.36501 14.718 1.66648 5.52612 15.0037 2.1428 5.35945 15.0013 
2.35427 5.1654 14.7858 2.1428 5.35945 15.0013 2.61884 5.14419 15.0098 
2.82963 4.90991 14.7619 2.61884 5.14419 15.0098 2.96138 4.95508 15.0103 
2.82963 4.90991 14.7619 2.96138 4.95508 15.0103 3.40751 4.67293 15.0245 
3.54253 4.44219 14.7996 3.40751 4.67293 15.0245 3.89594 4.26044 15.0068 
3.92192 4.05862 14.7126 3.89594 4.26044 15.0068 4.23973 3.92169 15.0121 
4.36232 3.63238 14.7858 4.23973 3.92169 15.0121 4.59147 3.49849 15.0097 
4.72706 3.14489 14.7814 4.59147 3.49849 15.0097 4.89359 3.05883 14.9974 
4.72706 3.14489 14.7814 4.89359 3.05883 14.9974 5.11585 2.60989 14.9238 
5.34253 1.78138 14.6941 5.4561 1.90303 15.0215 5.55874 1.42554 14.916 
5.53723 1.12921 14.7318 5.55874 1.42554 14.916 5.67468 0.897516 14.9385 
5.60386 0.650215 14.7136 5.67468 0.897516 14.9385 5.70511 0.355417 14.8653 
5.67427 -0.134665 14.784 5.8109 -0.0382898 15.1147 5.74441 -0.588883 15.0071 
5.47571 -1.36578 14.721 5.57077 -1.405 14.9385 5.40149 -1.84523 14.8454 
5.40149 -1.84523 14.8454 5.49219 -1.90418 15.1238 5.25675 -2.38748 15.0076 
5.13105 -2.35293 14.7177 5.25675 -2.38748 15.0076 5.08296 -2.73609 15.0103 
4.92026 -2.78562 14.7333 5.08296 -2.73609 15.0103 4.88955 -3.07228 15.0122 
4.63413 -3.23271 14.7285 4.88955 -3.07228 15.0122 4.58702 -3.5054 15.0072 
4.25782 -3.73445 14.7522 4.58702 -3.5054 15.0072 4.26429 -3.88405 14.9949 
4.25782 -3.73445 14.7522 4.26429 -3.88405 14.9949 3.98868 -4.17289 15.0103 
3.91269 -4.08715 14.7482 3.98868 -4.17289 15.0103 3.70027 -4.43187 15.0076 
3.63238 -4.36232 14.7858 3.70027 -4.43187 15.0076 3.28436 -4.74463 14.9974 
3.22939 -4.67366 14.7909 3.28436 -4.74463 14.9974 2.85539 -5.01165 14.9949 
2.69949 -4.98499 14.7654 2.85539 -5.01165 14.9949 2.38397 -5.25722 15.0025 
2.1063 -5.27057 14.784 2.38397 -5.25722 15.0025 1.85699 -5.49859 15.0883 
1.59734 -5.43721 14.7619 1.85699 -5.49859 15.0883 1.55302 -5.58748 15.0839 
1.59734 -5.43721 14.7619 1.55302 -5.58748 15.0839 1.13729 -5.65999 15.0061 
1.11597 -5.54444 14.74 1.13729 -5.65999 15.0061 0.652971 -5.74071 15.0166 
-0.150259 -5.64912 14.7313 0.0730592 -5.77764 15.0241 -0.400177 -5.76322 15.0206 
-0.740927 -5.608 14.7376 -0.400177 -5.76322 15.0206 -0.919874 -5.67391 14.9393 
-1.39703 -5.47556 14.7311 -1.39156 -5.60406 15.0098 -1.90429 -5.45298 15.0104 
-1.90191 -5.30509 14.6967 -1.90429 -5.45298 15.0104 -2.39075 -5.25684 15.0111 
-2.3518 -5.139 14.7328 -2.39075 -5.25684 15.0111 -2.73609 -5.08296 15.0103 
-2.75859 -4.91882 14.7065 -2.73609 -5.08296 15.0103 -3.08533 -4.88296 15.0154 
-3.22362 -4.64375 14.7339 -3.08533 -4.88296 15.0154 -3.51016 -4.59073 15.0209 
-3.51934 -4.42299 14.7356 -3.51016 -4.59073 15.0209 -3.90581 -4.25576 15.0144 
-3.94001 -4.08319 14.7784 -3.90581 -4.25576 15.0144 -4.24585 -3.91016 15.0031 
-4.36232 -3.63238 14.7858 -4.24585 -3.91016 15.0031 -4.64185 -3.47596 15.074 
-4.63013 -3.22776 14.7155 -4.64185 -3.47596 15.074 -4.81804 -3.17949 15.0103 
-4.63013 -3.22776 14.7155 -4.81804 -3.17949 15.0103 -4.95031 -2.81678 14.8218 
-5.33991 -1.84814 14.7305 -5.44551 -1.90671 14.9967 -5.56474 -1.53501 15.0103 
-5.4526 -1.48126 14.731 -5.56474 -1.53501 15.0103 -5.66134 -1.14721 15.0144 
-5.542 -1.13122 14.7415 -5.66134 -1.14721 15.0144 -5.73582 -0.660929 15.0074 
-5.54923 0.0366214 14.5605 -5.67427 0.134665 14.784 -5.61924 0.650226 14.7383 
-5.27724 1.56691 14.4982 -5.47702 1.51156 14.7996 -5.31959 1.8913 14.7235 
-5.06842 2.32018 14.603 -5.20935 2.33571 14.85 -4.97371 2.79124 14.8367 
-4.83574 2.77264 14.6009 -4.97371 2.79124 14.8367 -4.5961 3.26478 14.7023 
-3.56187 4.28279 14.5974 -3.63238 4.36232 14.7858 -3.1739 4.71355 14.7926 
-2.72932 4.90969 14.677 -3.1739 4.71355 14.7926 -2.64529 5.06048 14.8531 
-2.31856 5.10869 14.6648 -2.64529 5.06048 14.8531 -2.22512 5.26726 14.8743 
-2.31856 5.10869 14.6648 -2.22512 5.26726 14.8743 -1.79591 5.34073 14.7003 
-1.79591 5.34073 14.7003 -1.46822 5.56076 14.9454 -1.03244 5.56282 14.74 
-0.643026 5.46473 14.4927 -1.03244 5.56282 14.74 -0.314371 5.6562 14.7561 
2.30693 5.07003 14.597 2.35427 5.1654 14.7858 2.82963 4.90991 14.7619 
3.53434 4.29976 14.5916 3.54253 4.44219 14.7996 3.92192 4.05862 14.7126 
4.28279 3.56187 14.5974 4.36232 3.63238 14.7858 4.72706 3.14489 14.7814 
4.90969 2.72932 14.677 4.72706 3.14489 14.7814 5.11585 2.60989 14.9238 
5.10869 2.31856 14.6648 5.11585 2.60989 14.9238 5.26726 2.22512 14.8743 
5.10869 2.31856 14.6648 5.26726 2.22512 14.8743 5.34253 1.78138 14.6941 
5.34253 1.78138 14.6941 5.55874 1.42554 14.916 5.53723 1.12921 14.7318 
5.57498 0.0117199 14.5981 5.70511 0.355417 14.8653 5.67427 -0.134665 14.784 
5.57498 0.0117199 14.5981 5.67427 -0.134665 14.784 5.63214 -0.523737 14.7448 
5.2957 -1.85455 14.6632 5.40149 -1.84523 14.8454 5.13105 -2.35293 14.7177 
3.56866 -4.26804 14.5859 3.63238 -4.36232 14.7858 3.22939 -4.67366 14.7909 
3.15071 -4.55402 14.5421 3.22939 -4.67366 14.7909 2.69949 -4.98499 14.7654 
2.58615 -4.95182 14.617 2.69949 -4.98499 14.7654 2.1063 -5.27057 14.784 
1.86643 -5.20293 14.5289 2.1063 -5.27057 14.784 1.59734 -5.43721 14.7619 
-0.740927 -5.608 14.7376 -0.919874 -5.67391 14.9393 -1.39703 -5.47556 14.7311 
-3.89787 -3.99853 14.6151 -3.94001 -4.08319 14.7784 -4.36232 -3.63238 14.7858 
-4.27933 -3.55985 14.591 -4.36232 -3.63238 14.7858 -4.63013 -3.22776 14.7155 
-4.85621 -2.72493 14.5934 -4.95031 -2.81678 14.8218 -5.20368 -2.428 14.9192 
-5.091 -2.29478 14.6166 -5.20368 -2.428 14.9192 -5.33991 -1.84814 14.7305 
-5.45245 0.655795 14.4847 -5.61924 0.650226 14.7383 -5.5298 1.13755 14.72 
-5.3649 1.1208 14.4696 -5.5298 1.13755 14.72 -5.27724 1.56691 14.4982 
-5.08408 2.02126 14.4584 -5.31959 1.8913 14.7235 -5.06842 2.32018 14.603 
-4.1951 3.52653 14.4691 -4.40379 3.5434 14.7366 -4.05611 3.92839 14.7193 
-3.82094 3.92885 14.4679 -4.05611 3.92839 14.7193 -3.56187 4.28279 14.5974 
-2.60458 4.82943 14.474 -2.72932 4.90969 14.677 -2.31856 5.10869 14.6648 
-1.9516 5.13686 14.4845 -2.31856 5.10869 14.6648 -1.79591 5.34073 14.7003 
-1.22216 5.34351 14.4674 -1.79591 5.34073 14.7003 -1.03244 5.56282 14.74 
-1.22216 5.34351 14.4674 -1.03244 5.56282 14.74 -0.643026 5.46473 14.4927 
-0.104961 5.48035 14.4701 -0.314371 5.6562 14.7561 0.131403 5.65048 14.7325 
1.10435 5.37244 14.4705 0.798733 5.60665 14.7515 1.27794 5.51348 14.7518 
1.10435 5.37244 14.4705 1.27794 5.51348 14.7518 1.75997 5.36501 14.718 
1.69437 5.19077 14.4352 1.75997 5.36501 14.718 2.30693 5.07003 14.597 
2.91986 4.63637 14.4676 2.82963 4.90991 14.7619 3.24173 4.6033 14.6913 
4.03703 3.69369 14.4596 3.92192 4.05862 14.7126 4.28279 3.56187 14.5974 
4.82555 2.61506 14.4767 4.90969 2.72932 14.677 5.10869 2.31856 14.6648 
5.13784 1.91168 14.4643 5.10869 2.31856 14.6648 5.34253 1.78138 14.6941 
5.36662 1.18031 14.4843 5.34253 1.78138 14.6941 5.53723 1.12921 14.7318 
5.36662 1.18031 14.4843 5.53723 1.12921 14.7318 5.60386 0.650215 14.7136 
5.45208 0.62152 14.4762 5.60386 0.650215 14.7136 5.57498 0.0117199 14.5981 
5.49248 -0.620863 14.5365 5.63214 -0.523737 14.7448 5.59089 -0.95781 14.7698 
5.3516 -1.23632 14.4809 5.59089 -0.95781 14.7698 5.47571 -1.36578 14.721 
5.3516 -1.23632 14.4809 5.47571 -1.36578 14.721 5.2957 -1.85455 14.6632 
5.15875 -1.84698 14.4676 5.2957 -1.85455 14.6632 5.13105 -2.35293 14.7177 
4.97515 -2.29522 14.4673 5.13105 -2.35293 14.7177 4.92026 -2.78562 14.7333 
4.70421 -2.83573 14.4821 4.92026 -2.78562 14.7333 4.63413 -3.23271 14.7285 
4.35983 -3.3289 14.4735 4.63413 -3.23271 14.7285 4.25782 -3.73445 14.7522 
4.06935 -3.72933 14.525 4.25782 -3.73445 14.7522 3.91269 -4.08715 14.7482 
3.80033 -3.94698 14.4696 3.91269 -4.08715 14.7482 3.56866 -4.26804 14.5859 
1.34259 -5.3175 14.4721 1.59734 -5.43721 14.7619 1.11597 -5.54444 14.74 
0.703234 -5.45217 14.4881 1.11597 -5.54444 14.74 0.742671 -5.60747 14.7448 
0.703234 -5.45217 14.4881 0.742671 -5.60747 14.7448 0.324856 -5.66048 14.7652 
0.107494 -5.49214 14.4847 0.324856 -5.66048 14.7652 -0.150259 -5.64912 14.7313 
-0.506187 -5.47058 14.4844 -0.150259 -5.64912 14.7313 -0.740927 -5.608 14.7376 
-0.972136 -5.40328 14.4818 -0.740927 -5.608 14.7376 -1.39703 -5.47556 14.7311 
-1.34879 -5.31664 14.4753 -1.39703 -5.47556 14.7311 -1.90191 -5.30509 14.6967 
-2.41686 -4.92209 14.4706 -2.3518 -5.139 14.7328 -2.75859 -4.91882 14.7065 
-2.97069 -4.58448 14.4422 -2.75859 -4.91882 14.7065 -3.22362 -4.64375 14.7339 
-3.43899 -4.27232 14.4711 -3.22362 -4.64375 14.7339 -3.51934 -4.42299 14.7356 
-3.43899 -4.27232 14.4711 -3.51934 -4.42299 14.7356 -3.89787 -3.99853 14.6151 
-4.63285 -2.91064 14.4588 -4.63013 -3.22776 14.7155 -4.85621 -2.72493 14.5934 
-5.17825 -1.80922 14.4755 -5.33991 -1.84814 14.7305 -5.4526 -1.48126 14.731 
-5.33846 -1.22323 14.4601 -5.4526 -1.48126 14.731 -5.542 -1.13122 14.7415 
-5.33846 -1.22323 14.4601 -5.542 -1.13122 14.7415 -5.60303 -0.747657 14.7367 
-5.49226 -0.618435 14.5338 -5.60303 -0.747657 14.7367 -5.65778 -0.326252 14.7612 
-5.39383 0.345149 14.3757 -5.54923 0.0366214 14.5605 -5.45245 0.655795 14.4847 
-4.78508 2.57749 14.4121 -5.06842 2.32018 14.603 -4.83574 2.77264 14.6009 
-4.47447 3.10778 14.4295 -4.83574 2.77264 14.6009 -4.5961 3.26478 14.7023 
-4.47447 3.10778 14.4295 -4.5961 3.26478 14.7023 -4.1951 3.52653 14.4691 
-3.21834 4.37736 14.4057 -3.56187 4.28279 14.5974 -3.15812 4.58928 14.596 
-3.21834 4.37736 14.4057 -3.15812 4.58928 14.596 -2.60458 4.82943 14.474 
2.37361 4.88265 14.4052 2.30693 5.07003 14.597 2.63933 4.9012 14.5941 
2.37361 4.88265 14.4052 2.63933 4.9012 14.5941 2.91986 4.63637 14.4676 
3.29438 4.323 14.415 3.24173 4.6033 14.6913 3.53434 4.29976 14.5916 
3.677 4.01773 14.4277 3.53434 4.29976 14.5916 3.92192 4.05862 14.7126 
3.677 4.01773 14.4277 3.92192 4.05862 14.7126 4.03703 3.69369 14.4596 
4.37125 3.14661 14.3486 4.28279 3.56187 14.5974 4.58666 3.1647 14.5987 
4.37125 3.14661 14.3486 4.58666 3.1647 14.5987 4.82555 2.61506 14.4767 
5.43924 -0.00413368 14.4151 5.57498 0.0117199 14.5981 5.49248 -0.620863 14.5365 
5.35113 -0.634252 14.3572 5.49248 -0.620863 14.5365 5.3516 -1.23632 14.4809 
3.96514 -3.64497 14.3555 4.06935 -3.72933 14.525 3.80033 -3.94698 14.4696 
3.4261 -4.16303 14.3616 3.56866 -4.26804 14.5859 3.15071 -4.55402 14.5421 
2.75022 -4.69448 14.4187 3.15071 -4.55402 14.5421 2.58615 -4.95182 14.617 
2.24572 -4.94954 14.415 2.58615 -4.95182 14.617 1.86643 -5.20293 14.5289 
-1.87711 -5.11893 14.433 -1.90191 -5.30509 14.6967 -2.41686 -4.92209 14.4706 
-2.41686 -4.92209 14.4706 -2.75859 -4.91882 14.7065 -2.97069 -4.58448 14.4422 
-3.93305 -3.75643 14.4163 -3.89787 -3.99853 14.6151 -4.27933 -3.55985 14.591 
-4.33531 -3.29479 14.4265 -4.27933 -3.55985 14.591 -4.63013 -3.22776 14.7155 
-4.33531 -3.29479 14.4265 -4.63013 -3.22776 14.7155 -4.63285 -2.91064 14.4588 
-4.86261 -2.33638 14.3615 -4.85621 -2.72493 14.5934 -5.091 -2.29478 14.6166 
-4.86261 -2.33638 14.3615 -5.091 -2.29478 14.6166 -5.17825 -1.80922 14.4755 
-5.35602 -0.586854 14.3556 -5.49226 -0.618435 14.5338 -5.54923 0.0366214 14.5605 
-5.23268 0.746506 14.2491 -5.45245 0.655795 14.4847 -5.3649 1.1208 14.4696 
-5.14295 1.20658 14.2435 -5.3649 1.1208 14.4696 -5.27724 1.56691 14.4982 
-4.98178 1.75264 14.2444 -5.27724 1.56691 14.4982 -5.08408 2.02126 14.4584 
-4.76898 2.27091 14.2427 -5.08408 2.02126 14.4584 -4.78508 2.57749 14.4121 
-4.47445 2.80224 14.2419 -4.78508 2.57749 14.4121 -4.47447 3.10778 14.4295 
-4.20987 3.20076 14.2516 -4.47447 3.10778 14.4295 -4.1951 3.52653 14.4691 
-3.86834 3.59957 14.2446 -4.1951 3.52653 14.4691 -3.82094 3.92885 14.4679 
-3.55105 3.91681 14.25 -3.82094 3.92885 14.4679 -3.21834 4.37736 14.4057 
-2.70924 4.53066 14.2394 -3.21834 4.37736 14.4057 -2.60458 4.82943 14.474 
-2.18248 4.82037 14.2525 -2.60458 4.82943 14.474 -1.9516 5.13686 14.4845 
-1.58913 5.04958 14.2522 -1.9516 5.13686 14.4845 -1.22216 5.34351 14.4674 
-0.940558 5.18395 14.2308 -1.22216 5.34351 14.4674 -0.643026 5.46473 14.4927 
-0.364724 5.27439 14.2496 -0.643026 5.46473 14.4927 -0.104961 5.48035 14.4701 
0.138879 5.28878 14.252 -0.104961 5.48035 14.4701 0.518785 5.4822 14.498 
0.618792 5.24043 14.24 0.518785 5.4822 14.498 1.10435 5.37244 14.4705 
1.19689 5.14927 14.2485 1.10435 5.37244 14.4705 1.69437 5.19077 14.4352 
1.86217 4.91891 14.221 1.69437 5.19077 14.4352 2.37361 4.88265 14.4052 
2.50345 4.65167 14.2422 2.37361 4.88265 14.4052 2.91986 4.63637 14.4676 
2.99708 4.35118 14.2466 2.91986 4.63637 14.4676 3.29438 4.323 14.415 
3.38593 4.05065 14.2421 3.29438 4.323 14.415 3.677 4.01773 14.4277 
3.82955 3.63169 14.2372 3.677 4.01773 14.4277 4.03703 3.69369 14.4596 
3.82955 3.63169 14.2372 4.03703 3.69369 14.4596 4.37125 3.14661 14.3486 
4.85396 2.09124 14.2452 4.82555 2.61506 14.4767 5.13784 1.91168 14.4643 
5.06618 1.51432 14.2491 5.13784 1.91168 14.4643 5.36662 1.18031 14.4843 
5.17229 1.04968 14.2415 5.36662 1.18031 14.4843 5.45208 0.62152 14.4762 
5.25145 0.562129 14.2435 5.45208 0.62152 14.4762 5.43924 -0.00413368 14.4151 
5.27881 -0.0276513 14.2399 5.43924 -0.00413368 14.4151 5.35113 -0.634252 14.3572 
5.06872 -1.51806 14.2528 5.3516 -1.23632 14.4809 5.15875 -1.84698 14.4676 
4.90621 -1.97083 14.2501 5.15875 -1.84698 14.4676 4.97515 -2.29522 14.4673 
4.70623 -2.41963 14.2534 4.97515 -2.29522 14.4673 4.70421 -2.83573 14.4821 
4.47973 -2.82129 14.257 4.70421 -2.83573 14.4821 4.35983 -3.3289 14.4735 
4.19176 -3.22774 14.2515 4.35983 -3.3289 14.4735 3.96514 -3.64497 14.3555 
3.50821 -3.93178 14.2328 3.80033 -3.94698 14.4696 3.4261 -4.16303 14.3616 
3.01229 -4.34275 14.2484 3.15071 -4.55402 14.5421 2.75022 -4.69448 14.4187 
2.51547 -4.63134 14.2309 2.75022 -4.69448 14.4187 2.24572 -4.94954 14.415 
1.85859 -4.94798 14.2442 2.24572 -4.94954 14.415 1.86643 -5.20293 14.5289 
1.85859 -4.94798 14.2442 1.86643 -5.20293 14.5289 1.34259 -5.3175 14.4721 
1.29565 -5.11297 14.2383 1.34259 -5.3175 14.4721 0.848537 -5.24853 14.2765 
0.360513 -5.28312 14.2584 0.703234 -5.45217 14.4881 0.107494 -5.49214 14.4847 
-0.12626 -5.33332 14.3004 0.107494 -5.49214 14.4847 -0.506187 -5.47058 14.4844 
-0.60269 -5.25648 14.2536 -0.506187 -5.47058 14.4844 -0.972136 -5.40328 14.4818 
-1.0737 -5.17628 14.2485 -0.972136 -5.40328 14.4818 -1.34879 -5.31664 14.4753 
-1.63436 -5.03226 14.2516 -1.34879 -5.31664 14.4753 -1.87711 -5.11893 14.433 
-2.20355 -4.7993 14.2427 -1.87711 -5.11893 14.433 -2.41686 -4.92209 14.4706 
-2.66714 -4.53338 14.2235 -2.41686 -4.92209 14.4706 -2.97069 -4.58448 14.4422 
-3.63538 -3.83337 14.2436 -3.43899 -4.27232 14.4711 -3.93305 -3.75643 14.4163 
-4.04898 -3.39186 14.2443 -3.93305 -3.75643 14.4163 -4.33531 -3.29479 14.4265 
-4.42828 -2.8872 14.2453 -4.33531 -3.29479 14.4265 -4.63285 -2.91064 14.4588 
-4.42828 -2.8872 14.2453 -4.63285 -2.91064 14.4588 -4.86261 -2.33638 14.3615 
-4.99486 -1.7387 14.2516 -5.17825 -1.80922 14.4755 -5.33846 -1.22323 14.4601 
-5.15448 -1.1744 14.2459 -5.33846 -1.22323 14.4601 -5.35602 -0.586854 14.3556 
-5.22048 0.155867 14.1916 -5.39129 -0.102478 14.3625 -5.39383 0.345149 14.3757 
-5.22048 0.155867 14.1916 -5.39383 0.345149 14.3757 -5.23268 0.746506 14.2491 
4.23098 3.04285 14.181 4.37125 3.14661 14.3486 4.60827 2.59423 14.251 
5.18806 -0.61358 14.1941 5.35113 -0.634252 14.3572 5.17667 -1.07491 14.2502 
3.7314 -3.52508 14.1141 3.96514 -3.64497 14.3555 3.50821 -3.93178 14.2328 
3.50821 -3.93178 14.2328 3.4261 -4.16303 14.3616 3.01229 -4.34275 14.2484 
-0.380146 -5.11481 14.1095 -0.12626 -5.33332 14.3004 -0.60269 -5.25648 14.2536 
-2.66714 -4.53338 14.2235 -2.97069 -4.58448 14.4422 -3.21835 -4.19476 14.2493 
-4.72393 -2.30522 14.2203 -4.86261 -2.33638 14.3615 -4.99486 -1.7387 14.2516 
-5.20091 -0.50148 14.1927 -5.35602 -0.586854 14.3556 -5.39129 -0.102478 14.3625 
-5.07011 0.359588 14.077 -5.22048 0.155867 14.1916 -5.23268 0.746506 14.2491 
-5.00644 0.814693 14.0707 -5.23268 0.746506 14.2491 -5.14295 1.20658 14.2435 
-4.90754 1.31732 14.0763 -5.14295 1.20658 14.2435 -4.98178 1.75264 14.2444 
-4.75859 1.77646 14.0764 -4.98178 1.75264 14.2444 -4.76898 2.27091 14.2427 
-4.56993 2.23075 14.0778 -4.76898 2.27091 14.2427 -4.47445 2.80224 14.2419 
-4.2912 2.72696 14.0789 -4.47445 2.80224 14.2419 -4.20987 3.20076 14.2516 
-4.03289 3.09958 14.0799 -4.20987 3.20076 14.2516 -3.86834 3.59957 14.2446 
-3.37643 3.80537 14.0806 -3.86834 3.59957 14.2446 -3.55105 3.91681 14.25 
-3.37643 3.80537 14.0806 -3.55105 3.91681 14.25 -3.19726 4.19793 14.2407 
-2.99251 4.10425 14.0764 -3.19726 4.19793 14.2407 -2.70924 4.53066 14.2394 
-2.58313 4.38443 14.0802 -2.70924 4.53066 14.2394 -2.18248 4.82037 14.2525 
-2.07712 4.6408 14.079 -2.18248 4.82037 14.2525 -1.58913 5.04958 14.2522 
-1.11133 4.95028 14.0695 -1.58913 5.04958 14.2522 -0.940558 5.18395 14.2308 
-0.464176 5.06576 14.0787 -0.940558 5.18395 14.2308 -0.364724 5.27439 14.2496 
-0.464176 5.06576 14.0787 -0.364724 5.27439 14.2496 0.138879 5.28878 14.252 
0.109471 5.08877 14.0827 0.138879 5.28878 14.252 0.618792 5.24043 14.24 
0.676179 5.04343 14.0796 0.618792 5.24043 14.24 1.19689 5.14927 14.2485 
1.25959 4.92525 14.0775 1.19689 5.14927 14.2485 1.86217 4.91891 14.221 
2.19707 4.5732 14.0703 1.86217 4.91891 14.221 2.50345 4.65167 14.2422 
2.66658 4.31727 14.0719 2.50345 4.65167 14.2422 2.99708 4.35118 14.2466 
2.98466 4.10979 14.0763 2.99708 4.35118 14.2466 3.38593 4.05065 14.2421 
3.27718 3.88719 14.0789 3.38593 4.05065 14.2421 3.82955 3.63169 14.2372 
3.90776 3.23384 14.0707 3.82955 3.63169 14.2372 4.23098 3.04285 14.181 
4.2344 2.82012 14.0806 4.23098 3.04285 14.181 4.60827 2.59423 14.251 
4.52382 2.28452 14.0655 4.60827 2.59423 14.251 4.85396 2.09124 14.2452 
4.75521 1.78521 14.0764 4.85396 2.09124 14.2452 5.06618 1.51432 14.2491 
4.90705 1.31321 14.0746 5.06618 1.51432 14.2491 5.17229 1.04968 14.2415 
5.01926 0.77129 14.0747 5.17229 1.04968 14.2415 5.25145 0.562129 14.2435 
5.07815 0.219503 14.0765 5.25145 0.562129 14.2435 5.27881 -0.0276513 14.2399 
5.06311 -0.32708 14.0708 5.27881 -0.0276513 14.2399 5.18806 -0.61358 14.1941 
5.01032 -0.779081 14.0695 5.18806 -0.61358 14.1941 5.17667 -1.07491 14.2502 
4.95198 -1.13023 14.0764 5.17667 -1.07491 14.2502 5.06872 -1.51806 14.2528 
4.8113 -1.61662 14.0703 5.06872 -1.51806 14.2528 4.90621 -1.97083 14.2501 
4.56699 -2.24818 14.0817 4.90621 -1.97083 14.2501 4.70623 -2.41963 14.2534 
4.56699 -2.24818 14.0817 4.70623 -2.41963 14.2534 4.47973 -2.82129 14.257 
4.3071 -2.70842 14.0818 4.47973 -2.82129 14.257 4.19176 -3.22774 14.2515 
3.99799 -3.13236 14.0734 4.19176 -3.22774 14.2515 3.7314 -3.52508 14.1141 
3.33206 -3.84961 14.082 3.50821 -3.93178 14.2328 3.01229 -4.34275 14.2484 
2.89046 -4.18168 14.0781 3.01229 -4.34275 14.2484 2.51547 -4.63134 14.2309 
1.98794 -4.6849 14.081 2.51547 -4.63134 14.2309 1.85859 -4.94798 14.2442 
1.47545 -4.85299 14.0707 1.85859 -4.94798 14.2442 1.29565 -5.11297 14.2383 
1.07158 -4.96077 14.0728 1.29565 -5.11297 14.2383 0.848537 -5.24853 14.2765 
0.683954 -5.03309 14.0764 0.848537 -5.24853 14.2765 0.360513 -5.28312 14.2584 
-0.801506 -5.01185 14.0734 -0.60269 -5.25648 14.2536 -1.0737 -5.17628 14.2485 
-1.23366 -4.92995 14.0763 -1.0737 -5.17628 14.2485 -1.63436 -5.03226 14.2516 
-1.70456 -4.78844 14.0774 -1.63436 -5.03226 14.2516 -2.20355 -4.7993 14.2427 
-2.21625 -4.56134 14.0676 -2.20355 -4.7993 14.2427 -2.66714 -4.53338 14.2235 
-2.72802 -4.28655 14.0766 -2.66714 -4.53338 14.2235 -3.21835 -4.19476 14.2493 
-3.10336 -4.02541 14.077 -3.21835 -4.19476 14.2493 -3.63538 -3.83337 14.2436 
-3.53525 -3.66366 14.0824 -3.63538 -3.83337 14.2436 -4.04898 -3.39186 14.2443 
-3.90401 -3.26601 14.0828 -4.04898 -3.39186 14.2443 -4.42828 -2.8872 14.2453 
-4.2465 -2.80033 14.078 -4.42828 -2.8872 14.2453 -4.72393 -2.30522 14.2203 
-4.78335 -1.72553 14.077 -4.72393 -2.30522 14.2203 -4.99486 -1.7387 14.2516 
-4.78335 -1.72553 14.077 -4.99486 -1.7387 14.2516 -5.15448 -1.1744 14.2459 
-4.96602 -1.09043 14.0772 -5.15448 -1.1744 14.2459 -5.20091 -0.50148 14.1927 
-5.0821 -0.0886724 14.0779 -5.20091 -0.50148 14.1927 -5.22048 0.155867 14.1916 
-5.20091 -0.50148 14.1927 -5.0821 -0.0886724 14.0779 -5.04388 -0.541388 14.0706 
-5.20091 -0.50148 14.1927 -5.04388 -0.541388 14.0706 -4.96602 -1.09043 14.0772 
-5.15448 -1.1744 14.2459 -4.96602 -1.09043 14.0772 -4.78335 -1.72553 14.077 
-4.72393 -2.30522 14.2203 -4.78335 -1.72553 14.077 -4.52524 -2.31787 14.0785 
-4.72393 -2.30522 14.2203 -4.52524 -2.31787 14.0785 -4.2465 -2.80033 14.078 
-4.42828 -2.8872 14.2453 -4.2465 -2.80033 14.078 -3.90401 -3.26601 14.0828 
-4.04898 -3.39186 14.2443 -3.90401 -3.26601 14.0828 -3.53525 -3.66366 14.0824 
-3.63538 -3.83337 14.2436 -3.53525 -3.66366 14.0824 -3.10336 -4.02541 14.077 
-3.21835 -4.19476 14.2493 -3.10336 -4.02541 14.077 -2.72802 -4.28655 14.0766 
-2.66714 -4.53338 14.2235 -2.72802 -4.28655 14.0766 -2.21625 -4.56134 14.0676 
-2.20355 -4.7993 14.2427 -2.21625 -4.56134 14.0676 -1.70456 -4.78844 14.0774 
-1.63436 -5.03226 14.2516 -1.70456 -4.78844 14.0774 -1.23366 -4.92995 14.0763 
-1.0737 -5.17628 14.2485 -1.23366 -4.92995 14.0763 -0.801506 -5.01185 14.0734 
-0.60269 -5.25648 14.2536 -0.801506 -5.01185 14.0734 -0.380146 -5.11481 14.1095 
0.360513 -5.28312 14.2584 0.171139 -5.10688 14.0955 0.683954 -5.03309 14.0764 
0.848537 -5.24853 14.2765 0.683954 -5.03309 14.0764 1.07158 -4.96077 14.0728 
1.29565 -5.11297 14.2383 1.07158 -4.96077 14.0728 1.47545 -4.85299 14.0707 
1.85859 -4.94798 14.2442 1.47545 -4.85299 14.0707 1.98794 -4.6849 14.081 
2.51547 -4.63134 14.2309 1.98794 -4.6849 14.081 2.48846 -4.42265 14.0714 
2.51547 -4.63134 14.2309 2.48846 -4.42265 14.0714 2.89046 -4.18168 14.0781 
3.01229 -4.34275 14.2484 2.89046 -4.18168 14.0781 3.33206 -3.84961 14.082 
3.50821 -3.93178 14.2328 3.33206 -3.84961 14.082 3.7314 -3.52508 14.1141 
4.19176 -3.22774 14.2515 3.99799 -3.13236 14.0734 4.3071 -2.70842 14.0818 
4.47973 -2.82129 14.257 4.3071 -2.70842 14.0818 4.56699 -2.24818 14.0817 
4.90621 -1.97083 14.2501 4.56699 -2.24818 14.0817 4.8113 -1.61662 14.0703 
5.06872 -1.51806 14.2528 4.8113 -1.61662 14.0703 4.95198 -1.13023 14.0764 
5.17667 -1.07491 14.2502 4.95198 -1.13023 14.0764 5.01032 -0.779081 14.0695 
5.18806 -0.61358 14.1941 5.01032 -0.779081 14.0695 5.06311 -0.32708 14.0708 
5.27881 -0.0276513 14.2399 5.06311 -0.32708 14.0708 5.07815 0.219503 14.0765 
5.25145 0.562129 14.2435 5.07815 0.219503 14.0765 5.01926 0.77129 14.0747 
5.17229 1.04968 14.2415 5.01926 0.77129 14.0747 4.90705 1.31321 14.0746 
5.06618 1.51432 14.2491 4.90705 1.31321 14.0746 4.75521 1.78521 14.0764 
4.85396 2.09124 14.2452 4.75521 1.78521 14.0764 4.52382 2.28452 14.0655 
4.60827 2.59423 14.251 4.52382 2.28452 14.0655 4.2344 2.82012 14.0806 
4.23098 3.04285 14.181 4.2344 2.82012 14.0806 3.90776 3.23384 14.0707 
3.82955 3.63169 14.2372 3.90776 3.23384 14.0707 3.6082 3.58033 14.0772 
3.82955 3.63169 14.2372 3.6082 3.58033 14.0772 3.27718 3.88719 14.0789 
3.38593 4.05065 14.2421 3.27718 3.88719 14.0789 2.98466 4.10979 14.0763 
2.99708 4.35118 14.2466 2.98466 4.10979 14.0763 2.66658 4.31727 14.0719 
2.50345 4.65167 14.2422 2.66658 4.31727 14.0719 2.19707 4.5732 14.0703 
1.86217 4.91891 14.221 2.19707 4.5732 14.0703 1.69894 4.77929 14.0707 
1.86217 4.91891 14.221 1.69894 4.77929 14.0707 1.25959 4.92525 14.0775 
1.19689 5.14927 14.2485 1.25959 4.92525 14.0775 0.676179 5.04343 14.0796 
0.618792 5.24043 14.24 0.676179 5.04343 14.0796 0.109471 5.08877 14.0827 
0.138879 5.28878 14.252 0.109471 5.08877 14.0827 -0.464176 5.06576 14.0787 
-0.940558 5.18395 14.2308 -0.464176 5.06576 14.0787 -1.11133 4.95028 14.0695 
-1.58913 5.04958 14.2522 -1.11133 4.95028 14.0695 -1.68421 4.7971 14.0785 
-1.58913 5.04958 14.2522 -1.68421 4.7971 14.0785 -2.07712 4.6408 14.079 
-2.18248 4.82037 14.2525 -2.07712 4.6408 14.079 -2.58313 4.38443 14.0802 
-2.70924 4.53066 14.2394 -2.58313 4.38443 14.0802 -2.99251 4.10425 14.0764 
-3.19726 4.19793 14.2407 -2.99251 4.10425 14.0764 -3.37643 3.80537 14.0806 
-3.86834 3.59957 14.2446 -3.37643 3.80537 14.0806 -3.7286 3.43892 14.0707 
-3.86834 3.59957 14.2446 -3.7286 3.43892 14.0707 -4.03289 3.09958 14.0799 
-4.20987 3.20076 14.2516 -4.03289 3.09958 14.0799 -4.2912 2.72696 14.0789 
-4.47445 2.80224 14.2419 -4.2912 2.72696 14.0789 -4.56993 2.23075 14.0778 
-4.76898 2.27091 14.2427 -4.56993 2.23075 14.0778 -4.75859 1.77646 14.0764 
-4.98178 1.75264 14.2444 -4.75859 1.77646 14.0764 -4.90754 1.31732 14.0763 
-5.14295 1.20658 14.2435 -4.90754 1.31732 14.0763 -5.00644 0.814693 14.0707 
-5.23268 0.746506 14.2491 -5.00644 0.814693 14.0707 -5.07011 0.359588 14.077 
-5.22048 0.155867 14.1916 -5.07011 0.359588 14.077 -5.0821 -0.0886724 14.0779 
-5.39129 -0.102478 14.3625 -5.22048 0.155867 14.1916 -5.20091 -0.50148 14.1927 
-5.35602 -0.586854 14.3556 -5.20091 -0.50148 14.1927 -5.15448 -1.1744 14.2459 
-0.12626 -5.33332 14.3004 -0.380146 -5.11481 14.1095 0.171139 -5.10688 14.0955 
-0.12626 -5.33332 14.3004 0.171139 -5.10688 14.0955 0.360513 -5.28312 14.2584 
3.96514 -3.64497 14.3555 3.7314 -3.52508 14.1141 4.19176 -3.22774 14.2515 
5.35113 -0.634252 14.3572 5.18806 -0.61358 14.1941 5.27881 -0.0276513 14.2399 
4.37125 3.14661 14.3486 4.23098 3.04285 14.181 3.82955 3.63169 14.2372 
1.69437 5.19077 14.4352 1.86217 4.91891 14.221 1.19689 5.14927 14.2485 
-5.33846 -1.22323 14.4601 -5.15448 -1.1744 14.2459 -4.99486 -1.7387 14.2516 
-5.17825 -1.80922 14.4755 -4.99486 -1.7387 14.2516 -4.86261 -2.33638 14.3615 
-4.86261 -2.33638 14.3615 -4.72393 -2.30522 14.2203 -4.42828 -2.8872 14.2453 
-4.33531 -3.29479 14.4265 -4.42828 -2.8872 14.2453 -4.04898 -3.39186 14.2443 
-3.93305 -3.75643 14.4163 -4.04898 -3.39186 14.2443 -3.63538 -3.83337 14.2436 
-3.43899 -4.27232 14.4711 -3.63538 -3.83337 14.2436 -3.21835 -4.19476 14.2493 
-3.43899 -4.27232 14.4711 -3.21835 -4.19476 14.2493 -2.97069 -4.58448 14.4422 
-2.41686 -4.92209 14.4706 -2.66714 -4.53338 14.2235 -2.20355 -4.7993 14.2427 
-1.87711 -5.11893 14.433 -2.20355 -4.7993 14.2427 -1.63436 -5.03226 14.2516 
-1.34879 -5.31664 14.4753 -1.63436 -5.03226 14.2516 -1.0737 -5.17628 14.2485 
-0.972136 -5.40328 14.4818 -1.0737 -5.17628 14.2485 -0.60269 -5.25648 14.2536 
-0.506187 -5.47058 14.4844 -0.60269 -5.25648 14.2536 -0.12626 -5.33332 14.3004 
0.107494 -5.49214 14.4847 -0.12626 -5.33332 14.3004 0.360513 -5.28312 14.2584 
0.703234 -5.45217 14.4881 0.360513 -5.28312 14.2584 0.848537 -5.24853 14.2765 
1.34259 -5.3175 14.4721 1.29565 -5.11297 14.2383 1.85859 -4.94798 14.2442 
2.24572 -4.94954 14.415 1.85859 -4.94798 14.2442 2.51547 -4.63134 14.2309 
2.75022 -4.69448 14.4187 2.51547 -4.63134 14.2309 3.01229 -4.34275 14.2484 
3.15071 -4.55402 14.5421 3.01229 -4.34275 14.2484 3.4261 -4.16303 14.3616 
3.80033 -3.94698 14.4696 3.50821 -3.93178 14.2328 3.96514 -3.64497 14.3555 
4.35983 -3.3289 14.4735 4.19176 -3.22774 14.2515 4.47973 -2.82129 14.257 
4.70421 -2.83573 14.4821 4.47973 -2.82129 14.257 4.70623 -2.41963 14.2534 
4.97515 -2.29522 14.4673 4.70623 -2.41963 14.2534 4.90621 -1.97083 14.2501 
5.15875 -1.84698 14.4676 4.90621 -1.97083 14.2501 5.06872 -1.51806 14.2528 
5.3516 -1.23632 14.4809 5.06872 -1.51806 14.2528 5.17667 -1.07491 14.2502 
5.3516 -1.23632 14.4809 5.17667 -1.07491 14.2502 5.35113 -0.634252 14.3572 
5.43924 -0.00413368 14.4151 5.27881 -0.0276513 14.2399 5.25145 0.562129 14.2435 
5.45208 0.62152 14.4762 5.25145 0.562129 14.2435 5.17229 1.04968 14.2415 
5.36662 1.18031 14.4843 5.17229 1.04968 14.2415 5.06618 1.51432 14.2491 
5.13784 1.91168 14.4643 5.06618 1.51432 14.2491 4.85396 2.09124 14.2452 
4.82555 2.61506 14.4767 4.85396 2.09124 14.2452 4.60827 2.59423 14.251 
4.82555 2.61506 14.4767 4.60827 2.59423 14.251 4.37125 3.14661 14.3486 
3.677 4.01773 14.4277 3.82955 3.63169 14.2372 3.38593 4.05065 14.2421 
3.29438 4.323 14.415 3.38593 4.05065 14.2421 2.99708 4.35118 14.2466 
2.91986 4.63637 14.4676 2.99708 4.35118 14.2466 2.50345 4.65167 14.2422 
2.37361 4.88265 14.4052 2.50345 4.65167 14.2422 1.86217 4.91891 14.221 
1.10435 5.37244 14.4705 1.19689 5.14927 14.2485 0.618792 5.24043 14.24 
0.518785 5.4822 14.498 0.618792 5.24043 14.24 0.138879 5.28878 14.252 
-0.104961 5.48035 14.4701 0.138879 5.28878 14.252 -0.364724 5.27439 14.2496 
-0.643026 5.46473 14.4927 -0.364724 5.27439 14.2496 -0.940558 5.18395 14.2308 
-1.22216 5.34351 14.4674 -0.940558 5.18395 14.2308 -1.58913 5.04958 14.2522 
-1.9516 5.13686 14.4845 -1.58913 5.04958 14.2522 -2.18248 4.82037 14.2525 
-2.60458 4.82943 14.474 -2.18248 4.82037 14.2525 -2.70924 4.53066 14.2394 
-3.21834 4.37736 14.4057 -2.70924 4.53066 14.2394 -3.19726 4.19793 14.2407 
-3.21834 4.37736 14.4057 -3.19726 4.19793 14.2407 -3.55105 3.91681 14.25 
-3.82094 3.92885 14.4679 -3.55105 3.91681 14.25 -3.86834 3.59957 14.2446 
-4.1951 3.52653 14.4691 -3.86834 3.59957 14.2446 -4.20987 3.20076 14.2516 
-4.47447 3.10778 14.4295 -4.20987 3.20076 14.2516 -4.47445 2.80224 14.2419 
-4.78508 2.57749 14.4121 -4.47445 2.80224 14.2419 -4.76898 2.27091 14.2427 
-5.08408 2.02126 14.4584 -4.76898 2.27091 14.2427 -4.98178 1.75264 14.2444 
-5.27724 1.56691 14.4982 -4.98178 1.75264 14.2444 -5.14295 1.20658 14.2435 
-5.3649 1.1208 14.4696 -5.14295 1.20658 14.2435 -5.23268 0.746506 14.2491 
-5.45245 0.655795 14.4847 -5.23268 0.746506 14.2491 -5.39383 0.345149 14.3757 
-5.54923 0.0366214 14.5605 -5.39129 -0.102478 14.3625 -5.35602 -0.586854 14.3556 
-5.49226 -0.618435 14.5338 -5.35602 -0.586854 14.3556 -5.33846 -1.22323 14.4601 
-4.85621 -2.72493 14.5934 -4.86261 -2.33638 14.3615 -4.63285 -2.91064 14.4588 
-4.27933 -3.55985 14.591 -4.33531 -3.29479 14.4265 -3.93305 -3.75643 14.4163 
-3.89787 -3.99853 14.6151 -3.93305 -3.75643 14.4163 -3.43899 -4.27232 14.4711 
0.703234 -5.45217 14.4881 0.848537 -5.24853 14.2765 1.34259 -5.3175 14.4721 
2.58615 -4.95182 14.617 2.24572 -4.94954 14.415 2.75022 -4.69448 14.4187 
3.56866 -4.26804 14.5859 3.4261 -4.16303 14.3616 3.80033 -3.94698 14.4696 
4.06935 -3.72933 14.525 3.96514 -3.64497 14.3555 4.35983 -3.3289 14.4735 
5.49248 -0.620863 14.5365 5.35113 -0.634252 14.3572 5.43924 -0.00413368 14.4151 
5.57498 0.0117199 14.5981 5.43924 -0.00413368 14.4151 5.45208 0.62152 14.4762 
4.28279 3.56187 14.5974 4.37125 3.14661 14.3486 4.03703 3.69369 14.4596 
3.53434 4.29976 14.5916 3.677 4.01773 14.4277 3.29438 4.323 14.415 
3.24173 4.6033 14.6913 3.29438 4.323 14.415 2.91986 4.63637 14.4676 
2.30693 5.07003 14.597 2.37361 4.88265 14.4052 1.69437 5.19077 14.4352 
-3.56187 4.28279 14.5974 -3.21834 4.37736 14.4057 -3.82094 3.92885 14.4679 
-4.83574 2.77264 14.6009 -4.47447 3.10778 14.4295 -4.78508 2.57749 14.4121 
-5.06842 2.32018 14.603 -4.78508 2.57749 14.4121 -5.08408 2.02126 14.4584 
-5.54923 0.0366214 14.5605 -5.39383 0.345149 14.3757 -5.39129 -0.102478 14.3625 
-5.65778 -0.326252 14.7612 -5.54923 0.0366214 14.5605 -5.49226 -0.618435 14.5338 
-5.60303 -0.747657 14.7367 -5.49226 -0.618435 14.5338 -5.33846 -1.22323 14.4601 
-5.4526 -1.48126 14.731 -5.33846 -1.22323 14.4601 -5.17825 -1.80922 14.4755 
-5.33991 -1.84814 14.7305 -5.17825 -1.80922 14.4755 -5.091 -2.29478 14.6166 
-3.22362 -4.64375 14.7339 -3.43899 -4.27232 14.4711 -2.97069 -4.58448 14.4422 
-2.3518 -5.139 14.7328 -2.41686 -4.92209 14.4706 -1.90191 -5.30509 14.6967 
-1.90191 -5.30509 14.6967 -1.87711 -5.11893 14.433 -1.34879 -5.31664 14.4753 
-1.39703 -5.47556 14.7311 -1.34879 -5.31664 14.4753 -0.972136 -5.40328 14.4818 
-0.740927 -5.608 14.7376 -0.972136 -5.40328 14.4818 -0.506187 -5.47058 14.4844 
-0.150259 -5.64912 14.7313 -0.506187 -5.47058 14.4844 0.107494 -5.49214 14.4847 
0.324856 -5.66048 14.7652 0.107494 -5.49214 14.4847 0.703234 -5.45217 14.4881 
1.11597 -5.54444 14.74 0.703234 -5.45217 14.4881 1.34259 -5.3175 14.4721 
1.59734 -5.43721 14.7619 1.34259 -5.3175 14.4721 1.86643 -5.20293 14.5289 
3.91269 -4.08715 14.7482 3.80033 -3.94698 14.4696 4.06935 -3.72933 14.525 
4.25782 -3.73445 14.7522 4.06935 -3.72933 14.525 4.35983 -3.3289 14.4735 
4.63413 -3.23271 14.7285 4.35983 -3.3289 14.4735 4.70421 -2.83573 14.4821 
4.92026 -2.78562 14.7333 4.70421 -2.83573 14.4821 4.97515 -2.29522 14.4673 
5.13105 -2.35293 14.7177 4.97515 -2.29522 14.4673 5.15875 -1.84698 14.4676 
5.2957 -1.85455 14.6632 5.15875 -1.84698 14.4676 5.3516 -1.23632 14.4809 
5.59089 -0.95781 14.7698 5.3516 -1.23632 14.4809 5.49248 -0.620863 14.5365 
5.63214 -0.523737 14.7448 5.49248 -0.620863 14.5365 5.57498 0.0117199 14.5981 
5.60386 0.650215 14.7136 5.45208 0.62152 14.4762 5.36662 1.18031 14.4843 
5.34253 1.78138 14.6941 5.36662 1.18031 14.4843 5.13784 1.91168 14.4643 
5.10869 2.31856 14.6648 5.13784 1.91168 14.4643 4.82555 2.61506 14.4767 
4.90969 2.72932 14.677 4.82555 2.61506 14.4767 4.58666 3.1647 14.5987 
2.82963 4.90991 14.7619 2.91986 4.63637 14.4676 2.63933 4.9012 14.5941 
1.75997 5.36501 14.718 1.69437 5.19077 14.4352 1.10435 5.37244 14.4705 
0.798733 5.60665 14.7515 1.10435 5.37244 14.4705 0.518785 5.4822 14.498 
0.131403 5.65048 14.7325 0.518785 5.4822 14.498 -0.104961 5.48035 14.4701 
-0.314371 5.6562 14.7561 -0.104961 5.48035 14.4701 -0.643026 5.46473 14.4927 
-1.79591 5.34073 14.7003 -1.22216 5.34351 14.4674 -1.9516 5.13686 14.4845 
-2.31856 5.10869 14.6648 -1.9516 5.13686 14.4845 -2.60458 4.82943 14.474 
-2.72932 4.90969 14.677 -2.60458 4.82943 14.474 -3.15812 4.58928 14.596 
-4.05611 3.92839 14.7193 -3.82094 3.92885 14.4679 -4.1951 3.52653 14.4691 
-4.40379 3.5434 14.7366 -4.1951 3.52653 14.4691 -4.5961 3.26478 14.7023 
-5.31959 1.8913 14.7235 -5.08408 2.02126 14.4584 -5.27724 1.56691 14.4982 
-5.5298 1.13755 14.72 -5.3649 1.1208 14.4696 -5.45245 0.655795 14.4847 
-5.61924 0.650226 14.7383 -5.45245 0.655795 14.4847 -5.54923 0.0366214 14.5605 
-5.67427 0.134665 14.784 -5.54923 0.0366214 14.5605 -5.65778 -0.326252 14.7612 
-5.20368 -2.428 14.9192 -5.091 -2.29478 14.6166 -4.85621 -2.72493 14.5934 
-4.95031 -2.81678 14.8218 -4.85621 -2.72493 14.5934 -4.63013 -3.22776 14.7155 
-4.36232 -3.63238 14.7858 -4.27933 -3.55985 14.591 -3.89787 -3.99853 14.6151 
-3.94001 -4.08319 14.7784 -3.89787 -3.99853 14.6151 -3.51934 -4.42299 14.7356 
2.1063 -5.27057 14.784 1.86643 -5.20293 14.5289 2.58615 -4.95182 14.617 
2.69949 -4.98499 14.7654 2.58615 -4.95182 14.617 3.15071 -4.55402 14.5421 
3.22939 -4.67366 14.7909 3.15071 -4.55402 14.5421 3.56866 -4.26804 14.5859 
3.63238 -4.36232 14.7858 3.56866 -4.26804 14.5859 3.91269 -4.08715 14.7482 
5.40149 -1.84523 14.8454 5.2957 -1.85455 14.6632 5.47571 -1.36578 14.721 
5.70511 0.355417 14.8653 5.57498 0.0117199 14.5981 5.60386 0.650215 14.7136 
5.11585 2.60989 14.9238 5.10869 2.31856 14.6648 4.90969 2.72932 14.677 
4.72706 3.14489 14.7814 4.90969 2.72932 14.677 4.58666 3.1647 14.5987 
4.72706 3.14489 14.7814 4.58666 3.1647 14.5987 4.28279 3.56187 14.5974 
4.36232 3.63238 14.7858 4.28279 3.56187 14.5974 3.92192 4.05862 14.7126 
3.54253 4.44219 14.7996 3.53434 4.29976 14.5916 3.24173 4.6033 14.6913 
2.82963 4.90991 14.7619 2.63933 4.9012 14.5941 2.30693 5.07003 14.597 
2.35427 5.1654 14.7858 2.30693 5.07003 14.597 1.75997 5.36501 14.718 
0.798733 5.60665 14.7515 0.518785 5.4822 14.498 0.131403 5.65048 14.7325 
-2.64529 5.06048 14.8531 -2.31856 5.10869 14.6648 -2.72932 4.90969 14.677 
-3.1739 4.71355 14.7926 -2.72932 4.90969 14.677 -3.15812 4.58928 14.596 
-3.1739 4.71355 14.7926 -3.15812 4.58928 14.596 -3.56187 4.28279 14.5974 
-3.63238 4.36232 14.7858 -3.56187 4.28279 14.5974 -4.05611 3.92839 14.7193 
-4.97371 2.79124 14.8367 -4.83574 2.77264 14.6009 -5.06842 2.32018 14.603 
-5.20935 2.33571 14.85 -5.06842 2.32018 14.603 -5.31959 1.8913 14.7235 
-5.47702 1.51156 14.7996 -5.27724 1.56691 14.4982 -5.5298 1.13755 14.72 
-5.79872 -0.0692554 15.079 -5.67427 0.134665 14.784 -5.65778 -0.326252 14.7612 
-5.73582 -0.660929 15.0074 -5.65778 -0.326252 14.7612 -5.60303 -0.747657 14.7367 
-5.73582 -0.660929 15.0074 -5.60303 -0.747657 14.7367 -5.542 -1.13122 14.7415 
-5.66134 -1.14721 15.0144 -5.542 -1.13122 14.7415 -5.4526 -1.48126 14.731 
-5.56474 -1.53501 15.0103 -5.4526 -1.48126 14.731 -5.33991 -1.84814 14.7305 
-5.44551 -1.90671 14.9967 -5.33991 -1.84814 14.7305 -5.20368 -2.428 14.9192 
-4.64185 -3.47596 15.074 -4.63013 -3.22776 14.7155 -4.36232 -3.63238 14.7858 
-4.24585 -3.91016 15.0031 -4.36232 -3.63238 14.7858 -3.94001 -4.08319 14.7784 
-3.90581 -4.25576 15.0144 -3.94001 -4.08319 14.7784 -3.51934 -4.42299 14.7356 
-3.51016 -4.59073 15.0209 -3.51934 -4.42299 14.7356 -3.22362 -4.64375 14.7339 
-3.08533 -4.88296 15.0154 -3.22362 -4.64375 14.7339 -2.75859 -4.91882 14.7065 
-2.73609 -5.08296 15.0103 -2.75859 -4.91882 14.7065 -2.3518 -5.139 14.7328 
-2.39075 -5.25684 15.0111 -2.3518 -5.139 14.7328 -1.90191 -5.30509 14.6967 
-1.90429 -5.45298 15.0104 -1.90191 -5.30509 14.6967 -1.39703 -5.47556 14.7311 
-1.39156 -5.60406 15.0098 -1.39703 -5.47556 14.7311 -0.919874 -5.67391 14.9393 
-0.400177 -5.76322 15.0206 -0.740927 -5.608 14.7376 -0.150259 -5.64912 14.7313 
0.0730592 -5.77764 15.0241 -0.150259 -5.64912 14.7313 0.324856 -5.66048 14.7652 
0.652971 -5.74071 15.0166 0.324856 -5.66048 14.7652 0.742671 -5.60747 14.7448 
0.652971 -5.74071 15.0166 0.742671 -5.60747 14.7448 1.11597 -5.54444 14.74 
1.13729 -5.65999 15.0061 1.11597 -5.54444 14.74 1.59734 -5.43721 14.7619 
1.85699 -5.49859 15.0883 1.59734 -5.43721 14.7619 2.1063 -5.27057 14.784 
2.38397 -5.25722 15.0025 2.1063 -5.27057 14.784 2.69949 -4.98499 14.7654 
2.85539 -5.01165 14.9949 2.69949 -4.98499 14.7654 3.22939 -4.67366 14.7909 
3.28436 -4.74463 14.9974 3.22939 -4.67366 14.7909 3.63238 -4.36232 14.7858 
3.70027 -4.43187 15.0076 3.63238 -4.36232 14.7858 3.91269 -4.08715 14.7482 
3.98868 -4.17289 15.0103 3.91269 -4.08715 14.7482 4.25782 -3.73445 14.7522 
4.58702 -3.5054 15.0072 4.25782 -3.73445 14.7522 4.63413 -3.23271 14.7285 
4.88955 -3.07228 15.0122 4.63413 -3.23271 14.7285 4.92026 -2.78562 14.7333 
5.08296 -2.73609 15.0103 4.92026 -2.78562 14.7333 5.13105 -2.35293 14.7177 
5.25675 -2.38748 15.0076 5.13105 -2.35293 14.7177 5.40149 -1.84523 14.8454 
5.57077 -1.405 14.9385 5.47571 -1.36578 14.721 5.59089 -0.95781 14.7698 
5.74441 -0.588883 15.0071 5.59089 -0.95781 14.7698 5.63214 -0.523737 14.7448 
5.74441 -0.588883 15.0071 5.63214 -0.523737 14.7448 5.67427 -0.134665 14.784 
5.8109 -0.0382898 15.1147 5.67427 -0.134665 14.784 5.70511 0.355417 14.8653 
5.67468 0.897516 14.9385 5.60386 0.650215 14.7136 5.53723 1.12921 14.7318 
5.4561 1.90303 15.0215 5.34253 1.78138 14.6941 5.26726 2.22512 14.8743 
4.59147 3.49849 15.0097 4.72706 3.14489 14.7814 4.36232 3.63238 14.7858 
4.23973 3.92169 15.0121 4.36232 3.63238 14.7858 3.92192 4.05862 14.7126 
3.89594 4.26044 15.0068 3.92192 4.05862 14.7126 3.54253 4.44219 14.7996 
3.40751 4.67293 15.0245 3.54253 4.44219 14.7996 3.24173 4.6033 14.6913 
3.40751 4.67293 15.0245 3.24173 4.6033 14.6913 2.82963 4.90991 14.7619 
2.61884 5.14419 15.0098 2.82963 4.90991 14.7619 2.35427 5.1654 14.7858 
2.1428 5.35945 15.0013 2.35427 5.1654 14.7858 1.75997 5.36501 14.718 
1.66648 5.52612 15.0037 1.75997 5.36501 14.718 1.27794 5.51348 14.7518 
1.20468 5.64927 15.0169 1.27794 5.51348 14.7518 0.798733 5.60665 14.7515 
0.561419 5.74541 14.9974 0.798733 5.60665 14.7515 0.131403 5.65048 14.7325 
-0.105026 5.78165 15.0302 0.131403 5.65048 14.7325 -0.314371 5.6562 14.7561 
-0.662069 5.73908 15.0165 -0.314371 5.6562 14.7561 -1.03244 5.56282 14.74 
-1.87157 5.46694 15.022 -1.79591 5.34073 14.7003 -2.22512 5.26726 14.8743 
-3.18819 4.80514 14.9829 -3.1739 4.71355 14.7926 -3.63238 4.36232 14.7858 
-3.9088 4.24974 15.0094 -3.63238 4.36232 14.7858 -4.05611 3.92839 14.7193 
-4.25032 3.90192 14.9983 -4.05611 3.92839 14.7193 -4.40379 3.5434 14.7366 
-4.59125 3.50461 15.0138 -4.40379 3.5434 14.7366 -4.5961 3.26478 14.7023 
-4.89286 3.0771 15.0256 -4.5961 3.26478 14.7023 -4.97371 2.79124 14.8367 
-5.44438 1.91096 14.9984 -5.31959 1.8913 14.7235 -5.47702 1.51156 14.7996 
-5.59803 1.50819 15.0779 -5.47702 1.51156 14.7996 -5.5298 1.13755 14.72 
-5.65323 1.16446 15.0037 -5.5298 1.13755 14.72 -5.61924 0.650226 14.7383 
-5.79664 0.34884 15.0959 -5.61924 0.650226 14.7383 -5.67427 0.134665 14.784 
-5.79872 -0.0692554 15.079 -5.65778 -0.326252 14.7612 -5.73582 -0.660929 15.0074 
-5.15489 -2.69526 15.1307 -5.20368 -2.428 14.9192 -4.95031 -2.81678 14.8218 
-5.15489 -2.69526 15.1307 -4.95031 -2.81678 14.8218 -4.81804 -3.17949 15.0103 
0.0730592 -5.77764 15.0241 0.324856 -5.66048 14.7652 0.652971 -5.74071 15.0166 
5.49219 -1.90418 15.1238 5.40149 -1.84523 14.8454 5.57077 -1.405 14.9385 
5.72753 -0.974952 15.116 5.57077 -1.405 14.9385 5.59089 -0.95781 14.7698 
5.72753 -0.974952 15.116 5.59089 -0.95781 14.7698 5.74441 -0.588883 15.0071 
5.80135 0.61814 15.1965 5.70511 0.355417 14.8653 5.67468 0.897516 14.9385 
5.71431 1.14872 15.1897 5.67468 0.897516 14.9385 5.55874 1.42554 14.916 
5.60888 1.54738 15.1559 5.55874 1.42554 14.916 5.4561 1.90303 15.0215 
5.30406 2.41001 15.1747 5.26726 2.22512 14.8743 5.11585 2.60989 14.9238 
-0.105026 5.78165 15.0302 -0.314371 5.6562 14.7561 -0.662069 5.73908 15.0165 
-2.86322 5.07672 15.1829 -2.64529 5.06048 14.8531 -3.18819 4.80514 14.9829 
-5.233 2.57637 15.1861 -4.97371 2.79124 14.8367 -5.28031 2.40964 15.089 
-5.28031 2.40964 15.089 -5.20935 2.33571 14.85 -5.44438 1.91096 14.9984 
-5.82386 -0.391897 15.2295 -5.79872 -0.0692554 15.079 -5.73582 -0.660929 15.0074 
-5.80011 -0.785287 15.3045 -5.73582 -0.660929 15.0074 -5.66134 -1.14721 15.0144 
-5.71855 -1.17011 15.2295 -5.66134 -1.14721 15.0144 -5.56474 -1.53501 15.0103 
-5.59037 -1.6816 15.2314 -5.56474 -1.53501 15.0103 -5.44551 -1.90671 14.9967 
-5.41772 -2.17239 15.2295 -5.44551 -1.90671 14.9967 -5.20368 -2.428 14.9192 
-5.41772 -2.17239 15.2295 -5.20368 -2.428 14.9192 -5.15489 -2.69526 15.1307 
-4.94276 -3.10486 15.2295 -5.15489 -2.69526 15.1307 -4.81804 -3.17949 15.0103 
-4.94276 -3.10486 15.2295 -4.81804 -3.17949 15.0103 -4.64185 -3.47596 15.074 
-4.47669 -3.74638 15.2302 -4.64185 -3.47596 15.074 -4.24585 -3.91016 15.0031 
-4.15512 -4.14357 15.3647 -4.24585 -3.91016 15.0031 -3.90581 -4.25576 15.0144 
-3.93863 -4.30792 15.2295 -3.90581 -4.25576 15.0144 -3.51016 -4.59073 15.0209 
-3.5325 -4.66334 15.2801 -3.51016 -4.59073 15.0209 -3.08533 -4.88296 15.0154 
-3.11383 -4.96762 15.3394 -3.08533 -4.88296 15.0154 -2.73609 -5.08296 15.0103 
-2.78558 -5.16161 15.3588 -2.73609 -5.08296 15.0103 -2.39075 -5.25684 15.0111 
-2.41464 -5.31417 15.2295 -2.39075 -5.25684 15.0111 -1.90429 -5.45298 15.0104 
-1.92156 -5.51313 15.2282 -1.90429 -5.45298 15.0104 -1.39156 -5.60406 15.0098 
-1.47502 -5.6788 15.3649 -1.39156 -5.60406 15.0098 -1.0503 -5.7251 15.163 
-0.661928 -5.80002 15.2305 -0.919874 -5.67391 14.9393 -0.400177 -5.76322 15.0206 
-0.15458 -5.8441 15.2657 -0.400177 -5.76322 15.0206 0.0730592 -5.77764 15.0241 
0.261815 -5.82977 15.2299 0.0730592 -5.77764 15.0241 0.652971 -5.74071 15.0166 
0.698706 -5.81032 15.2921 0.652971 -5.74071 15.0166 1.13729 -5.65999 15.0061 
1.17322 -5.71492 15.218 1.13729 -5.65999 15.0061 1.55302 -5.58748 15.0839 
2.64928 -5.20118 15.2295 2.38397 -5.25722 15.0025 2.85539 -5.01165 14.9949 
3.13867 -4.93547 15.2755 2.85539 -5.01165 14.9949 3.28436 -4.74463 14.9974 
3.56018 -4.62 15.2127 3.28436 -4.74463 14.9974 3.70027 -4.43187 15.0076 
3.85065 -4.408 15.3045 3.70027 -4.43187 15.0076 3.98868 -4.17289 15.0103 
4.12687 -4.12794 15.2295 3.98868 -4.17289 15.0103 4.26429 -3.88405 14.9949 
4.49337 -3.74384 15.2736 4.26429 -3.88405 14.9949 4.58702 -3.5054 15.0072 
4.79837 -3.31766 15.2164 4.58702 -3.5054 15.0072 4.88955 -3.07228 15.0122 
5.12347 -2.80602 15.24 4.88955 -3.07228 15.0122 5.08296 -2.73609 15.0103 
5.12347 -2.80602 15.24 5.08296 -2.73609 15.0103 5.25675 -2.38748 15.0076 
5.36743 -2.37412 15.3681 5.25675 -2.38748 15.0076 5.49219 -1.90418 15.1238 
5.71431 1.14872 15.1897 5.55874 1.42554 14.916 5.60888 1.54738 15.1559 
5.53185 1.95341 15.3611 5.4561 1.90303 15.0215 5.30406 2.41001 15.1747 
5.06335 2.91236 15.2434 5.11585 2.60989 14.9238 4.89359 3.05883 14.9974 
4.79848 3.32348 15.2295 4.89359 3.05883 14.9974 4.59147 3.49849 15.0097 
4.56249 3.63847 15.2299 4.59147 3.49849 15.0097 4.23973 3.92169 15.0121 
4.2862 3.9562 15.2134 4.23973 3.92169 15.0121 3.89594 4.26044 15.0068 
3.9178 4.34039 15.2672 3.89594 4.26044 15.0068 3.40751 4.67293 15.0245 
3.40411 4.75233 15.2535 3.40751 4.67293 15.0245 2.96138 4.95508 15.0103 
2.88128 5.07634 15.2295 2.96138 4.95508 15.0103 2.61884 5.14419 15.0098 
2.42853 5.32036 15.2747 2.61884 5.14419 15.0098 2.1428 5.35945 15.0013 
1.89147 5.52242 15.2319 2.1428 5.35945 15.0013 1.66648 5.52612 15.0037 
1.41487 5.66594 15.241 1.66648 5.52612 15.0037 1.20468 5.64927 15.0169 
0.910234 5.79438 15.344 1.20468 5.64927 15.0169 0.561419 5.74541 14.9974 
0.393396 5.82376 15.2295 0.561419 5.74541 14.9974 -0.105026 5.78165 15.0302 
-0.159803 5.84165 15.2504 -0.105026 5.78165 15.0302 -0.662069 5.73908 15.0165 
-0.675848 5.79591 15.2232 -0.662069 5.73908 15.0165 -1.03001 5.67994 15.0103 
-1.21855 5.73647 15.3426 -1.03001 5.67994 15.0103 -1.46822 5.56076 14.9454 
-1.56227 5.64991 15.3358 -1.46822 5.56076 14.9454 -1.87157 5.46694 15.022 
-1.94885 5.5323 15.3494 -1.87157 5.46694 15.022 -2.42953 5.28141 15.1216 
-3.35872 4.81154 15.3617 -3.18819 4.80514 14.9829 -3.59857 4.51364 15.0103 
-3.66589 4.578 15.3564 -3.59857 4.51364 15.0103 -3.9088 4.24974 15.0094 
-3.98861 4.29886 15.3406 -3.9088 4.24974 15.0094 -4.25032 3.90192 14.9983 
-4.59479 3.60718 15.2362 -4.25032 3.90192 14.9983 -4.59125 3.50461 15.0138 
-4.59479 3.60718 15.2362 -4.59125 3.50461 15.0138 -4.89286 3.0771 15.0256 
-4.94196 3.10613 15.2295 -4.89286 3.0771 15.0256 -5.233 2.57637 15.1861 
-5.50511 1.93726 15.2236 -5.44438 1.91096 14.9984 -5.59803 1.50819 15.0779 
-5.71507 1.17701 15.2176 -5.65323 1.16446 15.0037 -5.72023 0.775608 15.0103 
-5.8 0.786058 15.3045 -5.72023 0.775608 15.0103 -5.79664 0.34884 15.0959 
-5.87596 0.093043 15.4462 -5.79872 -0.0692554 15.079 -5.82386 -0.391897 15.2295 
-5.86589 -0.377595 15.4531 -5.82386 -0.391897 15.2295 -5.80011 -0.785287 15.3045 
-5.70083 -1.42847 15.4511 -5.71855 -1.17011 15.2295 -5.59037 -1.6816 15.2314 
-5.59948 -1.7814 15.4497 -5.59037 -1.6816 15.2314 -5.41772 -2.17239 15.2295 
-5.45306 -2.193 15.4472 -5.41772 -2.17239 15.2295 -5.15489 -2.69526 15.1307 
-5.11452 -2.8988 15.4638 -5.15489 -2.69526 15.1307 -4.94276 -3.10486 15.2295 
-4.81968 -3.36417 15.4457 -4.94276 -3.10486 15.2295 -4.64185 -3.47596 15.074 
-4.81968 -3.36417 15.4457 -4.64185 -3.47596 15.074 -4.47669 -3.74638 15.2302 
-4.46715 -3.82521 15.4706 -4.47669 -3.74638 15.2302 -4.15512 -4.14357 15.3647 
-3.75968 -4.51736 15.4546 -3.93863 -4.30792 15.2295 -3.5325 -4.66334 15.2801 
-2.38926 -5.37128 15.4521 -2.41464 -5.31417 15.2295 -1.92156 -5.51313 15.2282 
-1.90292 -5.56001 15.4472 -1.92156 -5.51313 15.2282 -1.47502 -5.6788 15.3649 
-1.08546 -5.77487 15.4494 -1.0503 -5.7251 15.163 -0.661928 -5.80002 15.2305 
-0.638131 -5.84299 15.448 -0.661928 -5.80002 15.2305 -0.15458 -5.8441 15.2657 
-0.0708477 -5.87917 15.4716 -0.15458 -5.8441 15.2657 0.261815 -5.82977 15.2299 
0.401376 -5.86328 15.4523 0.261815 -5.82977 15.2299 0.698706 -5.81032 15.2921 
1.4737 -5.68891 15.4462 1.17322 -5.71492 15.218 1.55302 -5.58748 15.0839 
1.4737 -5.68891 15.4462 1.55302 -5.58748 15.0839 1.85699 -5.49859 15.0883 
1.92496 -5.55391 15.4531 1.85699 -5.49859 15.0883 2.30004 -5.38217 15.3045 
2.91496 -5.10406 15.454 2.64928 -5.20118 15.2295 3.13867 -4.93547 15.2755 
3.56214 -4.67567 15.4577 3.56018 -4.62 15.2127 3.85065 -4.408 15.3045 
4.3433 -3.95962 15.4553 4.12687 -4.12794 15.2295 4.49337 -3.74384 15.2736 
4.92809 -3.2003 15.4526 4.79837 -3.31766 15.2164 5.12347 -2.80602 15.24 
5.63484 -1.67403 15.4595 5.49219 -1.90418 15.1238 5.6163 -1.53814 15.1713 
5.63484 -1.67403 15.4595 5.6163 -1.53814 15.1713 5.72914 -1.26559 15.3842 
5.80558 -0.919765 15.4572 5.72753 -0.974952 15.116 5.85653 -0.402615 15.3797 
5.87572 0.169076 15.4562 5.8109 -0.0382898 15.1147 5.81672 0.272645 15.1712 
5.87572 0.169076 15.4562 5.81672 0.272645 15.1712 5.80135 0.61814 15.1965 
5.80055 0.962043 15.4736 5.80135 0.61814 15.1965 5.71431 1.14872 15.1897 
5.69548 1.44613 15.436 5.71431 1.14872 15.1897 5.60888 1.54738 15.1559 
5.69548 1.44613 15.436 5.60888 1.54738 15.1559 5.53185 1.95341 15.3611 
5.45171 2.19257 15.4365 5.53185 1.95341 15.3611 5.30406 2.41001 15.1747 
5.28072 2.57746 15.4533 5.30406 2.41001 15.1747 5.06335 2.91236 15.2434 
5.09177 2.93411 15.446 5.06335 2.91236 15.2434 4.79848 3.32348 15.2295 
4.815 3.37336 15.453 4.79848 3.32348 15.2295 4.56249 3.63847 15.2299 
4.48552 3.79669 15.4471 4.56249 3.63847 15.2299 4.2862 3.9562 15.2134 
4.15765 4.15519 15.4531 4.2862 3.9562 15.2134 3.9178 4.34039 15.2672 
2.66123 5.24027 15.4552 2.88128 5.07634 15.2295 2.42853 5.32036 15.2747 
1.90943 5.55911 15.4412 1.89147 5.52242 15.2319 1.41487 5.66594 15.241 
1.39703 5.70822 15.4481 1.41487 5.66594 15.241 0.910234 5.79438 15.344 
0.116053 5.8767 15.4544 0.393396 5.82376 15.2295 -0.159803 5.84165 15.2504 
-0.707878 5.83633 15.4543 -0.675848 5.79591 15.2232 -1.21855 5.73647 15.3426 
-2.45199 5.34385 15.4516 -2.42953 5.28141 15.1216 -2.86322 5.07672 15.1829 
-2.93448 5.09117 15.4433 -2.86322 5.07672 15.1829 -3.35872 4.81154 15.3617 
-5.12041 2.88604 15.4536 -4.94196 3.10613 15.2295 -5.233 2.57637 15.1861 
-5.47411 2.14496 15.4594 -5.28031 2.40964 15.089 -5.50511 1.93726 15.2236 
-5.63943 1.65235 15.4468 -5.50511 1.93726 15.2236 -5.59803 1.50819 15.0779 
-5.63943 1.65235 15.4468 -5.59803 1.50819 15.0779 -5.71507 1.17701 15.2176 
-5.75417 1.19445 15.4451 -5.71507 1.17701 15.2176 -5.8 0.786058 15.3045 
-5.87596 0.093043 15.4462 -5.79664 0.34884 15.0959 -5.79872 -0.0692554 15.079 
-3.44211 -4.77761 15.5918 -3.5325 -4.66334 15.2801 -3.11383 -4.96762 15.3394 
3.25197 -4.90827 15.5853 3.13867 -4.93547 15.2755 3.56214 -4.67567 15.4577 
5.86322 0.541659 15.5889 5.80135 0.61814 15.1965 5.80055 0.962043 15.4736 
3.86585 4.44128 15.5857 3.9178 4.34039 15.2672 3.55895 4.6781 15.4577 
2.31178 5.40868 15.5313 2.42853 5.32036 15.2747 1.90943 5.55911 15.4412 
-0.271477 5.88156 15.5809 -0.159803 5.84165 15.2504 -0.707878 5.83633 15.4543 
-4.25814 4.0663 15.5869 -4.25353 4.01673 15.2937 -4.51379 3.76655 15.4611 
-5.31011 2.54417 15.5898 -5.233 2.57637 15.1861 -5.47411 2.14496 15.4594 
-5.88785 0 15.6838 -5.87596 0.093043 15.4462 -5.86589 -0.377595 15.4531 
-5.87599 -0.37343 15.6838 -5.88192 -0.264157 15.6838 -5.86589 -0.377595 15.4531 
-5.84048 -0.745357 15.6838 -5.86414 -0.527782 15.6838 -5.86589 -0.377595 15.4531 
-5.68585 -1.53187 15.6852 -5.74023 -1.31017 15.6838 -5.70083 -1.42847 15.4511 
-5.68585 -1.53187 15.6852 -5.70083 -1.42847 15.4511 -5.59948 -1.7814 15.4497 
-5.46609 -2.18829 15.6838 -5.51241 -2.06884 15.6838 -5.45306 -2.193 15.4472 
-5.31053 -2.5426 15.6838 -5.41404 -2.31407 15.6838 -5.45306 -2.193 15.4472 
-5.31053 -2.5426 15.6838 -5.29569 -2.54305 15.4361 -5.11452 -2.8988 15.4638 
-4.93127 -3.2183 15.6841 -5.05441 -3.01987 15.6838 -5.11452 -2.8988 15.4638 
-4.74131 -3.49095 15.6838 -4.76337 -3.46079 15.6838 -4.81968 -3.36417 15.4457 
-4.51035 -3.78463 15.6838 -4.6033 -3.67101 15.6838 -4.46715 -3.82521 15.4706 
-4.25847 -4.06598 15.6838 -4.43397 -3.87384 15.6838 -4.46715 -3.82521 15.4706 
-4.25847 -4.06598 15.6838 -4.46715 -3.82521 15.4706 -4.15512 -4.14357 15.3647 
-3.99496 -4.32516 15.6838 -4.06887 -4.25571 15.6838 -4.15512 -4.14357 15.3647 
-3.68998 -4.58883 15.687 -3.87384 -4.43397 15.6838 -3.75968 -4.51736 15.4546 
-3.68998 -4.58883 15.687 -3.75968 -4.51736 15.4546 -3.44211 -4.77761 15.5918 
-3.05236 -5.03573 15.6846 -3.2436 -4.91384 15.6838 -3.11383 -4.96762 15.3394 
-3.05236 -5.03573 15.6846 -3.11383 -4.96762 15.3394 -2.78558 -5.16161 15.3588 
-2.4459 -5.35577 15.6838 -2.55464 -5.30477 15.6838 -2.38926 -5.37128 15.4521 
-2.08414 -5.50705 15.6843 -2.31407 -5.41404 15.6838 -2.38926 -5.37128 15.4521 
-1.34268 -5.73345 15.6866 -1.56638 -5.67567 15.6838 -1.47502 -5.6788 15.3649 
-1.34268 -5.73345 15.6866 -1.47502 -5.6788 15.3649 -1.08546 -5.77487 15.4494 
-0.652598 -5.85157 15.6838 -0.790345 -5.83456 15.6838 -0.638131 -5.84299 15.448 
-0.272156 -5.88155 15.6838 -0.527782 -5.86414 15.6838 -0.638131 -5.84299 15.448 
0.501267 -5.8671 15.6875 0.264157 -5.88192 15.6838 0.401376 -5.86328 15.4523 
0.501267 -5.8671 15.6875 0.401376 -5.86328 15.4523 0.963209 -5.80267 15.4859 
1.20587 -5.76304 15.6838 1.05132 -5.79323 15.6838 0.963209 -5.80267 15.4859 
1.92573 -5.56402 15.6838 1.81944 -5.59968 15.6838 1.92496 -5.55391 15.4531 
2.27474 -5.43068 15.6838 2.06884 -5.51241 15.6838 1.92496 -5.55391 15.4531 
2.94392 -5.09902 15.6838 2.79007 -5.18481 15.6838 2.91496 -5.10406 15.454 
3.01987 -5.05441 15.6838 2.91496 -5.10406 15.454 3.25197 -4.90827 15.5853 
3.56574 -4.68532 15.6838 3.46079 -4.76337 15.6838 3.56214 -4.67567 15.4577 
3.85572 -4.44974 15.6838 3.67101 -4.6033 15.6838 3.56214 -4.67567 15.4577 
4.41491 -3.89658 15.6839 4.25571 -4.06887 15.6838 4.3433 -3.95962 15.4553 
4.41491 -3.89658 15.6839 4.3433 -3.95962 15.4553 4.68334 -3.55599 15.4758 
4.84968 -3.33876 15.6838 4.76337 -3.46079 15.6838 4.68334 -3.55599 15.4758 
5.0533 -3.02187 15.6825 4.91384 -3.2436 15.6838 4.92809 -3.2003 15.4526 
5.23333 -2.69797 15.6838 5.18481 -2.79007 15.6838 5.13086 -2.86511 15.4476 
5.40553 -2.33522 15.6826 5.30477 -2.55464 15.6838 5.36743 -2.37412 15.3681 
5.40553 -2.33522 15.6826 5.36743 -2.37412 15.3681 5.50028 -2.06745 15.4538 
5.53277 -2.01376 15.6838 5.51241 -2.06884 15.6838 5.50028 -2.06745 15.4538 
5.66654 -1.60185 15.6775 5.59968 -1.81944 15.6838 5.63484 -1.67403 15.4595 
5.66654 -1.60185 15.6775 5.63484 -1.67403 15.4595 5.72914 -1.26559 15.3842 
5.81389 -0.930288 15.6838 5.79323 -1.05132 15.6838 5.80558 -0.919765 15.4572 
5.86267 -0.543729 15.6838 5.83456 -0.790345 15.6838 5.80558 -0.919765 15.4572 
5.88411 0.230061 15.6864 5.88785 0 15.6838 5.87572 0.169076 15.4562 
5.88411 0.230061 15.6864 5.87572 0.169076 15.4562 5.86322 0.541659 15.5889 
5.81389 0.930288 15.6838 5.83456 0.790345 15.6838 5.80055 0.962043 15.4736 
5.7417 1.30366 15.6838 5.79323 1.05132 15.6838 5.80055 0.962043 15.4736 
5.64935 1.6588 15.6838 5.67567 1.56638 15.6838 5.69548 1.44613 15.436 
5.53277 2.01376 15.6838 5.59968 1.81944 15.6838 5.53185 1.95341 15.3611 
5.23333 2.69797 15.6838 5.30477 2.55464 15.6838 5.28072 2.57746 15.4533 
4.84968 3.33876 15.6838 4.91384 3.2436 15.6838 4.815 3.37336 15.453 
4.61515 3.65681 15.6845 4.76337 3.46079 15.6838 4.815 3.37336 15.453 
4.09436 4.23222 15.6905 4.25571 4.06887 15.6838 4.15765 4.15519 15.4531 
4.09436 4.23222 15.6905 4.15765 4.15519 15.4531 3.86585 4.44128 15.5857 
3.56574 4.68532 15.6838 3.67101 4.6033 15.6838 3.55895 4.6781 15.4577 
3.2525 4.90794 15.6838 3.46079 4.76337 15.6838 3.55895 4.6781 15.4577 
2.58085 5.2928 15.688 2.79007 5.18481 15.6838 2.66123 5.24027 15.4552 
2.58085 5.2928 15.688 2.66123 5.24027 15.4552 2.31178 5.40868 15.5313 
2.27474 5.43068 15.6838 2.31407 5.41404 15.6838 2.31178 5.40868 15.5313 
1.92573 5.56402 15.6838 2.06884 5.51241 15.6838 1.90943 5.55911 15.4412 
1.56767 5.67531 15.6838 1.81944 5.59968 15.6838 1.90943 5.55911 15.4412 
1.20587 5.76304 15.6838 1.31017 5.74023 15.6838 1.39703 5.70822 15.4481 
0.811957 5.83211 15.6826 1.05132 5.79323 15.6838 0.910234 5.79438 15.344 
0.811957 5.83211 15.6826 0.910234 5.79438 15.344 0.529736 5.85208 15.4538 
0.0934164 5.88711 15.6838 0.264157 5.88192 15.6838 0.116053 5.8767 15.4544 
0 5.88785 15.6838 0.116053 5.8767 15.4544 -0.271477 5.88156 15.5809 
-0.652598 5.85157 15.6838 -0.527782 5.86414 15.6838 -0.707878 5.83633 15.4543 
-1.03773 5.796 15.6841 -0.790345 5.83456 15.6838 -0.707878 5.83633 15.4543 
-1.78965 5.61001 15.6883 -1.56638 5.67567 15.6838 -1.56227 5.64991 15.3358 
-2.4459 5.35577 15.6838 -2.31407 5.41404 15.6838 -2.45199 5.34385 15.4516 
-2.78606 5.18711 15.6818 -2.55464 5.30477 15.6838 -2.45199 5.34385 15.4516 
-3.10422 5.00305 15.6838 -3.01987 5.05441 15.6838 -2.93448 5.09117 15.4433 
-3.44125 4.77823 15.6854 -3.2436 4.91384 15.6838 -3.35872 4.81154 15.3617 
-3.44125 4.77823 15.6854 -3.35872 4.81154 15.3617 -3.66589 4.578 15.3564 
-3.99496 4.32516 15.6838 -3.87384 4.43397 15.6838 -3.98861 4.29886 15.3406 
-4.06887 4.25571 15.6838 -3.98861 4.29886 15.3406 -4.25814 4.0663 15.5869 
-4.51035 3.78463 15.6838 -4.43397 3.87384 15.6838 -4.51379 3.76655 15.4611 
-4.74131 3.49095 15.6838 -4.6033 3.67101 15.6838 -4.51379 3.76655 15.4611 
-5.16928 2.82027 15.6903 -5.05441 3.01987 15.6838 -5.12041 2.88604 15.4536 
-5.16928 2.82027 15.6903 -5.12041 2.88604 15.4536 -5.31011 2.54417 15.5898 
-5.46609 2.18829 15.6838 -5.41404 2.31407 15.6838 -5.47411 2.14496 15.4594 
-5.59737 1.82725 15.6816 -5.51241 2.06884 15.6838 -5.47411 2.14496 15.4594 
-5.78884 1.07874 15.6876 -5.74023 1.31017 15.6838 -5.75417 1.19445 15.4451 
-5.78884 1.07874 15.6876 -5.75417 1.19445 15.4451 -5.84901 0.62036 15.4799 
-5.84048 0.745357 15.6838 -5.83456 0.790345 15.6838 -5.84901 0.62036 15.4799 
-5.87599 0.37343 15.6838 -5.86414 0.527782 15.6838 -5.84901 0.62036 15.4799 
0.450188 -0.0131173 5.6064 0.448935 0.0327757 5.62156 0.458681 0.0360929 5.98306 
0.448935 0.0327757 5.62156 0.444512 0.072901 5.64394 0.458681 0.0360929 5.98306 
0.444512 0.072901 5.64394 0.434324 0.118307 5.63262 0.458681 0.0360929 5.98306 
0.434324 0.118307 5.63262 0.423936 0.15107 5.6421 0.408232 0.211998 5.97105 
0.411846 0.18163 5.61937 0.394232 0.217883 5.64222 0.408232 0.211998 5.97105 
0.394232 0.217883 5.64222 0.369665 0.256848 5.59661 0.408232 0.211998 5.97105 
0.369665 0.256848 5.59661 0.348775 0.284466 5.63675 0.309442 0.338565 5.98874 
0.327087 0.309218 5.6297 0.30432 0.331497 5.6364 0.309442 0.338565 5.98874 
0.272103 0.358762 5.58938 0.228648 0.388115 5.65257 0.207917 0.406277 5.97758 
0.228648 0.388115 5.65257 0.186867 0.409527 5.62299 0.207917 0.406277 5.97758 
0.186867 0.409527 5.62299 0.155624 0.422233 5.63702 0.0964883 0.448671 5.99431 
0.0964883 0.448671 5.99431 0.155624 0.422233 5.63702 0.124493 0.432572 5.62674 
0.124493 0.432572 5.62674 0.0850226 0.44235 5.66082 0.0964883 0.448671 5.99431 
0.0850226 0.44235 5.66082 0.0391996 0.448433 5.61555 0.0964883 0.448671 5.99431 
0.0391996 0.448433 5.61555 0.00461801 0.45004 5.6384 -0.0281912 0.455663 5.98507 
-0.0282704 0.449226 5.62673 -0.0683429 0.445205 5.64598 -0.0281912 0.455663 5.98507 
-0.0683429 0.445205 5.64598 -0.156045 0.431935 5.96822 -0.0281912 0.455663 5.98507 
-0.0683429 0.445205 5.64598 -0.113422 0.435616 5.62703 -0.156045 0.431935 5.96822 
-0.113422 0.435616 5.62703 -0.150125 0.424569 5.65784 -0.156045 0.431935 5.96822 
-0.150125 0.424569 5.65784 -0.18603 0.409747 5.63702 -0.156045 0.431935 5.96822 
-0.18603 0.409747 5.63702 -0.213624 0.396494 5.66213 -0.156045 0.431935 5.96822 
-0.213624 0.396494 5.66213 -0.252882 0.372382 5.62769 -0.301733 0.358582 6.22098 
-0.252882 0.372382 5.62769 -0.28538 0.348517 5.65232 -0.301733 0.358582 6.22098 
-0.28538 0.348517 5.65232 -0.374568 0.264256 5.95909 -0.301733 0.358582 6.22098 
-0.28538 0.348517 5.65232 -0.319585 0.317014 5.62456 -0.374568 0.264256 5.95909 
-0.319585 0.317014 5.62456 -0.342795 0.291607 5.63889 -0.374568 0.264256 5.95909 
-0.363218 0.265857 5.624 -0.385806 0.232476 5.63871 -0.374568 0.264256 5.95909 
-0.385806 0.232476 5.63871 -0.407292 0.191685 5.62782 -0.374568 0.264256 5.95909 
-0.407292 0.191685 5.62782 -0.420749 0.159805 5.64796 -0.437801 0.131341 5.97776 
-0.431333 0.128657 5.62717 -0.4414 0.0895978 5.63781 -0.437801 0.131341 5.97776 
-0.4414 0.0895978 5.63781 -0.457593 0.0102137 5.98096 -0.437801 0.131341 5.97776 
-0.4414 0.0895978 5.63781 -0.447975 0.0440535 5.62563 -0.457593 0.0102137 5.98096 
-0.447975 0.0440535 5.62563 -0.450435 0.00391672 5.65187 -0.457593 0.0102137 5.98096 
-0.450435 0.00391672 5.65187 -0.448091 -0.043014 5.63935 -0.457593 0.0102137 5.98096 
-0.448091 -0.043014 5.63935 -0.443477 -0.0763423 5.63702 -0.432701 -0.156939 5.94408 
-0.432701 -0.156939 5.94408 -0.443477 -0.0763423 5.63702 -0.436864 -0.108476 5.62734 
-0.436864 -0.108476 5.62734 -0.425595 -0.147547 5.65453 -0.432701 -0.156939 5.94408 
-0.425595 -0.147547 5.65453 -0.407939 -0.19031 5.62746 -0.432701 -0.156939 5.94408 
-0.407939 -0.19031 5.62746 -0.392055 -0.221021 5.6384 -0.432701 -0.156939 5.94408 
-0.332979 -0.31477 5.95682 -0.432701 -0.156939 5.94408 -0.392055 -0.221021 5.6384 
-0.374915 -0.249082 5.62369 -0.351738 -0.281288 5.62205 -0.332979 -0.31477 5.95682 
-0.351738 -0.281288 5.62205 -0.320872 -0.315711 5.62127 -0.332979 -0.31477 5.95682 
-0.320872 -0.315711 5.62127 -0.295412 -0.339556 5.64595 -0.332979 -0.31477 5.95682 
-0.269796 -0.360297 5.65715 -0.243707 -0.378295 5.63702 -0.225185 -0.398325 5.97818 
-0.243707 -0.378295 5.63702 -0.206917 -0.399919 5.51907 -0.225185 -0.398325 5.97818 
-0.206917 -0.399919 5.51907 -0.159167 -0.421397 5.6433 -0.0859126 -0.451751 5.99746 
-0.159167 -0.421397 5.6433 -0.114739 -0.435279 5.62631 -0.0859126 -0.451751 5.99746 
-0.114739 -0.435279 5.62631 -0.0811423 -0.442673 5.63889 -0.0859126 -0.451751 5.99746 
-0.0486067 -0.447487 5.62809 -0.00844419 -0.450356 5.64687 -0.0859126 -0.451751 5.99746 
-0.00844419 -0.450356 5.64687 0.0782662 -0.451772 5.94827 -0.0859126 -0.451751 5.99746 
-0.00844419 -0.450356 5.64687 0.0376113 -0.448567 5.61488 0.0782662 -0.451772 5.94827 
0.0376113 -0.448567 5.61488 0.0719892 -0.444281 5.65436 0.0782662 -0.451772 5.94827 
0.104252 -0.437872 5.62615 0.143095 -0.427067 5.64508 0.0782662 -0.451772 5.94827 
0.143095 -0.427067 5.64508 0.203563 -0.409218 5.9881 0.0782662 -0.451772 5.94827 
0.143095 -0.427067 5.64508 0.185843 -0.409981 5.62659 0.203563 -0.409218 5.9881 
0.185843 -0.409981 5.62659 0.221852 -0.39203 5.62942 0.203563 -0.409218 5.9881 
0.221852 -0.39203 5.62942 0.261238 -0.366588 5.62469 0.299871 -0.346425 5.98628 
0.261238 -0.366588 5.62469 0.287853 -0.345891 5.63702 0.299871 -0.346425 5.98628 
0.299871 -0.346425 5.98628 0.287853 -0.345891 5.63702 0.312379 -0.324094 5.62828 
0.312379 -0.324094 5.62828 0.340562 -0.294821 5.66865 0.299871 -0.346425 5.98628 
0.340562 -0.294821 5.66865 0.391337 -0.239354 5.96654 0.299871 -0.346425 5.98628 
0.340562 -0.294821 5.66865 0.36878 -0.258134 5.62674 0.391337 -0.239354 5.96654 
0.36878 -0.258134 5.62674 0.387438 -0.229019 5.6384 0.391337 -0.239354 5.96654 
0.403173 -0.200137 5.62516 0.419453 -0.164023 5.64875 0.391337 -0.239354 5.96654 
0.419453 -0.164023 5.64875 0.443771 -0.110691 5.97937 0.391337 -0.239354 5.96654 
0.419453 -0.164023 5.64875 0.433861 -0.119991 5.62571 0.443771 -0.110691 5.97937 
0.433861 -0.119991 5.62571 0.441773 -0.0860487 5.65224 0.443771 -0.110691 5.97937 
0.44692 -0.0535204 5.64034 0.450188 -0.0131173 5.6064 0.458681 0.0360929 5.98306 
0.458681 0.0360929 5.98306 0.408232 0.211998 5.97105 0.487509 0.0786465 6.53086 
0.408232 0.211998 5.97105 0.309442 0.338565 5.98874 0.415963 0.255471 6.49438 
0.309442 0.338565 5.98874 0.207917 0.406277 5.97758 0.31933 0.370269 6.50805 
0.207917 0.406277 5.97758 0.0964883 0.448671 5.99431 0.217973 0.439243 6.52982 
0.0964883 0.448671 5.99431 -0.0281912 0.455663 5.98507 0.0250206 0.49544 6.54654 
-0.0281912 0.455663 5.98507 -0.156045 0.431935 5.96822 0.0250206 0.49544 6.54654 
-0.374568 0.264256 5.95909 -0.437801 0.131341 5.97776 -0.417497 0.230548 6.32318 
-0.437801 0.131341 5.97776 -0.457593 0.0102137 5.98096 -0.476987 0.0918856 6.48588 
-0.457593 0.0102137 5.98096 -0.432701 -0.156939 5.94408 -0.485013 -0.0314995 6.4776 
-0.432701 -0.156939 5.94408 -0.332979 -0.31477 5.95682 -0.38033 -0.297401 6.39813 
-0.332979 -0.31477 5.95682 -0.225185 -0.398325 5.97818 -0.243622 -0.426396 6.54385 
-0.225185 -0.398325 5.97818 -0.0859126 -0.451751 5.99746 -0.0860385 -0.485733 6.53095 
-0.0859126 -0.451751 5.99746 0.0782662 -0.451772 5.94827 -0.0860385 -0.485733 6.53095 
0.0782662 -0.451772 5.94827 0.203563 -0.409218 5.9881 0.24378 -0.422773 6.48703 
0.203563 -0.409218 5.9881 0.299871 -0.346425 5.98628 0.24378 -0.422773 6.48703 
0.299871 -0.346425 5.98628 0.391337 -0.239354 5.96654 0.353442 -0.333782 6.49597 
0.391337 -0.239354 5.96654 0.443771 -0.110691 5.97937 0.422185 -0.219111 6.31275 
0.443771 -0.110691 5.97937 0.458681 0.0360929 5.98306 0.47708 -0.0969586 6.49392 
-0.165442 0.456708 6.46941 -0.301733 0.358582 6.22098 -0.272712 0.453438 6.89309 
-0.301733 0.358582 6.22098 -0.417497 0.230548 6.32318 -0.383017 0.355455 6.84091 
-0.417497 0.230548 6.32318 -0.476987 0.0918856 6.48588 -0.472552 0.236679 6.86916 
-0.485013 -0.0314995 6.4776 -0.453901 -0.136874 6.32055 -0.503965 -0.150492 6.87207 
-0.453901 -0.136874 6.32055 -0.38033 -0.297401 6.39813 -0.455745 -0.263174 6.86181 
0.353442 -0.333782 6.49597 0.422185 -0.219111 6.31275 0.475046 -0.242819 6.9121 
0.487509 0.0786465 6.53086 0.415963 0.255471 6.49438 0.509545 0.23861 7.13043 
0.415963 0.255471 6.49438 0.31933 0.370269 6.50805 0.433964 0.362908 7.16545 
0.31933 0.370269 6.50805 0.217973 0.439243 6.52982 0.341043 0.455936 7.19095 
0.217973 0.439243 6.52982 0.0250206 0.49544 6.54654 0.175023 0.536186 7.12651 
0.0250206 0.49544 6.54654 -0.165442 0.456708 6.46941 -0.139864 0.530494 7.01459 
-0.165442 0.456708 6.46941 -0.272712 0.453438 6.89309 -0.139864 0.530494 7.01459 
-0.472552 0.236679 6.86916 -0.476987 0.0918856 6.48588 -0.540249 0.0370485 6.93964 
-0.476987 0.0918856 6.48588 -0.485013 -0.0314995 6.4776 -0.540249 0.0370485 6.93964 
-0.38033 -0.297401 6.39813 -0.243622 -0.426396 6.54385 -0.350515 -0.418986 6.98861 
-0.243622 -0.426396 6.54385 -0.0860385 -0.485733 6.53095 -0.173773 -0.517862 6.99123 
-0.0860385 -0.485733 6.53095 0.102498 -0.475149 6.47003 -0.012359 -0.544127 6.99365 
0.102498 -0.475149 6.47003 0.24378 -0.422773 6.48703 0.30154 -0.475363 7.12557 
0.24378 -0.422773 6.48703 0.353442 -0.333782 6.49597 0.399908 -0.37358 7.0023 
0.353442 -0.333782 6.49597 0.475046 -0.242819 6.9121 0.399908 -0.37358 7.0023 
0.475046 -0.242819 6.9121 0.47708 -0.0969586 6.49392 0.534463 -0.112565 7.01044 
0.47708 -0.0969586 6.49392 0.487509 0.0786465 6.53086 0.544091 0.0522446 6.99432 
0.544091 0.0522446 6.99432 0.509545 0.23861 7.13043 0.599627 0.190509 7.51477 
0.0190862 0.563185 7.13953 -0.139864 0.530494 7.01459 -0.114835 0.619564 7.52185 
-0.139864 0.530494 7.01459 -0.272712 0.453438 6.89309 -0.244959 0.574042 7.49498 
-0.272712 0.453438 6.89309 -0.383017 0.355455 6.84091 -0.364201 0.505571 7.48659 
-0.383017 0.355455 6.84091 -0.472552 0.236679 6.86916 -0.469538 0.366238 7.32653 
-0.472552 0.236679 6.86916 -0.540249 0.0370485 6.93964 -0.558115 0.214688 7.33151 
-0.540249 0.0370485 6.93964 -0.503965 -0.150492 6.87207 -0.582466 -0.147317 7.34268 
-0.503965 -0.150492 6.87207 -0.455745 -0.263174 6.86181 -0.582466 -0.147317 7.34268 
-0.455745 -0.263174 6.86181 -0.350515 -0.418986 6.98861 -0.490402 -0.343464 7.3436 
-0.350515 -0.418986 6.98861 -0.173773 -0.517862 6.99123 -0.351057 -0.487709 7.33765 
-0.173773 -0.517862 6.99123 -0.012359 -0.544127 6.99365 -0.0224644 -0.628582 7.51907 
-0.012359 -0.544127 6.99365 0.137208 -0.528003 6.9972 0.125063 -0.622131 7.54785 
0.137208 -0.528003 6.9972 0.30154 -0.475363 7.12557 0.277912 -0.567363 7.5333 
0.399908 -0.37358 7.0023 0.475046 -0.242819 6.9121 0.502934 -0.363016 7.46805 
0.475046 -0.242819 6.9121 0.534463 -0.112565 7.01044 0.583651 -0.206011 7.46678 
0.534463 -0.112565 7.01044 0.544091 0.0522446 6.99432 0.600646 -0.0265928 7.35005 
0.600646 -0.0265928 7.35005 0.599627 0.190509 7.51477 0.708732 0.0156215 7.88167 
0.509545 0.23861 7.13043 0.433964 0.362908 7.16545 0.578532 0.379264 7.82267 
0.433964 0.362908 7.16545 0.341043 0.455936 7.19095 0.493094 0.486052 7.82731 
0.341043 0.455936 7.19095 0.175023 0.536186 7.12651 0.394459 0.580636 7.86729 
0.175023 0.536186 7.12651 0.0190862 0.563185 7.13953 0.0230119 0.662366 7.68129 
-0.364201 0.505571 7.48659 -0.469538 0.366238 7.32653 -0.467865 0.540121 7.90987 
-0.469538 0.366238 7.32653 -0.558115 0.214688 7.33151 -0.620094 0.316334 7.81475 
-0.558115 0.214688 7.33151 -0.595126 0.0465593 7.33524 -0.693165 0.0860293 7.84532 
-0.595126 0.0465593 7.33524 -0.582466 -0.147317 7.34268 -0.690286 -0.0991924 7.8454 
-0.582466 -0.147317 7.34268 -0.490402 -0.343464 7.3436 -0.637889 -0.279829 7.8388 
-0.490402 -0.343464 7.3436 -0.351057 -0.487709 7.33765 -0.520861 -0.45917 7.82942 
-0.351057 -0.487709 7.33765 -0.172699 -0.602452 7.50597 -0.336734 -0.633717 7.91628 
0.277912 -0.567363 7.5333 0.30154 -0.475363 7.12557 0.4617 -0.528032 7.85239 
0.30154 -0.475363 7.12557 0.502934 -0.363016 7.46805 0.4617 -0.528032 7.85239 
0.583651 -0.206011 7.46678 0.600646 -0.0265928 7.35005 0.705883 -0.191345 7.98449 
0.708732 0.0156215 7.88167 0.599627 0.190509 7.51477 0.747127 0.252034 8.21048 
0.394459 0.580636 7.86729 0.192405 0.628347 7.64463 0.265326 0.73545 8.17971 
0.192405 0.628347 7.64463 0.0230119 0.662366 7.68129 0.0771368 0.769304 8.15928 
0.0230119 0.662366 7.68129 -0.114835 0.619564 7.52185 -0.083308 0.761331 8.13079 
-0.114835 0.619564 7.52185 -0.244959 0.574042 7.49498 -0.282085 0.681493 8.00294 
-0.244959 0.574042 7.49498 -0.364201 0.505571 7.48659 -0.282085 0.681493 8.00294 
-0.172699 -0.602452 7.50597 -0.0224644 -0.628582 7.51907 -0.132792 -0.724896 8.00263 
-0.0224644 -0.628582 7.51907 0.125063 -0.622131 7.54785 0.125173 -0.722333 7.97352 
0.125063 -0.622131 7.54785 0.277912 -0.567363 7.5333 0.125173 -0.722333 7.97352 
0.277912 -0.567363 7.5333 0.4617 -0.528032 7.85239 0.364909 -0.700141 8.22231 
0.4617 -0.528032 7.85239 0.502934 -0.363016 7.46805 0.632253 -0.390401 8.0254 
0.502934 -0.363016 7.46805 0.583651 -0.206011 7.46678 0.632253 -0.390401 8.0254 
0.708732 0.0156215 7.88167 0.747127 0.252034 8.21048 0.826592 0.0490016 8.34362 
0.747127 0.252034 8.21048 0.578532 0.379264 7.82267 0.686795 0.44874 8.31922 
0.578532 0.379264 7.82267 0.493094 0.486052 7.82731 0.555316 0.609206 8.3375 
0.493094 0.486052 7.82731 0.394459 0.580636 7.86729 0.555316 0.609206 8.3375 
0.394459 0.580636 7.86729 0.265326 0.73545 8.17971 0.420073 0.708298 8.34015 
-0.083308 0.761331 8.13079 -0.282085 0.681493 8.00294 -0.257075 0.782523 8.33215 
-0.282085 0.681493 8.00294 -0.467865 0.540121 7.90987 -0.42877 0.70139 8.33431 
-0.467865 0.540121 7.90987 -0.620094 0.316334 7.81475 -0.590969 0.574898 8.33531 
-0.620094 0.316334 7.81475 -0.693165 0.0860293 7.84532 -0.818493 0.0924547 8.32599 
-0.693165 0.0860293 7.84532 -0.690286 -0.0991924 7.8454 -0.818493 0.0924547 8.32599 
-0.690286 -0.0991924 7.8454 -0.637889 -0.279829 7.8388 -0.811325 -0.14601 8.33994 
-0.637889 -0.279829 7.8388 -0.520861 -0.45917 7.82942 -0.731708 -0.481004 8.52138 
-0.520861 -0.45917 7.82942 -0.336734 -0.633717 7.91628 -0.571574 -0.638086 8.44917 
-0.336734 -0.633717 7.91628 -0.132792 -0.724896 8.00263 -0.238795 -0.82794 8.47783 
-0.132792 -0.724896 8.00263 0.125173 -0.722333 7.97352 -0.005185 -0.876549 8.5251 
0.364909 -0.700141 8.22231 0.4617 -0.528032 7.85239 0.568017 -0.674514 8.54502 
0.4617 -0.528032 7.85239 0.632253 -0.390401 8.0254 0.700307 -0.514706 8.50567 
0.632253 -0.390401 8.0254 0.705883 -0.191345 7.98449 0.805032 -0.356222 8.53964 
0.705883 -0.191345 7.98449 0.708732 0.0156215 7.88167 0.835844 -0.194344 8.46155 
0.826592 0.0490016 8.34362 0.747127 0.252034 8.21048 0.940192 0.220255 8.80597 
0.747127 0.252034 8.21048 0.686795 0.44874 8.31922 0.863738 0.45703 8.84168 
0.686795 0.44874 8.31922 0.555316 0.609206 8.3375 0.750428 0.630327 8.84993 
0.555316 0.609206 8.3375 0.420073 0.708298 8.34015 0.491717 0.864959 8.89325 
0.420073 0.708298 8.34015 0.265326 0.73545 8.17971 0.272608 0.886702 8.67852 
0.265326 0.73545 8.17971 0.0771368 0.769304 8.15928 0.272608 0.886702 8.67852 
0.0771368 0.769304 8.15928 -0.083308 0.761331 8.13079 0.0555328 0.919015 8.66575 
-0.083308 0.761331 8.13079 -0.257075 0.782523 8.33215 -0.122363 0.910567 8.65493 
-0.257075 0.782523 8.33215 -0.42877 0.70139 8.33431 -0.496297 0.837587 8.82606 
-0.42877 0.70139 8.33431 -0.590969 0.574898 8.33531 -0.63794 0.664165 8.6579 
-0.590969 0.574898 8.33531 -0.728078 0.369574 8.30146 -0.811581 0.454254 8.68044 
-0.728078 0.369574 8.30146 -0.818493 0.0924547 8.32599 -0.924445 0.211053 8.74853 
-0.818493 0.0924547 8.32599 -0.811325 -0.14601 8.33994 -0.92358 -0.0270375 8.67031 
-0.811325 -0.14601 8.33994 -0.798141 -0.3255 8.47769 -0.958244 -0.253662 8.88327 
-0.571574 -0.638086 8.44917 -0.390259 -0.775887 8.49518 -0.613962 -0.778151 8.8803 
-0.238795 -0.82794 8.47783 -0.005185 -0.876549 8.5251 -0.207582 -0.963065 8.85091 
0.364909 -0.700141 8.22231 0.568017 -0.674514 8.54502 0.499064 -0.815118 8.77309 
0.835844 -0.194344 8.46155 0.826592 0.0490016 8.34362 1.00239 -0.00519149 8.91094 
0.491717 0.864959 8.89325 0.272608 0.886702 8.67852 0.347121 1.00686 9.08963 
0.272608 0.886702 8.67852 0.0555328 0.919015 8.66575 0.0836088 1.1023 9.19471 
0.0555328 0.919015 8.66575 -0.122363 0.910567 8.65493 0.0836088 1.1023 9.19471 
-0.496297 0.837587 8.82606 -0.63794 0.664165 8.6579 -0.758 0.78192 9.14738 
-0.63794 0.664165 8.6579 -0.811581 0.454254 8.68044 -0.906571 0.613966 9.17113 
-0.924445 0.211053 8.74853 -0.92358 -0.0270375 8.67031 -1.0702 0.151535 9.13037 
-0.92358 -0.0270375 8.67031 -0.958244 -0.253662 8.88327 -1.08083 -0.0866011 9.13712 
-0.958244 -0.253662 8.88327 -0.798141 -0.3255 8.47769 -0.93605 -0.435079 8.99251 
-0.798141 -0.3255 8.47769 -0.731708 -0.481004 8.52138 -0.93605 -0.435079 8.99251 
-0.731708 -0.481004 8.52138 -0.571574 -0.638086 8.44917 -0.792167 -0.653684 8.97398 
-0.613962 -0.778151 8.8803 -0.390259 -0.775887 8.49518 -0.496527 -0.974571 9.16358 
-0.390259 -0.775887 8.49518 -0.238795 -0.82794 8.47783 -0.496527 -0.974571 9.16358 
-0.207582 -0.963065 8.85091 -0.005185 -0.876549 8.5251 -0.102179 -1.08487 9.15643 
-0.005185 -0.876549 8.5251 0.142716 -0.854668 8.49603 0.237537 -1.0722 9.17837 
0.142716 -0.854668 8.49603 0.291959 -0.828798 8.53215 0.387035 -1.01748 9.15714 
0.499064 -0.815118 8.77309 0.568017 -0.674514 8.54502 0.713387 -0.817536 9.14621 
0.568017 -0.674514 8.54502 0.700307 -0.514706 8.50567 0.855409 -0.698297 9.19347 
0.700307 -0.514706 8.50567 0.805032 -0.356222 8.53964 0.911604 -0.447577 8.93656 
0.805032 -0.356222 8.53964 0.835844 -0.194344 8.46155 1.02016 -0.203496 9.01315 
0.835844 -0.194344 8.46155 1.00239 -0.00519149 8.91094 1.02016 -0.203496 9.01315 
1.00239 -0.00519149 8.91094 0.940192 0.220255 8.80597 1.21432 0.17933 9.50161 
0.940192 0.220255 8.80597 0.863738 0.45703 8.84168 1.14654 0.399861 9.47439 
0.863738 0.45703 8.84168 0.750428 0.630327 8.84993 0.901642 0.71139 9.30257 
0.750428 0.630327 8.84993 0.621043 0.758003 8.84612 0.773687 0.850809 9.31017 
0.621043 0.758003 8.84612 0.491717 0.864959 8.89325 0.593947 0.98071 9.29878 
0.491717 0.864959 8.89325 0.347121 1.00686 9.08963 0.447733 1.12902 9.47406 
-0.150415 1.08504 9.17208 -0.30336 0.943632 8.88271 -0.346337 1.17356 9.4944 
-0.30336 0.943632 8.88271 -0.496297 0.837587 8.82606 -0.488975 1.1024 9.45324 
-0.980624 0.479907 9.16144 -0.924445 0.211053 8.74853 -1.15488 0.375623 9.47264 
-1.08083 -0.0866011 9.13712 -0.958244 -0.253662 8.88327 -1.17211 -0.302072 9.46365 
-0.958244 -0.253662 8.88327 -0.93605 -0.435079 8.99251 -1.11457 -0.503156 9.4904 
-0.93605 -0.435079 8.99251 -0.792167 -0.653684 8.97398 -1.01502 -0.704052 9.52344 
-0.792167 -0.653684 8.97398 -0.613962 -0.778151 8.8803 -0.758889 -0.95631 9.49057 
-0.496527 -0.974571 9.16358 -0.207582 -0.963065 8.85091 -0.31252 -1.10796 9.31137 
0.387035 -1.01748 9.15714 0.499064 -0.815118 8.77309 0.592266 -0.978957 9.29021 
0.911604 -0.447577 8.93656 1.02016 -0.203496 9.01315 1.18383 -0.292076 9.48379 
1.02016 -0.203496 9.01315 1.00239 -0.00519149 8.91094 1.15103 -0.0866147 9.31751 
1.15103 -0.0866147 9.31751 1.21432 0.17933 9.50161 1.35546 -0.0745226 9.79269 
1.08298 0.55976 9.48259 0.901642 0.71139 9.30257 1.10395 0.892868 9.93153 
0.901642 0.71139 9.30257 0.773687 0.850809 9.31017 0.909408 0.993988 9.77799 
0.773687 0.850809 9.31017 0.593947 0.98071 9.29878 0.708125 1.16727 9.81084 
0.447733 1.12902 9.47406 0.347121 1.00686 9.08963 0.275413 1.33197 9.80247 
0.347121 1.00686 9.08963 0.0836088 1.1023 9.19471 0.275413 1.33197 9.80247 
0.0836088 1.1023 9.19471 -0.150415 1.08504 9.17208 -0.196624 1.34606 9.80687 
-0.150415 1.08504 9.17208 -0.346337 1.17356 9.4944 -0.196624 1.34606 9.80687 
-0.488975 1.1024 9.45324 -0.616572 0.971198 9.30977 -0.735641 1.14515 9.80612 
-0.616572 0.971198 9.30977 -0.758 0.78192 9.14738 -0.951462 0.979555 9.81266 
-0.758 0.78192 9.14738 -0.906571 0.613966 9.17113 -1.1192 0.773182 9.80673 
-0.906571 0.613966 9.17113 -0.980624 0.479907 9.16144 -1.20848 0.600251 9.78318 
-1.15488 0.375623 9.47264 -1.0702 0.151535 9.13037 -1.26567 0.222346 9.63338 
-1.0702 0.151535 9.13037 -1.08083 -0.0866011 9.13712 -1.28106 -0.0561058 9.62032 
-0.758889 -0.95631 9.49057 -0.496527 -0.974571 9.16358 -0.678406 -1.17072 9.78998 
-0.496527 -0.974571 9.16358 -0.31252 -1.10796 9.31137 -0.496466 -1.25983 9.79396 
-0.31252 -1.10796 9.31137 -0.102179 -1.08487 9.15643 -0.28494 -1.3019 9.74501 
-0.102179 -1.08487 9.15643 0.0758263 -1.09632 9.18167 0.128556 -1.27858 9.62973 
0.0758263 -1.09632 9.18167 0.237537 -1.0722 9.17837 0.128556 -1.27858 9.62973 
0.237537 -1.0722 9.17837 0.387035 -1.01748 9.15714 0.457348 -1.20282 9.62644 
0.387035 -1.01748 9.15714 0.592266 -0.978957 9.29021 0.457348 -1.20282 9.62644 
0.592266 -0.978957 9.29021 0.713387 -0.817536 9.14621 0.770263 -1.0126 9.6015 
0.713387 -0.817536 9.14621 0.855409 -0.698297 9.19347 1.03019 -0.87809 9.79529 
0.855409 -0.698297 9.19347 1.08709 -0.513349 9.43656 1.17429 -0.693194 9.81483 
1.18383 -0.292076 9.48379 1.15103 -0.0866147 9.31751 1.35546 -0.0745226 9.79269 
1.35546 -0.0745226 9.79269 1.21432 0.17933 9.50161 1.41396 0.150478 9.93491 
1.21432 0.17933 9.50161 1.14654 0.399861 9.47439 1.37923 0.346921 9.93427 
1.14654 0.399861 9.47439 1.08298 0.55976 9.48259 1.36383 0.588304 10.0667 
1.08298 0.55976 9.48259 1.10395 0.892868 9.93153 1.26486 0.805545 10.0994 
0.708125 1.16727 9.81084 0.447733 1.12902 9.47406 0.506719 1.33289 9.94162 
0.447733 1.12902 9.47406 0.275413 1.33197 9.80247 0.506719 1.33289 9.94162 
-0.196624 1.34606 9.80687 -0.346337 1.17356 9.4944 -0.461292 1.42871 10.1009 
-0.346337 1.17356 9.4944 -0.488975 1.1024 9.45324 -0.582966 1.30096 9.94234 
-1.20848 0.600251 9.78318 -1.15488 0.375623 9.47264 -1.365 0.400862 9.93099 
-1.15488 0.375623 9.47264 -1.26567 0.222346 9.63338 -1.365 0.400862 9.93099 
-1.26567 0.222346 9.63338 -1.28106 -0.0561058 9.62032 -1.47648 0.169861 10.0709 
-1.28106 -0.0561058 9.62032 -1.17211 -0.302072 9.46365 -1.39021 -0.272317 9.92172 
-1.17211 -0.302072 9.46365 -1.11457 -0.503156 9.4904 -1.34102 -0.476948 9.93949 
-1.11457 -0.503156 9.4904 -1.01502 -0.704052 9.52344 -1.30509 -0.698268 10.0565 
-1.01502 -0.704052 9.52344 -0.899895 -0.845624 9.52172 -1.17314 -0.90569 10.0633 
-0.899895 -0.845624 9.52172 -0.758889 -0.95631 9.49057 -0.997177 -1.1323 10.112 
-0.0967045 -1.27223 9.61437 0.128556 -1.27858 9.62973 0.109423 -1.50207 10.1103 
0.128556 -1.27858 9.62973 0.457348 -1.20282 9.62644 0.313957 -1.47267 10.1111 
0.457348 -1.20282 9.62644 0.770263 -1.0126 9.6015 0.712596 -1.23208 9.93949 
0.770263 -1.0126 9.6015 1.03019 -0.87809 9.79529 0.918172 -1.08416 9.92742 
1.08709 -0.513349 9.43656 1.18383 -0.292076 9.48379 1.48339 -0.316762 10.1323 
1.35546 -0.0745226 9.79269 1.41396 0.150478 9.93491 1.57196 -0.0288486 10.2332 
1.41396 0.150478 9.93491 1.37923 0.346921 9.93427 1.63739 0.244643 10.3972 
1.10395 0.892868 9.93153 0.909408 0.993988 9.77799 1.05816 1.16583 10.2413 
0.909408 0.993988 9.77799 0.708125 1.16727 9.81084 0.883011 1.40424 10.4037 
0.708125 1.16727 9.81084 0.506719 1.33289 9.94162 0.628273 1.52361 10.3823 
0.506719 1.33289 9.94162 0.275413 1.33197 9.80247 0.383155 1.52787 10.243 
0.275413 1.33197 9.80247 0.0183677 1.36881 9.82479 0.139297 1.57348 10.2487 
0.0183677 1.36881 9.82479 -0.196624 1.34606 9.80687 -0.202379 1.55583 10.2237 
-0.196624 1.34606 9.80687 -0.461292 1.42871 10.1009 -0.202379 1.55583 10.2237 
-0.582966 1.30096 9.94234 -0.735641 1.14515 9.80612 -0.732712 1.46289 10.3628 
-0.735641 1.14515 9.80612 -0.951462 0.979555 9.81266 -0.979843 1.32619 10.3857 
-0.951462 0.979555 9.81266 -1.1192 0.773182 9.80673 -1.16703 1.06044 10.2404 
-1.1192 0.773182 9.80673 -1.20848 0.600251 9.78318 -1.3997 0.886693 10.4044 
-1.20848 0.600251 9.78318 -1.365 0.400862 9.93099 -1.51814 0.674967 10.4098 
-1.49081 -0.0272136 10.0801 -1.39021 -0.272317 9.92172 -1.63963 -0.245382 10.4003 
-1.39021 -0.272317 9.92172 -1.34102 -0.476948 9.93949 -1.56808 -0.530831 10.3947 
-0.997177 -1.1323 10.112 -0.678406 -1.17072 9.78998 -0.842351 -1.33072 10.2424 
-0.678406 -1.17072 9.78998 -0.496466 -1.25983 9.79396 -0.63745 -1.43938 10.2411 
-0.496466 -1.25983 9.79396 -0.28494 -1.3019 9.74501 -0.368475 -1.54681 10.2662 
0.535952 -1.40851 10.1121 0.712596 -1.23208 9.93949 0.764091 -1.47075 10.4014 
0.712596 -1.23208 9.93949 0.918172 -1.08416 9.92742 0.970535 -1.33127 10.3817 
0.918172 -1.08416 9.92742 1.03019 -0.87809 9.79529 1.1977 -1.14267 10.3947 
1.03019 -0.87809 9.79529 1.17429 -0.693194 9.81483 1.36972 -0.92098 10.3902 
1.17429 -0.693194 9.81483 1.39409 -0.512844 10.0708 1.49937 -0.71078 10.4028 
1.36383 0.588304 10.0667 1.26486 0.805545 10.0994 1.51792 0.855335 10.5489 
1.26486 0.805545 10.0994 1.10395 0.892868 9.93153 1.32472 1.13092 10.5446 
1.10395 0.892868 9.93153 1.05816 1.16583 10.2413 1.32472 1.13092 10.5446 
1.05816 1.16583 10.2413 0.883011 1.40424 10.4037 1.08936 1.34945 10.5362 
0.628273 1.52361 10.3823 0.383155 1.52787 10.243 0.4535 1.76749 10.6976 
0.383155 1.52787 10.243 0.139297 1.57348 10.2487 0.201234 1.81078 10.6913 
0.139297 1.57348 10.2487 -0.202379 1.55583 10.2237 -0.031127 1.82177 10.6943 
-0.202379 1.55583 10.2237 -0.461292 1.42871 10.1009 -0.558909 1.74432 10.7058 
-0.979843 1.32619 10.3857 -1.16703 1.06044 10.2404 -1.27882 1.17556 10.5366 
-1.62775 0.434753 10.4501 -1.47648 0.169861 10.0709 -1.72536 0.20117 10.5419 
-1.47648 0.169861 10.0709 -1.49081 -0.0272136 10.0801 -1.73665 -0.0436865 10.541 
-1.49081 -0.0272136 10.0801 -1.63963 -0.245382 10.4003 -1.73665 -0.0436865 10.541 
-1.30509 -0.698268 10.0565 -1.17314 -0.90569 10.0633 -1.41698 -1.10606 10.6514 
-1.17314 -0.90569 10.0633 -0.997177 -1.1323 10.112 -1.26191 -1.3075 10.6869 
-0.997177 -1.1323 10.112 -0.842351 -1.33072 10.2424 -1.09852 -1.46286 10.7099 
-0.842351 -1.33072 10.2424 -0.63745 -1.43938 10.2411 -0.763252 -1.66605 10.7113 
-0.63745 -1.43938 10.2411 -0.368475 -1.54681 10.2662 -0.483545 -1.76501 10.7036 
-0.368475 -1.54681 10.2662 -0.0792005 -1.49712 10.0976 -0.200012 -1.79977 10.6774 
-0.0792005 -1.49712 10.0976 0.109423 -1.50207 10.1103 0.0331969 -1.7987 10.6537 
0.109423 -1.50207 10.1103 0.313957 -1.47267 10.1111 0.322822 -1.7697 10.6519 
0.313957 -1.47267 10.1111 0.535952 -1.40851 10.1121 0.612192 -1.72149 10.7016 
1.49937 -0.71078 10.4028 1.39409 -0.512844 10.0708 1.73349 -0.565427 10.6967 
1.39409 -0.512844 10.0708 1.48339 -0.316762 10.1323 1.80218 -0.355536 10.7168 
1.48339 -0.316762 10.1323 1.57196 -0.0288486 10.2332 1.83476 -0.0352113 10.7086 
1.83476 -0.0352113 10.7086 1.63739 0.244643 10.3972 1.878 0.337848 10.8304 
1.63739 0.244643 10.3972 1.5818 0.542934 10.4232 1.878 0.337848 10.8304 
1.5818 0.542934 10.4232 1.51792 0.855335 10.5489 1.68613 0.895804 10.8348 
1.51792 0.855335 10.5489 1.32472 1.13092 10.5446 1.55789 1.19932 10.9257 
1.32472 1.13092 10.5446 1.08936 1.34945 10.5362 1.29885 1.50688 10.9641 
1.08936 1.34945 10.5362 0.883011 1.40424 10.4037 1.03071 1.73206 11.0097 
0.883011 1.40424 10.4037 0.628273 1.52361 10.3823 0.774525 1.85365 10.9987 
-0.558909 1.74432 10.7058 -0.732712 1.46289 10.3628 -0.85965 1.70748 10.8397 
-0.732712 1.46289 10.3628 -0.979843 1.32619 10.3857 -1.10504 1.56184 10.8402 
-0.979843 1.32619 10.3857 -1.27882 1.17556 10.5366 -1.34212 1.46625 10.9674 
-1.27882 1.17556 10.5366 -1.3997 0.886693 10.4044 -1.56009 1.24554 10.976 
-1.3997 0.886693 10.4044 -1.51814 0.674967 10.4098 -1.74377 0.963094 10.9738 
-1.51814 0.674967 10.4098 -1.62775 0.434753 10.4501 -1.93555 0.532415 10.9959 
-1.62775 0.434753 10.4501 -1.72536 0.20117 10.5419 -1.97877 0.302654 10.9893 
-1.72536 0.20117 10.5419 -1.73665 -0.0436865 10.541 -1.98292 0.085091 10.9614 
-1.73665 -0.0436865 10.541 -1.63963 -0.245382 10.4003 -1.89515 -0.180636 10.8248 
-1.63963 -0.245382 10.4003 -1.56808 -0.530831 10.3947 -1.85497 -0.462171 10.8416 
-1.56808 -0.530831 10.3947 -1.51357 -0.851834 10.541 -1.7575 -0.745572 10.8323 
-1.51357 -0.851834 10.541 -1.41698 -1.10606 10.6514 -1.70853 -1.0705 11.0101 
0.612192 -1.72149 10.7016 0.764091 -1.47075 10.4014 0.898587 -1.81773 11.028 
0.764091 -1.47075 10.4014 0.970535 -1.33127 10.3817 0.898587 -1.81773 11.028 
0.970535 -1.33127 10.3817 1.1977 -1.14267 10.3947 1.33949 -1.35505 10.826 
1.1977 -1.14267 10.3947 1.36972 -0.92098 10.3902 1.54919 -1.11841 10.8383 
1.36972 -0.92098 10.3902 1.49937 -0.71078 10.4028 1.70586 -0.842988 10.8216 
1.83476 -0.0352113 10.7086 1.878 0.337848 10.8304 2.1572 0.343853 11.2634 
1.878 0.337848 10.8304 1.79711 0.652847 10.8407 2.05255 0.779304 11.2774 
1.79711 0.652847 10.8407 1.68613 0.895804 10.8348 2.05255 0.779304 11.2774 
1.68613 0.895804 10.8348 1.55789 1.19932 10.9257 1.80458 1.26861 11.2975 
0.774525 1.85365 10.9987 0.4535 1.76749 10.6976 0.536601 2.09813 11.2381 
0.4535 1.76749 10.6976 0.201234 1.81078 10.6913 0.225644 2.15548 11.2388 
0.201234 1.81078 10.6913 -0.031127 1.82177 10.6943 -0.0389473 2.09711 11.1341 
-0.031127 1.82177 10.6943 -0.244881 1.80334 10.6888 -0.284737 2.0717 11.1225 
-0.244881 1.80334 10.6888 -0.558909 1.74432 10.7058 -0.593607 2.00895 11.1268 
-0.558909 1.74432 10.7058 -0.85965 1.70748 10.8397 -0.901498 1.96005 11.2271 
-0.85965 1.70748 10.8397 -1.10504 1.56184 10.8402 -1.25844 1.80334 11.282 
-1.89515 -0.180636 10.8248 -1.85497 -0.462171 10.8416 -2.08467 -0.308837 11.1439 
-1.85497 -0.462171 10.8416 -1.7575 -0.745572 10.8323 -2.07186 -0.680151 11.2589 
-1.70853 -1.0705 11.0101 -1.41698 -1.10606 10.6514 -1.65881 -1.3925 11.2369 
-1.41698 -1.10606 10.6514 -1.26191 -1.3075 10.6869 -1.65881 -1.3925 11.2369 
-1.26191 -1.3075 10.6869 -1.09852 -1.46286 10.7099 -1.44301 -1.62568 11.2505 
-1.09852 -1.46286 10.7099 -0.956129 -1.56568 10.7148 -1.07674 -1.88943 11.2529 
-0.956129 -1.56568 10.7148 -0.763252 -1.66605 10.7113 -1.07674 -1.88943 11.2529 
-0.763252 -1.66605 10.7113 -0.483545 -1.76501 10.7036 -0.646272 -2.07136 11.2465 
-0.483545 -1.76501 10.7036 -0.200012 -1.79977 10.6774 -0.373201 -2.05617 11.1212 
-0.200012 -1.79977 10.6774 0.0331969 -1.7987 10.6537 -0.126189 -2.09091 11.1305 
0.0331969 -1.7987 10.6537 0.322822 -1.7697 10.6519 0.123141 -2.08985 11.1273 
0.322822 -1.7697 10.6519 0.612192 -1.72149 10.7016 0.664635 -1.98635 11.1299 
1.13013 -1.62294 10.9506 1.33949 -1.35505 10.826 1.38751 -1.67674 11.2528 
1.33949 -1.35505 10.826 1.54919 -1.11841 10.8383 1.80495 -1.2474 11.2751 
1.54919 -1.11841 10.8383 1.70586 -0.842988 10.8216 1.80495 -1.2474 11.2751 
1.70586 -0.842988 10.8216 1.73349 -0.565427 10.6967 2.07465 -0.669261 11.2618 
1.73349 -0.565427 10.6967 1.80218 -0.355536 10.7168 2.11855 -0.46601 11.2451 
1.80218 -0.355536 10.7168 1.83476 -0.0352113 10.7086 2.14894 -0.262101 11.2397 
1.80458 1.26861 11.2975 1.55789 1.19932 10.9257 1.70325 1.54278 11.4255 
1.55789 1.19932 10.9257 1.29885 1.50688 10.9641 1.70325 1.54278 11.4255 
1.29885 1.50688 10.9641 1.03071 1.73206 11.0097 1.23908 1.92549 11.416 
1.03071 1.73206 11.0097 0.774525 1.85365 10.9987 1.01047 2.05272 11.412 
0.225644 2.15548 11.2388 -0.0389473 2.09711 11.1341 -0.0410984 2.38233 11.5472 
-0.0389473 2.09711 11.1341 -0.284737 2.0717 11.1225 -0.256604 2.36646 11.5447 
-0.284737 2.0717 11.1225 -0.593607 2.00895 11.1268 -0.50892 2.23397 11.4164 
-1.25844 1.80334 11.282 -1.34212 1.46625 10.9674 -1.60398 1.64583 11.4256 
-1.34212 1.46625 10.9674 -1.56009 1.24554 10.976 -1.60398 1.64583 11.4256 
-1.56009 1.24554 10.976 -1.74377 0.963094 10.9738 -1.96947 1.16793 11.416 
-1.74377 0.963094 10.9738 -1.86731 0.759678 11.0115 -2.08826 0.93483 11.412 
-1.86731 0.759678 11.0115 -1.93555 0.532415 10.9959 -2.19837 0.626598 11.4074 
-1.93555 0.532415 10.9959 -1.97877 0.302654 10.9893 -2.26575 0.334248 11.4161 
-1.97877 0.302654 10.9893 -1.98292 0.085091 10.9614 -2.283 0.0512383 11.4044 
-1.98292 0.085091 10.9614 -2.08467 -0.308837 11.1439 -2.37001 -0.228837 11.545 
-1.98631 -0.938039 11.2847 -1.70853 -1.0705 11.0101 -1.94941 -1.20112 11.4139 
-0.646272 -2.07136 11.2465 -0.373201 -2.05617 11.1212 -0.417705 -2.35884 11.5627 
-0.373201 -2.05617 11.1212 -0.126189 -2.09091 11.1305 -0.140436 -2.39281 11.5671 
-0.126189 -2.09091 11.1305 0.123141 -2.08985 11.1273 0.137264 -2.40205 11.5776 
0.123141 -2.08985 11.1273 0.414171 -2.05012 11.1233 0.375284 -2.35916 11.5575 
0.414171 -2.05012 11.1233 0.664635 -1.98635 11.1299 0.613211 -2.29952 11.5422 
0.664635 -1.98635 11.1299 0.898587 -1.81773 11.028 0.868301 -2.21613 11.5452 
0.898587 -1.81773 11.028 1.13013 -1.62294 10.9506 1.29704 -2.01207 11.5632 
2.15778 -0.0095482 11.2277 2.1572 0.343853 11.2634 2.54704 0.301377 11.7888 
2.1572 0.343853 11.2634 2.05255 0.779304 11.2774 2.40514 0.633085 11.6823 
2.05255 0.779304 11.2774 1.91463 1.0725 11.2816 2.17066 1.21976 11.6889 
1.91463 1.0725 11.2816 1.80458 1.26861 11.2975 2.11053 1.47464 11.801 
1.80458 1.26861 11.2975 1.70325 1.54278 11.4255 1.96204 1.6843 11.816 
1.70325 1.54278 11.4255 1.4537 1.76296 11.4076 1.79986 1.8651 11.8222 
1.4537 1.76296 11.4076 1.23908 1.92549 11.416 1.54768 2.06726 11.8096 
1.23908 1.92549 11.416 1.01047 2.05272 11.412 1.2982 2.24621 11.8268 
1.01047 2.05272 11.412 0.760824 2.28158 11.5775 1.05245 2.383 11.8379 
0.536601 2.09813 11.2381 0.225644 2.15548 11.2388 0.542256 2.52243 11.8088 
-0.256604 2.36646 11.5447 -0.50892 2.23397 11.4164 -0.541318 2.54482 11.8345 
-0.7372 2.28526 11.572 -0.901498 1.96005 11.2271 -1.03174 2.26707 11.6876 
-0.901498 1.96005 11.2271 -1.25844 1.80334 11.282 -1.29822 2.12467 11.6889 
-1.25844 1.80334 11.282 -1.60398 1.64583 11.4256 -1.82226 1.85868 11.8354 
-1.60398 1.64583 11.4256 -1.81483 1.38836 11.4075 -1.85617 1.66044 11.6887 
-1.81483 1.38836 11.4075 -1.96947 1.16793 11.416 -2.12395 1.43114 11.7809 
-1.96947 1.16793 11.416 -2.08826 0.93483 11.412 -2.33224 1.13215 11.8222 
-2.08826 0.93483 11.412 -2.19837 0.626598 11.4074 -2.46596 0.798712 11.8223 
-2.19837 0.626598 11.4074 -2.26575 0.334248 11.4161 -2.5656 0.37069 11.8181 
-2.26575 0.334248 11.4161 -2.283 0.0512383 11.4044 -2.5656 0.37069 11.8181 
-2.33277 -0.459466 11.5402 -2.07186 -0.680151 11.2589 -2.38912 -0.704791 11.6895 
-2.07186 -0.680151 11.2589 -1.98631 -0.938039 11.2847 -2.26908 -1.0068 11.6776 
-1.98631 -0.938039 11.2847 -1.94941 -1.20112 11.4139 -2.14034 -1.27174 11.6875 
-1.94941 -1.20112 11.4139 -1.65881 -1.3925 11.2369 -1.92367 -1.57855 11.6817 
-1.65881 -1.3925 11.2369 -1.44301 -1.62568 11.2505 -1.64267 -1.87096 11.6859 
-1.44301 -1.62568 11.2505 -1.2769 -1.78624 11.2839 -1.40201 -2.05989 11.6904 
-1.2769 -1.78624 11.2839 -1.07674 -1.88943 11.2529 -1.40201 -2.05989 11.6904 
-1.07674 -1.88943 11.2529 -0.844905 -2.01009 11.2622 -1.13347 -2.21168 11.6808 
-0.844905 -2.01009 11.2622 -0.646272 -2.07136 11.2465 -0.762579 -2.36015 11.6713 
-0.646272 -2.07136 11.2465 -0.417705 -2.35884 11.5627 -0.762579 -2.36015 11.6713 
1.29704 -2.01207 11.5632 1.38751 -1.67674 11.2528 1.65768 -2.00252 11.8316 
1.38751 -1.67674 11.2528 1.59668 -1.49934 11.2753 1.86586 -1.66587 11.7007 
1.59668 -1.49934 11.2753 1.80495 -1.2474 11.2751 1.86586 -1.66587 11.7007 
1.80495 -1.2474 11.2751 2.00231 -0.919994 11.2934 2.28605 -1.02051 11.7011 
2.00231 -0.919994 11.2934 2.07465 -0.669261 11.2618 2.28605 -1.02051 11.7011 
2.07465 -0.669261 11.2618 2.11855 -0.46601 11.2451 2.40144 -0.657787 11.6889 
2.11855 -0.46601 11.2451 2.14894 -0.262101 11.2397 2.45297 -0.371606 11.6762 
2.14894 -0.262101 11.2397 2.15778 -0.0095482 11.2277 2.48504 -0.021826 11.6792 
2.54704 0.301377 11.7888 2.40514 0.633085 11.6823 2.60822 0.671584 11.9433 
2.40514 0.633085 11.6823 2.29039 0.967077 11.6822 2.60135 1.09473 12.103 
2.29039 0.967077 11.6822 2.17066 1.21976 11.6889 2.45893 1.38961 12.1076 
1.05245 2.383 11.8379 0.760824 2.28158 11.5775 0.914913 2.66864 12.1055 
0.243869 2.58161 11.827 -0.0410984 2.38233 11.5472 0.0190684 2.70482 11.9606 
-0.0410984 2.38233 11.5472 -0.256604 2.36646 11.5447 -0.296806 2.68522 11.9576 
-0.541318 2.54482 11.8345 -0.7372 2.28526 11.572 -0.947421 2.63826 12.0816 
-0.7372 2.28526 11.572 -1.03174 2.26707 11.6876 -0.947421 2.63826 12.0816 
-1.03174 2.26707 11.6876 -1.29822 2.12467 11.6889 -1.2923 2.48512 12.0781 
-1.29822 2.12467 11.6889 -1.60079 2.0302 11.8149 -1.57154 2.32416 12.0854 
-1.85617 1.66044 11.6887 -2.12395 1.43114 11.7809 -2.23201 1.73043 12.1063 
-2.60126 0.00241035 11.8346 -2.37001 -0.228837 11.545 -2.79626 -0.263039 12.0886 
-2.37001 -0.228837 11.545 -2.33277 -0.459466 11.5402 -2.7262 -0.61457 12.0719 
-2.33277 -0.459466 11.5402 -2.38912 -0.704791 11.6895 -2.7262 -0.61457 12.0719 
-2.38912 -0.704791 11.6895 -2.26908 -1.0068 11.6776 -2.64042 -0.929815 12.0778 
-2.26908 -1.0068 11.6776 -2.14034 -1.27174 11.6875 -2.43419 -1.4482 12.1164 
-2.14034 -1.27174 11.6875 -1.92367 -1.57855 11.6817 -2.2206 -1.72237 12.0889 
-1.92367 -1.57855 11.6817 -1.64267 -1.87096 11.6859 -1.99036 -1.95936 12.0703 
-1.64267 -1.87096 11.6859 -1.40201 -2.05989 11.6904 -1.59048 -2.33362 12.1073 
-1.40201 -2.05989 11.6904 -1.13347 -2.21168 11.6808 -1.30514 -2.50567 12.1071 
-1.13347 -2.21168 11.6808 -0.762579 -2.36015 11.6713 -0.888208 -2.55729 11.9602 
-0.762579 -2.36015 11.6713 -0.417705 -2.35884 11.5627 -0.560116 -2.74478 12.0814 
-0.417705 -2.35884 11.5627 -0.140436 -2.39281 11.5671 -0.270653 -2.7875 12.0818 
-0.140436 -2.39281 11.5671 0.137264 -2.40205 11.5776 0.0422456 -2.80388 12.0828 
0.137264 -2.40205 11.5776 0.375284 -2.35916 11.5575 0.42093 -2.75457 12.0609 
0.375284 -2.35916 11.5575 0.613211 -2.29952 11.5422 0.68265 -2.6014 11.9395 
0.613211 -2.29952 11.5422 0.868301 -2.21613 11.5452 1.03431 -2.60909 12.0865 
0.868301 -2.21613 11.5452 1.09168 -2.12688 11.5575 1.23708 -2.40279 11.9576 
1.09168 -2.12688 11.5575 1.29704 -2.01207 11.5632 1.52339 -2.36196 12.0932 
1.65768 -2.00252 11.8316 1.86586 -1.66587 11.7007 1.96847 -1.85029 11.9576 
1.86586 -1.66587 11.7007 2.18668 -1.36615 11.8042 2.1401 -1.65006 11.9576 
2.28605 -1.02051 11.7011 2.40144 -0.657787 11.6889 2.67384 -0.883419 12.0964 
2.40144 -0.657787 11.6889 2.45297 -0.371606 11.6762 2.63723 -0.586101 11.9576 
2.45297 -0.371606 11.6762 2.48504 -0.021826 11.6792 2.69079 -0.282773 11.9607 
2.54704 0.301377 11.7888 2.60822 0.671584 11.9433 2.85611 0.557954 12.204 
2.45893 1.38961 12.1076 2.11053 1.47464 11.801 2.3457 1.74546 12.2165 
2.11053 1.47464 11.801 1.96204 1.6843 11.816 2.3457 1.74546 12.2165 
1.96204 1.6843 11.816 1.79986 1.8651 11.8222 2.05615 2.06961 12.2114 
1.79986 1.8651 11.8222 1.54768 2.06726 11.8096 1.87149 2.36664 12.3288 
1.54768 2.06726 11.8096 1.2982 2.24621 11.8268 1.57796 2.58759 12.3407 
1.2982 2.24621 11.8268 1.05245 2.383 11.8379 1.21112 2.66288 12.2213 
0.914913 2.66864 12.1055 0.542256 2.52243 11.8088 0.638381 2.95637 12.3337 
0.542256 2.52243 11.8088 0.243869 2.58161 11.827 0.227364 3.02949 12.348 
0.243869 2.58161 11.827 0.0190684 2.70482 11.9606 0.227364 3.02949 12.348 
0.0190684 2.70482 11.9606 -0.296806 2.68522 11.9576 -0.186581 3.04054 12.3593 
-0.296806 2.68522 11.9576 -0.541318 2.54482 11.8345 -0.476989 2.98874 12.3403 
-0.541318 2.54482 11.8345 -0.947421 2.63826 12.0816 -0.803268 2.80242 12.2097 
-1.57154 2.32416 12.0854 -1.60079 2.0302 11.8149 -1.95348 2.34837 12.3689 
-1.60079 2.0302 11.8149 -1.82226 1.85868 11.8354 -2.07988 2.05282 12.2189 
-2.23201 1.73043 12.1063 -2.12395 1.43114 11.7809 -2.53634 1.45068 12.2152 
-2.12395 1.43114 11.7809 -2.33224 1.13215 11.8222 -2.53634 1.45068 12.2152 
-2.33224 1.13215 11.8222 -2.46596 0.798712 11.8223 -2.79837 1.15422 12.3406 
-2.46596 0.798712 11.8223 -2.5656 0.37069 11.8181 -2.82667 0.735944 12.2144 
-2.5656 0.37069 11.8181 -2.60126 0.00241035 11.8346 -2.92233 -0.00134519 12.2189 
-1.30514 -2.50567 12.1071 -0.888208 -2.55729 11.9602 -0.983732 -2.87357 12.3477 
1.03431 -2.60909 12.0865 1.23708 -2.40279 11.9576 1.39067 -2.71376 12.3629 
1.52339 -2.36196 12.0932 1.65768 -2.00252 11.8316 1.92827 -2.34288 12.3451 
1.65768 -2.00252 11.8316 1.96847 -1.85029 11.9576 2.14987 -2.12793 12.3374 
1.96847 -1.85029 11.9576 2.1401 -1.65006 11.9576 2.36753 -1.89493 12.3435 
2.1401 -1.65006 11.9576 2.18668 -1.36615 11.8042 2.55145 -1.60849 12.3268 
2.67384 -0.883419 12.0964 2.63723 -0.586101 11.9576 2.97851 -0.653651 12.3634 
2.63723 -0.586101 11.9576 2.69079 -0.282773 11.9607 3.03569 -0.361274 12.3717 
2.69079 -0.282773 11.9607 2.77915 0.0849325 12.051 3.05912 0.00257363 12.3719 
2.77915 0.0849325 12.051 2.85611 0.557954 12.204 3.25708 0.399316 12.6111 
2.85611 0.557954 12.204 2.79812 0.841829 12.2195 3.18126 0.788793 12.6037 
2.79812 0.841829 12.2195 2.60135 1.09473 12.103 3.05238 1.14679 12.5902 
2.60135 1.09473 12.103 2.45893 1.38961 12.1076 2.88085 1.5029 12.577 
2.45893 1.38961 12.1076 2.3457 1.74546 12.2165 2.71922 1.78408 12.5815 
2.3457 1.74546 12.2165 2.05615 2.06961 12.2114 2.23273 2.21241 12.4602 
1.57796 2.58759 12.3407 1.21112 2.66288 12.2213 1.35714 2.9991 12.6216 
1.21112 2.66288 12.2213 0.914913 2.66864 12.1055 1.05005 3.11008 12.6115 
-0.476989 2.98874 12.3403 -0.803268 2.80242 12.2097 -0.849513 3.0347 12.4702 
-0.803268 2.80242 12.2097 -0.947421 2.63826 12.0816 -1.28832 3.01466 12.6068 
-0.947421 2.63826 12.0816 -1.2923 2.48512 12.0781 -1.45131 2.79499 12.4677 
-1.2923 2.48512 12.0781 -1.57154 2.32416 12.0854 -1.77312 2.6088 12.4749 
-1.95348 2.34837 12.3689 -2.07988 2.05282 12.2189 -2.33425 2.3038 12.6086 
-2.07988 2.05282 12.2189 -2.23201 1.73043 12.1063 -2.46385 2.11428 12.5756 
-2.23201 1.73043 12.1063 -2.53634 1.45068 12.2152 -2.59223 1.78585 12.4662 
-2.79837 1.15422 12.3406 -2.82667 0.735944 12.2144 -3.04713 0.809873 12.4696 
-2.98672 0.345956 12.3155 -2.92233 -0.00134519 12.2189 -3.15495 -0.0783673 12.4744 
-2.92233 -0.00134519 12.2189 -2.79626 -0.263039 12.0886 -3.15495 -0.0783673 12.4744 
-2.79626 -0.263039 12.0886 -2.7262 -0.61457 12.0719 -3.11811 -0.460242 12.4725 
-2.7262 -0.61457 12.0719 -2.64042 -0.929815 12.0778 -2.97606 -1.04731 12.4756 
-2.64042 -0.929815 12.0778 -2.54979 -1.19551 12.0971 -2.81969 -1.40477 12.468 
-2.54979 -1.19551 12.0971 -2.43419 -1.4482 12.1164 -2.81969 -1.40477 12.468 
-2.43419 -1.4482 12.1164 -2.2206 -1.72237 12.0889 -2.62793 -1.74023 12.4725 
-2.2206 -1.72237 12.0889 -1.99036 -1.95936 12.0703 -2.2415 -2.21797 12.473 
-1.99036 -1.95936 12.0703 -1.80169 -2.16936 12.1019 -1.95375 -2.47123 12.4682 
-1.80169 -2.16936 12.1019 -1.59048 -2.33362 12.1073 -1.95375 -2.47123 12.4682 
-1.59048 -2.33362 12.1073 -1.30514 -2.50567 12.1071 -1.6408 -2.69113 12.4725 
-0.983732 -2.87357 12.3477 -0.560116 -2.74478 12.0814 -0.676332 -3.20254 12.6011 
-0.560116 -2.74478 12.0814 -0.270653 -2.7875 12.0818 -0.357767 -3.25377 12.6019 
-0.270653 -2.7875 12.0818 0.0422456 -2.80388 12.0828 -0.115102 -3.14948 12.4732 
0.0422456 -2.80388 12.0828 0.42093 -2.75457 12.0609 0.204883 -3.14278 12.4696 
0.844256 -2.90377 12.3346 1.03431 -2.60909 12.0865 1.20972 -3.0416 12.6027 
1.39067 -2.71376 12.3629 1.52339 -2.36196 12.0932 1.77582 -2.73755 12.5911 
2.55145 -1.60849 12.3268 2.53907 -1.19393 12.0839 2.85788 -1.34081 12.4753 
2.53907 -1.19393 12.0839 2.67384 -0.883419 12.0964 2.99563 -0.989946 12.4756 
2.23273 2.21241 12.4602 1.87149 2.36664 12.3288 2.17988 2.73835 12.8275 
1.87149 2.36664 12.3288 1.57796 2.58759 12.3407 1.77174 2.88719 12.7126 
1.05005 3.11008 12.6115 0.638381 2.95637 12.3337 0.711496 3.43956 12.8374 
0.638381 2.95637 12.3337 0.227364 3.02949 12.348 0.302272 3.46454 12.8064 
0.227364 3.02949 12.348 -0.186581 3.04054 12.3593 -0.0343354 3.48135 12.8113 
-0.186581 3.04054 12.3593 -0.476989 2.98874 12.3403 -0.393158 3.44695 12.7968 
-0.476989 2.98874 12.3403 -0.849513 3.0347 12.4702 -0.698049 3.31736 12.7181 
-0.849513 3.0347 12.4702 -1.28832 3.01466 12.6068 -1.11878 3.33531 12.8429 
-1.45131 2.79499 12.4677 -1.77312 2.6088 12.4749 -1.94385 2.90922 12.8268 
-1.77312 2.6088 12.4749 -1.95348 2.34837 12.3689 -2.12269 2.62966 12.7056 
-2.46385 2.11428 12.5756 -2.59223 1.78585 12.4662 -2.78195 1.91572 12.7036 
-2.59223 1.78585 12.4662 -2.78793 1.47552 12.4749 -3.11625 1.63473 12.8466 
-2.78793 1.47552 12.4749 -2.79837 1.15422 12.3406 -3.2816 1.26134 12.8404 
-2.79837 1.15422 12.3406 -3.04713 0.809873 12.4696 -3.2816 1.26134 12.8404 
-3.04713 0.809873 12.4696 -2.98672 0.345956 12.3155 -3.36128 0.417637 12.7131 
-2.98672 0.345956 12.3155 -3.15495 -0.0783673 12.4744 -3.3887 0.0825427 12.7188 
-3.15495 -0.0783673 12.4744 -3.11811 -0.460242 12.4725 -3.47931 -0.291205 12.818 
-3.11811 -0.460242 12.4725 -3.06103 -0.761505 12.4749 -3.41973 -0.784142 12.8332 
-3.06103 -0.761505 12.4749 -2.97606 -1.04731 12.4756 -3.30583 -1.18031 12.8383 
-2.97606 -1.04731 12.4756 -2.81969 -1.40477 12.468 -3.16326 -1.58095 12.8612 
-2.81969 -1.40477 12.468 -2.62793 -1.74023 12.4725 -2.92977 -1.94498 12.8439 
-2.62793 -1.74023 12.4725 -2.44837 -1.98878 12.4749 -2.65137 -2.29049 12.8288 
-2.44837 -1.98878 12.4749 -2.2415 -2.21797 12.473 -2.65137 -2.29049 12.8288 
-2.2415 -2.21797 12.473 -1.95375 -2.47123 12.4682 -2.24157 -2.5401 12.7148 
-1.95375 -2.47123 12.4682 -1.6408 -2.69113 12.4725 -1.85606 -2.82005 12.7022 
-1.6408 -2.69113 12.4725 -1.37272 -2.83996 12.4749 -1.493 -3.04525 12.7191 
-1.37272 -2.83996 12.4749 -0.983732 -2.87357 12.3477 -1.0989 -3.20119 12.7098 
-0.357767 -3.25377 12.6019 -0.115102 -3.14948 12.4732 0.028769 -3.51367 12.8385 
-0.115102 -3.14948 12.4732 0.204883 -3.14278 12.4696 0.028769 -3.51367 12.8385 
0.204883 -3.14278 12.4696 0.573846 -3.10169 12.4749 0.4535 -3.35968 12.7172 
0.573846 -3.10169 12.4749 0.844256 -2.90377 12.3346 0.861201 -3.35889 12.7949 
1.20972 -3.0416 12.6027 1.39067 -2.71376 12.3629 1.55123 -3.01426 12.7181 
1.77582 -2.73755 12.5911 1.92827 -2.34288 12.3451 2.15576 -2.60948 12.7102 
1.92827 -2.34288 12.3451 2.14987 -2.12793 12.3374 2.47102 -2.32196 12.7179 
2.14987 -2.12793 12.3374 2.36753 -1.89493 12.3435 2.47102 -2.32196 12.7179 
2.36753 -1.89493 12.3435 2.55145 -1.60849 12.3268 2.91328 -1.72676 12.7122 
2.55145 -1.60849 12.3268 2.85788 -1.34081 12.4753 2.91328 -1.72676 12.7122 
2.85788 -1.34081 12.4753 2.99563 -0.989946 12.4756 3.14161 -1.27226 12.7157 
2.99563 -0.989946 12.4756 2.97851 -0.653651 12.3634 3.26944 -0.896034 12.7181 
2.97851 -0.653651 12.3634 3.03569 -0.361274 12.3717 3.34109 -0.573798 12.7181 
3.03569 -0.361274 12.3717 3.05912 0.00257363 12.3719 3.37594 -0.237064 12.7119 
3.38897 0.0838845 12.7181 3.25708 0.399316 12.6111 3.748 0.372625 13.0777 
3.25708 0.399316 12.6111 3.18126 0.788793 12.6037 3.55723 0.738899 12.9508 
3.18126 0.788793 12.6037 3.05238 1.14679 12.5902 3.45525 1.13337 12.9555 
3.05238 1.14679 12.5902 2.88085 1.5029 12.577 3.31932 1.46795 12.9483 
2.88085 1.5029 12.577 2.71922 1.78408 12.5815 3.10389 1.8934 12.9527 
2.71922 1.78408 12.5815 2.52578 2.05759 12.5837 2.80463 2.30672 12.949 
2.17988 2.73835 12.8275 1.77174 2.88719 12.7126 2.20795 3.08631 13.1005 
1.77174 2.88719 12.7126 1.35714 2.9991 12.6216 1.72062 3.20243 12.9528 
1.35714 2.9991 12.6216 1.05005 3.11008 12.6115 1.33908 3.38085 12.9555 
1.05005 3.11008 12.6115 0.711496 3.43956 12.8374 1.03478 3.6419 13.0946 
-0.393158 3.44695 12.7968 -0.698049 3.31736 12.7181 -0.7667 3.68281 13.0722 
-1.11878 3.33531 12.8429 -1.28832 3.01466 12.6068 -1.55544 3.42601 13.0751 
-2.12269 2.62966 12.7056 -2.33425 2.3038 12.6086 -2.74924 2.62176 13.1045 
-2.33425 2.3038 12.6086 -2.46385 2.11428 12.5756 -2.83754 2.26337 12.948 
-2.46385 2.11428 12.5756 -2.78195 1.91572 12.7036 -2.83754 2.26337 12.948 
-3.2816 1.26134 12.8404 -3.29029 0.81616 12.7181 -3.6807 0.912378 13.0994 
-3.29029 0.81616 12.7181 -3.36128 0.417637 12.7131 -3.7487 0.462022 13.0831 
-3.36128 0.417637 12.7131 -3.3887 0.0825427 12.7188 -3.7807 -0.00698719 13.0888 
-3.3887 0.0825427 12.7188 -3.47931 -0.291205 12.818 -3.7807 -0.00698719 13.0888 
-2.65137 -2.29049 12.8288 -2.24157 -2.5401 12.7148 -2.54521 -2.76128 13.0658 
-2.24157 -2.5401 12.7148 -1.85606 -2.82005 12.7022 -2.20835 -3.05823 13.08 
-1.85606 -2.82005 12.7022 -1.493 -3.04525 12.7191 -1.79636 -3.30631 13.0737 
-1.493 -3.04525 12.7191 -1.0989 -3.20119 12.7098 -1.48279 -3.47144 13.0846 
-1.0989 -3.20119 12.7098 -0.676332 -3.20254 12.6011 -0.747366 -3.56064 12.9558 
-0.676332 -3.20254 12.6011 -0.357767 -3.25377 12.6019 -0.396417 -3.61471 12.9555 
0.028769 -3.51367 12.8385 0.4535 -3.35968 12.7172 0.500987 -3.79391 13.1281 
0.861201 -3.35889 12.7949 1.20972 -3.0416 12.6027 1.15153 -3.44908 12.9549 
1.20972 -3.0416 12.6027 1.55123 -3.01426 12.7181 1.63121 -3.35127 13.0406 
1.55123 -3.01426 12.7181 1.77582 -2.73755 12.5911 1.96365 -3.21531 13.0787 
1.77582 -2.73755 12.5911 2.15576 -2.60948 12.7102 2.18286 -3.06253 13.0712 
2.15576 -2.60948 12.7102 2.47102 -2.32196 12.7179 2.45109 -2.69021 12.9564 
2.78602 -2.14884 12.848 2.91328 -1.72676 12.7122 3.11051 -1.87326 12.9482 
2.91328 -1.72676 12.7122 3.14161 -1.27226 12.7157 3.39977 -1.60418 13.0711 
3.14161 -1.27226 12.7157 3.26944 -0.896034 12.7181 3.53386 -0.89596 12.9613 
3.26944 -0.896034 12.7181 3.34109 -0.573798 12.7181 3.53386 -0.89596 12.9613 
3.34109 -0.573798 12.7181 3.37594 -0.237064 12.7119 3.59868 -0.458113 12.9473 
3.37594 -0.237064 12.7119 3.38897 0.0838845 12.7181 3.72759 -0.00172905 13.0403 
3.748 0.372625 13.0777 3.55723 0.738899 12.9508 3.81129 0.767315 13.1796 
3.55723 0.738899 12.9508 3.45525 1.13337 12.9555 3.69948 1.21263 13.1861 
3.45525 1.13337 12.9555 3.31932 1.46795 12.9483 3.56315 1.56814 13.1849 
3.31932 1.46795 12.9483 3.10389 1.8934 12.9527 3.45806 2.06152 13.2991 
3.10389 1.8934 12.9527 2.80463 2.30672 12.949 3.08105 2.37987 13.1861 
2.80463 2.30672 12.949 2.43674 2.54425 12.8505 2.79429 2.71887 13.1893 
2.43674 2.54425 12.8505 2.17988 2.73835 12.8275 2.48861 2.99038 13.185 
2.20795 3.08631 13.1005 1.72062 3.20243 12.9528 1.86314 3.41234 13.1792 
1.72062 3.20243 12.9528 1.33908 3.38085 12.9555 1.43438 3.61929 13.1861 
1.03478 3.6419 13.0946 0.711496 3.43956 12.8374 0.70656 3.82851 13.1861 
0.711496 3.43956 12.8374 0.302272 3.46454 12.8064 0.335258 3.87975 13.1862 
0.302272 3.46454 12.8064 -0.0343354 3.48135 12.8113 -0.048007 3.89285 13.1861 
-0.0343354 3.48135 12.8113 -0.393158 3.44695 12.7968 -0.427265 3.87011 13.1855 
-0.7667 3.68281 13.0722 -1.11878 3.33531 12.8429 -1.2308 3.69938 13.1893 
-1.55544 3.42601 13.0751 -1.69294 3.09738 12.8563 -1.86442 3.41769 13.1861 
-1.69294 3.09738 12.8563 -1.94385 2.90922 12.8268 -2.18908 3.21973 13.1853 
-3.20376 2.00323 13.0881 -3.11625 1.63473 12.8466 -3.55367 1.8821 13.2983 
-3.11625 1.63473 12.8466 -3.2816 1.26134 12.8404 -3.67194 1.53321 13.2621 
-3.7807 -0.00698719 13.0888 -3.47931 -0.291205 12.818 -3.86197 -0.469814 13.1815 
-3.47931 -0.291205 12.818 -3.41973 -0.784142 12.8332 -3.86197 -0.469814 13.1815 
-3.41973 -0.784142 12.8332 -3.30583 -1.18031 12.8383 -3.62147 -1.399 13.1735 
-3.30583 -1.18031 12.8383 -3.16326 -1.58095 12.8612 -3.62147 -1.399 13.1735 
-3.16326 -1.58095 12.8612 -2.92977 -1.94498 12.8439 -3.40034 -1.91252 13.1923 
-2.92977 -1.94498 12.8439 -2.65137 -2.29049 12.8288 -3.13575 -2.30326 13.1843 
-1.13226 -3.61785 13.0987 -0.747366 -3.56064 12.9558 -0.850486 -3.98568 13.3427 
-0.747366 -3.56064 12.9558 -0.396417 -3.61471 12.9555 -0.425208 -3.86986 13.1861 
-0.396417 -3.61471 12.9555 0.028769 -3.51367 12.8385 0.0388086 -3.891 13.1823 
0.500987 -3.79391 13.1281 0.861201 -3.35889 12.7949 0.981464 -3.76421 13.1811 
0.861201 -3.35889 12.7949 1.15153 -3.44908 12.9549 0.981464 -3.76421 13.1811 
1.15153 -3.44908 12.9549 1.63121 -3.35127 13.0406 1.43522 -3.61635 13.1843 
2.18286 -3.06253 13.0712 2.45109 -2.69021 12.9564 2.71294 -2.98923 13.3079 
2.8087 -2.52007 13.0835 2.78602 -2.14884 12.848 3.24859 -2.36995 13.2957 
2.78602 -2.14884 12.848 3.11051 -1.87326 12.9482 3.24859 -2.36995 13.2957 
3.51988 -1.34893 13.0787 3.53386 -0.89596 12.9613 3.85743 -1.16016 13.3044 
3.53386 -0.89596 12.9613 3.59868 -0.458113 12.9473 3.8862 -0.411334 13.196 
3.59868 -0.458113 12.9473 3.72759 -0.00172905 13.0403 3.8862 -0.411334 13.196 
3.72759 -0.00172905 13.0403 3.748 0.372625 13.0777 4.12921 0.441365 13.4026 
3.748 0.372625 13.0777 3.81129 0.767315 13.1796 4.12921 0.441365 13.4026 
3.81129 0.767315 13.1796 3.69948 1.21263 13.1861 4.06419 1.38232 13.5154 
3.69948 1.21263 13.1861 3.56315 1.56814 13.1849 4.06419 1.38232 13.5154 
3.45806 2.06152 13.2991 3.08105 2.37987 13.1861 3.42142 2.63181 13.535 
3.08105 2.37987 13.1861 2.79429 2.71887 13.1893 3.02486 2.8462 13.4036 
2.79429 2.71887 13.1893 2.48861 2.99038 13.185 2.81954 3.21471 13.5043 
2.48861 2.99038 13.185 2.20795 3.08631 13.1005 2.32126 3.43438 13.3937 
2.20795 3.08631 13.1005 1.86314 3.41234 13.1792 2.32126 3.43438 13.3937 
1.86314 3.41234 13.1792 1.43438 3.61929 13.1861 1.84548 3.85038 13.4977 
1.43438 3.61929 13.1861 1.03478 3.6419 13.0946 1.39168 4.04408 13.5051 
1.03478 3.6419 13.0946 0.70656 3.82851 13.1861 0.773 4.21049 13.5085 
0.70656 3.82851 13.1861 0.335258 3.87975 13.1862 0.378858 4.13521 13.4035 
0.335258 3.87975 13.1862 -0.048007 3.89285 13.1861 -0.114668 4.15451 13.405 
-0.048007 3.89285 13.1861 -0.427265 3.87011 13.1855 -0.114668 4.15451 13.405 
-0.427265 3.87011 13.1855 -0.7667 3.68281 13.0722 -0.854736 4.06389 13.4042 
-0.7667 3.68281 13.0722 -1.2308 3.69938 13.1893 -1.27316 4.07327 13.4977 
-1.2308 3.69938 13.1893 -1.55544 3.42601 13.0751 -1.66248 3.94361 13.5076 
-1.55544 3.42601 13.0751 -1.86442 3.41769 13.1861 -1.95001 3.81412 13.5115 
-1.86442 3.41769 13.1861 -2.18908 3.21973 13.1853 -2.2186 3.6566 13.5052 
-2.18908 3.21973 13.1853 -2.41603 2.9024 13.0851 -2.75509 3.29415 13.5192 
-2.41603 2.9024 13.0851 -2.74924 2.62176 13.1045 -3.04449 3.01397 13.5097 
-2.74924 2.62176 13.1045 -3.1388 2.30317 13.1861 -3.31399 2.70001 13.5032 
-3.1388 2.30317 13.1861 -3.20376 2.00323 13.0881 -3.57451 2.36344 13.5105 
-3.66722 1.29979 13.1843 -3.6807 0.912378 13.0994 -4.0799 1.24908 13.4979 
-3.6807 0.912378 13.0994 -3.7487 0.462022 13.0831 -4.11338 0.592974 13.4059 
-3.7487 0.462022 13.0831 -3.7807 -0.00698719 13.0888 -4.14793 0.200965 13.4042 
-3.7807 -0.00698719 13.0888 -3.86197 -0.469814 13.1815 -4.14639 -0.206654 13.4023 
-3.86197 -0.469814 13.1815 -3.77563 -0.939426 13.1843 -4.08793 -0.7163 13.4005 
-3.77563 -0.939426 13.1843 -3.62147 -1.399 13.1735 -4.10044 -1.225 13.507 
-3.62147 -1.399 13.1735 -3.40034 -1.91252 13.1923 -3.79125 -1.9991 13.5121 
-3.40034 -1.91252 13.1923 -3.13575 -2.30326 13.1843 -3.58005 -2.35725 13.5114 
-3.13575 -2.30326 13.1843 -2.89911 -2.59842 13.1861 -3.32287 -2.68433 13.5009 
-2.89911 -2.59842 13.1861 -2.54521 -2.76128 13.0658 -2.86124 -2.98529 13.3872 
-2.54521 -2.76128 13.0658 -2.20835 -3.05823 13.08 -2.55436 -3.41182 13.4942 
-2.20835 -3.05823 13.08 -1.79636 -3.30631 13.0737 -2.1636 -3.54535 13.4036 
-1.79636 -3.30631 13.0737 -1.48279 -3.47144 13.0846 -1.80723 -3.73893 13.4042 
-1.48279 -3.47144 13.0846 -1.13226 -3.61785 13.0987 -1.27824 -4.08581 13.5087 
-0.850486 -3.98568 13.3427 -0.425208 -3.86986 13.1861 -0.384228 -4.14247 13.4082 
-0.425208 -3.86986 13.1861 0.0388086 -3.891 13.1823 -0.384228 -4.14247 13.4082 
0.0388086 -3.891 13.1823 0.500987 -3.79391 13.1281 0.361577 -4.2591 13.5035 
0.500987 -3.79391 13.1281 0.981464 -3.76421 13.1811 0.756832 -4.08272 13.4027 
0.981464 -3.76421 13.1811 1.43522 -3.61635 13.1843 1.25575 -3.9556 13.4004 
1.43522 -3.61635 13.1843 1.63121 -3.35127 13.0406 1.7179 -3.78082 13.4042 
1.63121 -3.35127 13.0406 1.96365 -3.21531 13.0787 2.08107 -3.58597 13.3981 
1.96365 -3.21531 13.0787 2.18286 -3.06253 13.0712 2.41734 -3.37671 13.4042 
2.71294 -2.98923 13.3079 2.8087 -2.52007 13.0835 3.19773 -2.86351 13.5182 
3.51762 -1.97178 13.307 3.39977 -1.60418 13.0711 3.88691 -1.82051 13.518 
3.39977 -1.60418 13.0711 3.51988 -1.34893 13.0787 4.00784 -1.53216 13.5158 
3.93654 -0.87477 13.307 3.8862 -0.411334 13.196 4.24663 -0.622219 13.5178 
3.8862 -0.411334 13.196 3.72759 -0.00172905 13.0403 4.15248 0 13.405 
4.15248 0 13.405 4.12921 0.441365 13.4026 4.56251 0.337254 13.7306 
3.89871 1.82746 13.5284 3.45806 2.06152 13.2991 3.99396 2.19775 13.7185 
3.42142 2.63181 13.535 3.02486 2.8462 13.4036 3.31146 3.14566 13.7243 
2.81954 3.21471 13.5043 2.32126 3.43438 13.3937 2.73711 3.66145 13.7291 
0.773 4.21049 13.5085 0.378858 4.13521 13.4035 0.485109 4.54714 13.7302 
0.378858 4.13521 13.4035 -0.114668 4.15451 13.405 0.157338 4.55671 13.7198 
-0.572171 4.25944 13.5221 -0.854736 4.06389 13.4042 -0.933128 4.50836 13.7503 
-3.57451 2.36344 13.5105 -3.55367 1.8821 13.2983 -3.9102 2.07059 13.6167 
-3.55367 1.8821 13.2983 -3.67194 1.53321 13.2621 -4.09308 1.68426 13.6171 
-4.19978 0.937471 13.5263 -4.11338 0.592974 13.4059 -4.53524 0.683684 13.7381 
-4.11338 0.592974 13.4059 -4.14793 0.200965 13.4042 -4.56821 0.247746 13.7313 
-4.14793 0.200965 13.4042 -4.14639 -0.206654 13.4023 -4.58828 -0.155973 13.7408 
-4.14639 -0.206654 13.4023 -4.08793 -0.7163 13.4005 -4.54062 -0.657492 13.7403 
-3.32287 -2.68433 13.5009 -2.86124 -2.98529 13.3872 -3.31514 -3.14214 13.7263 
-2.55436 -3.41182 13.4942 -2.1636 -3.54535 13.4036 -2.36426 -3.92551 13.7357 
-2.1636 -3.54535 13.4036 -1.80723 -3.73893 13.4042 -1.98588 -4.12117 13.73 
-1.27824 -4.08581 13.5087 -0.850486 -3.98568 13.3427 -1.03001 -4.44989 13.726 
-0.850486 -3.98568 13.3427 -0.384228 -4.14247 13.4082 -0.714109 -4.50692 13.7221 
0.361577 -4.2591 13.5035 0.756832 -4.08272 13.4027 0.791655 -4.35485 13.6179 
0.756832 -4.08272 13.4027 1.25575 -3.9556 13.4004 1.3258 -4.21433 13.6089 
1.25575 -3.9556 13.4004 1.7179 -3.78082 13.4042 1.90115 -4.18515 13.7458 
1.7179 -3.78082 13.4042 2.08107 -3.58597 13.3981 2.29359 -3.97157 13.7388 
2.08107 -3.58597 13.3981 2.41734 -3.37671 13.4042 2.6644 -3.72186 13.7319 
2.41734 -3.37671 13.4042 2.71294 -2.98923 13.3079 2.96945 -3.26993 13.6083 
3.19773 -2.86351 13.5182 3.24859 -2.36995 13.2957 3.60813 -2.79135 13.7207 
3.24859 -2.36995 13.2957 3.51762 -1.97178 13.307 3.97473 -2.21912 13.7146 
4.00784 -1.53216 13.5158 3.85743 -1.16016 13.3044 4.38214 -1.30043 13.7283 
3.85743 -1.16016 13.3044 3.93654 -0.87477 13.307 4.44335 -0.988474 13.7147 
4.28006 -0.311335 13.5163 4.15248 0 13.405 4.61201 0.00113449 13.7573 
4.5276 0.682604 13.7336 4.16458 0.913147 13.4947 4.58712 1.01788 13.8164 
4.16458 0.913147 13.4947 4.06419 1.38232 13.5154 4.47449 1.45365 13.8202 
4.06419 1.38232 13.5154 3.89871 1.82746 13.5284 4.30682 1.88384 13.8182 
3.84553 2.45451 13.7222 3.42142 2.63181 13.535 3.65649 2.94386 13.8115 
3.42142 2.63181 13.535 3.31146 3.14566 13.7243 3.65649 2.94386 13.8115 
3.31146 3.14566 13.7243 2.81954 3.21471 13.5043 3.10159 3.53923 13.8217 
2.44593 3.83134 13.7094 1.84548 3.85038 13.4977 2.04008 4.21932 13.8051 
1.84548 3.85038 13.4977 1.39168 4.04408 13.5051 1.52284 4.44545 13.8168 
1.39168 4.04408 13.5051 1.08919 4.15699 13.5218 1.18837 4.54557 13.8174 
1.08919 4.15699 13.5218 0.773 4.21049 13.5085 0.859948 4.62738 13.8223 
-0.267426 4.57482 13.7354 -0.572171 4.25944 13.5221 -0.627434 4.65626 13.8174 
-0.933128 4.50836 13.7503 -1.27316 4.07327 13.4977 -1.39489 4.49944 13.8252 
-1.27316 4.07327 13.4977 -1.66248 3.94361 13.5076 -1.83479 4.33178 13.8205 
-1.66248 3.94361 13.5076 -1.95001 3.81412 13.5115 -2.30949 4.09737 13.8182 
-1.95001 3.81412 13.5115 -2.2186 3.6566 13.5052 -2.30949 4.09737 13.8182 
-2.2186 3.6566 13.5052 -2.49914 3.49589 13.5218 -2.73377 3.82112 13.8174 
-2.49914 3.49589 13.5218 -2.75509 3.29415 13.5192 -3.00166 3.61365 13.8156 
-2.75509 3.29415 13.5192 -3.04449 3.01397 13.5097 -3.34547 3.31359 13.8228 
-3.04449 3.01397 13.5097 -3.31399 2.70001 13.5032 -3.64356 2.96397 13.8154 
-3.31399 2.70001 13.5032 -3.57451 2.36344 13.5105 -3.90287 2.62618 13.8203 
-3.57451 2.36344 13.5105 -3.9102 2.07059 13.6167 -4.09719 2.29945 13.8174 
-3.9102 2.07059 13.6167 -4.09308 1.68426 13.6171 -4.2994 1.87798 13.8102 
-4.09308 1.68426 13.6171 -4.0799 1.24908 13.4979 -4.49664 1.3588 13.8154 
-4.0799 1.24908 13.4979 -4.19978 0.937471 13.5263 -4.58594 1.02156 13.8174 
-4.4703 -1.01147 13.7374 -4.10044 -1.225 13.507 -4.50928 -1.35058 13.8228 
-4.10044 -1.225 13.507 -3.96413 -1.62314 13.5092 -4.34903 -1.7869 13.8185 
-3.96413 -1.62314 13.5092 -3.79125 -1.9991 13.5121 -4.1556 -2.19921 13.8184 
-3.79125 -1.9991 13.5121 -3.58005 -2.35725 13.5114 -3.93723 -2.57836 13.822 
-3.58005 -2.35725 13.5114 -3.32287 -2.68433 13.5009 -3.65664 -2.96091 13.821 
-3.0841 -3.37648 13.729 -2.55436 -3.41182 13.4942 -2.78374 -3.79595 13.8214 
-2.55436 -3.41182 13.4942 -2.36426 -3.92551 13.7357 -2.78374 -3.79595 13.8214 
-1.98588 -4.12117 13.73 -1.58577 -3.99459 13.5222 -1.55184 -4.43991 13.8175 
-1.58577 -3.99459 13.5222 -1.27824 -4.08581 13.5087 -1.55184 -4.43991 13.8175 
-0.319697 -4.56441 13.7309 0.0476027 -4.28762 13.5148 -0.025338 -4.68493 13.8069 
0.0476027 -4.28762 13.5148 0.361577 -4.2591 13.5035 0.498283 -4.66046 13.8066 
0.361577 -4.2591 13.5035 0.791655 -4.35485 13.6179 0.498283 -4.66046 13.8066 
0.791655 -4.35485 13.6179 1.3258 -4.21433 13.6089 1.06523 -4.57228 13.8138 
2.6644 -3.72186 13.7319 2.96945 -3.26993 13.6083 3.15729 -3.48648 13.818 
2.96945 -3.26993 13.6083 3.19773 -2.86351 13.5182 3.4992 -3.13529 13.8174 
3.97473 -2.21912 13.7146 3.88691 -1.82051 13.518 4.25411 -1.99424 13.8174 
3.88691 -1.82051 13.518 4.00784 -1.53216 13.5158 4.3878 -1.68128 13.8165 
4.44335 -0.988474 13.7147 4.24663 -0.622219 13.5178 4.69508 -0.498164 13.8313 
4.24663 -0.622219 13.5178 4.28006 -0.311335 13.5163 4.69508 -0.498164 13.8313 
4.61201 0.00113449 13.7573 4.56251 0.337254 13.7306 5.07815 0.219503 14.0765 
4.56251 0.337254 13.7306 4.5276 0.682604 13.7336 5.01926 0.77129 14.0747 
4.5276 0.682604 13.7336 4.58712 1.01788 13.8164 5.01926 0.77129 14.0747 
4.90705 1.31321 14.0746 5.01926 0.77129 14.0747 4.58712 1.01788 13.8164 
4.47449 1.45365 13.8202 4.75521 1.78521 14.0764 4.90705 1.31321 14.0746 
4.75521 1.78521 14.0764 4.47449 1.45365 13.8202 4.30682 1.88384 13.8182 
3.84553 2.45451 13.7222 4.2344 2.82012 14.0806 4.52382 2.28452 14.0655 
3.84553 2.45451 13.7222 3.65649 2.94386 13.8115 4.2344 2.82012 14.0806 
3.65649 2.94386 13.8115 3.31146 3.14566 13.7243 3.6082 3.58033 14.0772 
3.27718 3.88719 14.0789 3.6082 3.58033 14.0772 3.10159 3.53923 13.8217 
3.27718 3.88719 14.0789 3.10159 3.53923 13.8217 2.73711 3.66145 13.7291 
2.73711 3.66145 13.7291 2.98466 4.10979 14.0763 3.27718 3.88719 14.0789 
2.44593 3.83134 13.7094 2.66658 4.31727 14.0719 2.98466 4.10979 14.0763 
2.04008 4.21932 13.8051 2.19707 4.5732 14.0703 2.66658 4.31727 14.0719 
2.04008 4.21932 13.8051 1.52284 4.44545 13.8168 1.69894 4.77929 14.0707 
1.52284 4.44545 13.8168 1.18837 4.54557 13.8174 1.25959 4.92525 14.0775 
1.18837 4.54557 13.8174 0.859948 4.62738 13.8223 1.25959 4.92525 14.0775 
0.676179 5.04343 14.0796 1.25959 4.92525 14.0775 0.859948 4.62738 13.8223 
0.676179 5.04343 14.0796 0.859948 4.62738 13.8223 0.485109 4.54714 13.7302 
0.676179 5.04343 14.0796 0.485109 4.54714 13.7302 0.157338 4.55671 13.7198 
-0.267426 4.57482 13.7354 -0.464176 5.06576 14.0787 0.109471 5.08877 14.0827 
-0.627434 4.65626 13.8174 -0.933128 4.50836 13.7503 -1.11133 4.95028 14.0695 
-0.933128 4.50836 13.7503 -1.39489 4.49944 13.8252 -1.11133 4.95028 14.0695 
-2.07712 4.6408 14.079 -1.68421 4.7971 14.0785 -1.83479 4.33178 13.8205 
-2.07712 4.6408 14.079 -1.83479 4.33178 13.8205 -2.30949 4.09737 13.8182 
-2.30949 4.09737 13.8182 -2.58313 4.38443 14.0802 -2.07712 4.6408 14.079 
-2.73377 3.82112 13.8174 -2.99251 4.10425 14.0764 -2.58313 4.38443 14.0802 
-3.00166 3.61365 13.8156 -3.37643 3.80537 14.0806 -2.99251 4.10425 14.0764 
-3.00166 3.61365 13.8156 -3.34547 3.31359 13.8228 -3.37643 3.80537 14.0806 
-3.34547 3.31359 13.8228 -3.64356 2.96397 13.8154 -3.7286 3.43892 14.0707 
-4.2912 2.72696 14.0789 -4.03289 3.09958 14.0799 -3.90287 2.62618 13.8203 
-4.2912 2.72696 14.0789 -3.90287 2.62618 13.8203 -4.09719 2.29945 13.8174 
-4.09719 2.29945 13.8174 -4.56993 2.23075 14.0778 -4.2912 2.72696 14.0789 
-4.56993 2.23075 14.0778 -4.09719 2.29945 13.8174 -4.2994 1.87798 13.8102 
-4.2994 1.87798 13.8102 -4.75859 1.77646 14.0764 -4.56993 2.23075 14.0778 
-4.49664 1.3588 13.8154 -4.90754 1.31732 14.0763 -4.75859 1.77646 14.0764 
-4.49664 1.3588 13.8154 -4.58594 1.02156 13.8174 -4.90754 1.31732 14.0763 
-4.58594 1.02156 13.8174 -4.53524 0.683684 13.7381 -5.00644 0.814693 14.0707 
-4.53524 0.683684 13.7381 -4.56821 0.247746 13.7313 -5.07011 0.359588 14.077 
-5.0821 -0.0886724 14.0779 -5.07011 0.359588 14.077 -4.58828 -0.155973 13.7408 
-4.58828 -0.155973 13.7408 -5.04388 -0.541388 14.0706 -5.0821 -0.0886724 14.0779 
-4.54062 -0.657492 13.7403 -4.96602 -1.09043 14.0772 -5.04388 -0.541388 14.0706 
-4.50928 -1.35058 13.8228 -4.34903 -1.7869 13.8185 -4.78335 -1.72553 14.077 
-4.34903 -1.7869 13.8185 -4.1556 -2.19921 13.8184 -4.52524 -2.31787 14.0785 
-4.2465 -2.80033 14.078 -4.52524 -2.31787 14.0785 -4.1556 -2.19921 13.8184 
-4.2465 -2.80033 14.078 -3.93723 -2.57836 13.822 -3.65664 -2.96091 13.821 
-3.31514 -3.14214 13.7263 -3.53525 -3.66366 14.0824 -3.90401 -3.26601 14.0828 
-3.0841 -3.37648 13.729 -2.78374 -3.79595 13.8214 -3.10336 -4.02541 14.077 
-2.78374 -3.79595 13.8214 -2.36426 -3.92551 13.7357 -2.72802 -4.28655 14.0766 
-2.21625 -4.56134 14.0676 -2.72802 -4.28655 14.0766 -2.36426 -3.92551 13.7357 
-2.21625 -4.56134 14.0676 -1.98588 -4.12117 13.73 -1.55184 -4.43991 13.8175 
-1.55184 -4.43991 13.8175 -1.70456 -4.78844 14.0774 -2.21625 -4.56134 14.0676 
-1.55184 -4.43991 13.8175 -1.23366 -4.92995 14.0763 -1.70456 -4.78844 14.0774 
-0.714109 -4.50692 13.7221 -0.801506 -5.01185 14.0734 -1.23366 -4.92995 14.0763 
-0.714109 -4.50692 13.7221 -0.319697 -4.56441 13.7309 -0.380146 -5.11481 14.1095 
-0.319697 -4.56441 13.7309 -0.025338 -4.68493 13.8069 -0.380146 -5.11481 14.1095 
-0.025338 -4.68493 13.8069 0.498283 -4.66046 13.8066 0.171139 -5.10688 14.0955 
0.683954 -5.03309 14.0764 0.171139 -5.10688 14.0955 0.498283 -4.66046 13.8066 
0.498283 -4.66046 13.8066 1.07158 -4.96077 14.0728 0.683954 -5.03309 14.0764 
1.07158 -4.96077 14.0728 0.498283 -4.66046 13.8066 1.06523 -4.57228 13.8138 
1.06523 -4.57228 13.8138 1.47545 -4.85299 14.0707 1.07158 -4.96077 14.0728 
1.50995 -4.44697 13.8146 1.98794 -4.6849 14.081 1.47545 -4.85299 14.0707 
1.90115 -4.18515 13.7458 2.29359 -3.97157 13.7388 2.48846 -4.42265 14.0714 
2.29359 -3.97157 13.7388 2.6644 -3.72186 13.7319 2.89046 -4.18168 14.0781 
3.33206 -3.84961 14.082 2.89046 -4.18168 14.0781 2.6644 -3.72186 13.7319 
3.4992 -3.13529 13.8174 3.99799 -3.13236 14.0734 3.7314 -3.52508 14.1141 
3.80542 -2.49472 13.7145 4.3071 -2.70842 14.0818 3.99799 -3.13236 14.0734 
3.80542 -2.49472 13.7145 3.97473 -2.21912 13.7146 4.3071 -2.70842 14.0818 
3.97473 -2.21912 13.7146 4.25411 -1.99424 13.8174 4.56699 -2.24818 14.0817 
4.25411 -1.99424 13.8174 4.3878 -1.68128 13.8165 4.56699 -2.24818 14.0817 
4.8113 -1.61662 14.0703 4.56699 -2.24818 14.0817 4.3878 -1.68128 13.8165 
4.8113 -1.61662 14.0703 4.38214 -1.30043 13.7283 4.44335 -0.988474 13.7147 
4.44335 -0.988474 13.7147 4.95198 -1.13023 14.0764 4.8113 -1.61662 14.0703 
4.69508 -0.498164 13.8313 5.06311 -0.32708 14.0708 5.01032 -0.779081 14.0695 
4.61201 0.00113449 13.7573 5.07815 0.219503 14.0765 5.06311 -0.32708 14.0708 
5.06311 -0.32708 14.0708 4.69508 -0.498164 13.8313 4.61201 0.00113449 13.7573 
5.01032 -0.779081 14.0695 4.44335 -0.988474 13.7147 4.69508 -0.498164 13.8313 
4.44335 -0.988474 13.7147 5.01032 -0.779081 14.0695 4.95198 -1.13023 14.0764 
4.3878 -1.68128 13.8165 4.38214 -1.30043 13.7283 4.8113 -1.61662 14.0703 
4.56699 -2.24818 14.0817 4.3071 -2.70842 14.0818 3.97473 -2.21912 13.7146 
3.99799 -3.13236 14.0734 3.60813 -2.79135 13.7207 3.80542 -2.49472 13.7145 
3.99799 -3.13236 14.0734 3.4992 -3.13529 13.8174 3.60813 -2.79135 13.7207 
3.7314 -3.52508 14.1141 3.15729 -3.48648 13.818 3.4992 -3.13529 13.8174 
3.15729 -3.48648 13.818 3.7314 -3.52508 14.1141 3.33206 -3.84961 14.082 
2.6644 -3.72186 13.7319 3.15729 -3.48648 13.818 3.33206 -3.84961 14.082 
2.89046 -4.18168 14.0781 2.48846 -4.42265 14.0714 2.29359 -3.97157 13.7388 
2.48846 -4.42265 14.0714 1.98794 -4.6849 14.081 1.90115 -4.18515 13.7458 
1.98794 -4.6849 14.081 1.50995 -4.44697 13.8146 1.90115 -4.18515 13.7458 
1.47545 -4.85299 14.0707 1.06523 -4.57228 13.8138 1.50995 -4.44697 13.8146 
0.171139 -5.10688 14.0955 -0.380146 -5.11481 14.1095 -0.025338 -4.68493 13.8069 
-0.380146 -5.11481 14.1095 -0.801506 -5.01185 14.0734 -0.714109 -4.50692 13.7221 
-1.23366 -4.92995 14.0763 -1.03001 -4.44989 13.726 -0.714109 -4.50692 13.7221 
-1.23366 -4.92995 14.0763 -1.55184 -4.43991 13.8175 -1.03001 -4.44989 13.726 
-2.36426 -3.92551 13.7357 -1.98588 -4.12117 13.73 -2.21625 -4.56134 14.0676 
-2.72802 -4.28655 14.0766 -3.10336 -4.02541 14.077 -2.78374 -3.79595 13.8214 
-3.10336 -4.02541 14.077 -3.53525 -3.66366 14.0824 -3.0841 -3.37648 13.729 
-3.53525 -3.66366 14.0824 -3.31514 -3.14214 13.7263 -3.0841 -3.37648 13.729 
-3.90401 -3.26601 14.0828 -3.65664 -2.96091 13.821 -3.31514 -3.14214 13.7263 
-3.65664 -2.96091 13.821 -3.90401 -3.26601 14.0828 -4.2465 -2.80033 14.078 
-4.1556 -2.19921 13.8184 -3.93723 -2.57836 13.822 -4.2465 -2.80033 14.078 
-4.52524 -2.31787 14.0785 -4.78335 -1.72553 14.077 -4.34903 -1.7869 13.8185 
-4.78335 -1.72553 14.077 -4.96602 -1.09043 14.0772 -4.50928 -1.35058 13.8228 
-4.96602 -1.09043 14.0772 -4.4703 -1.01147 13.7374 -4.50928 -1.35058 13.8228 
-4.96602 -1.09043 14.0772 -4.54062 -0.657492 13.7403 -4.4703 -1.01147 13.7374 
-5.04388 -0.541388 14.0706 -4.58828 -0.155973 13.7408 -4.54062 -0.657492 13.7403 
-4.56821 0.247746 13.7313 -4.58828 -0.155973 13.7408 -5.07011 0.359588 14.077 
-5.07011 0.359588 14.077 -5.00644 0.814693 14.0707 -4.53524 0.683684 13.7381 
-5.00644 0.814693 14.0707 -4.90754 1.31732 14.0763 -4.58594 1.02156 13.8174 
-4.75859 1.77646 14.0764 -4.2994 1.87798 13.8102 -4.49664 1.3588 13.8154 
-3.64356 2.96397 13.8154 -3.90287 2.62618 13.8203 -4.03289 3.09958 14.0799 
-4.03289 3.09958 14.0799 -3.7286 3.43892 14.0707 -3.64356 2.96397 13.8154 
-3.7286 3.43892 14.0707 -3.37643 3.80537 14.0806 -3.34547 3.31359 13.8228 
-2.99251 4.10425 14.0764 -2.73377 3.82112 13.8174 -3.00166 3.61365 13.8156 
-2.58313 4.38443 14.0802 -2.30949 4.09737 13.8182 -2.73377 3.82112 13.8174 
-1.39489 4.49944 13.8252 -1.83479 4.33178 13.8205 -1.68421 4.7971 14.0785 
-1.68421 4.7971 14.0785 -1.11133 4.95028 14.0695 -1.39489 4.49944 13.8252 
-1.11133 4.95028 14.0695 -0.464176 5.06576 14.0787 -0.627434 4.65626 13.8174 
-0.464176 5.06576 14.0787 -0.267426 4.57482 13.7354 -0.627434 4.65626 13.8174 
0.109471 5.08877 14.0827 0.157338 4.55671 13.7198 -0.267426 4.57482 13.7354 
0.157338 4.55671 13.7198 0.109471 5.08877 14.0827 0.676179 5.04343 14.0796 
1.25959 4.92525 14.0775 1.69894 4.77929 14.0707 1.52284 4.44545 13.8168 
1.69894 4.77929 14.0707 2.19707 4.5732 14.0703 2.04008 4.21932 13.8051 
2.66658 4.31727 14.0719 2.44593 3.83134 13.7094 2.04008 4.21932 13.8051 
2.98466 4.10979 14.0763 2.73711 3.66145 13.7291 2.44593 3.83134 13.7094 
3.31146 3.14566 13.7243 3.10159 3.53923 13.8217 3.6082 3.58033 14.0772 
3.6082 3.58033 14.0772 3.90776 3.23384 14.0707 3.65649 2.94386 13.8115 
3.90776 3.23384 14.0707 4.2344 2.82012 14.0806 3.65649 2.94386 13.8115 
4.52382 2.28452 14.0655 3.99396 2.19775 13.7185 3.84553 2.45451 13.7222 
4.52382 2.28452 14.0655 4.30682 1.88384 13.8182 3.99396 2.19775 13.7185 
4.30682 1.88384 13.8182 4.52382 2.28452 14.0655 4.75521 1.78521 14.0764 
4.58712 1.01788 13.8164 4.47449 1.45365 13.8202 4.90705 1.31321 14.0746 
5.01926 0.77129 14.0747 5.07815 0.219503 14.0765 4.56251 0.337254 13.7306 
4.61201 0.00113449 13.7573 4.69508 -0.498164 13.8313 4.28006 -0.311335 13.5163 
4.38214 -1.30043 13.7283 4.3878 -1.68128 13.8165 4.00784 -1.53216 13.5158 
4.3878 -1.68128 13.8165 4.25411 -1.99424 13.8174 3.88691 -1.82051 13.518 
3.60813 -2.79135 13.7207 3.4992 -3.13529 13.8174 3.19773 -2.86351 13.5182 
3.4992 -3.13529 13.8174 3.15729 -3.48648 13.818 2.96945 -3.26993 13.6083 
1.90115 -4.18515 13.7458 1.50995 -4.44697 13.8146 1.3258 -4.21433 13.6089 
1.50995 -4.44697 13.8146 1.06523 -4.57228 13.8138 1.3258 -4.21433 13.6089 
1.06523 -4.57228 13.8138 0.498283 -4.66046 13.8066 0.791655 -4.35485 13.6179 
0.498283 -4.66046 13.8066 -0.025338 -4.68493 13.8069 0.0476027 -4.28762 13.5148 
-1.03001 -4.44989 13.726 -1.55184 -4.43991 13.8175 -1.27824 -4.08581 13.5087 
-3.31514 -3.14214 13.7263 -3.65664 -2.96091 13.821 -3.32287 -2.68433 13.5009 
-3.65664 -2.96091 13.821 -3.93723 -2.57836 13.822 -3.58005 -2.35725 13.5114 
-3.93723 -2.57836 13.822 -4.1556 -2.19921 13.8184 -3.79125 -1.9991 13.5121 
-4.1556 -2.19921 13.8184 -4.34903 -1.7869 13.8185 -3.96413 -1.62314 13.5092 
-4.34903 -1.7869 13.8185 -4.50928 -1.35058 13.8228 -4.10044 -1.225 13.507 
-4.53524 0.683684 13.7381 -4.58594 1.02156 13.8174 -4.19978 0.937471 13.5263 
-4.58594 1.02156 13.8174 -4.49664 1.3588 13.8154 -4.0799 1.24908 13.4979 
-4.49664 1.3588 13.8154 -4.2994 1.87798 13.8102 -4.09308 1.68426 13.6171 
-4.2994 1.87798 13.8102 -4.09719 2.29945 13.8174 -3.9102 2.07059 13.6167 
-4.09719 2.29945 13.8174 -3.90287 2.62618 13.8203 -3.57451 2.36344 13.5105 
-3.90287 2.62618 13.8203 -3.64356 2.96397 13.8154 -3.31399 2.70001 13.5032 
-3.64356 2.96397 13.8154 -3.34547 3.31359 13.8228 -3.04449 3.01397 13.5097 
-3.34547 3.31359 13.8228 -3.00166 3.61365 13.8156 -2.75509 3.29415 13.5192 
-3.00166 3.61365 13.8156 -2.73377 3.82112 13.8174 -2.49914 3.49589 13.5218 
-2.73377 3.82112 13.8174 -2.30949 4.09737 13.8182 -2.2186 3.6566 13.5052 
-2.30949 4.09737 13.8182 -1.83479 4.33178 13.8205 -1.66248 3.94361 13.5076 
-1.83479 4.33178 13.8205 -1.39489 4.49944 13.8252 -1.27316 4.07327 13.4977 
-0.933128 4.50836 13.7503 -0.627434 4.65626 13.8174 -0.572171 4.25944 13.5221 
0.485109 4.54714 13.7302 0.859948 4.62738 13.8223 0.773 4.21049 13.5085 
0.859948 4.62738 13.8223 1.18837 4.54557 13.8174 1.08919 4.15699 13.5218 
1.18837 4.54557 13.8174 1.52284 4.44545 13.8168 1.39168 4.04408 13.5051 
1.52284 4.44545 13.8168 2.04008 4.21932 13.8051 1.84548 3.85038 13.4977 
2.73711 3.66145 13.7291 3.10159 3.53923 13.8217 2.81954 3.21471 13.5043 
3.99396 2.19775 13.7185 4.30682 1.88384 13.8182 3.89871 1.82746 13.5284 
4.30682 1.88384 13.8182 4.47449 1.45365 13.8202 4.06419 1.38232 13.5154 
4.47449 1.45365 13.8202 4.58712 1.01788 13.8164 4.16458 0.913147 13.4947 
4.24663 -0.622219 13.5178 4.44335 -0.988474 13.7147 3.93654 -0.87477 13.307 
4.44335 -0.988474 13.7147 4.38214 -1.30043 13.7283 3.85743 -1.16016 13.3044 
3.88691 -1.82051 13.518 3.97473 -2.21912 13.7146 3.51762 -1.97178 13.307 
3.97473 -2.21912 13.7146 3.80542 -2.49472 13.7145 3.24859 -2.36995 13.2957 
3.80542 -2.49472 13.7145 3.60813 -2.79135 13.7207 3.24859 -2.36995 13.2957 
3.19773 -2.86351 13.5182 2.96945 -3.26993 13.6083 2.71294 -2.98923 13.3079 
2.96945 -3.26993 13.6083 2.6644 -3.72186 13.7319 2.41734 -3.37671 13.4042 
2.6644 -3.72186 13.7319 2.29359 -3.97157 13.7388 2.08107 -3.58597 13.3981 
2.29359 -3.97157 13.7388 1.90115 -4.18515 13.7458 1.7179 -3.78082 13.4042 
1.90115 -4.18515 13.7458 1.3258 -4.21433 13.6089 1.25575 -3.9556 13.4004 
1.3258 -4.21433 13.6089 0.791655 -4.35485 13.6179 0.756832 -4.08272 13.4027 
0.0476027 -4.28762 13.5148 -0.319697 -4.56441 13.7309 -0.384228 -4.14247 13.4082 
-0.319697 -4.56441 13.7309 -0.714109 -4.50692 13.7221 -0.384228 -4.14247 13.4082 
-0.714109 -4.50692 13.7221 -1.03001 -4.44989 13.726 -0.850486 -3.98568 13.3427 
-1.58577 -3.99459 13.5222 -1.98588 -4.12117 13.73 -1.80723 -3.73893 13.4042 
-1.98588 -4.12117 13.73 -2.36426 -3.92551 13.7357 -2.1636 -3.54535 13.4036 
-2.55436 -3.41182 13.4942 -3.0841 -3.37648 13.729 -2.86124 -2.98529 13.3872 
-3.0841 -3.37648 13.729 -3.31514 -3.14214 13.7263 -2.86124 -2.98529 13.3872 
-4.10044 -1.225 13.507 -4.4703 -1.01147 13.7374 -4.08793 -0.7163 13.4005 
-4.4703 -1.01147 13.7374 -4.54062 -0.657492 13.7403 -4.08793 -0.7163 13.4005 
-4.54062 -0.657492 13.7403 -4.58828 -0.155973 13.7408 -4.14639 -0.206654 13.4023 
-4.58828 -0.155973 13.7408 -4.56821 0.247746 13.7313 -4.14793 0.200965 13.4042 
-4.56821 0.247746 13.7313 -4.53524 0.683684 13.7381 -4.11338 0.592974 13.4059 
-4.0799 1.24908 13.4979 -4.09308 1.68426 13.6171 -3.67194 1.53321 13.2621 
-4.09308 1.68426 13.6171 -3.9102 2.07059 13.6167 -3.55367 1.8821 13.2983 
-1.27316 4.07327 13.4977 -0.933128 4.50836 13.7503 -0.854736 4.06389 13.4042 
-0.572171 4.25944 13.5221 -0.267426 4.57482 13.7354 -0.114668 4.15451 13.405 
-0.267426 4.57482 13.7354 0.157338 4.55671 13.7198 -0.114668 4.15451 13.405 
0.157338 4.55671 13.7198 0.485109 4.54714 13.7302 0.378858 4.13521 13.4035 
1.84548 3.85038 13.4977 2.44593 3.83134 13.7094 2.32126 3.43438 13.3937 
2.44593 3.83134 13.7094 2.73711 3.66145 13.7291 2.32126 3.43438 13.3937 
2.81954 3.21471 13.5043 3.31146 3.14566 13.7243 3.02486 2.8462 13.4036 
3.42142 2.63181 13.535 3.84553 2.45451 13.7222 3.45806 2.06152 13.2991 
3.84553 2.45451 13.7222 3.99396 2.19775 13.7185 3.45806 2.06152 13.2991 
4.16458 0.913147 13.4947 4.5276 0.682604 13.7336 4.12921 0.441365 13.4026 
4.5276 0.682604 13.7336 4.56251 0.337254 13.7306 4.12921 0.441365 13.4026 
4.56251 0.337254 13.7306 4.61201 0.00113449 13.7573 4.15248 0 13.405 
4.15248 0 13.405 4.28006 -0.311335 13.5163 3.8862 -0.411334 13.196 
4.28006 -0.311335 13.5163 4.24663 -0.622219 13.5178 3.8862 -0.411334 13.196 
3.85743 -1.16016 13.3044 4.00784 -1.53216 13.5158 3.51988 -1.34893 13.0787 
4.00784 -1.53216 13.5158 3.88691 -1.82051 13.518 3.39977 -1.60418 13.0711 
3.24859 -2.36995 13.2957 3.19773 -2.86351 13.5182 2.8087 -2.52007 13.0835 
2.71294 -2.98923 13.3079 2.41734 -3.37671 13.4042 2.18286 -3.06253 13.0712 
2.41734 -3.37671 13.4042 2.08107 -3.58597 13.3981 1.96365 -3.21531 13.0787 
2.08107 -3.58597 13.3981 1.7179 -3.78082 13.4042 1.63121 -3.35127 13.0406 
1.7179 -3.78082 13.4042 1.25575 -3.9556 13.4004 1.43522 -3.61635 13.1843 
1.25575 -3.9556 13.4004 0.756832 -4.08272 13.4027 0.981464 -3.76421 13.1811 
0.756832 -4.08272 13.4027 0.361577 -4.2591 13.5035 0.500987 -3.79391 13.1281 
0.361577 -4.2591 13.5035 0.0476027 -4.28762 13.5148 0.0388086 -3.891 13.1823 
0.0476027 -4.28762 13.5148 -0.384228 -4.14247 13.4082 0.0388086 -3.891 13.1823 
-0.850486 -3.98568 13.3427 -1.27824 -4.08581 13.5087 -1.13226 -3.61785 13.0987 
-1.27824 -4.08581 13.5087 -1.58577 -3.99459 13.5222 -1.48279 -3.47144 13.0846 
-1.58577 -3.99459 13.5222 -1.80723 -3.73893 13.4042 -1.48279 -3.47144 13.0846 
-1.80723 -3.73893 13.4042 -2.1636 -3.54535 13.4036 -1.79636 -3.30631 13.0737 
-2.1636 -3.54535 13.4036 -2.55436 -3.41182 13.4942 -2.20835 -3.05823 13.08 
-2.55436 -3.41182 13.4942 -2.86124 -2.98529 13.3872 -2.54521 -2.76128 13.0658 
-2.86124 -2.98529 13.3872 -3.32287 -2.68433 13.5009 -2.89911 -2.59842 13.1861 
-3.32287 -2.68433 13.5009 -3.58005 -2.35725 13.5114 -3.13575 -2.30326 13.1843 
-3.58005 -2.35725 13.5114 -3.79125 -1.9991 13.5121 -3.40034 -1.91252 13.1923 
-3.79125 -1.9991 13.5121 -3.96413 -1.62314 13.5092 -3.62147 -1.399 13.1735 
-3.96413 -1.62314 13.5092 -4.10044 -1.225 13.507 -3.62147 -1.399 13.1735 
-4.10044 -1.225 13.507 -4.08793 -0.7163 13.4005 -3.77563 -0.939426 13.1843 
-4.08793 -0.7163 13.4005 -4.14639 -0.206654 13.4023 -3.86197 -0.469814 13.1815 
-4.14639 -0.206654 13.4023 -4.14793 0.200965 13.4042 -3.7807 -0.00698719 13.0888 
-4.14793 0.200965 13.4042 -4.11338 0.592974 13.4059 -3.7487 0.462022 13.0831 
-4.11338 0.592974 13.4059 -4.19978 0.937471 13.5263 -3.6807 0.912378 13.0994 
-4.19978 0.937471 13.5263 -4.0799 1.24908 13.4979 -3.6807 0.912378 13.0994 
-4.0799 1.24908 13.4979 -3.67194 1.53321 13.2621 -3.66722 1.29979 13.1843 
-3.55367 1.8821 13.2983 -3.57451 2.36344 13.5105 -3.20376 2.00323 13.0881 
-3.57451 2.36344 13.5105 -3.31399 2.70001 13.5032 -3.1388 2.30317 13.1861 
-3.31399 2.70001 13.5032 -3.04449 3.01397 13.5097 -2.74924 2.62176 13.1045 
-3.04449 3.01397 13.5097 -2.75509 3.29415 13.5192 -2.41603 2.9024 13.0851 
-2.75509 3.29415 13.5192 -2.49914 3.49589 13.5218 -2.18908 3.21973 13.1853 
-2.49914 3.49589 13.5218 -2.2186 3.6566 13.5052 -2.18908 3.21973 13.1853 
-2.2186 3.6566 13.5052 -1.95001 3.81412 13.5115 -1.86442 3.41769 13.1861 
-1.95001 3.81412 13.5115 -1.66248 3.94361 13.5076 -1.55544 3.42601 13.0751 
-1.66248 3.94361 13.5076 -1.27316 4.07327 13.4977 -1.2308 3.69938 13.1893 
-1.27316 4.07327 13.4977 -0.854736 4.06389 13.4042 -0.7667 3.68281 13.0722 
-0.854736 4.06389 13.4042 -0.572171 4.25944 13.5221 -0.427265 3.87011 13.1855 
-0.572171 4.25944 13.5221 -0.114668 4.15451 13.405 -0.427265 3.87011 13.1855 
-0.114668 4.15451 13.405 0.378858 4.13521 13.4035 0.335258 3.87975 13.1862 
0.378858 4.13521 13.4035 0.773 4.21049 13.5085 0.70656 3.82851 13.1861 
0.773 4.21049 13.5085 1.08919 4.15699 13.5218 1.03478 3.6419 13.0946 
1.08919 4.15699 13.5218 1.39168 4.04408 13.5051 1.03478 3.6419 13.0946 
1.39168 4.04408 13.5051 1.84548 3.85038 13.4977 1.43438 3.61929 13.1861 
1.84548 3.85038 13.4977 2.32126 3.43438 13.3937 1.86314 3.41234 13.1792 
2.32126 3.43438 13.3937 2.81954 3.21471 13.5043 2.48861 2.99038 13.185 
2.81954 3.21471 13.5043 3.02486 2.8462 13.4036 2.79429 2.71887 13.1893 
3.02486 2.8462 13.4036 3.42142 2.63181 13.535 3.08105 2.37987 13.1861 
3.45806 2.06152 13.2991 3.89871 1.82746 13.5284 3.56315 1.56814 13.1849 
3.89871 1.82746 13.5284 4.06419 1.38232 13.5154 3.56315 1.56814 13.1849 
4.06419 1.38232 13.5154 4.16458 0.913147 13.4947 3.81129 0.767315 13.1796 
4.16458 0.913147 13.4947 4.12921 0.441365 13.4026 3.81129 0.767315 13.1796 
4.12921 0.441365 13.4026 4.15248 0 13.405 3.72759 -0.00172905 13.0403 
3.8862 -0.411334 13.196 3.93654 -0.87477 13.307 3.53386 -0.89596 12.9613 
3.93654 -0.87477 13.307 3.85743 -1.16016 13.3044 3.53386 -0.89596 12.9613 
3.39977 -1.60418 13.0711 3.51762 -1.97178 13.307 3.11051 -1.87326 12.9482 
3.51762 -1.97178 13.307 3.24859 -2.36995 13.2957 3.11051 -1.87326 12.9482 
2.8087 -2.52007 13.0835 2.71294 -2.98923 13.3079 2.45109 -2.69021 12.9564 
1.43522 -3.61635 13.1843 0.981464 -3.76421 13.1811 1.15153 -3.44908 12.9549 
0.500987 -3.79391 13.1281 0.0388086 -3.891 13.1823 0.028769 -3.51367 12.8385 
0.0388086 -3.891 13.1823 -0.425208 -3.86986 13.1861 -0.396417 -3.61471 12.9555 
-0.425208 -3.86986 13.1861 -0.850486 -3.98568 13.3427 -0.747366 -3.56064 12.9558 
-2.54521 -2.76128 13.0658 -2.89911 -2.59842 13.1861 -2.65137 -2.29049 12.8288 
-2.89911 -2.59842 13.1861 -3.13575 -2.30326 13.1843 -2.65137 -2.29049 12.8288 
-3.13575 -2.30326 13.1843 -3.40034 -1.91252 13.1923 -2.92977 -1.94498 12.8439 
-3.40034 -1.91252 13.1923 -3.62147 -1.399 13.1735 -3.16326 -1.58095 12.8612 
-3.62147 -1.399 13.1735 -3.77563 -0.939426 13.1843 -3.41973 -0.784142 12.8332 
-3.77563 -0.939426 13.1843 -3.86197 -0.469814 13.1815 -3.41973 -0.784142 12.8332 
-3.6807 0.912378 13.0994 -3.66722 1.29979 13.1843 -3.2816 1.26134 12.8404 
-3.66722 1.29979 13.1843 -3.67194 1.53321 13.2621 -3.2816 1.26134 12.8404 
-3.67194 1.53321 13.2621 -3.55367 1.8821 13.2983 -3.11625 1.63473 12.8466 
-3.20376 2.00323 13.0881 -3.1388 2.30317 13.1861 -2.83754 2.26337 12.948 
-3.1388 2.30317 13.1861 -2.74924 2.62176 13.1045 -2.83754 2.26337 12.948 
-2.41603 2.9024 13.0851 -2.18908 3.21973 13.1853 -1.94385 2.90922 12.8268 
-2.18908 3.21973 13.1853 -1.86442 3.41769 13.1861 -1.69294 3.09738 12.8563 
-1.55544 3.42601 13.0751 -1.2308 3.69938 13.1893 -1.11878 3.33531 12.8429 
-0.7667 3.68281 13.0722 -0.427265 3.87011 13.1855 -0.393158 3.44695 12.7968 
-0.427265 3.87011 13.1855 -0.048007 3.89285 13.1861 -0.0343354 3.48135 12.8113 
-0.048007 3.89285 13.1861 0.335258 3.87975 13.1862 0.302272 3.46454 12.8064 
0.335258 3.87975 13.1862 0.70656 3.82851 13.1861 0.711496 3.43956 12.8374 
1.03478 3.6419 13.0946 1.43438 3.61929 13.1861 1.33908 3.38085 12.9555 
1.43438 3.61929 13.1861 1.86314 3.41234 13.1792 1.72062 3.20243 12.9528 
2.20795 3.08631 13.1005 2.48861 2.99038 13.185 2.17988 2.73835 12.8275 
2.48861 2.99038 13.185 2.79429 2.71887 13.1893 2.43674 2.54425 12.8505 
2.79429 2.71887 13.1893 3.08105 2.37987 13.1861 2.80463 2.30672 12.949 
3.08105 2.37987 13.1861 3.45806 2.06152 13.2991 3.10389 1.8934 12.9527 
3.45806 2.06152 13.2991 3.56315 1.56814 13.1849 3.31932 1.46795 12.9483 
3.56315 1.56814 13.1849 3.69948 1.21263 13.1861 3.45525 1.13337 12.9555 
3.69948 1.21263 13.1861 3.81129 0.767315 13.1796 3.55723 0.738899 12.9508 
3.72759 -0.00172905 13.0403 3.59868 -0.458113 12.9473 3.37594 -0.237064 12.7119 
3.59868 -0.458113 12.9473 3.53386 -0.89596 12.9613 3.34109 -0.573798 12.7181 
3.53386 -0.89596 12.9613 3.51988 -1.34893 13.0787 3.14161 -1.27226 12.7157 
3.51988 -1.34893 13.0787 3.39977 -1.60418 13.0711 3.14161 -1.27226 12.7157 
3.39977 -1.60418 13.0711 3.11051 -1.87326 12.9482 2.91328 -1.72676 12.7122 
2.78602 -2.14884 12.848 2.8087 -2.52007 13.0835 2.47102 -2.32196 12.7179 
2.8087 -2.52007 13.0835 2.45109 -2.69021 12.9564 2.47102 -2.32196 12.7179 
2.45109 -2.69021 12.9564 2.18286 -3.06253 13.0712 2.15576 -2.60948 12.7102 
2.18286 -3.06253 13.0712 1.96365 -3.21531 13.0787 1.77582 -2.73755 12.5911 
1.96365 -3.21531 13.0787 1.63121 -3.35127 13.0406 1.55123 -3.01426 12.7181 
1.63121 -3.35127 13.0406 1.15153 -3.44908 12.9549 1.20972 -3.0416 12.6027 
0.861201 -3.35889 12.7949 0.500987 -3.79391 13.1281 0.4535 -3.35968 12.7172 
0.028769 -3.51367 12.8385 -0.396417 -3.61471 12.9555 -0.357767 -3.25377 12.6019 
-0.396417 -3.61471 12.9555 -0.747366 -3.56064 12.9558 -0.676332 -3.20254 12.6011 
-0.747366 -3.56064 12.9558 -1.13226 -3.61785 13.0987 -1.0989 -3.20119 12.7098 
-1.13226 -3.61785 13.0987 -1.48279 -3.47144 13.0846 -1.0989 -3.20119 12.7098 
-1.48279 -3.47144 13.0846 -1.79636 -3.30631 13.0737 -1.493 -3.04525 12.7191 
-1.79636 -3.30631 13.0737 -2.20835 -3.05823 13.08 -1.85606 -2.82005 12.7022 
-2.20835 -3.05823 13.08 -2.54521 -2.76128 13.0658 -2.24157 -2.5401 12.7148 
-3.7807 -0.00698719 13.0888 -3.7487 0.462022 13.0831 -3.36128 0.417637 12.7131 
-3.7487 0.462022 13.0831 -3.6807 0.912378 13.0994 -3.29029 0.81616 12.7181 
-3.11625 1.63473 12.8466 -3.20376 2.00323 13.0881 -2.78195 1.91572 12.7036 
-3.20376 2.00323 13.0881 -2.83754 2.26337 12.948 -2.78195 1.91572 12.7036 
-2.83754 2.26337 12.948 -2.74924 2.62176 13.1045 -2.33425 2.3038 12.6086 
-2.74924 2.62176 13.1045 -2.41603 2.9024 13.0851 -2.12269 2.62966 12.7056 
-2.41603 2.9024 13.0851 -1.94385 2.90922 12.8268 -2.12269 2.62966 12.7056 
-1.69294 3.09738 12.8563 -1.55544 3.42601 13.0751 -1.28832 3.01466 12.6068 
-1.11878 3.33531 12.8429 -0.7667 3.68281 13.0722 -0.698049 3.31736 12.7181 
1.03478 3.6419 13.0946 1.33908 3.38085 12.9555 1.05005 3.11008 12.6115 
1.33908 3.38085 12.9555 1.72062 3.20243 12.9528 1.35714 2.9991 12.6216 
1.72062 3.20243 12.9528 2.20795 3.08631 13.1005 1.77174 2.88719 12.7126 
2.43674 2.54425 12.8505 2.80463 2.30672 12.949 2.52578 2.05759 12.5837 
2.80463 2.30672 12.949 3.10389 1.8934 12.9527 2.71922 1.78408 12.5815 
3.10389 1.8934 12.9527 3.31932 1.46795 12.9483 2.88085 1.5029 12.577 
3.31932 1.46795 12.9483 3.45525 1.13337 12.9555 3.05238 1.14679 12.5902 
3.45525 1.13337 12.9555 3.55723 0.738899 12.9508 3.18126 0.788793 12.6037 
3.55723 0.738899 12.9508 3.748 0.372625 13.0777 3.25708 0.399316 12.6111 
3.748 0.372625 13.0777 3.72759 -0.00172905 13.0403 3.38897 0.0838845 12.7181 
3.38897 0.0838845 12.7181 3.37594 -0.237064 12.7119 3.05912 0.00257363 12.3719 
3.37594 -0.237064 12.7119 3.34109 -0.573798 12.7181 3.03569 -0.361274 12.3717 
3.34109 -0.573798 12.7181 3.26944 -0.896034 12.7181 2.97851 -0.653651 12.3634 
3.26944 -0.896034 12.7181 3.14161 -1.27226 12.7157 2.99563 -0.989946 12.4756 
3.14161 -1.27226 12.7157 2.91328 -1.72676 12.7122 2.85788 -1.34081 12.4753 
2.91328 -1.72676 12.7122 2.78602 -2.14884 12.848 2.36753 -1.89493 12.3435 
2.78602 -2.14884 12.848 2.47102 -2.32196 12.7179 2.36753 -1.89493 12.3435 
2.47102 -2.32196 12.7179 2.15576 -2.60948 12.7102 1.92827 -2.34288 12.3451 
1.77582 -2.73755 12.5911 1.55123 -3.01426 12.7181 1.39067 -2.71376 12.3629 
1.20972 -3.0416 12.6027 0.861201 -3.35889 12.7949 0.844256 -2.90377 12.3346 
0.861201 -3.35889 12.7949 0.4535 -3.35968 12.7172 0.573846 -3.10169 12.4749 
0.4535 -3.35968 12.7172 0.028769 -3.51367 12.8385 0.204883 -3.14278 12.4696 
-0.676332 -3.20254 12.6011 -1.0989 -3.20119 12.7098 -0.983732 -2.87357 12.3477 
-1.0989 -3.20119 12.7098 -1.493 -3.04525 12.7191 -1.37272 -2.83996 12.4749 
-1.493 -3.04525 12.7191 -1.85606 -2.82005 12.7022 -1.6408 -2.69113 12.4725 
-1.85606 -2.82005 12.7022 -2.24157 -2.5401 12.7148 -1.95375 -2.47123 12.4682 
-2.24157 -2.5401 12.7148 -2.65137 -2.29049 12.8288 -2.2415 -2.21797 12.473 
-2.65137 -2.29049 12.8288 -2.92977 -1.94498 12.8439 -2.62793 -1.74023 12.4725 
-2.92977 -1.94498 12.8439 -3.16326 -1.58095 12.8612 -2.81969 -1.40477 12.468 
-3.16326 -1.58095 12.8612 -3.30583 -1.18031 12.8383 -2.97606 -1.04731 12.4756 
-3.30583 -1.18031 12.8383 -3.41973 -0.784142 12.8332 -3.06103 -0.761505 12.4749 
-3.41973 -0.784142 12.8332 -3.47931 -0.291205 12.818 -3.11811 -0.460242 12.4725 
-3.47931 -0.291205 12.818 -3.3887 0.0825427 12.7188 -3.15495 -0.0783673 12.4744 
-3.3887 0.0825427 12.7188 -3.36128 0.417637 12.7131 -2.98672 0.345956 12.3155 
-3.36128 0.417637 12.7131 -3.29029 0.81616 12.7181 -3.04713 0.809873 12.4696 
-3.29029 0.81616 12.7181 -3.2816 1.26134 12.8404 -3.04713 0.809873 12.4696 
-3.2816 1.26134 12.8404 -3.11625 1.63473 12.8466 -2.78793 1.47552 12.4749 
-3.11625 1.63473 12.8466 -2.78195 1.91572 12.7036 -2.59223 1.78585 12.4662 
-2.33425 2.3038 12.6086 -2.12269 2.62966 12.7056 -1.95348 2.34837 12.3689 
-2.12269 2.62966 12.7056 -1.94385 2.90922 12.8268 -1.77312 2.6088 12.4749 
-1.94385 2.90922 12.8268 -1.69294 3.09738 12.8563 -1.45131 2.79499 12.4677 
-1.69294 3.09738 12.8563 -1.28832 3.01466 12.6068 -1.45131 2.79499 12.4677 
-1.11878 3.33531 12.8429 -0.698049 3.31736 12.7181 -0.849513 3.0347 12.4702 
-0.698049 3.31736 12.7181 -0.393158 3.44695 12.7968 -0.476989 2.98874 12.3403 
-0.393158 3.44695 12.7968 -0.0343354 3.48135 12.8113 -0.186581 3.04054 12.3593 
-0.0343354 3.48135 12.8113 0.302272 3.46454 12.8064 0.227364 3.02949 12.348 
0.302272 3.46454 12.8064 0.711496 3.43956 12.8374 0.638381 2.95637 12.3337 
1.35714 2.9991 12.6216 1.77174 2.88719 12.7126 1.57796 2.58759 12.3407 
1.77174 2.88719 12.7126 2.17988 2.73835 12.8275 1.87149 2.36664 12.3288 
2.17988 2.73835 12.8275 2.43674 2.54425 12.8505 2.23273 2.21241 12.4602 
2.43674 2.54425 12.8505 2.52578 2.05759 12.5837 2.23273 2.21241 12.4602 
3.25708 0.399316 12.6111 3.38897 0.0838845 12.7181 3.05912 0.00257363 12.3719 
2.97851 -0.653651 12.3634 2.99563 -0.989946 12.4756 2.67384 -0.883419 12.0964 
2.99563 -0.989946 12.4756 2.85788 -1.34081 12.4753 2.53907 -1.19393 12.0839 
1.92827 -2.34288 12.3451 1.77582 -2.73755 12.5911 1.52339 -2.36196 12.0932 
1.39067 -2.71376 12.3629 1.20972 -3.0416 12.6027 1.03431 -2.60909 12.0865 
0.844256 -2.90377 12.3346 0.573846 -3.10169 12.4749 0.42093 -2.75457 12.0609 
0.573846 -3.10169 12.4749 0.204883 -3.14278 12.4696 0.42093 -2.75457 12.0609 
0.204883 -3.14278 12.4696 -0.115102 -3.14948 12.4732 0.0422456 -2.80388 12.0828 
-0.115102 -3.14948 12.4732 -0.357767 -3.25377 12.6019 -0.270653 -2.7875 12.0818 
-0.357767 -3.25377 12.6019 -0.676332 -3.20254 12.6011 -0.560116 -2.74478 12.0814 
-0.983732 -2.87357 12.3477 -1.37272 -2.83996 12.4749 -1.30514 -2.50567 12.1071 
-1.37272 -2.83996 12.4749 -1.6408 -2.69113 12.4725 -1.30514 -2.50567 12.1071 
-1.6408 -2.69113 12.4725 -1.95375 -2.47123 12.4682 -1.59048 -2.33362 12.1073 
-1.95375 -2.47123 12.4682 -2.2415 -2.21797 12.473 -1.99036 -1.95936 12.0703 
-2.2415 -2.21797 12.473 -2.44837 -1.98878 12.4749 -2.2206 -1.72237 12.0889 
-2.44837 -1.98878 12.4749 -2.62793 -1.74023 12.4725 -2.2206 -1.72237 12.0889 
-2.62793 -1.74023 12.4725 -2.81969 -1.40477 12.468 -2.43419 -1.4482 12.1164 
-2.81969 -1.40477 12.468 -2.97606 -1.04731 12.4756 -2.64042 -0.929815 12.0778 
-2.97606 -1.04731 12.4756 -3.06103 -0.761505 12.4749 -2.7262 -0.61457 12.0719 
-3.06103 -0.761505 12.4749 -3.11811 -0.460242 12.4725 -2.7262 -0.61457 12.0719 
-3.11811 -0.460242 12.4725 -3.15495 -0.0783673 12.4744 -2.79626 -0.263039 12.0886 
-2.98672 0.345956 12.3155 -3.04713 0.809873 12.4696 -2.82667 0.735944 12.2144 
-2.79837 1.15422 12.3406 -2.78793 1.47552 12.4749 -2.53634 1.45068 12.2152 
-2.78793 1.47552 12.4749 -2.59223 1.78585 12.4662 -2.53634 1.45068 12.2152 
-2.59223 1.78585 12.4662 -2.46385 2.11428 12.5756 -2.23201 1.73043 12.1063 
-2.46385 2.11428 12.5756 -2.33425 2.3038 12.6086 -2.07988 2.05282 12.2189 
-1.95348 2.34837 12.3689 -1.77312 2.6088 12.4749 -1.57154 2.32416 12.0854 
-1.77312 2.6088 12.4749 -1.45131 2.79499 12.4677 -1.2923 2.48512 12.0781 
-1.45131 2.79499 12.4677 -1.28832 3.01466 12.6068 -0.947421 2.63826 12.0816 
-1.28832 3.01466 12.6068 -0.849513 3.0347 12.4702 -0.803268 2.80242 12.2097 
0.638381 2.95637 12.3337 1.05005 3.11008 12.6115 0.914913 2.66864 12.1055 
1.05005 3.11008 12.6115 1.35714 2.9991 12.6216 1.21112 2.66288 12.2213 
1.87149 2.36664 12.3288 2.23273 2.21241 12.4602 2.05615 2.06961 12.2114 
2.23273 2.21241 12.4602 2.52578 2.05759 12.5837 2.3457 1.74546 12.2165 
2.52578 2.05759 12.5837 2.71922 1.78408 12.5815 2.3457 1.74546 12.2165 
2.71922 1.78408 12.5815 2.88085 1.5029 12.577 2.45893 1.38961 12.1076 
2.88085 1.5029 12.577 3.05238 1.14679 12.5902 2.60135 1.09473 12.103 
3.05238 1.14679 12.5902 3.18126 0.788793 12.6037 2.79812 0.841829 12.2195 
3.18126 0.788793 12.6037 3.25708 0.399316 12.6111 2.85611 0.557954 12.204 
3.25708 0.399316 12.6111 3.05912 0.00257363 12.3719 2.77915 0.0849325 12.051 
3.05912 0.00257363 12.3719 3.03569 -0.361274 12.3717 2.69079 -0.282773 11.9607 
3.03569 -0.361274 12.3717 2.97851 -0.653651 12.3634 2.63723 -0.586101 11.9576 
2.53907 -1.19393 12.0839 2.55145 -1.60849 12.3268 2.18668 -1.36615 11.8042 
2.55145 -1.60849 12.3268 2.36753 -1.89493 12.3435 2.1401 -1.65006 11.9576 
2.36753 -1.89493 12.3435 2.14987 -2.12793 12.3374 1.96847 -1.85029 11.9576 
2.14987 -2.12793 12.3374 1.92827 -2.34288 12.3451 1.65768 -2.00252 11.8316 
1.52339 -2.36196 12.0932 1.39067 -2.71376 12.3629 1.23708 -2.40279 11.9576 
1.03431 -2.60909 12.0865 0.844256 -2.90377 12.3346 0.68265 -2.6014 11.9395 
0.844256 -2.90377 12.3346 0.42093 -2.75457 12.0609 0.68265 -2.6014 11.9395 
-0.560116 -2.74478 12.0814 -0.983732 -2.87357 12.3477 -0.888208 -2.55729 11.9602 
-2.79626 -0.263039 12.0886 -2.92233 -0.00134519 12.2189 -2.60126 0.00241035 11.8346 
-2.92233 -0.00134519 12.2189 -2.98672 0.345956 12.3155 -2.5656 0.37069 11.8181 
-2.98672 0.345956 12.3155 -2.82667 0.735944 12.2144 -2.5656 0.37069 11.8181 
-2.82667 0.735944 12.2144 -2.79837 1.15422 12.3406 -2.46596 0.798712 11.8223 
-2.79837 1.15422 12.3406 -2.53634 1.45068 12.2152 -2.33224 1.13215 11.8222 
-2.23201 1.73043 12.1063 -2.07988 2.05282 12.2189 -1.82226 1.85868 11.8354 
-2.07988 2.05282 12.2189 -1.95348 2.34837 12.3689 -1.60079 2.0302 11.8149 
-0.803268 2.80242 12.2097 -0.476989 2.98874 12.3403 -0.541318 2.54482 11.8345 
-0.476989 2.98874 12.3403 -0.186581 3.04054 12.3593 -0.296806 2.68522 11.9576 
-0.186581 3.04054 12.3593 0.227364 3.02949 12.348 0.0190684 2.70482 11.9606 
0.227364 3.02949 12.348 0.638381 2.95637 12.3337 0.542256 2.52243 11.8088 
0.914913 2.66864 12.1055 1.21112 2.66288 12.2213 1.05245 2.383 11.8379 
1.21112 2.66288 12.2213 1.57796 2.58759 12.3407 1.2982 2.24621 11.8268 
1.57796 2.58759 12.3407 1.87149 2.36664 12.3288 1.54768 2.06726 11.8096 
1.87149 2.36664 12.3288 2.05615 2.06961 12.2114 1.79986 1.8651 11.8222 
2.05615 2.06961 12.2114 2.3457 1.74546 12.2165 1.96204 1.6843 11.816 
2.60135 1.09473 12.103 2.79812 0.841829 12.2195 2.60822 0.671584 11.9433 
2.79812 0.841829 12.2195 2.85611 0.557954 12.204 2.60822 0.671584 11.9433 
2.85611 0.557954 12.204 2.77915 0.0849325 12.051 2.54704 0.301377 11.7888 
2.77915 0.0849325 12.051 2.69079 -0.282773 11.9607 2.48504 -0.021826 11.6792 
2.69079 -0.282773 11.9607 2.63723 -0.586101 11.9576 2.45297 -0.371606 11.6762 
2.63723 -0.586101 11.9576 2.67384 -0.883419 12.0964 2.40144 -0.657787 11.6889 
2.67384 -0.883419 12.0964 2.53907 -1.19393 12.0839 2.28605 -1.02051 11.7011 
2.53907 -1.19393 12.0839 2.18668 -1.36615 11.8042 2.28605 -1.02051 11.7011 
2.1401 -1.65006 11.9576 1.96847 -1.85029 11.9576 1.86586 -1.66587 11.7007 
1.65768 -2.00252 11.8316 1.52339 -2.36196 12.0932 1.29704 -2.01207 11.5632 
1.52339 -2.36196 12.0932 1.23708 -2.40279 11.9576 1.09168 -2.12688 11.5575 
1.23708 -2.40279 11.9576 1.03431 -2.60909 12.0865 0.868301 -2.21613 11.5452 
1.03431 -2.60909 12.0865 0.68265 -2.6014 11.9395 0.613211 -2.29952 11.5422 
0.68265 -2.6014 11.9395 0.42093 -2.75457 12.0609 0.375284 -2.35916 11.5575 
0.42093 -2.75457 12.0609 0.0422456 -2.80388 12.0828 0.137264 -2.40205 11.5776 
0.0422456 -2.80388 12.0828 -0.270653 -2.7875 12.0818 -0.140436 -2.39281 11.5671 
-0.270653 -2.7875 12.0818 -0.560116 -2.74478 12.0814 -0.417705 -2.35884 11.5627 
-0.560116 -2.74478 12.0814 -0.888208 -2.55729 11.9602 -0.762579 -2.36015 11.6713 
-0.888208 -2.55729 11.9602 -1.30514 -2.50567 12.1071 -1.13347 -2.21168 11.6808 
-1.30514 -2.50567 12.1071 -1.59048 -2.33362 12.1073 -1.40201 -2.05989 11.6904 
-1.59048 -2.33362 12.1073 -1.80169 -2.16936 12.1019 -1.64267 -1.87096 11.6859 
-1.80169 -2.16936 12.1019 -1.99036 -1.95936 12.0703 -1.64267 -1.87096 11.6859 
-1.99036 -1.95936 12.0703 -2.2206 -1.72237 12.0889 -1.92367 -1.57855 11.6817 
-2.2206 -1.72237 12.0889 -2.43419 -1.4482 12.1164 -2.14034 -1.27174 11.6875 
-2.43419 -1.4482 12.1164 -2.54979 -1.19551 12.0971 -2.26908 -1.0068 11.6776 
-2.54979 -1.19551 12.0971 -2.64042 -0.929815 12.0778 -2.26908 -1.0068 11.6776 
-2.64042 -0.929815 12.0778 -2.7262 -0.61457 12.0719 -2.38912 -0.704791 11.6895 
-2.7262 -0.61457 12.0719 -2.79626 -0.263039 12.0886 -2.37001 -0.228837 11.545 
-2.23201 1.73043 12.1063 -1.82226 1.85868 11.8354 -1.85617 1.66044 11.6887 
-1.57154 2.32416 12.0854 -1.2923 2.48512 12.0781 -1.29822 2.12467 11.6889 
-1.2923 2.48512 12.0781 -0.947421 2.63826 12.0816 -1.03174 2.26707 11.6876 
-0.541318 2.54482 11.8345 -0.296806 2.68522 11.9576 -0.256604 2.36646 11.5447 
-0.296806 2.68522 11.9576 0.0190684 2.70482 11.9606 -0.0410984 2.38233 11.5472 
0.542256 2.52243 11.8088 0.914913 2.66864 12.1055 0.760824 2.28158 11.5775 
2.11053 1.47464 11.801 2.45893 1.38961 12.1076 2.17066 1.21976 11.6889 
2.45893 1.38961 12.1076 2.60135 1.09473 12.103 2.29039 0.967077 11.6822 
2.60135 1.09473 12.103 2.60822 0.671584 11.9433 2.40514 0.633085 11.6823 
2.54704 0.301377 11.7888 2.77915 0.0849325 12.051 2.48504 -0.021826 11.6792 
2.48504 -0.021826 11.6792 2.45297 -0.371606 11.6762 2.14894 -0.262101 11.2397 
2.45297 -0.371606 11.6762 2.40144 -0.657787 11.6889 2.11855 -0.46601 11.2451 
2.40144 -0.657787 11.6889 2.28605 -1.02051 11.7011 2.07465 -0.669261 11.2618 
2.28605 -1.02051 11.7011 2.18668 -1.36615 11.8042 1.80495 -1.2474 11.2751 
2.18668 -1.36615 11.8042 1.86586 -1.66587 11.7007 1.80495 -1.2474 11.2751 
1.86586 -1.66587 11.7007 1.65768 -2.00252 11.8316 1.38751 -1.67674 11.2528 
-0.762579 -2.36015 11.6713 -1.13347 -2.21168 11.6808 -0.844905 -2.01009 11.2622 
-1.13347 -2.21168 11.6808 -1.40201 -2.05989 11.6904 -1.07674 -1.88943 11.2529 
-1.40201 -2.05989 11.6904 -1.64267 -1.87096 11.6859 -1.44301 -1.62568 11.2505 
-1.64267 -1.87096 11.6859 -1.92367 -1.57855 11.6817 -1.65881 -1.3925 11.2369 
-1.92367 -1.57855 11.6817 -2.14034 -1.27174 11.6875 -1.94941 -1.20112 11.4139 
-2.14034 -1.27174 11.6875 -2.26908 -1.0068 11.6776 -1.98631 -0.938039 11.2847 
-2.26908 -1.0068 11.6776 -2.38912 -0.704791 11.6895 -2.07186 -0.680151 11.2589 
-2.37001 -0.228837 11.545 -2.60126 0.00241035 11.8346 -2.283 0.0512383 11.4044 
-2.60126 0.00241035 11.8346 -2.5656 0.37069 11.8181 -2.283 0.0512383 11.4044 
-2.5656 0.37069 11.8181 -2.46596 0.798712 11.8223 -2.19837 0.626598 11.4074 
-2.46596 0.798712 11.8223 -2.33224 1.13215 11.8222 -2.08826 0.93483 11.412 
-2.33224 1.13215 11.8222 -2.12395 1.43114 11.7809 -1.96947 1.16793 11.416 
-2.12395 1.43114 11.7809 -1.85617 1.66044 11.6887 -1.81483 1.38836 11.4075 
-1.85617 1.66044 11.6887 -1.82226 1.85868 11.8354 -1.60398 1.64583 11.4256 
-1.82226 1.85868 11.8354 -1.60079 2.0302 11.8149 -1.25844 1.80334 11.282 
-1.60079 2.0302 11.8149 -1.29822 2.12467 11.6889 -1.25844 1.80334 11.282 
-1.29822 2.12467 11.6889 -1.03174 2.26707 11.6876 -0.901498 1.96005 11.2271 
-0.7372 2.28526 11.572 -0.541318 2.54482 11.8345 -0.50892 2.23397 11.4164 
-0.0410984 2.38233 11.5472 0.243869 2.58161 11.827 0.225644 2.15548 11.2388 
0.243869 2.58161 11.827 0.542256 2.52243 11.8088 0.225644 2.15548 11.2388 
0.542256 2.52243 11.8088 0.760824 2.28158 11.5775 0.536601 2.09813 11.2381 
1.05245 2.383 11.8379 1.2982 2.24621 11.8268 1.01047 2.05272 11.412 
1.2982 2.24621 11.8268 1.54768 2.06726 11.8096 1.23908 1.92549 11.416 
1.54768 2.06726 11.8096 1.79986 1.8651 11.8222 1.4537 1.76296 11.4076 
1.79986 1.8651 11.8222 1.96204 1.6843 11.816 1.70325 1.54278 11.4255 
1.96204 1.6843 11.816 2.11053 1.47464 11.801 1.80458 1.26861 11.2975 
2.11053 1.47464 11.801 2.17066 1.21976 11.6889 1.91463 1.0725 11.2816 
2.17066 1.21976 11.6889 2.29039 0.967077 11.6822 2.05255 0.779304 11.2774 
2.29039 0.967077 11.6822 2.40514 0.633085 11.6823 2.05255 0.779304 11.2774 
2.40514 0.633085 11.6823 2.54704 0.301377 11.7888 2.1572 0.343853 11.2634 
2.54704 0.301377 11.7888 2.48504 -0.021826 11.6792 2.15778 -0.0095482 11.2277 
1.38751 -1.67674 11.2528 1.29704 -2.01207 11.5632 1.13013 -1.62294 10.9506 
1.29704 -2.01207 11.5632 1.09168 -2.12688 11.5575 0.898587 -1.81773 11.028 
1.09168 -2.12688 11.5575 0.868301 -2.21613 11.5452 0.898587 -1.81773 11.028 
0.868301 -2.21613 11.5452 0.613211 -2.29952 11.5422 0.664635 -1.98635 11.1299 
0.613211 -2.29952 11.5422 0.375284 -2.35916 11.5575 0.414171 -2.05012 11.1233 
0.375284 -2.35916 11.5575 0.137264 -2.40205 11.5776 0.123141 -2.08985 11.1273 
0.137264 -2.40205 11.5776 -0.140436 -2.39281 11.5671 -0.126189 -2.09091 11.1305 
-0.140436 -2.39281 11.5671 -0.417705 -2.35884 11.5627 -0.373201 -2.05617 11.1212 
-1.65881 -1.3925 11.2369 -1.94941 -1.20112 11.4139 -1.70853 -1.0705 11.0101 
-2.07186 -0.680151 11.2589 -2.33277 -0.459466 11.5402 -2.08467 -0.308837 11.1439 
-2.33277 -0.459466 11.5402 -2.37001 -0.228837 11.545 -2.08467 -0.308837 11.1439 
-2.37001 -0.228837 11.545 -2.283 0.0512383 11.4044 -1.98292 0.085091 10.9614 
-2.283 0.0512383 11.4044 -2.26575 0.334248 11.4161 -1.97877 0.302654 10.9893 
-2.26575 0.334248 11.4161 -2.19837 0.626598 11.4074 -1.93555 0.532415 10.9959 
-2.19837 0.626598 11.4074 -2.08826 0.93483 11.412 -1.86731 0.759678 11.0115 
-2.08826 0.93483 11.412 -1.96947 1.16793 11.416 -1.74377 0.963094 10.9738 
-1.96947 1.16793 11.416 -1.81483 1.38836 11.4075 -1.56009 1.24554 10.976 
-1.81483 1.38836 11.4075 -1.60398 1.64583 11.4256 -1.56009 1.24554 10.976 
-0.901498 1.96005 11.2271 -0.7372 2.28526 11.572 -0.593607 2.00895 11.1268 
-0.7372 2.28526 11.572 -0.50892 2.23397 11.4164 -0.593607 2.00895 11.1268 
-0.50892 2.23397 11.4164 -0.256604 2.36646 11.5447 -0.284737 2.0717 11.1225 
-0.256604 2.36646 11.5447 -0.0410984 2.38233 11.5472 -0.0389473 2.09711 11.1341 
0.536601 2.09813 11.2381 0.760824 2.28158 11.5775 0.774525 1.85365 10.9987 
0.760824 2.28158 11.5775 1.01047 2.05272 11.412 0.774525 1.85365 10.9987 
1.01047 2.05272 11.412 1.23908 1.92549 11.416 1.03071 1.73206 11.0097 
1.23908 1.92549 11.416 1.4537 1.76296 11.4076 1.29885 1.50688 10.9641 
1.4537 1.76296 11.4076 1.70325 1.54278 11.4255 1.29885 1.50688 10.9641 
2.15778 -0.0095482 11.2277 2.14894 -0.262101 11.2397 1.83476 -0.0352113 10.7086 
2.14894 -0.262101 11.2397 2.11855 -0.46601 11.2451 1.80218 -0.355536 10.7168 
2.11855 -0.46601 11.2451 2.07465 -0.669261 11.2618 1.73349 -0.565427 10.6967 
2.07465 -0.669261 11.2618 2.00231 -0.919994 11.2934 1.70586 -0.842988 10.8216 
2.00231 -0.919994 11.2934 1.80495 -1.2474 11.2751 1.70586 -0.842988 10.8216 
1.80495 -1.2474 11.2751 1.59668 -1.49934 11.2753 1.33949 -1.35505 10.826 
1.59668 -1.49934 11.2753 1.38751 -1.67674 11.2528 1.33949 -1.35505 10.826 
0.898587 -1.81773 11.028 0.664635 -1.98635 11.1299 0.612192 -1.72149 10.7016 
0.664635 -1.98635 11.1299 0.414171 -2.05012 11.1233 0.322822 -1.7697 10.6519 
0.414171 -2.05012 11.1233 0.123141 -2.08985 11.1273 0.322822 -1.7697 10.6519 
0.123141 -2.08985 11.1273 -0.126189 -2.09091 11.1305 0.0331969 -1.7987 10.6537 
-0.126189 -2.09091 11.1305 -0.373201 -2.05617 11.1212 -0.200012 -1.79977 10.6774 
-0.373201 -2.05617 11.1212 -0.646272 -2.07136 11.2465 -0.483545 -1.76501 10.7036 
-0.646272 -2.07136 11.2465 -0.844905 -2.01009 11.2622 -0.763252 -1.66605 10.7113 
-0.844905 -2.01009 11.2622 -1.07674 -1.88943 11.2529 -0.763252 -1.66605 10.7113 
-1.07674 -1.88943 11.2529 -1.2769 -1.78624 11.2839 -1.09852 -1.46286 10.7099 
-1.2769 -1.78624 11.2839 -1.44301 -1.62568 11.2505 -1.09852 -1.46286 10.7099 
-1.44301 -1.62568 11.2505 -1.65881 -1.3925 11.2369 -1.26191 -1.3075 10.6869 
-1.70853 -1.0705 11.0101 -1.98631 -0.938039 11.2847 -1.7575 -0.745572 10.8323 
-1.98631 -0.938039 11.2847 -2.07186 -0.680151 11.2589 -1.7575 -0.745572 10.8323 
-2.07186 -0.680151 11.2589 -2.08467 -0.308837 11.1439 -1.85497 -0.462171 10.8416 
-2.08467 -0.308837 11.1439 -1.98292 0.085091 10.9614 -1.89515 -0.180636 10.8248 
-1.34212 1.46625 10.9674 -1.25844 1.80334 11.282 -1.10504 1.56184 10.8402 
-1.25844 1.80334 11.282 -0.901498 1.96005 11.2271 -0.85965 1.70748 10.8397 
-0.901498 1.96005 11.2271 -0.593607 2.00895 11.1268 -0.558909 1.74432 10.7058 
-0.593607 2.00895 11.1268 -0.284737 2.0717 11.1225 -0.244881 1.80334 10.6888 
-0.284737 2.0717 11.1225 -0.0389473 2.09711 11.1341 -0.031127 1.82177 10.6943 
-0.0389473 2.09711 11.1341 0.225644 2.15548 11.2388 0.201234 1.81078 10.6913 
0.225644 2.15548 11.2388 0.536601 2.09813 11.2381 0.4535 1.76749 10.6976 
1.80458 1.26861 11.2975 1.91463 1.0725 11.2816 1.68613 0.895804 10.8348 
1.91463 1.0725 11.2816 2.05255 0.779304 11.2774 1.68613 0.895804 10.8348 
2.05255 0.779304 11.2774 2.1572 0.343853 11.2634 1.878 0.337848 10.8304 
2.1572 0.343853 11.2634 2.15778 -0.0095482 11.2277 1.83476 -0.0352113 10.7086 
1.73349 -0.565427 10.6967 1.70586 -0.842988 10.8216 1.49937 -0.71078 10.4028 
1.70586 -0.842988 10.8216 1.54919 -1.11841 10.8383 1.36972 -0.92098 10.3902 
1.54919 -1.11841 10.8383 1.33949 -1.35505 10.826 1.1977 -1.14267 10.3947 
1.33949 -1.35505 10.826 1.13013 -1.62294 10.9506 0.970535 -1.33127 10.3817 
1.13013 -1.62294 10.9506 0.898587 -1.81773 11.028 0.970535 -1.33127 10.3817 
-1.70853 -1.0705 11.0101 -1.7575 -0.745572 10.8323 -1.51357 -0.851834 10.541 
-1.7575 -0.745572 10.8323 -1.85497 -0.462171 10.8416 -1.56808 -0.530831 10.3947 
-1.85497 -0.462171 10.8416 -1.89515 -0.180636 10.8248 -1.63963 -0.245382 10.4003 
-1.89515 -0.180636 10.8248 -1.98292 0.085091 10.9614 -1.73665 -0.0436865 10.541 
-1.98292 0.085091 10.9614 -1.97877 0.302654 10.9893 -1.72536 0.20117 10.5419 
-1.97877 0.302654 10.9893 -1.93555 0.532415 10.9959 -1.62775 0.434753 10.4501 
-1.93555 0.532415 10.9959 -1.86731 0.759678 11.0115 -1.51814 0.674967 10.4098 
-1.86731 0.759678 11.0115 -1.74377 0.963094 10.9738 -1.51814 0.674967 10.4098 
-1.74377 0.963094 10.9738 -1.56009 1.24554 10.976 -1.3997 0.886693 10.4044 
-1.56009 1.24554 10.976 -1.34212 1.46625 10.9674 -1.27882 1.17556 10.5366 
-1.34212 1.46625 10.9674 -1.10504 1.56184 10.8402 -0.979843 1.32619 10.3857 
-1.10504 1.56184 10.8402 -0.85965 1.70748 10.8397 -0.732712 1.46289 10.3628 
0.4535 1.76749 10.6976 0.774525 1.85365 10.9987 0.628273 1.52361 10.3823 
0.774525 1.85365 10.9987 1.03071 1.73206 11.0097 0.883011 1.40424 10.4037 
1.03071 1.73206 11.0097 1.29885 1.50688 10.9641 1.08936 1.34945 10.5362 
1.29885 1.50688 10.9641 1.55789 1.19932 10.9257 1.32472 1.13092 10.5446 
1.55789 1.19932 10.9257 1.68613 0.895804 10.8348 1.51792 0.855335 10.5489 
1.68613 0.895804 10.8348 1.79711 0.652847 10.8407 1.5818 0.542934 10.4232 
1.79711 0.652847 10.8407 1.878 0.337848 10.8304 1.5818 0.542934 10.4232 
1.83476 -0.0352113 10.7086 1.80218 -0.355536 10.7168 1.48339 -0.316762 10.1323 
1.80218 -0.355536 10.7168 1.73349 -0.565427 10.6967 1.39409 -0.512844 10.0708 
0.764091 -1.47075 10.4014 0.612192 -1.72149 10.7016 0.535952 -1.40851 10.1121 
0.612192 -1.72149 10.7016 0.322822 -1.7697 10.6519 0.313957 -1.47267 10.1111 
0.322822 -1.7697 10.6519 0.0331969 -1.7987 10.6537 0.109423 -1.50207 10.1103 
0.0331969 -1.7987 10.6537 -0.200012 -1.79977 10.6774 -0.0792005 -1.49712 10.0976 
-0.200012 -1.79977 10.6774 -0.483545 -1.76501 10.7036 -0.368475 -1.54681 10.2662 
-0.483545 -1.76501 10.7036 -0.763252 -1.66605 10.7113 -0.63745 -1.43938 10.2411 
-0.763252 -1.66605 10.7113 -0.956129 -1.56568 10.7148 -0.842351 -1.33072 10.2424 
-0.956129 -1.56568 10.7148 -1.09852 -1.46286 10.7099 -0.842351 -1.33072 10.2424 
-1.09852 -1.46286 10.7099 -1.26191 -1.3075 10.6869 -0.997177 -1.1323 10.112 
-1.26191 -1.3075 10.6869 -1.41698 -1.10606 10.6514 -1.17314 -0.90569 10.0633 
-1.41698 -1.10606 10.6514 -1.51357 -0.851834 10.541 -1.30509 -0.698268 10.0565 
-1.51357 -0.851834 10.541 -1.56808 -0.530831 10.3947 -1.30509 -0.698268 10.0565 
-1.73665 -0.0436865 10.541 -1.72536 0.20117 10.5419 -1.47648 0.169861 10.0709 
-1.3997 0.886693 10.4044 -1.27882 1.17556 10.5366 -1.16703 1.06044 10.2404 
-0.732712 1.46289 10.3628 -0.558909 1.74432 10.7058 -0.461292 1.42871 10.1009 
-0.558909 1.74432 10.7058 -0.244881 1.80334 10.6888 -0.202379 1.55583 10.2237 
-0.244881 1.80334 10.6888 -0.031127 1.82177 10.6943 -0.202379 1.55583 10.2237 
-0.031127 1.82177 10.6943 0.201234 1.81078 10.6913 0.139297 1.57348 10.2487 
0.201234 1.81078 10.6913 0.4535 1.76749 10.6976 0.383155 1.52787 10.243 
1.08936 1.34945 10.5362 1.32472 1.13092 10.5446 1.05816 1.16583 10.2413 
1.32472 1.13092 10.5446 1.51792 0.855335 10.5489 1.26486 0.805545 10.0994 
1.51792 0.855335 10.5489 1.5818 0.542934 10.4232 1.36383 0.588304 10.0667 
1.63739 0.244643 10.3972 1.83476 -0.0352113 10.7086 1.57196 -0.0288486 10.2332 
1.57196 -0.0288486 10.2332 1.48339 -0.316762 10.1323 1.35546 -0.0745226 9.79269 
1.49937 -0.71078 10.4028 1.36972 -0.92098 10.3902 1.17429 -0.693194 9.81483 
1.36972 -0.92098 10.3902 1.1977 -1.14267 10.3947 1.03019 -0.87809 9.79529 
1.1977 -1.14267 10.3947 0.970535 -1.33127 10.3817 0.918172 -1.08416 9.92742 
0.970535 -1.33127 10.3817 0.764091 -1.47075 10.4014 0.712596 -1.23208 9.93949 
-0.0792005 -1.49712 10.0976 -0.368475 -1.54681 10.2662 -0.28494 -1.3019 9.74501 
-0.368475 -1.54681 10.2662 -0.63745 -1.43938 10.2411 -0.496466 -1.25983 9.79396 
-0.63745 -1.43938 10.2411 -0.842351 -1.33072 10.2424 -0.678406 -1.17072 9.78998 
-1.30509 -0.698268 10.0565 -1.56808 -0.530831 10.3947 -1.34102 -0.476948 9.93949 
-1.56808 -0.530831 10.3947 -1.63963 -0.245382 10.4003 -1.39021 -0.272317 9.92172 
-1.47648 0.169861 10.0709 -1.62775 0.434753 10.4501 -1.365 0.400862 9.93099 
-1.62775 0.434753 10.4501 -1.51814 0.674967 10.4098 -1.365 0.400862 9.93099 
-1.51814 0.674967 10.4098 -1.3997 0.886693 10.4044 -1.20848 0.600251 9.78318 
-1.3997 0.886693 10.4044 -1.16703 1.06044 10.2404 -1.1192 0.773182 9.80673 
-1.16703 1.06044 10.2404 -0.979843 1.32619 10.3857 -0.951462 0.979555 9.81266 
-0.979843 1.32619 10.3857 -0.732712 1.46289 10.3628 -0.735641 1.14515 9.80612 
-0.732712 1.46289 10.3628 -0.461292 1.42871 10.1009 -0.582966 1.30096 9.94234 
-0.202379 1.55583 10.2237 0.139297 1.57348 10.2487 0.0183677 1.36881 9.82479 
0.139297 1.57348 10.2487 0.383155 1.52787 10.243 0.275413 1.33197 9.80247 
0.383155 1.52787 10.243 0.628273 1.52361 10.3823 0.506719 1.33289 9.94162 
0.628273 1.52361 10.3823 0.883011 1.40424 10.4037 0.708125 1.16727 9.81084 
0.883011 1.40424 10.4037 1.05816 1.16583 10.2413 0.909408 0.993988 9.77799 
1.36383 0.588304 10.0667 1.5818 0.542934 10.4232 1.37923 0.346921 9.93427 
1.5818 0.542934 10.4232 1.63739 0.244643 10.3972 1.37923 0.346921 9.93427 
1.63739 0.244643 10.3972 1.57196 -0.0288486 10.2332 1.41396 0.150478 9.93491 
1.35546 -0.0745226 9.79269 1.48339 -0.316762 10.1323 1.18383 -0.292076 9.48379 
1.48339 -0.316762 10.1323 1.39409 -0.512844 10.0708 1.08709 -0.513349 9.43656 
1.39409 -0.512844 10.0708 1.17429 -0.693194 9.81483 1.08709 -0.513349 9.43656 
0.918172 -1.08416 9.92742 0.712596 -1.23208 9.93949 0.770263 -1.0126 9.6015 
0.712596 -1.23208 9.93949 0.535952 -1.40851 10.1121 0.457348 -1.20282 9.62644 
0.535952 -1.40851 10.1121 0.313957 -1.47267 10.1111 0.457348 -1.20282 9.62644 
0.313957 -1.47267 10.1111 0.109423 -1.50207 10.1103 0.128556 -1.27858 9.62973 
0.109423 -1.50207 10.1103 -0.0792005 -1.49712 10.0976 -0.0967045 -1.27223 9.61437 
-0.0792005 -1.49712 10.0976 -0.28494 -1.3019 9.74501 -0.0967045 -1.27223 9.61437 
-0.678406 -1.17072 9.78998 -0.997177 -1.1323 10.112 -0.758889 -0.95631 9.49057 
-0.997177 -1.1323 10.112 -1.17314 -0.90569 10.0633 -0.899895 -0.845624 9.52172 
-1.17314 -0.90569 10.0633 -1.30509 -0.698268 10.0565 -1.01502 -0.704052 9.52344 
-1.30509 -0.698268 10.0565 -1.34102 -0.476948 9.93949 -1.11457 -0.503156 9.4904 
-1.34102 -0.476948 9.93949 -1.39021 -0.272317 9.92172 -1.17211 -0.302072 9.46365 
-1.39021 -0.272317 9.92172 -1.49081 -0.0272136 10.0801 -1.28106 -0.0561058 9.62032 
-1.49081 -0.0272136 10.0801 -1.47648 0.169861 10.0709 -1.28106 -0.0561058 9.62032 
-1.47648 0.169861 10.0709 -1.365 0.400862 9.93099 -1.26567 0.222346 9.63338 
-0.735641 1.14515 9.80612 -0.582966 1.30096 9.94234 -0.488975 1.1024 9.45324 
-0.582966 1.30096 9.94234 -0.461292 1.42871 10.1009 -0.346337 1.17356 9.4944 
1.26486 0.805545 10.0994 1.36383 0.588304 10.0667 1.08298 0.55976 9.48259 
1.36383 0.588304 10.0667 1.37923 0.346921 9.93427 1.14654 0.399861 9.47439 
1.37923 0.346921 9.93427 1.41396 0.150478 9.93491 1.21432 0.17933 9.50161 
1.17429 -0.693194 9.81483 1.03019 -0.87809 9.79529 0.855409 -0.698297 9.19347 
1.03019 -0.87809 9.79529 0.770263 -1.0126 9.6015 0.713387 -0.817536 9.14621 
0.770263 -1.0126 9.6015 0.457348 -1.20282 9.62644 0.592266 -0.978957 9.29021 
0.457348 -1.20282 9.62644 0.128556 -1.27858 9.62973 0.237537 -1.0722 9.17837 
0.128556 -1.27858 9.62973 -0.0967045 -1.27223 9.61437 -0.102179 -1.08487 9.15643 
-0.0967045 -1.27223 9.61437 -0.28494 -1.3019 9.74501 -0.102179 -1.08487 9.15643 
-0.28494 -1.3019 9.74501 -0.496466 -1.25983 9.79396 -0.31252 -1.10796 9.31137 
-0.496466 -1.25983 9.79396 -0.678406 -1.17072 9.78998 -0.496527 -0.974571 9.16358 
-1.17211 -0.302072 9.46365 -1.28106 -0.0561058 9.62032 -1.08083 -0.0866011 9.13712 
-1.28106 -0.0561058 9.62032 -1.26567 0.222346 9.63338 -1.0702 0.151535 9.13037 
-1.15488 0.375623 9.47264 -1.20848 0.600251 9.78318 -0.980624 0.479907 9.16144 
-1.20848 0.600251 9.78318 -1.1192 0.773182 9.80673 -0.906571 0.613966 9.17113 
-1.1192 0.773182 9.80673 -0.951462 0.979555 9.81266 -0.758 0.78192 9.14738 
-0.951462 0.979555 9.81266 -0.735641 1.14515 9.80612 -0.616572 0.971198 9.30977 
-0.196624 1.34606 9.80687 0.0183677 1.36881 9.82479 0.0836088 1.1023 9.19471 
0.0183677 1.36881 9.82479 0.275413 1.33197 9.80247 0.0836088 1.1023 9.19471 
0.447733 1.12902 9.47406 0.708125 1.16727 9.81084 0.593947 0.98071 9.29878 
0.708125 1.16727 9.81084 0.909408 0.993988 9.77799 0.773687 0.850809 9.31017 
0.909408 0.993988 9.77799 1.10395 0.892868 9.93153 0.901642 0.71139 9.30257 
1.15103 -0.0866147 9.31751 1.18383 -0.292076 9.48379 1.02016 -0.203496 9.01315 
1.18383 -0.292076 9.48379 1.08709 -0.513349 9.43656 0.911604 -0.447577 8.93656 
1.08709 -0.513349 9.43656 0.855409 -0.698297 9.19347 0.911604 -0.447577 8.93656 
0.713387 -0.817536 9.14621 0.592266 -0.978957 9.29021 0.499064 -0.815118 8.77309 
-0.102179 -1.08487 9.15643 -0.31252 -1.10796 9.31137 -0.207582 -0.963065 8.85091 
-0.496527 -0.974571 9.16358 -0.758889 -0.95631 9.49057 -0.613962 -0.778151 8.8803 
-0.758889 -0.95631 9.49057 -0.899895 -0.845624 9.52172 -0.792167 -0.653684 8.97398 
-0.899895 -0.845624 9.52172 -1.01502 -0.704052 9.52344 -0.792167 -0.653684 8.97398 
-1.01502 -0.704052 9.52344 -1.11457 -0.503156 9.4904 -0.93605 -0.435079 8.99251 
-1.11457 -0.503156 9.4904 -1.17211 -0.302072 9.46365 -0.958244 -0.253662 8.88327 
-1.0702 0.151535 9.13037 -1.15488 0.375623 9.47264 -0.924445 0.211053 8.74853 
-0.758 0.78192 9.14738 -0.616572 0.971198 9.30977 -0.496297 0.837587 8.82606 
-0.616572 0.971198 9.30977 -0.488975 1.1024 9.45324 -0.496297 0.837587 8.82606 
-0.488975 1.1024 9.45324 -0.346337 1.17356 9.4944 -0.30336 0.943632 8.88271 
0.447733 1.12902 9.47406 0.593947 0.98071 9.29878 0.491717 0.864959 8.89325 
0.593947 0.98071 9.29878 0.773687 0.850809 9.31017 0.621043 0.758003 8.84612 
0.773687 0.850809 9.31017 0.901642 0.71139 9.30257 0.750428 0.630327 8.84993 
0.901642 0.71139 9.30257 1.08298 0.55976 9.48259 0.863738 0.45703 8.84168 
1.08298 0.55976 9.48259 1.14654 0.399861 9.47439 0.863738 0.45703 8.84168 
1.14654 0.399861 9.47439 1.21432 0.17933 9.50161 0.940192 0.220255 8.80597 
1.21432 0.17933 9.50161 1.15103 -0.0866147 9.31751 1.00239 -0.00519149 8.91094 
1.02016 -0.203496 9.01315 0.911604 -0.447577 8.93656 0.805032 -0.356222 8.53964 
0.911604 -0.447577 8.93656 0.855409 -0.698297 9.19347 0.700307 -0.514706 8.50567 
0.855409 -0.698297 9.19347 0.713387 -0.817536 9.14621 0.568017 -0.674514 8.54502 
0.499064 -0.815118 8.77309 0.387035 -1.01748 9.15714 0.291959 -0.828798 8.53215 
0.387035 -1.01748 9.15714 0.237537 -1.0722 9.17837 0.142716 -0.854668 8.49603 
0.237537 -1.0722 9.17837 0.0758263 -1.09632 9.18167 -0.005185 -0.876549 8.5251 
0.0758263 -1.09632 9.18167 -0.102179 -1.08487 9.15643 -0.005185 -0.876549 8.5251 
-0.207582 -0.963065 8.85091 -0.496527 -0.974571 9.16358 -0.238795 -0.82794 8.47783 
-0.613962 -0.778151 8.8803 -0.792167 -0.653684 8.97398 -0.571574 -0.638086 8.44917 
-0.792167 -0.653684 8.97398 -0.93605 -0.435079 8.99251 -0.731708 -0.481004 8.52138 
-1.08083 -0.0866011 9.13712 -1.0702 0.151535 9.13037 -0.92358 -0.0270375 8.67031 
-0.924445 0.211053 8.74853 -0.980624 0.479907 9.16144 -0.811581 0.454254 8.68044 
-0.980624 0.479907 9.16144 -0.906571 0.613966 9.17113 -0.811581 0.454254 8.68044 
-0.906571 0.613966 9.17113 -0.758 0.78192 9.14738 -0.63794 0.664165 8.6579 
-0.30336 0.943632 8.88271 -0.150415 1.08504 9.17208 -0.122363 0.910567 8.65493 
-0.150415 1.08504 9.17208 0.0836088 1.1023 9.19471 -0.122363 0.910567 8.65493 
0.0836088 1.1023 9.19471 0.347121 1.00686 9.08963 0.272608 0.886702 8.67852 
0.499064 -0.815118 8.77309 0.291959 -0.828798 8.53215 0.364909 -0.700141 8.22231 
-0.958244 -0.253662 8.88327 -0.92358 -0.0270375 8.67031 -0.811325 -0.14601 8.33994 
-0.92358 -0.0270375 8.67031 -0.924445 0.211053 8.74853 -0.818493 0.0924547 8.32599 
-0.924445 0.211053 8.74853 -0.811581 0.454254 8.68044 -0.728078 0.369574 8.30146 
-0.811581 0.454254 8.68044 -0.63794 0.664165 8.6579 -0.590969 0.574898 8.33531 
-0.63794 0.664165 8.6579 -0.496297 0.837587 8.82606 -0.42877 0.70139 8.33431 
-0.496297 0.837587 8.82606 -0.30336 0.943632 8.88271 -0.257075 0.782523 8.33215 
-0.30336 0.943632 8.88271 -0.122363 0.910567 8.65493 -0.257075 0.782523 8.33215 
-0.122363 0.910567 8.65493 0.0555328 0.919015 8.66575 -0.083308 0.761331 8.13079 
0.0555328 0.919015 8.66575 0.272608 0.886702 8.67852 0.0771368 0.769304 8.15928 
0.272608 0.886702 8.67852 0.491717 0.864959 8.89325 0.420073 0.708298 8.34015 
0.491717 0.864959 8.89325 0.621043 0.758003 8.84612 0.555316 0.609206 8.3375 
0.621043 0.758003 8.84612 0.750428 0.630327 8.84993 0.555316 0.609206 8.3375 
0.750428 0.630327 8.84993 0.863738 0.45703 8.84168 0.686795 0.44874 8.31922 
0.863738 0.45703 8.84168 0.940192 0.220255 8.80597 0.747127 0.252034 8.21048 
0.940192 0.220255 8.80597 1.00239 -0.00519149 8.91094 0.826592 0.0490016 8.34362 
0.826592 0.0490016 8.34362 0.835844 -0.194344 8.46155 0.708732 0.0156215 7.88167 
0.835844 -0.194344 8.46155 0.805032 -0.356222 8.53964 0.705883 -0.191345 7.98449 
0.805032 -0.356222 8.53964 0.700307 -0.514706 8.50567 0.632253 -0.390401 8.0254 
0.700307 -0.514706 8.50567 0.568017 -0.674514 8.54502 0.4617 -0.528032 7.85239 
0.364909 -0.700141 8.22231 0.291959 -0.828798 8.53215 0.125173 -0.722333 7.97352 
0.291959 -0.828798 8.53215 0.142716 -0.854668 8.49603 0.125173 -0.722333 7.97352 
0.142716 -0.854668 8.49603 -0.005185 -0.876549 8.5251 0.125173 -0.722333 7.97352 
-0.005185 -0.876549 8.5251 -0.238795 -0.82794 8.47783 -0.132792 -0.724896 8.00263 
-0.238795 -0.82794 8.47783 -0.390259 -0.775887 8.49518 -0.336734 -0.633717 7.91628 
-0.390259 -0.775887 8.49518 -0.571574 -0.638086 8.44917 -0.336734 -0.633717 7.91628 
-0.571574 -0.638086 8.44917 -0.731708 -0.481004 8.52138 -0.520861 -0.45917 7.82942 
-0.731708 -0.481004 8.52138 -0.798141 -0.3255 8.47769 -0.637889 -0.279829 7.8388 
-0.798141 -0.3255 8.47769 -0.811325 -0.14601 8.33994 -0.637889 -0.279829 7.8388 
-0.811325 -0.14601 8.33994 -0.818493 0.0924547 8.32599 -0.690286 -0.0991924 7.8454 
-0.818493 0.0924547 8.32599 -0.728078 0.369574 8.30146 -0.620094 0.316334 7.81475 
-0.728078 0.369574 8.30146 -0.590969 0.574898 8.33531 -0.620094 0.316334 7.81475 
-0.590969 0.574898 8.33531 -0.42877 0.70139 8.33431 -0.467865 0.540121 7.90987 
-0.42877 0.70139 8.33431 -0.257075 0.782523 8.33215 -0.282085 0.681493 8.00294 
0.420073 0.708298 8.34015 0.555316 0.609206 8.3375 0.394459 0.580636 7.86729 
0.555316 0.609206 8.3375 0.686795 0.44874 8.31922 0.578532 0.379264 7.82267 
0.705883 -0.191345 7.98449 0.632253 -0.390401 8.0254 0.583651 -0.206011 7.46678 
0.364909 -0.700141 8.22231 0.125173 -0.722333 7.97352 0.277912 -0.567363 7.5333 
0.125173 -0.722333 7.97352 -0.132792 -0.724896 8.00263 -0.0224644 -0.628582 7.51907 
-0.132792 -0.724896 8.00263 -0.336734 -0.633717 7.91628 -0.172699 -0.602452 7.50597 
-0.467865 0.540121 7.90987 -0.282085 0.681493 8.00294 -0.364201 0.505571 7.48659 
-0.282085 0.681493 8.00294 -0.083308 0.761331 8.13079 -0.114835 0.619564 7.52185 
-0.083308 0.761331 8.13079 0.0771368 0.769304 8.15928 0.0230119 0.662366 7.68129 
0.0771368 0.769304 8.15928 0.265326 0.73545 8.17971 0.192405 0.628347 7.64463 
0.578532 0.379264 7.82267 0.747127 0.252034 8.21048 0.599627 0.190509 7.51477 
0.708732 0.0156215 7.88167 0.705883 -0.191345 7.98449 0.600646 -0.0265928 7.35005 
-0.336734 -0.633717 7.91628 -0.520861 -0.45917 7.82942 -0.351057 -0.487709 7.33765 
-0.520861 -0.45917 7.82942 -0.637889 -0.279829 7.8388 -0.490402 -0.343464 7.3436 
-0.637889 -0.279829 7.8388 -0.690286 -0.0991924 7.8454 -0.582466 -0.147317 7.34268 
-0.690286 -0.0991924 7.8454 -0.693165 0.0860293 7.84532 -0.595126 0.0465593 7.33524 
-0.693165 0.0860293 7.84532 -0.620094 0.316334 7.81475 -0.558115 0.214688 7.33151 
-0.620094 0.316334 7.81475 -0.467865 0.540121 7.90987 -0.469538 0.366238 7.32653 
-0.114835 0.619564 7.52185 0.0230119 0.662366 7.68129 0.0190862 0.563185 7.13953 
0.0230119 0.662366 7.68129 0.192405 0.628347 7.64463 0.175023 0.536186 7.12651 
0.192405 0.628347 7.64463 0.394459 0.580636 7.86729 0.175023 0.536186 7.12651 
0.394459 0.580636 7.86729 0.493094 0.486052 7.82731 0.341043 0.455936 7.19095 
0.493094 0.486052 7.82731 0.578532 0.379264 7.82267 0.433964 0.362908 7.16545 
0.578532 0.379264 7.82267 0.599627 0.190509 7.51477 0.509545 0.23861 7.13043 
0.600646 -0.0265928 7.35005 0.583651 -0.206011 7.46678 0.534463 -0.112565 7.01044 
0.583651 -0.206011 7.46678 0.502934 -0.363016 7.46805 0.475046 -0.242819 6.9121 
0.502934 -0.363016 7.46805 0.30154 -0.475363 7.12557 0.399908 -0.37358 7.0023 
0.277912 -0.567363 7.5333 0.125063 -0.622131 7.54785 0.137208 -0.528003 6.9972 
0.125063 -0.622131 7.54785 -0.0224644 -0.628582 7.51907 -0.012359 -0.544127 6.99365 
-0.0224644 -0.628582 7.51907 -0.172699 -0.602452 7.50597 -0.173773 -0.517862 6.99123 
-0.172699 -0.602452 7.50597 -0.351057 -0.487709 7.33765 -0.173773 -0.517862 6.99123 
-0.351057 -0.487709 7.33765 -0.490402 -0.343464 7.3436 -0.350515 -0.418986 6.98861 
-0.490402 -0.343464 7.3436 -0.582466 -0.147317 7.34268 -0.455745 -0.263174 6.86181 
-0.582466 -0.147317 7.34268 -0.595126 0.0465593 7.33524 -0.540249 0.0370485 6.93964 
-0.595126 0.0465593 7.33524 -0.558115 0.214688 7.33151 -0.540249 0.0370485 6.93964 
-0.558115 0.214688 7.33151 -0.469538 0.366238 7.32653 -0.472552 0.236679 6.86916 
-0.469538 0.366238 7.32653 -0.364201 0.505571 7.48659 -0.383017 0.355455 6.84091 
-0.364201 0.505571 7.48659 -0.244959 0.574042 7.49498 -0.272712 0.453438 6.89309 
-0.244959 0.574042 7.49498 -0.114835 0.619564 7.52185 -0.139864 0.530494 7.01459 
0.599627 0.190509 7.51477 0.600646 -0.0265928 7.35005 0.544091 0.0522446 6.99432 
0.544091 0.0522446 6.99432 0.534463 -0.112565 7.01044 0.47708 -0.0969586 6.49392 
0.399908 -0.37358 7.0023 0.30154 -0.475363 7.12557 0.24378 -0.422773 6.48703 
0.30154 -0.475363 7.12557 0.137208 -0.528003 6.9972 0.102498 -0.475149 6.47003 
0.137208 -0.528003 6.9972 -0.012359 -0.544127 6.99365 0.102498 -0.475149 6.47003 
-0.012359 -0.544127 6.99365 -0.173773 -0.517862 6.99123 -0.0860385 -0.485733 6.53095 
-0.173773 -0.517862 6.99123 -0.350515 -0.418986 6.98861 -0.243622 -0.426396 6.54385 
-0.350515 -0.418986 6.98861 -0.455745 -0.263174 6.86181 -0.38033 -0.297401 6.39813 
-0.503965 -0.150492 6.87207 -0.540249 0.0370485 6.93964 -0.485013 -0.0314995 6.4776 
-0.139864 0.530494 7.01459 0.0190862 0.563185 7.13953 0.0250206 0.49544 6.54654 
0.0190862 0.563185 7.13953 0.175023 0.536186 7.12651 0.0250206 0.49544 6.54654 
0.175023 0.536186 7.12651 0.341043 0.455936 7.19095 0.217973 0.439243 6.52982 
0.341043 0.455936 7.19095 0.433964 0.362908 7.16545 0.31933 0.370269 6.50805 
0.433964 0.362908 7.16545 0.509545 0.23861 7.13043 0.415963 0.255471 6.49438 
0.509545 0.23861 7.13043 0.544091 0.0522446 6.99432 0.487509 0.0786465 6.53086 
0.47708 -0.0969586 6.49392 0.475046 -0.242819 6.9121 0.422185 -0.219111 6.31275 
-0.455745 -0.263174 6.86181 -0.503965 -0.150492 6.87207 -0.453901 -0.136874 6.32055 
-0.472552 0.236679 6.86916 -0.383017 0.355455 6.84091 -0.417497 0.230548 6.32318 
-0.383017 0.355455 6.84091 -0.272712 0.453438 6.89309 -0.301733 0.358582 6.22098 
0.487509 0.0786465 6.53086 0.47708 -0.0969586 6.49392 0.458681 0.0360929 5.98306 
0.47708 -0.0969586 6.49392 0.422185 -0.219111 6.31275 0.443771 -0.110691 5.97937 
0.422185 -0.219111 6.31275 0.353442 -0.333782 6.49597 0.391337 -0.239354 5.96654 
0.353442 -0.333782 6.49597 0.24378 -0.422773 6.48703 0.299871 -0.346425 5.98628 
0.24378 -0.422773 6.48703 0.102498 -0.475149 6.47003 0.0782662 -0.451772 5.94827 
0.102498 -0.475149 6.47003 -0.0860385 -0.485733 6.53095 0.0782662 -0.451772 5.94827 
-0.0860385 -0.485733 6.53095 -0.243622 -0.426396 6.54385 -0.225185 -0.398325 5.97818 
-0.243622 -0.426396 6.54385 -0.38033 -0.297401 6.39813 -0.332979 -0.31477 5.95682 
-0.38033 -0.297401 6.39813 -0.453901 -0.136874 6.32055 -0.432701 -0.156939 5.94408 
-0.453901 -0.136874 6.32055 -0.485013 -0.0314995 6.4776 -0.432701 -0.156939 5.94408 
-0.485013 -0.0314995 6.4776 -0.476987 0.0918856 6.48588 -0.457593 0.0102137 5.98096 
-0.476987 0.0918856 6.48588 -0.417497 0.230548 6.32318 -0.437801 0.131341 5.97776 
-0.417497 0.230548 6.32318 -0.301733 0.358582 6.22098 -0.374568 0.264256 5.95909 
-0.301733 0.358582 6.22098 -0.165442 0.456708 6.46941 -0.156045 0.431935 5.96822 
-0.165442 0.456708 6.46941 0.0250206 0.49544 6.54654 -0.156045 0.431935 5.96822 
0.0250206 0.49544 6.54654 0.217973 0.439243 6.52982 0.0964883 0.448671 5.99431 
0.217973 0.439243 6.52982 0.31933 0.370269 6.50805 0.207917 0.406277 5.97758 
0.31933 0.370269 6.50805 0.415963 0.255471 6.49438 0.309442 0.338565 5.98874 
0.415963 0.255471 6.49438 0.487509 0.0786465 6.53086 0.408232 0.211998 5.97105 
0.458681 0.0360929 5.98306 0.443771 -0.110691 5.97937 0.44692 -0.0535204 5.64034 
0.441773 -0.0860487 5.65224 0.44692 -0.0535204 5.64034 0.443771 -0.110691 5.97937 
0.387438 -0.229019 5.6384 0.403173 -0.200137 5.62516 0.391337 -0.239354 5.96654 
0.299871 -0.346425 5.98628 0.203563 -0.409218 5.9881 0.221852 -0.39203 5.62942 
0.0719892 -0.444281 5.65436 0.104252 -0.437872 5.62615 0.0782662 -0.451772 5.94827 
-0.0811423 -0.442673 5.63889 -0.0486067 -0.447487 5.62809 -0.0859126 -0.451751 5.99746 
-0.0859126 -0.451751 5.99746 -0.225185 -0.398325 5.97818 -0.206917 -0.399919 5.51907 
-0.225185 -0.398325 5.97818 -0.332979 -0.31477 5.95682 -0.269796 -0.360297 5.65715 
-0.295412 -0.339556 5.64595 -0.269796 -0.360297 5.65715 -0.332979 -0.31477 5.95682 
-0.392055 -0.221021 5.6384 -0.374915 -0.249082 5.62369 -0.332979 -0.31477 5.95682 
-0.432701 -0.156939 5.94408 -0.457593 0.0102137 5.98096 -0.448091 -0.043014 5.63935 
-0.420749 0.159805 5.64796 -0.431333 0.128657 5.62717 -0.437801 0.131341 5.97776 
-0.437801 0.131341 5.97776 -0.374568 0.264256 5.95909 -0.407292 0.191685 5.62782 
-0.342795 0.291607 5.63889 -0.363218 0.265857 5.624 -0.374568 0.264256 5.95909 
-0.301733 0.358582 6.22098 -0.156045 0.431935 5.96822 -0.213624 0.396494 5.66213 
0.00461801 0.45004 5.6384 -0.0282704 0.449226 5.62673 -0.0281912 0.455663 5.98507 
-0.0281912 0.455663 5.98507 0.0964883 0.448671 5.99431 0.0391996 0.448433 5.61555 
0.0964883 0.448671 5.99431 0.207917 0.406277 5.97758 0.186867 0.409527 5.62299 
0.207917 0.406277 5.97758 0.309442 0.338565 5.98874 0.272103 0.358762 5.58938 
0.30432 0.331497 5.6364 0.272103 0.358762 5.58938 0.309442 0.338565 5.98874 
0.348775 0.284466 5.63675 0.327087 0.309218 5.6297 0.309442 0.338565 5.98874 
0.309442 0.338565 5.98874 0.408232 0.211998 5.97105 0.369665 0.256848 5.59661 
0.423936 0.15107 5.6421 0.411846 0.18163 5.61937 0.408232 0.211998 5.97105 
0.408232 0.211998 5.97105 0.458681 0.0360929 5.98306 0.434324 0.118307 5.63262 
0.45 0 -1 0.444512 0.072901 5.64394 0.448935 0.0327757 5.62156 
0.444512 0.072901 5.64394 0.45 0 -1 0.443163 0.0781417 -1 
0.448935 0.0327757 5.62156 0.450188 -0.0131173 5.6064 0.45 0 -1 
0.443163 0.0781417 -1 0.423936 0.15107 5.6421 0.434324 0.118307 5.63262 
0.434324 0.118307 5.63262 0.444512 0.072901 5.64394 0.443163 0.0781417 -1 
0.423936 0.15107 5.6421 0.443163 0.0781417 -1 0.422862 0.153909 -1 
0.422862 0.153909 -1 0.394232 0.217883 5.64222 0.411846 0.18163 5.61937 
0.394232 0.217883 5.64222 0.422862 0.153909 -1 0.389711 0.225 -1 
0.411846 0.18163 5.61937 0.423936 0.15107 5.6421 0.422862 0.153909 -1 
0.389711 0.225 -1 0.348775 0.284466 5.63675 0.369665 0.256848 5.59661 
0.369665 0.256848 5.59661 0.394232 0.217883 5.64222 0.389711 0.225 -1 
0.348775 0.284466 5.63675 0.389711 0.225 -1 0.34472 0.289254 -1 
0.34472 0.289254 -1 0.30432 0.331497 5.6364 0.327087 0.309218 5.6297 
0.30432 0.331497 5.6364 0.34472 0.289254 -1 0.289254 0.34472 -1 
0.289254 0.34472 -1 0.228648 0.388115 5.65257 0.272103 0.358762 5.58938 
0.228648 0.388115 5.65257 0.289254 0.34472 -1 0.225 0.389711 -1 
0.225 0.389711 -1 0.155624 0.422233 5.63702 0.186867 0.409527 5.62299 
0.186867 0.409527 5.62299 0.228648 0.388115 5.65257 0.225 0.389711 -1 
0.153909 0.422862 -1 0.124493 0.432572 5.62674 0.155624 0.422233 5.63702 
0.155624 0.422233 5.63702 0.225 0.389711 -1 0.153909 0.422862 -1 
0.153909 0.422862 -1 0.0850226 0.44235 5.66082 0.124493 0.432572 5.62674 
0.0850226 0.44235 5.66082 0.153909 0.422862 -1 0.0781417 0.443163 -1 
0.0781417 0.443163 -1 0.00461801 0.45004 5.6384 0.0391996 0.448433 5.61555 
0.0391996 0.448433 5.61555 0.0850226 0.44235 5.66082 0.0781417 0.443163 -1 
0.00461801 0.45004 5.6384 0.0781417 0.443163 -1 0 0.45 -1 
0 0.45 -1 -0.0683429 0.445205 5.64598 -0.0282704 0.449226 5.62673 
-0.0683429 0.445205 5.64598 0 0.45 -1 -0.0781417 0.443163 -1 
-0.0781417 0.443163 -1 -0.150125 0.424569 5.65784 -0.113422 0.435616 5.62703 
-0.113422 0.435616 5.62703 -0.0683429 0.445205 5.64598 -0.0781417 0.443163 -1 
-0.150125 0.424569 5.65784 -0.0781417 0.443163 -1 -0.153909 0.422862 -1 
-0.153909 0.422862 -1 -0.213624 0.396494 5.66213 -0.18603 0.409747 5.63702 
-0.213624 0.396494 5.66213 -0.153909 0.422862 -1 -0.225 0.389711 -1 
-0.18603 0.409747 5.63702 -0.150125 0.424569 5.65784 -0.153909 0.422862 -1 
-0.225 0.389711 -1 -0.28538 0.348517 5.65232 -0.252882 0.372382 5.62769 
-0.28538 0.348517 5.65232 -0.225 0.389711 -1 -0.289254 0.34472 -1 
-0.252882 0.372382 5.62769 -0.213624 0.396494 5.66213 -0.225 0.389711 -1 
-0.289254 0.34472 -1 -0.342795 0.291607 5.63889 -0.319585 0.317014 5.62456 
-0.319585 0.317014 5.62456 -0.28538 0.348517 5.65232 -0.289254 0.34472 -1 
-0.342795 0.291607 5.63889 -0.289254 0.34472 -1 -0.34472 0.289254 -1 
-0.34472 0.289254 -1 -0.385806 0.232476 5.63871 -0.363218 0.265857 5.624 
-0.385806 0.232476 5.63871 -0.34472 0.289254 -1 -0.389711 0.225 -1 
-0.363218 0.265857 5.624 -0.342795 0.291607 5.63889 -0.34472 0.289254 -1 
-0.389711 0.225 -1 -0.420749 0.159805 5.64796 -0.407292 0.191685 5.62782 
-0.407292 0.191685 5.62782 -0.385806 0.232476 5.63871 -0.389711 0.225 -1 
-0.420749 0.159805 5.64796 -0.389711 0.225 -1 -0.422862 0.153909 -1 
-0.422862 0.153909 -1 -0.4414 0.0895978 5.63781 -0.431333 0.128657 5.62717 
-0.4414 0.0895978 5.63781 -0.422862 0.153909 -1 -0.443163 0.0781417 -1 
-0.443163 0.0781417 -1 -0.450435 0.00391672 5.65187 -0.447975 0.0440535 5.62563 
-0.447975 0.0440535 5.62563 -0.4414 0.0895978 5.63781 -0.443163 0.0781417 -1 
-0.450435 0.00391672 5.65187 -0.443163 0.0781417 -1 -0.45 0 -1 
-0.45 0 -1 -0.443477 -0.0763423 5.63702 -0.448091 -0.043014 5.63935 
-0.448091 -0.043014 5.63935 -0.450435 0.00391672 5.65187 -0.45 0 -1 
-0.443163 -0.0781417 -1 -0.436864 -0.108476 5.62734 -0.443477 -0.0763423 5.63702 
-0.443477 -0.0763423 5.63702 -0.45 0 -1 -0.443163 -0.0781417 -1 
-0.443163 -0.0781417 -1 -0.425595 -0.147547 5.65453 -0.436864 -0.108476 5.62734 
-0.425595 -0.147547 5.65453 -0.443163 -0.0781417 -1 -0.422862 -0.153909 -1 
-0.422862 -0.153909 -1 -0.392055 -0.221021 5.6384 -0.407939 -0.19031 5.62746 
-0.407939 -0.19031 5.62746 -0.425595 -0.147547 5.65453 -0.422862 -0.153909 -1 
-0.392055 -0.221021 5.6384 -0.422862 -0.153909 -1 -0.389711 -0.225 -1 
-0.389711 -0.225 -1 -0.351738 -0.281288 5.62205 -0.374915 -0.249082 5.62369 
-0.351738 -0.281288 5.62205 -0.389711 -0.225 -1 -0.34472 -0.289254 -1 
-0.34472 -0.289254 -1 -0.295412 -0.339556 5.64595 -0.320872 -0.315711 5.62127 
-0.320872 -0.315711 5.62127 -0.351738 -0.281288 5.62205 -0.34472 -0.289254 -1 
-0.295412 -0.339556 5.64595 -0.34472 -0.289254 -1 -0.289254 -0.34472 -1 
-0.289254 -0.34472 -1 -0.243707 -0.378295 5.63702 -0.269796 -0.360297 5.65715 
-0.225 -0.389711 -1 -0.206917 -0.399919 5.51907 -0.243707 -0.378295 5.63702 
-0.243707 -0.378295 5.63702 -0.289254 -0.34472 -1 -0.225 -0.389711 -1 
-0.225 -0.389711 -1 -0.159167 -0.421397 5.6433 -0.206917 -0.399919 5.51907 
-0.159167 -0.421397 5.6433 -0.225 -0.389711 -1 -0.153909 -0.422862 -1 
-0.153909 -0.422862 -1 -0.0811423 -0.442673 5.63889 -0.114739 -0.435279 5.62631 
-0.114739 -0.435279 5.62631 -0.159167 -0.421397 5.6433 -0.153909 -0.422862 -1 
-0.0811423 -0.442673 5.63889 -0.153909 -0.422862 -1 -0.0781417 -0.443163 -1 
-0.0781417 -0.443163 -1 -0.00844419 -0.450356 5.64687 -0.0486067 -0.447487 5.62809 
-0.00844419 -0.450356 5.64687 -0.0781417 -0.443163 -1 0 -0.45 -1 
-0.0486067 -0.447487 5.62809 -0.0811423 -0.442673 5.63889 -0.0781417 -0.443163 -1 
0 -0.45 -1 0.0719892 -0.444281 5.65436 0.0376113 -0.448567 5.61488 
0.0376113 -0.448567 5.61488 -0.00844419 -0.450356 5.64687 0 -0.45 -1 
0.0719892 -0.444281 5.65436 0 -0.45 -1 0.0781417 -0.443163 -1 
0.0781417 -0.443163 -1 0.143095 -0.427067 5.64508 0.104252 -0.437872 5.62615 
0.143095 -0.427067 5.64508 0.0781417 -0.443163 -1 0.153909 -0.422862 -1 
0.153909 -0.422862 -1 0.221852 -0.39203 5.62942 0.185843 -0.409981 5.62659 
0.185843 -0.409981 5.62659 0.143095 -0.427067 5.64508 0.153909 -0.422862 -1 
0.221852 -0.39203 5.62942 0.153909 -0.422862 -1 0.225 -0.389711 -1 
0.225 -0.389711 -1 0.287853 -0.345891 5.63702 0.261238 -0.366588 5.62469 
0.261238 -0.366588 5.62469 0.221852 -0.39203 5.62942 0.225 -0.389711 -1 
0.289254 -0.34472 -1 0.312379 -0.324094 5.62828 0.287853 -0.345891 5.63702 
0.287853 -0.345891 5.63702 0.225 -0.389711 -1 0.289254 -0.34472 -1 
0.289254 -0.34472 -1 0.340562 -0.294821 5.66865 0.312379 -0.324094 5.62828 
0.340562 -0.294821 5.66865 0.289254 -0.34472 -1 0.34472 -0.289254 -1 
0.34472 -0.289254 -1 0.387438 -0.229019 5.6384 0.36878 -0.258134 5.62674 
0.36878 -0.258134 5.62674 0.340562 -0.294821 5.66865 0.34472 -0.289254 -1 
0.387438 -0.229019 5.6384 0.34472 -0.289254 -1 0.389711 -0.225 -1 
0.389711 -0.225 -1 0.419453 -0.164023 5.64875 0.403173 -0.200137 5.62516 
0.419453 -0.164023 5.64875 0.389711 -0.225 -1 0.422862 -0.153909 -1 
0.422862 -0.153909 -1 0.441773 -0.0860487 5.65224 0.433861 -0.119991 5.62571 
0.433861 -0.119991 5.62571 0.419453 -0.164023 5.64875 0.422862 -0.153909 -1 
0.441773 -0.0860487 5.65224 0.422862 -0.153909 -1 0.443163 -0.0781417 -1 
0.443163 -0.0781417 -1 0.450188 -0.0131173 5.6064 0.44692 -0.0535204 5.64034 
0.450188 -0.0131173 5.6064 0.443163 -0.0781417 -1 0.45 0 -1 
0.44692 -0.0535204 5.64034 0.441773 -0.0860487 5.65224 0.443163 -0.0781417 -1 
0.403173 -0.200137 5.62516 0.387438 -0.229019 5.6384 0.389711 -0.225 -1 
0.104252 -0.437872 5.62615 0.0719892 -0.444281 5.65436 0.0781417 -0.443163 -1 
-0.269796 -0.360297 5.65715 -0.295412 -0.339556 5.64595 -0.289254 -0.34472 -1 
-0.374915 -0.249082 5.62369 -0.392055 -0.221021 5.6384 -0.389711 -0.225 -1 
-0.431333 0.128657 5.62717 -0.420749 0.159805 5.64796 -0.422862 0.153909 -1 
-0.0282704 0.449226 5.62673 0.00461801 0.45004 5.6384 0 0.45 -1 
0.272103 0.358762 5.58938 0.30432 0.331497 5.6364 0.289254 0.34472 -1 
0.327087 0.309218 5.6297 0.348775 0.284466 5.63675 0.34472 0.289254 -1 
-0.225 0.389711 -1 0.443163 -0.0781417 -1 0.422862 -0.153909 -1 
0.422862 -0.153909 -1 0.389711 -0.225 -1 -0.225 0.389711 -1 
0.389711 -0.225 -1 0.34472 -0.289254 -1 -0.225 0.389711 -1 
0.34472 -0.289254 -1 0.289254 -0.34472 -1 -0.225 0.389711 -1 
0.289254 -0.34472 -1 0.225 -0.389711 -1 -0.225 0.389711 -1 
0.225 -0.389711 -1 0.153909 -0.422862 -1 -0.225 0.389711 -1 
0.153909 -0.422862 -1 0.0781417 -0.443163 -1 -0.225 0.389711 -1 
0.0781417 -0.443163 -1 0 -0.45 -1 -0.225 0.389711 -1 
0 -0.45 -1 -0.0781417 -0.443163 -1 -0.225 0.389711 -1 
-0.0781417 -0.443163 -1 -0.153909 -0.422862 -1 -0.225 0.389711 -1 
-0.153909 -0.422862 -1 -0.225 -0.389711 -1 -0.225 0.389711 -1 
-0.225 -0.389711 -1 -0.289254 -0.34472 -1 -0.225 0.389711 -1 
-0.289254 -0.34472 -1 -0.34472 -0.289254 -1 -0.225 0.389711 -1 
-0.34472 -0.289254 -1 -0.389711 -0.225 -1 -0.225 0.389711 -1 
-0.389711 -0.225 -1 -0.422862 -0.153909 -1 -0.225 0.389711 -1 
-0.422862 -0.153909 -1 -0.443163 -0.0781417 -1 -0.225 0.389711 -1 
-0.443163 -0.0781417 -1 -0.45 0 -1 -0.225 0.389711 -1 
-0.45 0 -1 -0.443163 0.0781417 -1 -0.225 0.389711 -1 
-0.443163 0.0781417 -1 -0.422862 0.153909 -1 -0.225 0.389711 -1 
-0.422862 0.153909 -1 -0.389711 0.225 -1 -0.225 0.389711 -1 
-0.389711 0.225 -1 -0.34472 0.289254 -1 -0.225 0.389711 -1 
-0.34472 0.289254 -1 -0.289254 0.34472 -1 -0.225 0.389711 -1 
-0.153909 0.422862 -1 -0.0781417 0.443163 -1 -0.225 0.389711 -1 
-0.0781417 0.443163 -1 0 0.45 -1 -0.225 0.389711 -1 
0 0.45 -1 0.0781417 0.443163 -1 -0.225 0.389711 -1 
0.0781417 0.443163 -1 0.153909 0.422862 -1 -0.225 0.389711 -1 
0.153909 0.422862 -1 0.225 0.389711 -1 -0.225 0.389711 -1 
0.225 0.389711 -1 0.289254 0.34472 -1 -0.225 0.389711 -1 
0.289254 0.34472 -1 0.34472 0.289254 -1 -0.225 0.389711 -1 
0.34472 0.289254 -1 0.389711 0.225 -1 -0.225 0.389711 -1 
0.389711 0.225 -1 0.422862 0.153909 -1 -0.225 0.389711 -1 
0.422862 0.153909 -1 0.443163 0.0781417 -1 -0.225 0.389711 -1 
0.443163 0.0781417 -1 0.45 0 -1 -0.225 0.389711 -1 
0.45 0 -1 0.443163 -0.0781417 -1 -0.225 0.389711 -1 
-0.301 1.56585e-07 7.93617e-12 0.296427 0.0522681 0 0.282847 0.102948 0 
0.282847 0.102948 0 0.260674 0.1505 0 -0.301 1.56585e-07 7.93617e-12 
0.260674 0.1505 0 0.230579 0.193479 0 -0.301 1.56585e-07 7.93617e-12 
0.230579 0.193479 0 0.193479 0.230579 0 -0.301 1.56585e-07 7.93617e-12 
0.193479 0.230579 0 0.1505 0.260674 0 -0.301 1.56585e-07 7.93617e-12 
0.1505 0.260674 0 0.102948 0.282847 0 -0.301 1.56585e-07 7.93617e-12 
0.102948 0.282847 0 0.0522681 0.296427 0 -0.301 1.56585e-07 7.93617e-12 
0.0522681 0.296427 0 0 0.301 0 -0.301 1.56585e-07 7.93617e-12 
0 0.301 0 -0.0522681 0.296427 0 -0.301 1.56585e-07 7.93617e-12 
-0.0522681 0.296427 0 -0.102948 0.282847 0 -0.301 1.56585e-07 7.93617e-12 
-0.102948 0.282847 0 -0.1505 0.260674 0 -0.301 1.56585e-07 7.93617e-12 
-0.1505 0.260674 0 -0.193479 0.230579 0 -0.301 1.56585e-07 7.93617e-12 
-0.193479 0.230579 0 -0.230579 0.193479 0 -0.301 1.56585e-07 7.93617e-12 
-0.230579 0.193479 0 -0.260674 0.1505 0 -0.301 1.56585e-07 7.93617e-12 
-0.260674 0.1505 0 -0.282847 0.102948 0 -0.301 1.56585e-07 7.93617e-12 
-0.282847 0.102948 0 -0.296427 0.0522681 0 -0.301 1.56585e-07 7.93617e-12 
-0.296427 -0.0522681 0 -0.282847 -0.102948 0 -0.301 1.56585e-07 7.93617e-12 
-0.282847 -0.102948 0 -0.260674 -0.1505 0 -0.301 1.56585e-07 7.93617e-12 
-0.260674 -0.1505 0 -0.230579 -0.193479 0 -0.301 1.56585e-07 7.93617e-12 
-0.230579 -0.193479 0 -0.193479 -0.230579 0 -0.301 1.56585e-07 7.93617e-12 
-0.193479 -0.230579 0 -0.1505 -0.260674 0 -0.301 1.56585e-07 7.93617e-12 
-0.1505 -0.260674 0 -0.102948 -0.282847 0 -0.301 1.56585e-07 7.93617e-12 
-0.102948 -0.282847 0 -0.0522681 -0.296427 0 -0.301 1.56585e-07 7.93617e-12 
-0.0522681 -0.296427 0 0 -0.301 0 -0.301 1.56585e-07 7.93617e-12 
0 -0.301 0 0.0522681 -0.296427 0 -0.301 1.56585e-07 7.93617e-12 
0.0522681 -0.296427 0 0.102948 -0.282847 0 -0.301 1.56585e-07 7.93617e-12 
0.102948 -0.282847 0 0.1505 -0.260674 0 -0.301 1.56585e-07 7.93617e-12 
0.1505 -0.260674 0 0.193479 -0.230579 0 -0.301 1.56585e-07 7.93617e-12 
0.193479 -0.230579 0 0.230579 -0.193479 0 -0.301 1.56585e-07 7.93617e-12 
0.230579 -0.193479 0 0.260674 -0.1505 0 -0.301 1.56585e-07 7.93617e-12 
0.260674 -0.1505 0 0.282847 -0.102948 0 -0.301 1.56585e-07 7.93617e-12 
0.282847 -0.102948 0 0.296427 -0.0522681 0 -0.301 1.56585e-07 7.93617e-12 
0.296427 -0.0522681 0 0.301 0 0 -0.301 1.56585e-07 7.93617e-12 
0.301 0 0 0.296427 0.0522681 0 -0.301 1.56585e-07 7.93617e-12 
-0.296427 -0.0522681 0 -0.300117 -0.0230413 10.0888 -0.295717 -0.0584638 10.0534 
-0.301 1.56585e-07 7.93617e-12 -0.301002 0.011723 10.0548 -0.300117 -0.0230413 10.0888 
-0.300117 -0.0230413 10.0888 -0.296427 -0.0522681 0 -0.301 1.56585e-07 7.93617e-12 
-0.282847 -0.102948 0 -0.295717 -0.0584638 10.0534 -0.286972 -0.0908179 10.0888 
-0.295717 -0.0584638 10.0534 -0.282847 -0.102948 0 -0.296427 -0.0522681 0 
-0.286972 -0.0908179 10.0888 -0.280176 -0.110359 10.0917 -0.282847 -0.102948 0 
-0.260674 -0.1505 0 -0.280176 -0.110359 10.0917 -0.269746 -0.13356 10.0888 
-0.280176 -0.110359 10.0917 -0.260674 -0.1505 0 -0.282847 -0.102948 0 
-0.269746 -0.13356 10.0888 -0.259365 -0.152903 10.0918 -0.260674 -0.1505 0 
-0.230579 -0.193479 0 -0.246197 -0.173171 10.0888 -0.231483 -0.192472 10.0888 
-0.230579 -0.193479 0 -0.259365 -0.152903 10.0918 -0.246197 -0.173171 10.0888 
-0.259365 -0.152903 10.0918 -0.230579 -0.193479 0 -0.260674 -0.1505 0 
-0.193479 -0.230579 0 -0.216877 -0.208723 10.0888 -0.190527 -0.23364 10.0569 
-0.230579 -0.193479 0 -0.231483 -0.192472 10.0888 -0.216877 -0.208723 10.0888 
-0.216877 -0.208723 10.0888 -0.193479 -0.230579 0 -0.230579 -0.193479 0 
-0.1505 -0.260674 0 -0.190527 -0.23364 10.0569 -0.163614 -0.252649 10.0888 
-0.190527 -0.23364 10.0569 -0.1505 -0.260674 0 -0.193479 -0.230579 0 
-0.163614 -0.252649 10.0888 -0.145683 -0.263542 10.0905 -0.1505 -0.260674 0 
-0.102948 -0.282847 0 -0.145683 -0.263542 10.0905 -0.12313 -0.274664 10.0888 
-0.145683 -0.263542 10.0905 -0.102948 -0.282847 0 -0.1505 -0.260674 0 
-0.12313 -0.274664 10.0888 -0.102095 -0.283187 10.0903 -0.102948 -0.282847 0 
-0.0522681 -0.296427 0 -0.0797594 -0.29024 10.0888 -0.0449797 -0.298042 10.0767 
-0.0522681 -0.296427 0 -0.102095 -0.283187 10.0903 -0.0797594 -0.29024 10.0888 
-0.102095 -0.283187 10.0903 -0.0522681 -0.296427 0 -0.102948 -0.282847 0 
0 -0.301 0 -0.0449797 -0.298042 10.0767 -0.00845798 -0.300985 10.0857 
-0.0449797 -0.298042 10.0767 0 -0.301 0 -0.0522681 -0.296427 0 
0.0522681 -0.296427 0 0.0115291 -0.300779 10.0888 0.0345197 -0.299014 10.0888 
0 -0.301 0 -0.00845798 -0.300985 10.0857 0.0115291 -0.300779 10.0888 
0.0115291 -0.300779 10.0888 0.0522681 -0.296427 0 0 -0.301 0 
0.0345197 -0.299014 10.0888 0.0558809 -0.29587 10.0981 0.0522681 -0.296427 0 
0.102948 -0.282847 0 0.0558809 -0.29587 10.0981 0.0906628 -0.287245 10.1106 
0.0558809 -0.29587 10.0981 0.102948 -0.282847 0 0.0522681 -0.296427 0 
0.1505 -0.260674 0 0.12313 -0.274664 10.0888 0.155215 -0.258434 10.0714 
0.102948 -0.282847 0 0.0906628 -0.287245 10.1106 0.12313 -0.274664 10.0888 
0.12313 -0.274664 10.0888 0.1505 -0.260674 0 0.102948 -0.282847 0 
0.193479 -0.230579 0 0.155215 -0.258434 10.0714 0.182474 -0.239383 10.0888 
0.155215 -0.258434 10.0714 0.193479 -0.230579 0 0.1505 -0.260674 0 
0.182474 -0.239383 10.0888 0.198638 -0.226325 10.0882 0.193479 -0.230579 0 
0.230579 -0.193479 0 0.198638 -0.226325 10.0882 0.216877 -0.208723 10.0888 
0.198638 -0.226325 10.0882 0.230579 -0.193479 0 0.193479 -0.230579 0 
0.216877 -0.208723 10.0888 0.231792 -0.192112 10.0913 0.230579 -0.193479 0 
0.260674 -0.1505 0 0.246197 -0.173171 10.0888 0.265218 -0.143152 10.0508 
0.260674 -0.1505 0 0.231792 -0.192112 10.0913 0.246197 -0.173171 10.0888 
0.231792 -0.192112 10.0913 0.260674 -0.1505 0 0.230579 -0.193479 0 
0.282847 -0.102948 0 0.265218 -0.143152 10.0508 0.280474 -0.109568 10.0861 
0.265218 -0.143152 10.0508 0.282847 -0.102948 0 0.260674 -0.1505 0 
0.296427 -0.0522681 0 0.286972 -0.0908179 10.0888 0.293082 -0.0685839 10.0888 
0.282847 -0.102948 0 0.280474 -0.109568 10.0861 0.286972 -0.0908179 10.0888 
0.286972 -0.0908179 10.0888 0.296427 -0.0522681 0 0.282847 -0.102948 0 
0.293082 -0.0685839 10.0888 0.297307 -0.0477493 10.0931 0.296427 -0.0522681 0 
0.301 0 0 0.297307 -0.0477493 10.0931 0.301002 -0.011723 10.0548 
0.297307 -0.0477493 10.0931 0.301 0 0 0.296427 -0.0522681 0 
0.296427 0.0522681 0 0.300117 0.0230413 10.0888 0.295717 0.0584638 10.0534 
0.301 0 0 0.301002 -0.011723 10.0548 0.300117 0.0230413 10.0888 
0.300117 0.0230413 10.0888 0.296427 0.0522681 0 0.301 0 0 
0.282847 0.102948 0 0.295717 0.0584638 10.0534 0.286972 0.0908179 10.0888 
0.295717 0.0584638 10.0534 0.282847 0.102948 0 0.296427 0.0522681 0 
0.286972 0.0908179 10.0888 0.280176 0.110359 10.0917 0.282847 0.102948 0 
0.260674 0.1505 0 0.280176 0.110359 10.0917 0.269746 0.13356 10.0888 
0.280176 0.110359 10.0917 0.260674 0.1505 0 0.282847 0.102948 0 
0.269746 0.13356 10.0888 0.259365 0.152903 10.0918 0.260674 0.1505 0 
0.230579 0.193479 0 0.246197 0.173171 10.0888 0.231483 0.192472 10.0888 
0.230579 0.193479 0 0.259365 0.152903 10.0918 0.246197 0.173171 10.0888 
0.259365 0.152903 10.0918 0.230579 0.193479 0 0.260674 0.1505 0 
0.193479 0.230579 0 0.216877 0.208723 10.0888 0.190527 0.23364 10.0569 
0.230579 0.193479 0 0.231483 0.192472 10.0888 0.216877 0.208723 10.0888 
0.216877 0.208723 10.0888 0.193479 0.230579 0 0.230579 0.193479 0 
0.1505 0.260674 0 0.190527 0.23364 10.0569 0.163614 0.252649 10.0888 
0.190527 0.23364 10.0569 0.1505 0.260674 0 0.193479 0.230579 0 
0.163614 0.252649 10.0888 0.145683 0.263542 10.0905 0.1505 0.260674 0 
0.102948 0.282847 0 0.145683 0.263542 10.0905 0.12313 0.274664 10.0888 
0.145683 0.263542 10.0905 0.102948 0.282847 0 0.1505 0.260674 0 
0.12313 0.274664 10.0888 0.102095 0.283187 10.0903 0.102948 0.282847 0 
0.0522681 0.296427 0 0.0797594 0.29024 10.0888 0.0449797 0.298042 10.0767 
0.0522681 0.296427 0 0.102095 0.283187 10.0903 0.0797594 0.29024 10.0888 
0.102095 0.283187 10.0903 0.0522681 0.296427 0 0.102948 0.282847 0 
0 0.301 0 0.0449797 0.298042 10.0767 0.00845798 0.300985 10.0857 
0.0449797 0.298042 10.0767 0 0.301 0 0.0522681 0.296427 0 
-0.0522681 0.296427 0 -0.0115291 0.300779 10.0888 -0.0345197 0.299014 10.0888 
0 0.301 0 0.00845798 0.300985 10.0857 -0.0115291 0.300779 10.0888 
-0.0115291 0.300779 10.0888 -0.0522681 0.296427 0 0 0.301 0 
-0.0345197 0.299014 10.0888 -0.0558809 0.29587 10.0981 -0.0522681 0.296427 0 
-0.102948 0.282847 0 -0.0558809 0.29587 10.0981 -0.0906628 0.287245 10.1106 
-0.0558809 0.29587 10.0981 -0.102948 0.282847 0 -0.0522681 0.296427 0 
-0.1505 0.260674 0 -0.12313 0.274664 10.0888 -0.155215 0.258434 10.0714 
-0.102948 0.282847 0 -0.0906628 0.287245 10.1106 -0.12313 0.274664 10.0888 
-0.12313 0.274664 10.0888 -0.1505 0.260674 0 -0.102948 0.282847 0 
-0.193479 0.230579 0 -0.155215 0.258434 10.0714 -0.182474 0.239383 10.0888 
-0.155215 0.258434 10.0714 -0.193479 0.230579 0 -0.1505 0.260674 0 
-0.182474 0.239383 10.0888 -0.198638 0.226325 10.0882 -0.193479 0.230579 0 
-0.230579 0.193479 0 -0.198638 0.226325 10.0882 -0.216877 0.208723 10.0888 
-0.198638 0.226325 10.0882 -0.230579 0.193479 0 -0.193479 0.230579 0 
-0.216877 0.208723 10.0888 -0.231792 0.192112 10.0913 -0.230579 0.193479 0 
-0.260674 0.1505 0 -0.246197 0.173171 10.0888 -0.265218 0.143152 10.0508 
-0.260674 0.1505 0 -0.231792 0.192112 10.0913 -0.246197 0.173171 10.0888 
-0.231792 0.192112 10.0913 -0.260674 0.1505 0 -0.230579 0.193479 0 
-0.282847 0.102948 0 -0.265218 0.143152 10.0508 -0.280474 0.109568 10.0861 
-0.265218 0.143152 10.0508 -0.282847 0.102948 0 -0.260674 0.1505 0 
-0.296427 0.0522681 0 -0.286972 0.0908179 10.0888 -0.293082 0.0685839 10.0888 
-0.282847 0.102948 0 -0.280474 0.109568 10.0861 -0.286972 0.0908179 10.0888 
-0.286972 0.0908179 10.0888 -0.296427 0.0522681 0 -0.282847 0.102948 0 
-0.293082 0.0685839 10.0888 -0.297307 0.0477496 10.0931 -0.296427 0.0522681 0 
-0.301 1.56585e-07 7.93617e-12 -0.297307 0.0477496 10.0931 -0.301002 0.011723 10.0548 
-0.297307 0.0477496 10.0931 -0.301 1.56585e-07 7.93617e-12 -0.296427 0.0522681 0 
2.02725 0.151062 12.8075 1.76869 0.194693 12.6747 1.77667 -0.072409 12.6753 
1.77667 -0.072409 12.6753 2.03315 0 12.8077 2.02725 0.151062 12.8075 
1.76869 0.194693 12.6747 2.02725 0.151062 12.8075 2.0097 0.299752 12.807 
1.76869 0.194693 12.6747 2.0097 0.299752 12.807 1.98348 0.450212 12.8079 
1.98348 0.450212 12.8079 1.70876 0.54871 12.6833 1.76869 0.194693 12.6747 
1.70876 0.54871 12.6833 1.98348 0.450212 12.8079 1.94186 0.595219 12.8066 
1.70876 0.54871 12.6833 1.94186 0.595219 12.8066 1.89173 0.732769 12.8054 
1.70876 0.54871 12.6833 1.89173 0.732769 12.8054 1.82544 0.87507 12.8033 
1.82544 0.87507 12.8033 1.4756 1.00863 12.6796 1.70876 0.54871 12.6833 
1.4756 1.00863 12.6796 1.82544 0.87507 12.8033 1.75207 0.999028 12.8 
1.4756 1.00863 12.6796 1.75207 0.999028 12.8 1.68829 1.13158 12.8071 
1.27359 1.35268 12.7167 1.4756 1.00863 12.6796 1.53859 1.25858 12.7863 
1.4756 1.00863 12.6796 1.68829 1.13158 12.8071 1.53859 1.25858 12.7863 
0.920206 1.62019 12.72 1.27359 1.35268 12.7167 1.21236 1.62529 12.805 
0.825732 1.85812 12.8077 0.685361 1.91282 12.8071 0.563004 1.77872 12.7213 
0.563004 1.77872 12.7213 0.685361 1.91282 12.8071 0.541382 1.95958 12.8076 
0.563004 1.77872 12.7213 0.541382 1.95958 12.8076 0.394957 1.99357 12.8072 
0.394957 1.99357 12.8072 0.227119 1.9116 12.7572 0.563004 1.77872 12.7213 
0.227119 1.9116 12.7572 0.0953936 2.03213 12.8081 -0.0535274 2.02917 12.806 
-0.0535274 2.02917 12.806 -0.0999485 1.78691 12.6806 0.227119 1.9116 12.7572 
-0.0999485 1.78691 12.6806 -0.0535274 2.02917 12.806 -0.209479 2.01714 12.805 
-0.0999485 1.78691 12.6806 -0.209479 2.01714 12.805 -0.351242 1.99405 12.8037 
-0.351242 1.99405 12.8037 -0.429014 1.74587 12.6869 -0.0999485 1.78691 12.6806 
-0.429014 1.74587 12.6869 -0.351242 1.99405 12.8037 -0.496443 1.96113 12.8027 
-0.429014 1.74587 12.6869 -0.496443 1.96113 12.8027 -0.654576 1.91648 12.8038 
-0.654576 1.91648 12.8038 -0.667326 1.63744 12.6688 -0.429014 1.74587 12.6869 
-0.667326 1.63744 12.6688 -0.654576 1.91648 12.8038 -0.834181 1.83579 12.7996 
-0.978754 1.49231 12.6791 -0.667326 1.63744 12.6688 -0.99791 1.76115 12.8034 
-1.24302 1.26961 12.6745 -0.978754 1.49231 12.6791 -1.24612 1.60438 12.8067 
-1.56928 1.29007 12.8069 -1.66233 1.17035 12.8076 -1.45401 1.0684 12.6904 
-1.45401 1.0684 12.6904 -1.24302 1.26961 12.6745 -1.56928 1.29007 12.8069 
-1.74411 1.04385 12.8074 -1.68819 0.801198 12.7225 -1.45401 1.0684 12.6904 
-1.45401 1.0684 12.6904 -1.66233 1.17035 12.8076 -1.74411 1.04385 12.8074 
-1.68819 0.801198 12.7225 -1.74411 1.04385 12.8074 -1.81719 0.910389 12.8073 
-1.68819 0.801198 12.7225 -1.81719 0.910389 12.8073 -1.88091 0.774869 12.8081 
-1.68819 0.801198 12.7225 -1.88091 0.774869 12.8081 -1.92964 0.632852 12.8064 
-1.92964 0.632852 12.8064 -1.82182 0.391787 12.7209 -1.68819 0.801198 12.7225 
-1.82182 0.391787 12.7209 -1.92964 0.632852 12.8064 -1.96644 0.488072 12.8043 
-1.82182 0.391787 12.7209 -1.96644 0.488072 12.8043 -1.97367 0.305283 12.7904 
-1.97367 0.305283 12.7904 -1.77358 -0.0749551 12.6684 -1.82182 0.391787 12.7209 
-1.84836 -0.474797 12.7493 -1.77358 -0.0749551 12.6684 -2.00026 -0.348988 12.8063 
-1.69691 -0.771755 12.7212 -1.84836 -0.474797 12.7493 -1.92961 -0.632862 12.8064 
-1.57074 -1.29038 12.8075 -1.37877 -1.32445 12.751 -1.56332 -1.1019 12.7515 
-1.37877 -1.32445 12.751 -1.36358 -1.50933 12.808 -1.24612 -1.60439 12.8068 
-1.24612 -1.60439 12.8068 -1.06601 -1.53562 12.7239 -1.37877 -1.32445 12.751 
-1.06601 -1.53562 12.7239 -1.24612 -1.60439 12.8068 -1.12456 -1.69068 12.8063 
-1.06601 -1.53562 12.7239 -1.12456 -1.69068 12.8063 -0.997976 -1.76123 12.8034 
-0.997976 -1.76123 12.8034 -0.795108 -1.73619 12.7498 -1.06601 -1.53562 12.7239 
-0.318243 -1.87902 12.7481 -0.609714 -1.82621 12.7571 -0.498536 -1.97004 12.807 
-0.000761074 -1.86737 12.7222 -0.318243 -1.87902 12.7481 -0.209214 -2.01472 12.8039 
0.238081 -1.89087 12.7481 -0.000761074 -1.86737 12.7222 0.095385 -2.03215 12.8081 
0.562757 -1.77475 12.7197 0.238081 -1.89087 12.7481 0.394992 -1.99358 12.8072 
0.541312 -1.95962 12.8076 0.68538 -1.91383 12.8076 0.562757 -1.77475 12.7197 
0.825782 -1.8575 12.8075 0.917228 -1.52968 12.6758 0.562757 -1.77475 12.7197 
0.562757 -1.77475 12.7197 0.68538 -1.91383 12.8076 0.825782 -1.8575 12.8075 
0.917228 -1.52968 12.6758 0.825782 -1.8575 12.8075 0.959022 -1.79084 12.8068 
0.917228 -1.52968 12.6758 0.959022 -1.79084 12.8068 1.09237 -1.7169 12.8084 
0.917228 -1.52968 12.6758 1.09237 -1.7169 12.8084 1.21229 -1.62523 12.8049 
1.21229 -1.62523 12.8049 1.20406 -1.31432 12.6781 0.917228 -1.52968 12.6758 
1.20406 -1.31432 12.6781 1.21229 -1.62523 12.8049 1.32557 -1.534 12.8048 
1.20406 -1.31432 12.6781 1.32557 -1.534 12.8048 1.44419 -1.42986 12.807 
1.44419 -1.42986 12.807 1.43103 -1.05281 12.6743 1.20406 -1.31432 12.6781 
1.43103 -1.05281 12.6743 1.44419 -1.42986 12.807 1.57828 -1.27435 12.8059 
1.64073 -0.668426 12.6694 1.43103 -1.05281 12.6743 1.75737 -1.00207 12.8029 
1.88857 -0.415323 12.7611 1.64073 -0.668426 12.6694 1.93999 -0.593835 12.8055 
1.77667 -0.072409 12.6753 1.88857 -0.415323 12.7611 2.00971 -0.299772 12.807 
2.02728 -0.151103 12.8075 2.03315 0 12.8077 1.77667 -0.072409 12.6753 
1.34656 0.658326 12.4884 1.70876 0.54871 12.6833 1.4756 1.00863 12.6796 
1.06301 1.22694 12.5742 1.27359 1.35268 12.7167 0.920206 1.62019 12.72 
0.747948 1.41775 12.5628 0.920206 1.62019 12.72 0.563004 1.77872 12.7213 
0.328316 1.60266 12.5803 0.563004 1.77872 12.7213 0.227119 1.9116 12.7572 
-1.46823 0.683138 12.5693 -1.68819 0.801198 12.7225 -1.82182 0.391787 12.7209 
-1.58467 0.30888 12.5715 -1.82182 0.391787 12.7209 -1.77358 -0.0749551 12.6684 
-1.55994 -0.423367 12.5717 -1.84836 -0.474797 12.7493 -1.69691 -0.771755 12.7212 
-1.46091 -0.717022 12.5768 -1.69691 -0.771755 12.7212 -1.56332 -1.1019 12.7515 
-1.28718 -0.981246 12.5732 -1.56332 -1.1019 12.7515 -1.37877 -1.32445 12.751 
-1.06242 -1.22216 12.5723 -1.37877 -1.32445 12.751 -1.06601 -1.53562 12.7239 
-0.755903 -1.4219 12.5682 -1.06601 -1.53562 12.7239 -0.795108 -1.73619 12.7498 
-0.755903 -1.4219 12.5682 -0.795108 -1.73619 12.7498 -0.609714 -1.82621 12.7571 
-0.489035 -1.53079 12.567 -0.609714 -1.82621 12.7571 -0.318243 -1.87902 12.7481 
-0.118773 -1.61543 12.5714 -0.318243 -1.87902 12.7481 -0.000761074 -1.86737 12.7222 
-0.118773 -1.61543 12.5714 -0.000761074 -1.86737 12.7222 0.238081 -1.89087 12.7481 
0.298817 -1.5917 12.5731 0.238081 -1.89087 12.7481 0.562757 -1.77475 12.7197 
0.617445 -1.51913 12.5878 0.562757 -1.77475 12.7197 0.917228 -1.52968 12.6758 
1.58345 -0.309509 12.5709 1.88857 -0.415323 12.7611 1.77667 -0.072409 12.6753 
1.45933 0.0475438 12.4559 1.77667 -0.072409 12.6753 1.76869 0.194693 12.6747 
1.45933 0.0475438 12.4559 1.76869 0.194693 12.6747 1.70876 0.54871 12.6833 
1.42014 0.390007 12.4684 1.70876 0.54871 12.6833 1.34656 0.658326 12.4884 
1.11541 0.935598 12.4525 1.4756 1.00863 12.6796 1.06301 1.22694 12.5742 
-0.0510425 1.45747 12.4563 -0.0999485 1.78691 12.6806 -0.429014 1.74587 12.6869 
-0.47629 1.38842 12.4604 -0.429014 1.74587 12.6869 -0.667326 1.63744 12.6688 
-0.47629 1.38842 12.4604 -0.667326 1.63744 12.6688 -0.978754 1.49231 12.6791 
-0.855728 1.19486 12.4627 -0.978754 1.49231 12.6791 -1.24302 1.26961 12.6745 
-1.13746 0.933052 12.4673 -1.24302 1.26961 12.6745 -1.45401 1.0684 12.6904 
-1.13746 0.933052 12.4673 -1.45401 1.0684 12.6904 -1.46823 0.683138 12.5693 
-1.46371 -0.0725354 12.4596 -1.77358 -0.0749551 12.6684 -1.55994 -0.423367 12.5717 
0.83337 -1.2011 12.4552 0.917228 -1.52968 12.6758 1.20406 -1.31432 12.6781 
1.1278 -0.930412 12.4604 1.20406 -1.31432 12.6781 1.43103 -1.05281 12.6743 
1.33857 -0.593261 12.457 1.43103 -1.05281 12.6743 1.64073 -0.668426 12.6694 
1.33857 -0.593261 12.457 1.64073 -0.668426 12.6694 1.58345 -0.309509 12.5709 
0.782863 1.08729 12.3591 1.06301 1.22694 12.5742 0.747948 1.41775 12.5628 
0.548432 1.20977 12.3486 0.747948 1.41775 12.5628 0.328316 1.60266 12.5803 
0.267858 1.37415 12.4046 0.328316 1.60266 12.5803 -0.0510425 1.45747 12.4563 
-1.13525 0.526065 12.2807 -1.46823 0.683138 12.5693 -1.58467 0.30888 12.5715 
-1.21905 0.135163 12.254 -1.58467 0.30888 12.5715 -1.46371 -0.0725354 12.4596 
-1.27698 -0.365477 12.3522 -1.55994 -0.423367 12.5717 -1.46091 -0.717022 12.5768 
-1.13894 -0.566881 12.3034 -1.46091 -0.717022 12.5768 -1.28718 -0.981246 12.5732 
-1.05623 -0.916403 12.4031 -1.28718 -0.981246 12.5732 -1.06242 -1.22216 12.5723 
-0.783375 -1.09252 12.3632 -1.06242 -1.22216 12.5723 -0.755903 -1.4219 12.5682 
-0.548432 -1.20977 12.3486 -0.755903 -1.4219 12.5682 -0.489035 -1.53079 12.567 
-0.26671 -1.37001 12.401 -0.489035 -1.53079 12.567 -0.118773 -1.61543 12.5714 
0.0649912 -1.39392 12.4032 -0.118773 -1.61543 12.5714 0.298817 -1.5917 12.5731 
0.425414 -1.32884 12.4014 0.298817 -1.5917 12.5731 0.617445 -1.51913 12.5878 
0.425414 -1.32884 12.4014 0.617445 -1.51913 12.5878 0.83337 -1.2011 12.4552 
1.20615 -0.112498 12.2389 1.58345 -0.309509 12.5709 1.45933 0.0475438 12.4559 
1.22249 0.266777 12.2738 1.45933 0.0475438 12.4559 1.42014 0.390007 12.4684 
1.22249 0.266777 12.2738 1.42014 0.390007 12.4684 1.34656 0.658326 12.4884 
1.05232 0.548044 12.2172 1.34656 0.658326 12.4884 1.11541 0.935598 12.4525 
0.880799 0.798915 12.2162 1.11541 0.935598 12.4525 0.782863 1.08729 12.3591 
0.0416995 1.17118 12.2037 0.267858 1.37415 12.4046 -0.0510425 1.45747 12.4563 
-0.187331 1.16583 12.2139 -0.0510425 1.45747 12.4563 -0.47629 1.38842 12.4604 
-0.442499 1.10972 12.2229 -0.47629 1.38842 12.4604 -0.855728 1.19486 12.4627 
-0.90044 0.77496 12.2162 -0.855728 1.19486 12.4627 -1.13746 0.933052 12.4673 
-0.90044 0.77496 12.2162 -1.13746 0.933052 12.4673 -1.13525 0.526065 12.2807 
-1.10998 -0.183125 12.1546 -1.46371 -0.0725354 12.4596 -1.27698 -0.365477 12.3522 
-0.886414 -0.801755 12.2214 -1.05623 -0.916403 12.4031 -0.783375 -1.09252 12.3632 
-0.0420285 -1.17075 12.2033 -0.26671 -1.37001 12.401 0.0649912 -1.39392 12.4032 
0.266757 -1.15567 12.2141 0.0649912 -1.39392 12.4032 0.425414 -1.32884 12.4014 
0.538275 -1.07175 12.2306 0.425414 -1.32884 12.4014 0.83337 -1.2011 12.4552 
0.748115 -0.930371 12.2213 0.83337 -1.2011 12.4552 1.1278 -0.930412 12.4604 
0.987285 -0.668326 12.2198 1.1278 -0.930412 12.4604 1.33857 -0.593261 12.457 
1.1164 -0.402339 12.2174 1.33857 -0.593261 12.457 1.20615 -0.112498 12.2389 
0.991304 0.357827 12.078 1.22249 0.266777 12.2738 1.05232 0.548044 12.2172 
0.522003 0.92895 12.0825 0.782863 1.08729 12.3591 0.548432 1.20977 12.3486 
0.522003 0.92895 12.0825 0.548432 1.20977 12.3486 0.276886 1.13591 12.1999 
-0.991304 -0.357827 12.078 -1.27698 -0.365477 12.3522 -1.13894 -0.566881 12.3034 
-0.611877 -0.871515 12.0886 -0.783375 -1.09252 12.3632 -0.548432 -1.20977 12.3486 
0.925351 -0.0599453 11.9245 1.20615 -0.112498 12.2389 0.967778 0.147718 11.992 
0.786328 0.486518 11.9241 1.05232 0.548044 12.2172 0.880799 0.798915 12.2162 
0.167782 0.913935 11.9214 0.276886 1.13591 12.1999 0.0416995 1.17118 12.2037 
-0.134872 0.927696 11.9341 0.0416995 1.17118 12.2037 -0.187331 1.16583 12.2139 
-0.134872 0.927696 11.9341 -0.187331 1.16583 12.2139 -0.442499 1.10972 12.2229 
-0.407972 0.906333 12.0041 -0.442499 1.10972 12.2229 -0.687791 0.973477 12.2232 
-0.562689 0.717013 11.9064 -0.687791 0.973477 12.2232 -0.90044 0.77496 12.2162 
-0.773604 0.525429 11.9331 -0.90044 0.77496 12.2162 -1.13525 0.526065 12.2807 
-0.886552 0.286167 11.931 -1.13525 0.526065 12.2807 -1.21905 0.135163 12.254 
-0.925351 0.0599453 11.9245 -1.21905 0.135163 12.254 -1.10998 -0.183125 12.1546 
-0.786328 -0.486518 11.9241 -1.13894 -0.566881 12.3034 -0.886414 -0.801755 12.2214 
-0.099468 -0.92517 11.9277 -0.345478 -1.09012 12.1686 -0.0420285 -1.17075 12.2033 
0.134869 -0.927695 11.9341 -0.0420285 -1.17075 12.2033 0.266757 -1.15567 12.2141 
0.407972 -0.906333 12.0041 0.266757 -1.15567 12.2141 0.538275 -1.07175 12.2306 
0.407972 -0.906333 12.0041 0.538275 -1.07175 12.2306 0.748115 -0.930371 12.2213 
0.764084 -0.528288 11.9239 0.748115 -0.930371 12.2213 0.987285 -0.668326 12.2198 
0.764084 -0.528288 11.9239 0.987285 -0.668326 12.2198 1.1164 -0.402339 12.2174 
0.886552 -0.286167 11.931 1.1164 -0.402339 12.2174 1.20615 -0.112498 12.2389 
0.708694 0.297821 11.7005 0.991304 0.357827 12.078 0.786328 0.486518 11.9241 
-0.303439 0.752819 11.7621 -0.407972 0.906333 12.0041 -0.562689 0.717013 11.9064 
-0.866884 -0.132402 11.8539 -1.10998 -0.183125 12.1546 -0.991304 -0.357827 12.078 
-0.708694 -0.297821 11.7005 -0.991304 -0.357827 12.078 -0.786328 -0.486518 11.9241 
-0.371856 -0.80584 11.8615 -0.611877 -0.871515 12.0886 -0.345478 -1.09012 12.1686 
0.303439 -0.752819 11.7621 0.407972 -0.906333 12.0041 0.558352 -0.708699 11.8928 
0.717215 0.0891669 11.6187 0.925351 -0.0599453 11.9245 0.967778 0.147718 11.992 
0.717215 0.0891669 11.6187 0.967778 0.147718 11.992 0.708694 0.297821 11.7005 
0.572251 0.398826 11.582 0.786328 0.486518 11.9241 0.649845 0.656369 11.9206 
0.455145 0.538829 11.5934 0.649845 0.656369 11.9206 0.417097 0.771573 11.8542 
0.277071 0.667689 11.6205 0.417097 0.771573 11.8542 0.167782 0.913935 11.9214 
0.00587748 0.720061 11.6124 0.167782 0.913935 11.9214 -0.134872 0.927696 11.9341 
-0.613944 0.386314 11.6247 -0.773604 0.525429 11.9331 -0.886552 0.286167 11.931 
-0.702439 0.165607 11.6155 -0.886552 0.286167 11.931 -0.925351 0.0599453 11.9245 
-0.717215 -0.0891669 11.6187 -0.925351 0.0599453 11.9245 -0.866884 -0.132402 11.8539 
-0.717215 -0.0891669 11.6187 -0.866884 -0.132402 11.8539 -0.708694 -0.297821 11.7005 
-0.572251 -0.398826 11.582 -0.786328 -0.486518 11.9241 -0.649845 -0.656369 11.9206 
-0.455145 -0.538829 11.5934 -0.649845 -0.656369 11.9206 -0.371856 -0.80584 11.8615 
-0.277071 -0.667689 11.6205 -0.371856 -0.80584 11.8615 -0.099468 -0.92517 11.9277 
-0.00746746 -0.721355 11.6138 -0.099468 -0.92517 11.9277 0.134869 -0.927695 11.9341 
0.613944 -0.386314 11.6247 0.764084 -0.528288 11.9239 0.886552 -0.286167 11.931 
0.702439 -0.165607 11.6155 0.886552 -0.286167 11.931 0.925351 -0.0599453 11.9245 
-0.083232 0.556786 11.3173 0.00587748 0.720061 11.6124 -0.303439 0.752819 11.7621 
-0.289338 0.571944 11.4778 -0.303439 0.752819 11.7621 -0.562689 0.717013 11.9064 
-0.421764 0.474396 11.4583 -0.562689 0.717013 11.9064 -0.613944 0.386314 11.6247 
0.083232 -0.556786 11.3173 -0.00746746 -0.721355 11.6138 0.303439 -0.752819 11.7621 
0.289338 -0.571944 11.4778 0.303439 -0.752819 11.7621 0.558352 -0.708699 11.8928 
0.421764 -0.474396 11.4583 0.558352 -0.708699 11.8928 0.613944 -0.386314 11.6247 
0.533717 0.188864 11.3202 0.717215 0.0891669 11.6187 0.708694 0.297821 11.7005 
0.352382 0.417135 11.2761 0.455145 0.538829 11.5934 0.277071 0.667689 11.6205 
0.140543 0.532429 11.276 0.277071 0.667689 11.6205 0.00587748 0.720061 11.6124 
-0.457084 0.274453 11.2431 -0.613944 0.386314 11.6247 -0.702439 0.165607 11.6155 
-0.577802 0.0617716 11.3446 -0.702439 0.165607 11.6155 -0.717215 -0.0891669 11.6187 
-0.533717 -0.188864 11.3202 -0.717215 -0.0891669 11.6187 -0.708694 -0.297821 11.7005 
-0.352382 -0.417135 11.2761 -0.455145 -0.538829 11.5934 -0.277071 -0.667689 11.6205 
-0.140543 -0.532429 11.276 -0.277071 -0.667689 11.6205 -0.00746746 -0.721355 11.6138 
0.457084 -0.274453 11.2431 0.613944 -0.386314 11.6247 0.702439 -0.165607 11.6155 
0.577802 -0.0617713 11.3446 0.702439 -0.165607 11.6155 0.717215 0.0891669 11.6187 
-0.13658 0.441198 11.0557 -0.083232 0.556786 11.3173 -0.289338 0.571944 11.4778 
-0.13658 0.441198 11.0557 -0.289338 0.571944 11.4778 -0.421764 0.474396 11.4583 
0.13658 -0.441198 11.0557 0.083232 -0.556786 11.3173 0.289338 -0.571944 11.4778 
0.13658 -0.441198 11.0557 0.289338 -0.571944 11.4778 0.421764 -0.474396 11.4583 
0.422514 0.0739992 10.9459 0.577802 -0.0617713 11.3446 0.533717 0.188864 11.3202 
0.422514 0.0739992 10.9459 0.533717 0.188864 11.3202 0.38901 0.275588 11.1031 
0.225113 0.379259 10.9794 0.352382 0.417135 11.2761 0.140543 0.532429 11.276 
0.0338038 0.405647 10.8868 0.140543 0.532429 11.276 -0.083232 0.556786 11.3173 
-0.422514 -0.0739995 10.9459 -0.577802 0.0617716 11.3446 -0.533717 -0.188864 11.3202 
-0.422514 -0.0739995 10.9459 -0.533717 -0.188864 11.3202 -0.38901 -0.275588 11.1031 
-0.225113 -0.379259 10.9794 -0.352382 -0.417135 11.2761 -0.140543 -0.532429 11.276 
-0.0338038 -0.405647 10.8868 -0.140543 -0.532429 11.276 0.083232 -0.556786 11.3173 
0.335559 0.13956 10.702 0.422514 0.0739992 10.9459 0.38901 0.275588 11.1031 
0.217337 0.28566 10.6486 0.38901 0.275588 11.1031 0.225113 0.379259 10.9794 
-0.109011 0.361819 10.7426 0.0338038 0.405647 10.8868 -0.13658 0.441198 11.0557 
-0.109011 0.361819 10.7426 -0.13658 0.441198 11.0557 -0.289047 0.383885 11.1127 
-0.291225 0.268035 10.8272 -0.289047 0.383885 11.1127 -0.457084 0.274453 11.2431 
-0.335559 -0.13956 10.702 -0.422514 -0.0739995 10.9459 -0.38901 -0.275588 11.1031 
-0.217337 -0.28566 10.6486 -0.38901 -0.275588 11.1031 -0.225113 -0.379259 10.9794 
0.109011 -0.361819 10.7426 -0.0338038 -0.405647 10.8868 0.13658 -0.441198 11.0557 
0.109011 -0.361819 10.7426 0.13658 -0.441198 11.0557 0.289047 -0.383885 11.1127 
0.291225 -0.268035 10.8272 0.289047 -0.383885 11.1127 0.457084 -0.274453 11.2431 
0.342425 0.0132703 10.5808 0.408907 -0.131137 10.958 0.422514 0.0739992 10.9459 
-0.310583 0.143003 10.5662 -0.291225 0.268035 10.8272 -0.408907 0.131137 10.958 
-0.342425 -0.0132703 10.5808 -0.408907 0.131137 10.958 -0.422514 -0.0739995 10.9459 
0.310583 -0.143003 10.5662 0.291225 -0.268035 10.8272 0.408907 -0.131137 10.958 
0.072203 0.308881 10.3962 0.217337 0.28566 10.6486 0.0338038 0.405647 10.8868 
0.072203 0.308881 10.3962 0.0338038 0.405647 10.8868 -0.109011 0.361819 10.7426 
-0.072203 -0.308881 10.3962 -0.217337 -0.28566 10.6486 -0.0338038 -0.405647 10.8868 
-0.072203 -0.308881 10.3962 -0.0338038 -0.405647 10.8868 0.109011 -0.361819 10.7426 
0.287987 0.132078 10.3024 0.342425 0.0132703 10.5808 0.335559 0.13956 10.702 
0.287987 0.132078 10.3024 0.335559 0.13956 10.702 0.217337 0.28566 10.6486 
-0.254711 0.175075 10.275 -0.193454 0.268159 10.4924 -0.310583 0.143003 10.5662 
-0.306694 0.0497892 10.2788 -0.310583 0.143003 10.5662 -0.342425 -0.0132703 10.5808 
-0.287987 -0.132078 10.3024 -0.342425 -0.0132703 10.5808 -0.335559 -0.13956 10.702 
-0.287987 -0.132078 10.3024 -0.335559 -0.13956 10.702 -0.217337 -0.28566 10.6486 
0.254711 -0.175075 10.275 0.193454 -0.268158 10.4924 0.310583 -0.143003 10.5662 
0.306694 -0.0497892 10.2788 0.310583 -0.143003 10.5662 0.342425 0.0132703 10.5808 
0.300117 0.0230413 10.0888 0.306694 -0.0497892 10.2788 0.287987 0.132078 10.3024 
0.287987 0.132078 10.3024 0.216877 0.208723 10.0888 0.231483 0.192472 10.0888 
0.216877 0.208723 10.0888 0.287987 0.132078 10.3024 0.182371 0.249539 10.2767 
0.145683 0.263542 10.0905 0.182371 0.249539 10.2767 0.072203 0.308881 10.3962 
0.0449797 0.298042 10.0767 0.072203 0.308881 10.3962 -0.0508787 0.314746 10.408 
-0.0508787 0.314746 10.408 -0.0115291 0.300779 10.0888 0.00845798 0.300985 10.0857 
-0.0906628 0.287245 10.1106 -0.0508787 0.314746 10.408 -0.193454 0.268159 10.4924 
-0.193454 0.268159 10.4924 -0.12313 0.274664 10.0888 -0.0906628 0.287245 10.1106 
-0.198638 0.226325 10.0882 -0.193454 0.268159 10.4924 -0.254711 0.175075 10.275 
-0.265218 0.143152 10.0508 -0.254711 0.175075 10.275 -0.306694 0.0497892 10.2788 
-0.306694 0.0497892 10.2788 -0.286972 0.0908179 10.0888 -0.280474 0.109568 10.0861 
-0.300117 -0.0230413 10.0888 -0.306694 0.0497892 10.2788 -0.287987 -0.132078 10.3024 
-0.287987 -0.132078 10.3024 -0.216877 -0.208723 10.0888 -0.231483 -0.192472 10.0888 
-0.216877 -0.208723 10.0888 -0.287987 -0.132078 10.3024 -0.182371 -0.249539 10.2767 
-0.145683 -0.263542 10.0905 -0.182371 -0.249539 10.2767 -0.072203 -0.308881 10.3962 
-0.0449797 -0.298042 10.0767 -0.072203 -0.308881 10.3962 0.0508787 -0.314746 10.408 
0.0508787 -0.314746 10.408 0.0115291 -0.300779 10.0888 -0.00845798 -0.300985 10.0857 
0.0906628 -0.287245 10.1106 0.0508787 -0.314746 10.408 0.193454 -0.268158 10.4924 
0.193454 -0.268158 10.4924 0.12313 -0.274664 10.0888 0.0906628 -0.287245 10.1106 
0.198638 -0.226325 10.0882 0.193454 -0.268158 10.4924 0.254711 -0.175075 10.275 
0.265218 -0.143152 10.0508 0.254711 -0.175075 10.275 0.306694 -0.0497892 10.2788 
0.306694 -0.0497892 10.2788 0.286972 -0.0908179 10.0888 0.280474 -0.109568 10.0861 
0.306694 -0.0497892 10.2788 0.301002 -0.011723 10.0548 0.297307 -0.0477493 10.0931 
0.297307 -0.0477493 10.0931 0.293082 -0.0685839 10.0888 0.306694 -0.0497892 10.2788 
0.306694 -0.0497892 10.2788 0.293082 -0.0685839 10.0888 0.286972 -0.0908179 10.0888 
0.306694 -0.0497892 10.2788 0.280474 -0.109568 10.0861 0.265218 -0.143152 10.0508 
0.254711 -0.175075 10.275 0.265218 -0.143152 10.0508 0.246197 -0.173171 10.0888 
0.254711 -0.175075 10.275 0.246197 -0.173171 10.0888 0.231792 -0.192112 10.0913 
0.231792 -0.192112 10.0913 0.216877 -0.208723 10.0888 0.254711 -0.175075 10.275 
0.254711 -0.175075 10.275 0.216877 -0.208723 10.0888 0.198638 -0.226325 10.0882 
0.198638 -0.226325 10.0882 0.182474 -0.239383 10.0888 0.193454 -0.268158 10.4924 
0.193454 -0.268158 10.4924 0.182474 -0.239383 10.0888 0.155215 -0.258434 10.0714 
0.193454 -0.268158 10.4924 0.155215 -0.258434 10.0714 0.12313 -0.274664 10.0888 
0.0508787 -0.314746 10.408 0.0906628 -0.287245 10.1106 0.0558809 -0.29587 10.0981 
0.0558809 -0.29587 10.0981 0.0345197 -0.299014 10.0888 0.0508787 -0.314746 10.408 
0.0508787 -0.314746 10.408 0.0345197 -0.299014 10.0888 0.0115291 -0.300779 10.0888 
0.0508787 -0.314746 10.408 -0.00845798 -0.300985 10.0857 -0.0449797 -0.298042 10.0767 
-0.072203 -0.308881 10.3962 -0.0449797 -0.298042 10.0767 -0.0797594 -0.29024 10.0888 
-0.072203 -0.308881 10.3962 -0.0797594 -0.29024 10.0888 -0.102095 -0.283187 10.0903 
-0.102095 -0.283187 10.0903 -0.12313 -0.274664 10.0888 -0.072203 -0.308881 10.3962 
-0.072203 -0.308881 10.3962 -0.12313 -0.274664 10.0888 -0.145683 -0.263542 10.0905 
-0.145683 -0.263542 10.0905 -0.163614 -0.252649 10.0888 -0.182371 -0.249539 10.2767 
-0.182371 -0.249539 10.2767 -0.163614 -0.252649 10.0888 -0.190527 -0.23364 10.0569 
-0.182371 -0.249539 10.2767 -0.190527 -0.23364 10.0569 -0.216877 -0.208723 10.0888 
-0.287987 -0.132078 10.3024 -0.231483 -0.192472 10.0888 -0.246197 -0.173171 10.0888 
-0.287987 -0.132078 10.3024 -0.246197 -0.173171 10.0888 -0.259365 -0.152903 10.0918 
-0.259365 -0.152903 10.0918 -0.269746 -0.13356 10.0888 -0.287987 -0.132078 10.3024 
-0.287987 -0.132078 10.3024 -0.269746 -0.13356 10.0888 -0.280176 -0.110359 10.0917 
-0.280176 -0.110359 10.0917 -0.286972 -0.0908179 10.0888 -0.287987 -0.132078 10.3024 
-0.287987 -0.132078 10.3024 -0.286972 -0.0908179 10.0888 -0.295717 -0.0584638 10.0534 
-0.287987 -0.132078 10.3024 -0.295717 -0.0584638 10.0534 -0.300117 -0.0230413 10.0888 
-0.306694 0.0497892 10.2788 -0.300117 -0.0230413 10.0888 -0.301002 0.011723 10.0548 
-0.306694 0.0497892 10.2788 -0.301002 0.011723 10.0548 -0.297307 0.0477496 10.0931 
-0.297307 0.0477496 10.0931 -0.293082 0.0685839 10.0888 -0.306694 0.0497892 10.2788 
-0.306694 0.0497892 10.2788 -0.293082 0.0685839 10.0888 -0.286972 0.0908179 10.0888 
-0.306694 0.0497892 10.2788 -0.280474 0.109568 10.0861 -0.265218 0.143152 10.0508 
-0.254711 0.175075 10.275 -0.265218 0.143152 10.0508 -0.246197 0.173171 10.0888 
-0.254711 0.175075 10.275 -0.246197 0.173171 10.0888 -0.231792 0.192112 10.0913 
-0.231792 0.192112 10.0913 -0.216877 0.208723 10.0888 -0.254711 0.175075 10.275 
-0.254711 0.175075 10.275 -0.216877 0.208723 10.0888 -0.198638 0.226325 10.0882 
-0.198638 0.226325 10.0882 -0.182474 0.239383 10.0888 -0.193454 0.268159 10.4924 
-0.193454 0.268159 10.4924 -0.182474 0.239383 10.0888 -0.155215 0.258434 10.0714 
-0.193454 0.268159 10.4924 -0.155215 0.258434 10.0714 -0.12313 0.274664 10.0888 
-0.0508787 0.314746 10.408 -0.0906628 0.287245 10.1106 -0.0558809 0.29587 10.0981 
-0.0558809 0.29587 10.0981 -0.0345197 0.299014 10.0888 -0.0508787 0.314746 10.408 
-0.0508787 0.314746 10.408 -0.0345197 0.299014 10.0888 -0.0115291 0.300779 10.0888 
-0.0508787 0.314746 10.408 0.00845798 0.300985 10.0857 0.0449797 0.298042 10.0767 
0.072203 0.308881 10.3962 0.0449797 0.298042 10.0767 0.0797594 0.29024 10.0888 
0.072203 0.308881 10.3962 0.0797594 0.29024 10.0888 0.102095 0.283187 10.0903 
0.102095 0.283187 10.0903 0.12313 0.274664 10.0888 0.072203 0.308881 10.3962 
0.072203 0.308881 10.3962 0.12313 0.274664 10.0888 0.145683 0.263542 10.0905 
0.145683 0.263542 10.0905 0.163614 0.252649 10.0888 0.182371 0.249539 10.2767 
0.182371 0.249539 10.2767 0.163614 0.252649 10.0888 0.190527 0.23364 10.0569 
0.182371 0.249539 10.2767 0.190527 0.23364 10.0569 0.216877 0.208723 10.0888 
0.287987 0.132078 10.3024 0.231483 0.192472 10.0888 0.246197 0.173171 10.0888 
0.287987 0.132078 10.3024 0.246197 0.173171 10.0888 0.259365 0.152903 10.0918 
0.259365 0.152903 10.0918 0.269746 0.13356 10.0888 0.287987 0.132078 10.3024 
0.287987 0.132078 10.3024 0.269746 0.13356 10.0888 0.280176 0.110359 10.0917 
0.280176 0.110359 10.0917 0.286972 0.0908179 10.0888 0.287987 0.132078 10.3024 
0.287987 0.132078 10.3024 0.286972 0.0908179 10.0888 0.295717 0.0584638 10.0534 
0.287987 0.132078 10.3024 0.295717 0.0584638 10.0534 0.300117 0.0230413 10.0888 
0.306694 -0.0497892 10.2788 0.300117 0.0230413 10.0888 0.301002 -0.011723 10.0548 
0.310583 -0.143003 10.5662 0.306694 -0.0497892 10.2788 0.254711 -0.175075 10.275 
-0.217337 -0.28566 10.6486 -0.072203 -0.308881 10.3962 -0.182371 -0.249539 10.2767 
-0.217337 -0.28566 10.6486 -0.182371 -0.249539 10.2767 -0.287987 -0.132078 10.3024 
-0.342425 -0.0132703 10.5808 -0.287987 -0.132078 10.3024 -0.306694 0.0497892 10.2788 
-0.310583 0.143003 10.5662 -0.306694 0.0497892 10.2788 -0.254711 0.175075 10.275 
0.217337 0.28566 10.6486 0.072203 0.308881 10.3962 0.182371 0.249539 10.2767 
0.217337 0.28566 10.6486 0.182371 0.249539 10.2767 0.287987 0.132078 10.3024 
0.342425 0.0132703 10.5808 0.287987 0.132078 10.3024 0.306694 -0.0497892 10.2788 
0.109011 -0.361819 10.7426 0.193454 -0.268158 10.4924 0.0508787 -0.314746 10.408 
0.109011 -0.361819 10.7426 0.0508787 -0.314746 10.408 -0.072203 -0.308881 10.3962 
-0.109011 0.361819 10.7426 -0.193454 0.268159 10.4924 -0.0508787 0.314746 10.408 
-0.109011 0.361819 10.7426 -0.0508787 0.314746 10.408 0.072203 0.308881 10.3962 
0.408907 -0.131137 10.958 0.342425 0.0132703 10.5808 0.310583 -0.143003 10.5662 
0.291225 -0.268035 10.8272 0.310583 -0.143003 10.5662 0.193454 -0.268158 10.4924 
0.291225 -0.268035 10.8272 0.193454 -0.268158 10.4924 0.109011 -0.361819 10.7426 
-0.225113 -0.379259 10.9794 -0.0338038 -0.405647 10.8868 -0.217337 -0.28566 10.6486 
-0.422514 -0.0739995 10.9459 -0.335559 -0.13956 10.702 -0.342425 -0.0132703 10.5808 
-0.408907 0.131137 10.958 -0.342425 -0.0132703 10.5808 -0.310583 0.143003 10.5662 
-0.291225 0.268035 10.8272 -0.310583 0.143003 10.5662 -0.193454 0.268159 10.4924 
-0.291225 0.268035 10.8272 -0.193454 0.268159 10.4924 -0.109011 0.361819 10.7426 
0.225113 0.379259 10.9794 0.0338038 0.405647 10.8868 0.217337 0.28566 10.6486 
0.422514 0.0739992 10.9459 0.335559 0.13956 10.702 0.342425 0.0132703 10.5808 
0.457084 -0.274453 11.2431 0.408907 -0.131137 10.958 0.291225 -0.268035 10.8272 
0.289047 -0.383885 11.1127 0.291225 -0.268035 10.8272 0.109011 -0.361819 10.7426 
-0.38901 -0.275588 11.1031 -0.217337 -0.28566 10.6486 -0.335559 -0.13956 10.702 
-0.457084 0.274453 11.2431 -0.408907 0.131137 10.958 -0.291225 0.268035 10.8272 
-0.289047 0.383885 11.1127 -0.291225 0.268035 10.8272 -0.109011 0.361819 10.7426 
0.38901 0.275588 11.1031 0.217337 0.28566 10.6486 0.335559 0.13956 10.702 
0.577802 -0.0617713 11.3446 0.422514 0.0739992 10.9459 0.408907 -0.131137 10.958 
0.083232 -0.556786 11.3173 0.13658 -0.441198 11.0557 -0.0338038 -0.405647 10.8868 
-0.140543 -0.532429 11.276 -0.0338038 -0.405647 10.8868 -0.225113 -0.379259 10.9794 
-0.352382 -0.417135 11.2761 -0.225113 -0.379259 10.9794 -0.38901 -0.275588 11.1031 
-0.577802 0.0617716 11.3446 -0.422514 -0.0739995 10.9459 -0.408907 0.131137 10.958 
-0.083232 0.556786 11.3173 -0.13658 0.441198 11.0557 0.0338038 0.405647 10.8868 
0.140543 0.532429 11.276 0.0338038 0.405647 10.8868 0.225113 0.379259 10.9794 
0.352382 0.417135 11.2761 0.225113 0.379259 10.9794 0.38901 0.275588 11.1031 
0.577802 -0.0617713 11.3446 0.408907 -0.131137 10.958 0.457084 -0.274453 11.2431 
0.421764 -0.474396 11.4583 0.457084 -0.274453 11.2431 0.289047 -0.383885 11.1127 
0.421764 -0.474396 11.4583 0.289047 -0.383885 11.1127 0.13658 -0.441198 11.0557 
-0.572251 -0.398826 11.582 -0.352382 -0.417135 11.2761 -0.38901 -0.275588 11.1031 
-0.572251 -0.398826 11.582 -0.38901 -0.275588 11.1031 -0.533717 -0.188864 11.3202 
-0.577802 0.0617716 11.3446 -0.408907 0.131137 10.958 -0.457084 0.274453 11.2431 
-0.421764 0.474396 11.4583 -0.457084 0.274453 11.2431 -0.289047 0.383885 11.1127 
-0.421764 0.474396 11.4583 -0.289047 0.383885 11.1127 -0.13658 0.441198 11.0557 
0.572251 0.398826 11.582 0.352382 0.417135 11.2761 0.38901 0.275588 11.1031 
0.572251 0.398826 11.582 0.38901 0.275588 11.1031 0.533717 0.188864 11.3202 
0.702439 -0.165607 11.6155 0.577802 -0.0617713 11.3446 0.457084 -0.274453 11.2431 
0.613944 -0.386314 11.6247 0.457084 -0.274453 11.2431 0.421764 -0.474396 11.4583 
-0.00746746 -0.721355 11.6138 0.083232 -0.556786 11.3173 -0.140543 -0.532429 11.276 
-0.277071 -0.667689 11.6205 -0.140543 -0.532429 11.276 -0.352382 -0.417135 11.2761 
-0.455145 -0.538829 11.5934 -0.352382 -0.417135 11.2761 -0.572251 -0.398826 11.582 
-0.708694 -0.297821 11.7005 -0.572251 -0.398826 11.582 -0.533717 -0.188864 11.3202 
-0.717215 -0.0891669 11.6187 -0.533717 -0.188864 11.3202 -0.577802 0.0617716 11.3446 
-0.702439 0.165607 11.6155 -0.577802 0.0617716 11.3446 -0.457084 0.274453 11.2431 
-0.613944 0.386314 11.6247 -0.457084 0.274453 11.2431 -0.421764 0.474396 11.4583 
0.00587748 0.720061 11.6124 -0.083232 0.556786 11.3173 0.140543 0.532429 11.276 
0.277071 0.667689 11.6205 0.140543 0.532429 11.276 0.352382 0.417135 11.2761 
0.455145 0.538829 11.5934 0.352382 0.417135 11.2761 0.572251 0.398826 11.582 
0.708694 0.297821 11.7005 0.572251 0.398826 11.582 0.533717 0.188864 11.3202 
0.717215 0.0891669 11.6187 0.533717 0.188864 11.3202 0.577802 -0.0617713 11.3446 
0.558352 -0.708699 11.8928 0.421764 -0.474396 11.4583 0.289338 -0.571944 11.4778 
0.303439 -0.752819 11.7621 0.289338 -0.571944 11.4778 0.083232 -0.556786 11.3173 
-0.562689 0.717013 11.9064 -0.421764 0.474396 11.4583 -0.289338 0.571944 11.4778 
-0.303439 0.752819 11.7621 -0.289338 0.571944 11.4778 -0.083232 0.556786 11.3173 
0.925351 -0.0599453 11.9245 0.717215 0.0891669 11.6187 0.702439 -0.165607 11.6155 
0.886552 -0.286167 11.931 0.702439 -0.165607 11.6155 0.613944 -0.386314 11.6247 
0.764084 -0.528288 11.9239 0.613944 -0.386314 11.6247 0.558352 -0.708699 11.8928 
0.134869 -0.927695 11.9341 0.303439 -0.752819 11.7621 -0.00746746 -0.721355 11.6138 
-0.099468 -0.92517 11.9277 -0.00746746 -0.721355 11.6138 -0.277071 -0.667689 11.6205 
-0.371856 -0.80584 11.8615 -0.277071 -0.667689 11.6205 -0.455145 -0.538829 11.5934 
-0.649845 -0.656369 11.9206 -0.455145 -0.538829 11.5934 -0.572251 -0.398826 11.582 
-0.786328 -0.486518 11.9241 -0.572251 -0.398826 11.582 -0.708694 -0.297821 11.7005 
-0.925351 0.0599453 11.9245 -0.717215 -0.0891669 11.6187 -0.702439 0.165607 11.6155 
-0.886552 0.286167 11.931 -0.702439 0.165607 11.6155 -0.613944 0.386314 11.6247 
-0.773604 0.525429 11.9331 -0.613944 0.386314 11.6247 -0.562689 0.717013 11.9064 
-0.134872 0.927696 11.9341 -0.303439 0.752819 11.7621 0.00587748 0.720061 11.6124 
0.167782 0.913935 11.9214 0.00587748 0.720061 11.6124 0.277071 0.667689 11.6205 
0.417097 0.771573 11.8542 0.277071 0.667689 11.6205 0.455145 0.538829 11.5934 
0.649845 0.656369 11.9206 0.455145 0.538829 11.5934 0.572251 0.398826 11.582 
0.786328 0.486518 11.9241 0.572251 0.398826 11.582 0.708694 0.297821 11.7005 
0.407972 -0.906333 12.0041 0.303439 -0.752819 11.7621 0.134869 -0.927695 11.9341 
-0.611877 -0.871515 12.0886 -0.371856 -0.80584 11.8615 -0.649845 -0.656369 11.9206 
-0.991304 -0.357827 12.078 -0.708694 -0.297821 11.7005 -0.866884 -0.132402 11.8539 
-1.10998 -0.183125 12.1546 -0.866884 -0.132402 11.8539 -0.925351 0.0599453 11.9245 
-0.407972 0.906333 12.0041 -0.303439 0.752819 11.7621 -0.134872 0.927696 11.9341 
0.522003 0.92895 12.0825 0.167782 0.913935 11.9214 0.417097 0.771573 11.8542 
0.522003 0.92895 12.0825 0.417097 0.771573 11.8542 0.649845 0.656369 11.9206 
0.991304 0.357827 12.078 0.708694 0.297821 11.7005 0.967778 0.147718 11.992 
1.20615 -0.112498 12.2389 0.925351 -0.0599453 11.9245 0.886552 -0.286167 11.931 
1.1164 -0.402339 12.2174 0.886552 -0.286167 11.931 0.764084 -0.528288 11.9239 
0.748115 -0.930371 12.2213 0.764084 -0.528288 11.9239 0.558352 -0.708699 11.8928 
0.748115 -0.930371 12.2213 0.558352 -0.708699 11.8928 0.407972 -0.906333 12.0041 
0.266757 -1.15567 12.2141 0.407972 -0.906333 12.0041 0.134869 -0.927695 11.9341 
-0.0420285 -1.17075 12.2033 0.134869 -0.927695 11.9341 -0.099468 -0.92517 11.9277 
-0.345478 -1.09012 12.1686 -0.099468 -0.92517 11.9277 -0.371856 -0.80584 11.8615 
-0.886414 -0.801755 12.2214 -0.611877 -0.871515 12.0886 -0.649845 -0.656369 11.9206 
-0.886414 -0.801755 12.2214 -0.649845 -0.656369 11.9206 -0.786328 -0.486518 11.9241 
-1.13894 -0.566881 12.3034 -0.786328 -0.486518 11.9241 -0.991304 -0.357827 12.078 
-1.21905 0.135163 12.254 -0.925351 0.0599453 11.9245 -0.886552 0.286167 11.931 
-1.13525 0.526065 12.2807 -0.886552 0.286167 11.931 -0.773604 0.525429 11.9331 
-0.90044 0.77496 12.2162 -0.773604 0.525429 11.9331 -0.562689 0.717013 11.9064 
-0.687791 0.973477 12.2232 -0.562689 0.717013 11.9064 -0.407972 0.906333 12.0041 
-0.442499 1.10972 12.2229 -0.407972 0.906333 12.0041 -0.134872 0.927696 11.9341 
0.0416995 1.17118 12.2037 -0.134872 0.927696 11.9341 0.167782 0.913935 11.9214 
0.276886 1.13591 12.1999 0.167782 0.913935 11.9214 0.522003 0.92895 12.0825 
0.880799 0.798915 12.2162 0.522003 0.92895 12.0825 0.649845 0.656369 11.9206 
0.880799 0.798915 12.2162 0.649845 0.656369 11.9206 0.786328 0.486518 11.9241 
1.05232 0.548044 12.2172 0.786328 0.486518 11.9241 0.991304 0.357827 12.078 
-0.548432 -1.20977 12.3486 -0.345478 -1.09012 12.1686 -0.611877 -0.871515 12.0886 
-0.783375 -1.09252 12.3632 -0.611877 -0.871515 12.0886 -0.886414 -0.801755 12.2214 
-1.27698 -0.365477 12.3522 -0.991304 -0.357827 12.078 -1.10998 -0.183125 12.1546 
0.782863 1.08729 12.3591 0.522003 0.92895 12.0825 0.880799 0.798915 12.2162 
1.22249 0.266777 12.2738 0.991304 0.357827 12.078 0.967778 0.147718 11.992 
1.22249 0.266777 12.2738 0.967778 0.147718 11.992 1.20615 -0.112498 12.2389 
1.33857 -0.593261 12.457 1.1164 -0.402339 12.2174 0.987285 -0.668326 12.2198 
1.1278 -0.930412 12.4604 0.987285 -0.668326 12.2198 0.748115 -0.930371 12.2213 
0.83337 -1.2011 12.4552 0.748115 -0.930371 12.2213 0.538275 -1.07175 12.2306 
0.425414 -1.32884 12.4014 0.538275 -1.07175 12.2306 0.266757 -1.15567 12.2141 
0.0649912 -1.39392 12.4032 0.266757 -1.15567 12.2141 -0.0420285 -1.17075 12.2033 
-0.26671 -1.37001 12.401 -0.0420285 -1.17075 12.2033 -0.345478 -1.09012 12.1686 
-0.26671 -1.37001 12.401 -0.345478 -1.09012 12.1686 -0.548432 -1.20977 12.3486 
-1.05623 -0.916403 12.4031 -0.886414 -0.801755 12.2214 -1.13894 -0.566881 12.3034 
-1.46371 -0.0725354 12.4596 -1.10998 -0.183125 12.1546 -1.21905 0.135163 12.254 
-0.855728 1.19486 12.4627 -0.90044 0.77496 12.2162 -0.687791 0.973477 12.2232 
-0.855728 1.19486 12.4627 -0.687791 0.973477 12.2232 -0.442499 1.10972 12.2229 
-0.47629 1.38842 12.4604 -0.442499 1.10972 12.2229 -0.187331 1.16583 12.2139 
-0.0510425 1.45747 12.4563 -0.187331 1.16583 12.2139 0.0416995 1.17118 12.2037 
0.267858 1.37415 12.4046 0.0416995 1.17118 12.2037 0.276886 1.13591 12.1999 
0.267858 1.37415 12.4046 0.276886 1.13591 12.1999 0.548432 1.20977 12.3486 
1.11541 0.935598 12.4525 0.880799 0.798915 12.2162 1.05232 0.548044 12.2172 
1.34656 0.658326 12.4884 1.05232 0.548044 12.2172 1.22249 0.266777 12.2738 
1.45933 0.0475438 12.4559 1.22249 0.266777 12.2738 1.20615 -0.112498 12.2389 
1.58345 -0.309509 12.5709 1.20615 -0.112498 12.2389 1.33857 -0.593261 12.457 
0.298817 -1.5917 12.5731 0.425414 -1.32884 12.4014 0.0649912 -1.39392 12.4032 
-0.118773 -1.61543 12.5714 0.0649912 -1.39392 12.4032 -0.26671 -1.37001 12.401 
-0.489035 -1.53079 12.567 -0.26671 -1.37001 12.401 -0.548432 -1.20977 12.3486 
-0.755903 -1.4219 12.5682 -0.548432 -1.20977 12.3486 -0.783375 -1.09252 12.3632 
-1.06242 -1.22216 12.5723 -0.783375 -1.09252 12.3632 -1.05623 -0.916403 12.4031 
-1.28718 -0.981246 12.5732 -1.05623 -0.916403 12.4031 -1.13894 -0.566881 12.3034 
-1.46091 -0.717022 12.5768 -1.13894 -0.566881 12.3034 -1.27698 -0.365477 12.3522 
-1.55994 -0.423367 12.5717 -1.27698 -0.365477 12.3522 -1.46371 -0.0725354 12.4596 
-1.58467 0.30888 12.5715 -1.21905 0.135163 12.254 -1.13525 0.526065 12.2807 
-1.46823 0.683138 12.5693 -1.13525 0.526065 12.2807 -1.13746 0.933052 12.4673 
0.328316 1.60266 12.5803 0.267858 1.37415 12.4046 0.548432 1.20977 12.3486 
0.747948 1.41775 12.5628 0.548432 1.20977 12.3486 0.782863 1.08729 12.3591 
1.06301 1.22694 12.5742 0.782863 1.08729 12.3591 1.11541 0.935598 12.4525 
1.77667 -0.072409 12.6753 1.45933 0.0475438 12.4559 1.58345 -0.309509 12.5709 
1.43103 -1.05281 12.6743 1.33857 -0.593261 12.457 1.1278 -0.930412 12.4604 
1.20406 -1.31432 12.6781 1.1278 -0.930412 12.4604 0.83337 -1.2011 12.4552 
0.917228 -1.52968 12.6758 0.83337 -1.2011 12.4552 0.617445 -1.51913 12.5878 
-1.77358 -0.0749551 12.6684 -1.46371 -0.0725354 12.4596 -1.58467 0.30888 12.5715 
-1.24302 1.26961 12.6745 -1.13746 0.933052 12.4673 -0.855728 1.19486 12.4627 
-0.978754 1.49231 12.6791 -0.855728 1.19486 12.4627 -0.47629 1.38842 12.4604 
-0.429014 1.74587 12.6869 -0.47629 1.38842 12.4604 -0.0510425 1.45747 12.4563 
-0.0999485 1.78691 12.6806 -0.0510425 1.45747 12.4563 0.328316 1.60266 12.5803 
1.4756 1.00863 12.6796 1.11541 0.935598 12.4525 1.34656 0.658326 12.4884 
1.70876 0.54871 12.6833 1.42014 0.390007 12.4684 1.45933 0.0475438 12.4559 
1.88857 -0.415323 12.7611 1.58345 -0.309509 12.5709 1.64073 -0.668426 12.6694 
0.562757 -1.77475 12.7197 0.617445 -1.51913 12.5878 0.298817 -1.5917 12.5731 
0.238081 -1.89087 12.7481 0.298817 -1.5917 12.5731 -0.118773 -1.61543 12.5714 
-0.318243 -1.87902 12.7481 -0.118773 -1.61543 12.5714 -0.489035 -1.53079 12.567 
-0.609714 -1.82621 12.7571 -0.489035 -1.53079 12.567 -0.755903 -1.4219 12.5682 
-1.06601 -1.53562 12.7239 -0.755903 -1.4219 12.5682 -1.06242 -1.22216 12.5723 
-1.37877 -1.32445 12.751 -1.06242 -1.22216 12.5723 -1.28718 -0.981246 12.5732 
-1.56332 -1.1019 12.7515 -1.28718 -0.981246 12.5732 -1.46091 -0.717022 12.5768 
-1.69691 -0.771755 12.7212 -1.46091 -0.717022 12.5768 -1.55994 -0.423367 12.5717 
-1.84836 -0.474797 12.7493 -1.55994 -0.423367 12.5717 -1.77358 -0.0749551 12.6684 
-1.82182 0.391787 12.7209 -1.58467 0.30888 12.5715 -1.46823 0.683138 12.5693 
-1.68819 0.801198 12.7225 -1.46823 0.683138 12.5693 -1.45401 1.0684 12.6904 
0.227119 1.9116 12.7572 -0.0999485 1.78691 12.6806 0.328316 1.60266 12.5803 
0.563004 1.77872 12.7213 0.328316 1.60266 12.5803 0.747948 1.41775 12.5628 
0.920206 1.62019 12.72 0.747948 1.41775 12.5628 1.06301 1.22694 12.5742 
1.27359 1.35268 12.7167 1.06301 1.22694 12.5742 1.4756 1.00863 12.6796 
2.00971 -0.299772 12.807 2.02728 -0.151103 12.8075 1.77667 -0.072409 12.6753 
1.89174 -0.732773 12.8054 1.93999 -0.593835 12.8055 1.64073 -0.668426 12.6694 
1.83384 -0.878923 12.8076 1.89174 -0.732773 12.8054 1.64073 -0.668426 12.6694 
1.75737 -1.00207 12.8029 1.83384 -0.878923 12.8076 1.64073 -0.668426 12.6694 
1.68175 -1.1273 12.8035 1.75737 -1.00207 12.8029 1.43103 -1.05281 12.6743 
1.57828 -1.27435 12.8059 1.68175 -1.1273 12.8035 1.43103 -1.05281 12.6743 
0.394992 -1.99358 12.8072 0.541312 -1.95962 12.8076 0.562757 -1.77475 12.7197 
-0.0535005 -2.02915 12.806 0.095385 -2.03215 12.8081 -0.000761074 -1.86737 12.7222 
-0.209214 -2.01472 12.8039 -0.0535005 -2.02915 12.806 -0.000761074 -1.86737 12.7222 
-1.56332 -1.1019 12.7515 -1.69691 -0.771755 12.7212 -1.74355 -1.04217 12.8068 
-1.81761 -0.91138 12.8076 -1.74355 -1.04217 12.8068 -1.69691 -0.771755 12.7212 
-1.88088 -0.77488 12.8081 -1.81761 -0.91138 12.8076 -1.69691 -0.771755 12.7212 
-1.92961 -0.632862 12.8064 -1.88088 -0.77488 12.8081 -1.69691 -0.771755 12.7212 
-2.01495 -0.189466 12.8031 -2.00026 -0.348988 12.8063 -1.77358 -0.0749551 12.6684 
-2.02106 0.0421028 12.8016 -2.01495 -0.189466 12.8031 -1.77358 -0.0749551 12.6684 
-1.97367 0.305283 12.7904 -2.02106 0.0421028 12.8016 -1.77358 -0.0749551 12.6684 
-1.47069 1.40401 12.8076 -1.56928 1.29007 12.8069 -1.24302 1.26961 12.6745 
-1.36358 1.50936 12.808 -1.47069 1.40401 12.8076 -1.24302 1.26961 12.6745 
-1.24612 1.60438 12.8067 -1.36358 1.50936 12.808 -1.24302 1.26961 12.6745 
-1.12457 1.69069 12.8063 -1.24612 1.60438 12.8067 -0.978754 1.49231 12.6791 
-0.99791 1.76115 12.8034 -1.12457 1.69069 12.8063 -0.978754 1.49231 12.6791 
-0.834181 1.83579 12.7996 -0.99791 1.76115 12.8034 -0.667326 1.63744 12.6688 
0.563004 1.77872 12.7213 0.920206 1.62019 12.72 0.825732 1.85812 12.8077 
0.959018 1.79085 12.8068 0.825732 1.85812 12.8077 0.920206 1.62019 12.72 
1.09116 1.71415 12.807 0.959018 1.79085 12.8068 0.920206 1.62019 12.72 
1.21236 1.62529 12.805 1.09116 1.71415 12.807 0.920206 1.62019 12.72 
1.32553 1.534 12.8048 1.21236 1.62529 12.805 1.27359 1.35268 12.7167 
1.43917 1.42482 12.8037 1.32553 1.534 12.8048 1.27359 1.35268 12.7167 
1.53859 1.25858 12.7863 1.43917 1.42482 12.8037 1.27359 1.35268 12.7167 
4.57933 0.208643 13.9972 2.02725 0.151062 12.8075 2.03315 0 12.8077 
2.03315 0 12.8077 4.58408 0 13.9972 4.57933 0.208643 13.9972 
4.56651 0.388065 13.9964 4.53998 0.640462 13.9974 2.0097 0.299752 12.807 
2.0097 0.299752 12.807 2.02725 0.151062 12.8075 4.56651 0.388065 13.9964 
4.50827 0.830252 13.9972 4.47099 1.0139 13.9972 1.98348 0.450212 12.8079 
2.0097 0.299752 12.807 4.53998 0.640462 13.9974 4.50827 0.830252 13.9972 
1.98348 0.450212 12.8079 2.0097 0.299752 12.807 4.50827 0.830252 13.9972 
4.40675 1.26381 13.9971 1.94186 0.595219 12.8066 1.98348 0.450212 12.8079 
1.98348 0.450212 12.8079 4.47099 1.0139 13.9972 4.40675 1.26381 13.9971 
4.40675 1.26381 13.9971 4.35323 1.43639 13.9972 1.94186 0.595219 12.8066 
4.35323 1.43639 13.9972 4.28596 1.62653 13.9972 1.89173 0.732769 12.8054 
1.89173 0.732769 12.8054 1.94186 0.595219 12.8066 4.35323 1.43639 13.9972 
4.28596 1.62653 13.9972 4.20457 1.8263 13.9972 1.89173 0.732769 12.8054 
4.20457 1.8263 13.9972 4.12941 1.99145 13.9972 1.82544 0.87507 12.8033 
1.82544 0.87507 12.8033 1.89173 0.732769 12.8054 4.20457 1.8263 13.9972 
4.01634 2.21027 13.9972 1.75207 0.999028 12.8 1.82544 0.87507 12.8033 
1.82544 0.87507 12.8033 4.12941 1.99145 13.9972 4.01634 2.21027 13.9972 
4.01634 2.21027 13.9972 3.91673 2.38182 13.9972 1.75207 0.999028 12.8 
3.91673 2.38182 13.9972 3.81648 2.53521 13.9959 1.68829 1.13158 12.8071 
1.68829 1.13158 12.8071 1.75207 0.999028 12.8 3.91673 2.38182 13.9972 
3.62588 2.79411 13.9934 1.53859 1.25858 12.7863 1.68829 1.13158 12.8071 
1.68829 1.13158 12.8071 3.81648 2.53521 13.9959 3.62588 2.79411 13.9934 
1.53859 1.25858 12.7863 3.62588 2.79411 13.9934 3.42976 3.04189 13.9972 
3.42976 3.04189 13.9972 3.26084 3.22671 13.9985 1.43917 1.42482 12.8037 
3.12888 3.35021 13.9972 1.32553 1.534 12.8048 1.43917 1.42482 12.8037 
1.32553 1.534 12.8048 3.12888 3.35021 13.9972 2.97051 3.49153 13.9972 
2.81127 3.62086 13.9972 1.21236 1.62529 12.805 1.32553 1.534 12.8048 
1.21236 1.62529 12.805 2.81127 3.62086 13.9972 2.66726 3.72877 13.9972 
2.66726 3.72877 13.9972 2.45438 3.87203 13.9972 1.09116 1.71415 12.807 
2.29204 3.96993 13.9972 0.959018 1.79085 12.8068 1.09116 1.71415 12.807 
1.09116 1.71415 12.807 2.45438 3.87203 13.9972 2.29204 3.96993 13.9972 
1.88305 4.17881 13.9965 0.825732 1.85812 12.8077 0.959018 1.79085 12.8068 
0.685361 1.91282 12.8071 1.88305 4.17881 13.9965 1.73012 4.24506 13.9972 
0.685361 1.91282 12.8071 1.73012 4.24506 13.9972 1.53848 4.31828 13.9972 
0.685361 1.91282 12.8071 0.825732 1.85812 12.8077 1.88305 4.17881 13.9965 
1.33693 4.3848 13.9972 0.541382 1.95958 12.8076 0.685361 1.91282 12.8071 
0.685361 1.91282 12.8071 1.53848 4.31828 13.9972 1.33693 4.3848 13.9972 
1.16394 4.43358 13.9968 0.919594 4.49113 13.9972 0.394957 1.99357 12.8072 
0.394957 1.99357 12.8072 0.541382 1.95958 12.8076 1.16394 4.43358 13.9968 
0.727414 4.526 13.9972 0.227119 1.9116 12.7572 0.394957 1.99357 12.8072 
0.394957 1.99357 12.8072 0.919594 4.49113 13.9972 0.727414 4.526 13.9972 
0.727414 4.526 13.9972 0.544466 4.55158 13.9969 0.227119 1.9116 12.7572 
0.287115 4.57728 13.998 0.0953936 2.03213 12.8081 0.227119 1.9116 12.7572 
0.227119 1.9116 12.7572 0.544466 4.55158 13.9969 0.287115 4.57728 13.998 
0.287115 4.57728 13.998 0.104348 4.5829 13.9972 0.0953936 2.03213 12.8081 
0.104348 4.5829 13.9972 -0.0940894 4.58331 13.9972 -0.0535274 2.02917 12.806 
-0.0535274 2.02917 12.806 0.0953936 2.03213 12.8081 0.104348 4.5829 13.9972 
-0.341367 4.57562 13.999 -0.209479 2.01714 12.805 -0.0535274 2.02917 12.806 
-0.0535274 2.02917 12.806 -0.0940894 4.58331 13.9972 -0.341367 4.57562 13.999 
-0.734276 4.52507 13.9972 -0.351242 1.99405 12.8037 -0.209479 2.01714 12.805 
-0.209479 2.01714 12.805 -0.520661 4.55442 13.9972 -0.734276 4.52507 13.9972 
-0.734276 4.52507 13.9972 -0.932659 4.4882 13.9972 -0.351242 1.99405 12.8037 
-0.932659 4.4882 13.9972 -1.10939 4.44509 13.9957 -0.496443 1.96113 12.8027 
-0.496443 1.96113 12.8027 -0.351242 1.99405 12.8037 -0.932659 4.4882 13.9972 
-1.35829 4.37942 13.9975 -0.654576 1.91648 12.8038 -0.496443 1.96113 12.8027 
-0.496443 1.96113 12.8027 -1.10939 4.44509 13.9957 -1.35829 4.37942 13.9975 
-1.65544 4.276 13.9972 -0.834181 1.83579 12.7996 -0.654576 1.91648 12.8038 
-1.65544 4.276 13.9972 -1.94931 4.15311 13.9987 -0.834181 1.83579 12.7996 
-2.10898 4.07014 13.9972 -0.99791 1.76115 12.8034 -0.834181 1.83579 12.7996 
-0.99791 1.76115 12.8034 -2.10898 4.07014 13.9972 -2.29204 3.96993 13.9972 
-2.47036 3.8615 13.9972 -1.12457 1.69069 12.8063 -0.99791 1.76115 12.8034 
-1.12457 1.69069 12.8063 -2.47036 3.8615 13.9972 -2.62072 3.76312 13.9977 
-2.62072 3.76312 13.9977 -2.82471 3.61152 13.9975 -1.24612 1.60438 12.8067 
-2.97315 3.48915 13.9972 -1.36358 1.50936 12.808 -1.24612 1.60438 12.8067 
-1.36358 1.50936 12.808 -2.97315 3.48915 13.9972 -3.11304 3.365 13.997 
-3.11304 3.365 13.997 -3.30557 3.17744 13.9973 -1.47069 1.40401 12.8076 
-1.56928 1.29007 12.8069 -3.30557 3.17744 13.9973 -3.49838 2.93973 13.99 
-1.56928 1.29007 12.8069 -1.47069 1.40401 12.8076 -3.30557 3.17744 13.9973 
-3.68391 2.72812 13.9972 -1.66233 1.17035 12.8076 -1.56928 1.29007 12.8069 
-1.56928 1.29007 12.8069 -3.49838 2.93973 13.99 -3.68391 2.72812 13.9972 
-3.78843 2.58127 13.997 -3.92219 2.37316 13.9972 -1.74411 1.04385 12.8074 
-1.74411 1.04385 12.8074 -1.66233 1.17035 12.8076 -3.78843 2.58127 13.997 
-4.02108 2.20108 13.9972 -1.81719 0.910389 12.8073 -1.74411 1.04385 12.8074 
-1.74411 1.04385 12.8074 -3.92219 2.37316 13.9972 -4.02108 2.20108 13.9972 
-4.02108 2.20108 13.9972 -4.10539 2.03893 13.9968 -1.81719 0.910389 12.8073 
-4.21571 1.80508 13.9978 -1.88091 0.774869 12.8081 -1.81719 0.910389 12.8073 
-1.81719 0.910389 12.8073 -4.10539 2.03893 13.9968 -4.21571 1.80508 13.9978 
-4.21571 1.80508 13.9978 -4.28334 1.63304 13.9972 -1.88091 0.774869 12.8081 
-4.28334 1.63304 13.9972 -4.34919 1.44918 13.9972 -1.92964 0.632852 12.8064 
-1.92964 0.632852 12.8064 -1.88091 0.774869 12.8081 -4.28334 1.63304 13.9972 
-4.4259 1.21013 13.999 -1.96644 0.488072 12.8043 -1.92964 0.632852 12.8064 
-1.92964 0.632852 12.8064 -4.34919 1.44918 13.9972 -4.4259 1.21013 13.999 
-4.4259 1.21013 13.999 -4.46581 1.03458 13.9972 -1.96644 0.488072 12.8043 
-4.46581 1.03458 13.9972 -4.51822 0.746347 13.9946 -1.97367 0.305283 12.7904 
-1.97367 0.305283 12.7904 -1.96644 0.488072 12.8043 -4.46581 1.03458 13.9972 
-4.51822 0.746347 13.9946 -4.56348 0.445314 13.9974 -1.97367 0.305283 12.7904 
-4.56348 0.445314 13.9974 -2.02106 0.0421028 12.8016 -1.97367 0.305283 12.7904 
-2.02106 0.0421028 12.8016 -4.56348 0.445314 13.9974 -4.58065 0.189245 13.9972 
-4.57322 -0.122342 13.9921 -4.56262 -0.444473 13.997 -2.01495 -0.189466 12.8031 
-4.54139 -0.624199 13.9972 -2.00026 -0.348988 12.8063 -2.01495 -0.189466 12.8031 
-2.00026 -0.348988 12.8063 -4.54139 -0.624199 13.9972 -4.50898 -0.826821 13.9972 
-4.46581 -1.03458 13.9972 -1.84836 -0.474797 12.7493 -2.00026 -0.348988 12.8063 
-1.84836 -0.474797 12.7493 -4.46581 -1.03458 13.9972 -4.42262 -1.20929 13.9974 
-4.42262 -1.20929 13.9974 -4.34928 -1.44917 13.9972 -1.92961 -0.632862 12.8064 
-4.28334 -1.63304 13.9972 -1.88088 -0.77488 12.8081 -1.92961 -0.632862 12.8064 
-1.88088 -0.77488 12.8081 -4.28334 -1.63304 13.9972 -4.21424 -1.80409 13.997 
-4.21424 -1.80409 13.997 -4.10297 -2.04693 13.9974 -1.81761 -0.91138 12.8076 
-1.74355 -1.04217 12.8068 -4.10297 -2.04693 13.9974 -4.02108 -2.20108 13.9972 
-1.74355 -1.04217 12.8068 -4.02108 -2.20108 13.9972 -3.92442 -2.36812 13.9969 
-1.74355 -1.04217 12.8068 -1.81761 -0.91138 12.8076 -4.10297 -2.04693 13.9974 
-1.56332 -1.1019 12.7515 -3.92442 -2.36812 13.9969 -3.78917 -2.58038 13.9971 
-1.56332 -1.1019 12.7515 -1.74355 -1.04217 12.8068 -3.92442 -2.36812 13.9969 
-3.68391 -2.72812 13.9972 -3.55161 -2.89847 13.9972 -1.57074 -1.29038 12.8075 
-1.56332 -1.1019 12.7515 -3.78917 -2.58038 13.9971 -3.68391 -2.72812 13.9972 
-1.57074 -1.29038 12.8075 -1.56332 -1.1019 12.7515 -3.68391 -2.72812 13.9972 
-3.42057 -3.05181 13.9972 -1.37877 -1.32445 12.751 -1.57074 -1.29038 12.8075 
-1.57074 -1.29038 12.8075 -3.55161 -2.89847 13.9972 -3.42057 -3.05181 13.9972 
-3.42057 -3.05181 13.9972 -3.2969 -3.18407 13.9966 -1.37877 -1.32445 12.751 
-3.11341 -3.36513 13.9972 -1.36358 -1.50933 12.808 -1.37877 -1.32445 12.751 
-1.37877 -1.32445 12.751 -3.2969 -3.18407 13.9966 -3.11341 -3.36513 13.9972 
-3.11341 -3.36513 13.9972 -2.97315 -3.48915 13.9972 -1.36358 -1.50933 12.808 
-2.97315 -3.48915 13.9972 -2.82483 -3.61165 13.9976 -1.24612 -1.60439 12.8068 
-1.24612 -1.60439 12.8068 -1.36358 -1.50933 12.808 -2.97315 -3.48915 13.9972 
-2.62038 -3.7626 13.9975 -1.12456 -1.69068 12.8063 -1.24612 -1.60439 12.8068 
-1.24612 -1.60439 12.8068 -2.82483 -3.61165 13.9976 -2.62038 -3.7626 13.9975 
-2.62038 -3.7626 13.9975 -2.47036 -3.8615 13.9972 -1.12456 -1.69068 12.8063 
-2.47036 -3.8615 13.9972 -2.29204 -3.96993 13.9972 -0.997976 -1.76123 12.8034 
-0.997976 -1.76123 12.8034 -1.12456 -1.69068 12.8063 -2.47036 -3.8615 13.9972 
-2.29204 -3.96993 13.9972 -2.10898 -4.07014 13.9972 -0.997976 -1.76123 12.8034 
-2.10898 -4.07014 13.9972 -1.9479 -4.15037 13.9973 -0.795108 -1.73619 12.7498 
-0.795108 -1.73619 12.7498 -0.997976 -1.76123 12.8034 -2.10898 -4.07014 13.9972 
-0.795108 -1.73619 12.7498 -1.9479 -4.15037 13.9973 -1.71488 -4.25168 13.9972 
-1.71488 -4.25168 13.9972 -1.53512 -4.3194 13.9972 -0.609714 -1.82621 12.7571 
-1.53512 -4.3194 13.9972 -1.35843 -4.37994 13.9978 -0.609714 -1.82621 12.7571 
-1.35843 -4.37994 13.9978 -1.10999 -4.44777 13.997 -0.498536 -1.97004 12.807 
-0.932659 -4.4882 13.9972 -0.318243 -1.87902 12.7481 -0.498536 -1.97004 12.807 
-0.318243 -1.87902 12.7481 -0.932659 -4.4882 13.9972 -0.7343 -4.52504 13.9972 
-0.7343 -4.52504 13.9972 -0.493913 -4.55795 13.9972 -0.209214 -2.01472 12.8039 
-0.312829 -4.5734 13.9972 -0.0940996 -4.58333 13.9972 -0.0535005 -2.02915 12.806 
-0.209214 -2.01472 12.8039 -0.493913 -4.55795 13.9972 -0.312829 -4.5734 13.9972 
0.104348 -4.5829 13.9972 0.095385 -2.03215 12.8081 -0.0535005 -2.02915 12.806 
0.095385 -2.03215 12.8081 0.104348 -4.5829 13.9972 0.286778 -4.57264 13.9958 
0.286778 -4.57264 13.9958 0.544612 -4.55269 13.9975 0.238081 -1.89087 12.7481 
0.727414 -4.526 13.9972 0.919586 -4.49105 13.9972 0.394992 -1.99358 12.8072 
0.238081 -1.89087 12.7481 0.544612 -4.55269 13.9975 0.727414 -4.526 13.9972 
1.16479 -4.43675 13.9984 0.541312 -1.95962 12.8076 0.394992 -1.99358 12.8072 
1.33693 -4.3848 13.9972 1.53848 -4.31828 13.9972 0.68538 -1.91383 12.8076 
0.541312 -1.95962 12.8076 1.16479 -4.43675 13.9984 1.33693 -4.3848 13.9972 
0.68538 -1.91383 12.8076 0.541312 -1.95962 12.8076 1.33693 -4.3848 13.9972 
1.73012 -4.24506 13.9972 0.825782 -1.8575 12.8075 0.68538 -1.91383 12.8076 
0.68538 -1.91383 12.8076 1.53848 -4.31828 13.9972 1.73012 -4.24506 13.9972 
1.73012 -4.24506 13.9972 1.89577 -4.17284 13.9966 0.825782 -1.8575 12.8075 
1.89577 -4.17284 13.9966 2.12608 -4.0615 13.9971 0.959022 -1.79084 12.8068 
0.959022 -1.79084 12.8068 0.825782 -1.8575 12.8075 1.89577 -4.17284 13.9966 
2.29204 -3.96993 13.9972 2.45485 -3.87287 13.9976 1.09237 -1.7169 12.8084 
0.959022 -1.79084 12.8068 2.12608 -4.0615 13.9971 2.29204 -3.96993 13.9972 
1.09237 -1.7169 12.8084 0.959022 -1.79084 12.8068 2.29204 -3.96993 13.9972 
2.6673 -3.7287 13.9971 1.21229 -1.62523 12.8049 1.09237 -1.7169 12.8084 
1.09237 -1.7169 12.8084 2.45485 -3.87287 13.9976 2.6673 -3.7287 13.9971 
2.6673 -3.7287 13.9971 2.81127 -3.62086 13.9972 1.21229 -1.62523 12.8049 
2.81127 -3.62086 13.9972 2.97052 -3.49152 13.9972 1.32557 -1.534 12.8048 
1.32557 -1.534 12.8048 1.21229 -1.62523 12.8049 2.81127 -3.62086 13.9972 
2.97052 -3.49152 13.9972 3.12888 -3.35021 13.9972 1.32557 -1.534 12.8048 
3.12888 -3.35021 13.9972 3.25865 -3.22443 13.9971 1.44419 -1.42986 12.807 
1.44419 -1.42986 12.807 1.32557 -1.534 12.8048 3.12888 -3.35021 13.9972 
3.47251 -2.99099 13.9961 1.57828 -1.27435 12.8059 1.44419 -1.42986 12.807 
1.44419 -1.42986 12.807 3.25865 -3.22443 13.9971 3.47251 -2.99099 13.9961 
3.47251 -2.99099 13.9961 3.66974 -2.74775 13.9971 1.57828 -1.27435 12.8059 
3.66974 -2.74775 13.9971 3.81919 -2.53694 13.9974 1.68175 -1.1273 12.8035 
3.91673 -2.38182 13.9972 1.75737 -1.00207 12.8029 1.68175 -1.1273 12.8035 
1.75737 -1.00207 12.8029 3.91673 -2.38182 13.9972 4.01637 -2.21015 13.9972 
4.01637 -2.21015 13.9972 4.12995 -1.99166 13.9975 1.83384 -0.878923 12.8076 
4.20457 -1.8263 13.9972 1.89174 -0.732773 12.8054 1.83384 -0.878923 12.8076 
1.89174 -0.732773 12.8054 4.20457 -1.8263 13.9972 4.28599 -1.62656 13.9972 
4.35323 -1.43639 13.9972 1.93999 -0.593835 12.8055 1.89174 -0.732773 12.8054 
1.93999 -0.593835 12.8055 4.35323 -1.43639 13.9972 4.40742 -1.26363 13.9974 
4.40742 -1.26363 13.9974 4.47048 -1.0134 13.9969 1.88857 -0.415323 12.7611 
4.50827 -0.830252 13.9972 2.00971 -0.299772 12.807 1.88857 -0.415323 12.7611 
1.88857 -0.415323 12.7611 4.47048 -1.0134 13.9969 4.50827 -0.830252 13.9972 
4.56699 -0.388157 13.9966 2.02728 -0.151103 12.8075 2.00971 -0.299772 12.807 
4.57933 -0.208643 13.9972 4.58408 0 13.9972 2.03315 0 12.8077 
2.02728 -0.151103 12.8075 4.56699 -0.388157 13.9966 4.57933 -0.208643 13.9972 
2.03315 0 12.8077 2.02728 -0.151103 12.8075 4.57933 -0.208643 13.9972 
2.00971 -0.299772 12.807 4.54012 -0.640612 13.9975 4.56699 -0.388157 13.9966 
4.50827 -0.830252 13.9972 4.54012 -0.640612 13.9975 2.00971 -0.299772 12.807 
1.88857 -0.415323 12.7611 1.93999 -0.593835 12.8055 4.40742 -1.26363 13.9974 
1.89174 -0.732773 12.8054 4.28599 -1.62656 13.9972 4.35323 -1.43639 13.9972 
1.83384 -0.878923 12.8076 4.12995 -1.99166 13.9975 4.20457 -1.8263 13.9972 
1.83384 -0.878923 12.8076 1.75737 -1.00207 12.8029 4.01637 -2.21015 13.9972 
1.68175 -1.1273 12.8035 3.81919 -2.53694 13.9974 3.91673 -2.38182 13.9972 
1.68175 -1.1273 12.8035 1.57828 -1.27435 12.8059 3.66974 -2.74775 13.9971 
0.394992 -1.99358 12.8072 0.919586 -4.49105 13.9972 1.16479 -4.43675 13.9984 
0.394992 -1.99358 12.8072 0.238081 -1.89087 12.7481 0.727414 -4.526 13.9972 
0.238081 -1.89087 12.7481 0.095385 -2.03215 12.8081 0.286778 -4.57264 13.9958 
-0.0535005 -2.02915 12.806 -0.0940996 -4.58333 13.9972 0.104348 -4.5829 13.9972 
-0.0535005 -2.02915 12.806 -0.209214 -2.01472 12.8039 -0.312829 -4.5734 13.9972 
-0.209214 -2.01472 12.8039 -0.318243 -1.87902 12.7481 -0.7343 -4.52504 13.9972 
-0.498536 -1.97004 12.807 -1.10999 -4.44777 13.997 -0.932659 -4.4882 13.9972 
-0.498536 -1.97004 12.807 -0.609714 -1.82621 12.7571 -1.35843 -4.37994 13.9978 
-0.609714 -1.82621 12.7571 -0.795108 -1.73619 12.7498 -1.71488 -4.25168 13.9972 
-1.81761 -0.91138 12.8076 -1.88088 -0.77488 12.8081 -4.21424 -1.80409 13.997 
-1.92961 -0.632862 12.8064 -4.34928 -1.44917 13.9972 -4.28334 -1.63304 13.9972 
-1.92961 -0.632862 12.8064 -1.84836 -0.474797 12.7493 -4.42262 -1.20929 13.9974 
-2.00026 -0.348988 12.8063 -4.50898 -0.826821 13.9972 -4.46581 -1.03458 13.9972 
-2.01495 -0.189466 12.8031 -4.56262 -0.444473 13.997 -4.54139 -0.624199 13.9972 
-2.01495 -0.189466 12.8031 -2.02106 0.0421028 12.8016 -4.57322 -0.122342 13.9921 
-2.02106 0.0421028 12.8016 -4.58065 0.189245 13.9972 -4.57322 -0.122342 13.9921 
-3.68391 2.72812 13.9972 -3.78843 2.58127 13.997 -1.66233 1.17035 12.8076 
-1.47069 1.40401 12.8076 -1.36358 1.50936 12.808 -3.11304 3.365 13.997 
-1.24612 1.60438 12.8067 -2.82471 3.61152 13.9975 -2.97315 3.48915 13.9972 
-1.24612 1.60438 12.8067 -1.12457 1.69069 12.8063 -2.62072 3.76312 13.9977 
-0.99791 1.76115 12.8034 -2.29204 3.96993 13.9972 -2.47036 3.8615 13.9972 
-0.834181 1.83579 12.7996 -1.94931 4.15311 13.9987 -2.10898 4.07014 13.9972 
-0.654576 1.91648 12.8038 -1.35829 4.37942 13.9975 -1.65544 4.276 13.9972 
-0.209479 2.01714 12.805 -0.341367 4.57562 13.999 -0.520661 4.55442 13.9972 
1.33693 4.3848 13.9972 1.16394 4.43358 13.9968 0.541382 1.95958 12.8076 
0.959018 1.79085 12.8068 2.12602 4.06134 13.9971 1.88305 4.17881 13.9965 
2.29204 3.96993 13.9972 2.12602 4.06134 13.9971 0.959018 1.79085 12.8068 
1.09116 1.71415 12.807 1.21236 1.62529 12.805 2.66726 3.72877 13.9972 
1.32553 1.534 12.8048 2.97051 3.49153 13.9972 2.81127 3.62086 13.9972 
1.43917 1.42482 12.8037 3.26084 3.22671 13.9985 3.12888 3.35021 13.9972 
1.43917 1.42482 12.8037 1.53859 1.25858 12.7863 3.42976 3.04189 13.9972 
4.57933 0.208643 13.9972 4.56651 0.388065 13.9964 2.02725 0.151062 12.8075 
-4.78814 0.103861 14.1055 -4.57322 -0.122342 13.9921 -4.58065 0.189245 13.9972 
-4.58065 0.189245 13.9972 -4.56348 0.445314 13.9974 -4.75437 0.548867 14.1022 
-4.51822 0.746347 13.9946 -4.67792 1.12523 14.1165 -4.75437 0.548867 14.1022 
-4.51822 0.746347 13.9946 -4.46581 1.03458 13.9972 -4.67792 1.12523 14.1165 
-4.67792 1.12523 14.1165 -4.46581 1.03458 13.9972 -4.4259 1.21013 13.999 
-4.4259 1.21013 13.999 -4.34919 1.44918 13.9972 -4.46846 1.6982 14.0985 
-4.46846 1.6982 14.0985 -4.28334 1.63304 13.9972 -4.21571 1.80508 13.9978 
-4.21571 1.80508 13.9978 -4.10539 2.03893 13.9968 -4.25578 2.19233 14.1039 
-4.25578 2.19233 14.1039 -4.02108 2.20108 13.9972 -3.92219 2.37316 13.9972 
-3.92219 2.37316 13.9972 -4.03966 2.58278 14.1088 -4.25578 2.19233 14.1039 
-3.92219 2.37316 13.9972 -3.78843 2.58127 13.997 -4.03966 2.58278 14.1088 
-3.76359 2.96712 14.1066 -4.03966 2.58278 14.1088 -3.78843 2.58127 13.997 
-3.68391 2.72812 13.9972 -3.49838 2.93973 13.99 -3.76359 2.96712 14.1066 
-3.49094 3.27834 14.1053 -3.76359 2.96712 14.1066 -3.49838 2.93973 13.99 
-3.49094 3.27834 14.1053 -3.49838 2.93973 13.99 -3.30557 3.17744 13.9973 
-3.30557 3.17744 13.9973 -3.11304 3.365 13.997 -3.0917 3.66497 14.1064 
-3.0917 3.66497 14.1064 -2.97315 3.48915 13.9972 -2.82471 3.61152 13.9975 
-2.82471 3.61152 13.9975 -2.62072 3.76312 13.9977 -2.66673 3.97738 14.1049 
-2.47036 3.8615 13.9972 -2.29204 3.96993 13.9972 -2.19756 4.25876 14.1051 
-2.29204 3.96993 13.9972 -2.10898 4.07014 13.9972 -2.19756 4.25876 14.1051 
-2.19756 4.25876 14.1051 -2.10898 4.07014 13.9972 -1.94931 4.15311 13.9987 
-1.94931 4.15311 13.9987 -1.65544 4.276 13.9972 -1.68797 4.48262 14.1055 
-1.68797 4.48262 14.1055 -1.65544 4.276 13.9972 -1.35829 4.37942 13.9975 
-1.35829 4.37942 13.9975 -1.17228 4.64342 14.1035 -1.68797 4.48262 14.1055 
-1.35829 4.37942 13.9975 -1.10939 4.44509 13.9957 -1.17228 4.64342 14.1035 
-1.17228 4.64342 14.1035 -0.932659 4.4882 13.9972 -0.734276 4.52507 13.9972 
-0.734276 4.52507 13.9972 -0.636799 4.75525 14.1105 -1.17228 4.64342 14.1035 
-0.734276 4.52507 13.9972 -0.520661 4.55442 13.9972 -0.636799 4.75525 14.1105 
-0.636799 4.75525 14.1105 -0.520661 4.55442 13.9972 -0.341367 4.57562 13.999 
-0.341367 4.57562 13.999 -0.100402 4.79604 14.1086 -0.636799 4.75525 14.1105 
-0.341367 4.57562 13.999 -0.0940894 4.58331 13.9972 -0.100402 4.79604 14.1086 
-0.100402 4.79604 14.1086 0.104348 4.5829 13.9972 0.287115 4.57728 13.998 
0.287115 4.57728 13.998 0.560501 4.75371 14.1012 -0.100402 4.79604 14.1086 
0.287115 4.57728 13.998 0.544466 4.55158 13.9969 0.560501 4.75371 14.1012 
0.560501 4.75371 14.1012 0.727414 4.526 13.9972 0.919594 4.49113 13.9972 
0.919594 4.49113 13.9972 1.32872 4.59052 14.0954 0.560501 4.75371 14.1012 
0.919594 4.49113 13.9972 1.16394 4.43358 13.9968 1.32872 4.59052 14.0954 
1.33693 4.3848 13.9972 1.53848 4.31828 13.9972 1.32872 4.59052 14.0954 
1.97 4.35985 14.1012 1.32872 4.59052 14.0954 1.53848 4.31828 13.9972 
1.97 4.35985 14.1012 1.73012 4.24506 13.9972 1.88305 4.17881 13.9965 
1.88305 4.17881 13.9965 2.12602 4.06134 13.9971 1.97 4.35985 14.1012 
2.49878 4.10628 14.1162 1.97 4.35985 14.1012 2.12602 4.06134 13.9971 
2.49878 4.10628 14.1162 2.29204 3.96993 13.9972 2.45438 3.87203 13.9972 
2.45438 3.87203 13.9972 2.66726 3.72877 13.9972 2.87934 3.84362 14.112 
2.87934 3.84362 14.112 2.81127 3.62086 13.9972 2.97051 3.49153 13.9972 
2.97051 3.49153 13.9972 3.29173 3.5804 14.1495 2.87934 3.84362 14.112 
2.97051 3.49153 13.9972 3.12888 3.35021 13.9972 3.29173 3.5804 14.1495 
3.29173 3.5804 14.1495 3.12888 3.35021 13.9972 3.26084 3.22671 13.9985 
3.26084 3.22671 13.9985 3.42976 3.04189 13.9972 3.65003 3.09502 14.103 
3.62588 2.79411 13.9934 3.99076 2.65625 14.1059 3.65003 3.09502 14.103 
3.62588 2.79411 13.9934 3.81648 2.53521 13.9959 3.99076 2.65625 14.1059 
3.99076 2.65625 14.1059 3.91673 2.38182 13.9972 4.01634 2.21027 13.9972 
4.01634 2.21027 13.9972 4.25994 2.21791 14.1135 3.99076 2.65625 14.1059 
4.01634 2.21027 13.9972 4.12941 1.99145 13.9972 4.25994 2.21791 14.1135 
4.46128 1.77295 14.1112 4.25994 2.21791 14.1135 4.12941 1.99145 13.9972 
4.20457 1.8263 13.9972 4.28596 1.62653 13.9972 4.46128 1.77295 14.1112 
4.58419 1.38421 14.1051 4.46128 1.77295 14.1112 4.28596 1.62653 13.9972 
4.58419 1.38421 14.1051 4.35323 1.43639 13.9972 4.40675 1.26381 13.9971 
4.40675 1.26381 13.9971 4.47099 1.0139 13.9972 4.72598 0.801213 14.1054 
4.72598 0.801213 14.1054 4.50827 0.830252 13.9972 4.53998 0.640462 13.9974 
4.53998 0.640462 13.9974 4.56651 0.388065 13.9964 4.79129 0.187397 14.1067 
4.57933 0.208643 13.9972 4.58408 0 13.9972 4.79129 0.187397 14.1067 
4.58408 0 13.9972 4.57933 -0.208643 13.9972 4.76296 -0.433897 14.1 
4.76296 -0.433897 14.1 4.57933 -0.208643 13.9972 4.56699 -0.388157 13.9966 
4.56699 -0.388157 13.9966 4.54012 -0.640612 13.9975 4.76296 -0.433897 14.1 
4.69774 -0.959075 14.1083 4.76296 -0.433897 14.1 4.54012 -0.640612 13.9975 
4.69774 -0.959075 14.1083 4.50827 -0.830252 13.9972 4.47048 -1.0134 13.9969 
4.47048 -1.0134 13.9969 4.40742 -1.26363 13.9974 4.57835 -1.41423 14.1063 
4.57835 -1.41423 14.1063 4.35323 -1.43639 13.9972 4.28599 -1.62656 13.9972 
4.28599 -1.62656 13.9972 4.33266 -2.06662 14.1092 4.57835 -1.41423 14.1063 
4.28599 -1.62656 13.9972 4.20457 -1.8263 13.9972 4.33266 -2.06662 14.1092 
4.33266 -2.06662 14.1092 4.20457 -1.8263 13.9972 4.12995 -1.99166 13.9975 
4.12995 -1.99166 13.9975 4.01637 -2.21015 13.9972 4.33266 -2.06662 14.1092 
4.09687 -2.64148 14.1582 4.33266 -2.06662 14.1092 4.01637 -2.21015 13.9972 
4.09687 -2.64148 14.1582 3.91673 -2.38182 13.9972 3.81919 -2.53694 13.9974 
3.81919 -2.53694 13.9974 3.66974 -2.74775 13.9971 3.76225 -2.96564 14.1053 
3.47251 -2.99099 13.9961 3.3084 -3.47583 14.1078 3.76225 -2.96564 14.1053 
3.47251 -2.99099 13.9961 3.25865 -3.22443 13.9971 3.3084 -3.47583 14.1078 
3.12888 -3.35021 13.9972 2.97052 -3.49152 13.9972 3.3084 -3.47583 14.1078 
2.8437 -3.85714 14.1072 3.3084 -3.47583 14.1078 2.97052 -3.49152 13.9972 
2.8437 -3.85714 14.1072 2.81127 -3.62086 13.9972 2.6673 -3.7287 13.9971 
2.6673 -3.7287 13.9971 2.45485 -3.87287 13.9976 2.39922 -4.14342 14.1027 
2.39922 -4.14342 14.1027 2.29204 -3.96993 13.9972 2.12608 -4.0615 13.9971 
2.12608 -4.0615 13.9971 1.89577 -4.17284 13.9966 1.88831 -4.40221 14.105 
1.88831 -4.40221 14.105 1.73012 -4.24506 13.9972 1.53848 -4.31828 13.9972 
1.53848 -4.31828 13.9972 1.46023 -4.57114 14.1107 1.88831 -4.40221 14.105 
1.53848 -4.31828 13.9972 1.33693 -4.3848 13.9972 1.46023 -4.57114 14.1107 
1.46023 -4.57114 14.1107 1.33693 -4.3848 13.9972 1.16479 -4.43675 13.9984 
1.16479 -4.43675 13.9984 0.930312 -4.70523 14.1079 1.46023 -4.57114 14.1107 
1.16479 -4.43675 13.9984 0.919586 -4.49105 13.9972 0.930312 -4.70523 14.1079 
0.930312 -4.70523 14.1079 0.727414 -4.526 13.9972 0.544612 -4.55269 13.9975 
0.544612 -4.55269 13.9975 0.327826 -4.78086 14.1048 0.930312 -4.70523 14.1079 
0.544612 -4.55269 13.9975 0.286778 -4.57264 13.9958 0.327826 -4.78086 14.1048 
0.327826 -4.78086 14.1048 0.104348 -4.5829 13.9972 -0.0940996 -4.58333 13.9972 
-0.0940996 -4.58333 13.9972 -0.467051 -4.78876 14.1135 0.327826 -4.78086 14.1048 
-0.0940996 -4.58333 13.9972 -0.312829 -4.5734 13.9972 -0.467051 -4.78876 14.1135 
-0.467051 -4.78876 14.1135 -0.312829 -4.5734 13.9972 -0.493913 -4.55795 13.9972 
-0.493913 -4.55795 13.9972 -0.7343 -4.52504 13.9972 -0.467051 -4.78876 14.1135 
-1.18718 -4.65433 14.1116 -0.467051 -4.78876 14.1135 -0.7343 -4.52504 13.9972 
-1.18718 -4.65433 14.1116 -0.932659 -4.4882 13.9972 -1.10999 -4.44777 13.997 
-1.10999 -4.44777 13.997 -1.35843 -4.37994 13.9978 -1.18718 -4.65433 14.1116 
-1.70931 -4.47352 14.1052 -1.18718 -4.65433 14.1116 -1.35843 -4.37994 13.9978 
-1.70931 -4.47352 14.1052 -1.53512 -4.3194 13.9972 -1.71488 -4.25168 13.9972 
-1.71488 -4.25168 13.9972 -1.9479 -4.15037 13.9973 -2.19386 -4.25323 14.1011 
-2.10898 -4.07014 13.9972 -2.29204 -3.96993 13.9972 -2.19386 -4.25323 14.1011 
-2.29204 -3.96993 13.9972 -2.47036 -3.8615 13.9972 -2.67893 -3.97825 14.1095 
-2.67893 -3.97825 14.1095 -2.47036 -3.8615 13.9972 -2.62038 -3.7626 13.9975 
-2.62038 -3.7626 13.9975 -2.82483 -3.61165 13.9976 -3.11932 -3.63932 14.1055 
-3.11932 -3.63932 14.1055 -2.97315 -3.48915 13.9972 -3.11341 -3.36513 13.9972 
-3.11341 -3.36513 13.9972 -3.2969 -3.18407 13.9966 -3.51404 -3.24624 14.1016 
-3.51404 -3.24624 14.1016 -3.42057 -3.05181 13.9972 -3.55161 -2.89847 13.9972 
-3.55161 -2.89847 13.9972 -3.93969 -2.74181 14.1087 -3.51404 -3.24624 14.1016 
-3.55161 -2.89847 13.9972 -3.68391 -2.72812 13.9972 -3.93969 -2.74181 14.1087 
-3.93969 -2.74181 14.1087 -3.68391 -2.72812 13.9972 -3.78917 -2.58038 13.9971 
-3.78917 -2.58038 13.9971 -3.92442 -2.36812 13.9969 -3.93969 -2.74181 14.1087 
-4.25495 -2.20323 14.107 -3.93969 -2.74181 14.1087 -3.92442 -2.36812 13.9969 
-4.25495 -2.20323 14.107 -4.02108 -2.20108 13.9972 -4.10297 -2.04693 13.9974 
-4.10297 -2.04693 13.9974 -4.21424 -1.80409 13.997 -4.45889 -1.77387 14.1099 
-4.45889 -1.77387 14.1099 -4.28334 -1.63304 13.9972 -4.34928 -1.44917 13.9972 
-4.34928 -1.44917 13.9972 -4.66667 -1.11591 14.1072 -4.45889 -1.77387 14.1099 
-4.34928 -1.44917 13.9972 -4.42262 -1.20929 13.9974 -4.66667 -1.11591 14.1072 
-4.46581 -1.03458 13.9972 -4.50898 -0.826821 13.9972 -4.66667 -1.11591 14.1072 
-4.77147 -0.441418 14.1051 -4.66667 -1.11591 14.1072 -4.50898 -0.826821 13.9972 
-4.77147 -0.441418 14.1051 -4.54139 -0.624199 13.9972 -4.56262 -0.444473 13.997 
-4.56262 -0.444473 13.997 -4.57322 -0.122342 13.9921 -4.77147 -0.441418 14.1051 
-4.78814 0.103861 14.1055 -4.77147 -0.441418 14.1051 -4.57322 -0.122342 13.9921 
-4.78814 0.103861 14.1055 -4.75437 0.548867 14.1022 -4.95914 0.342241 14.2334 
-4.75437 0.548867 14.1022 -4.67792 1.12523 14.1165 -4.97154 0.776766 14.28 
-4.67792 1.12523 14.1165 -4.46846 1.6982 14.0985 -4.77761 1.44843 14.2469 
-4.46846 1.6982 14.0985 -4.25578 2.19233 14.1039 -4.51186 2.08125 14.2309 
-4.25578 2.19233 14.1039 -4.03966 2.58278 14.1088 -4.23537 2.60851 14.2332 
-4.03966 2.58278 14.1088 -3.76359 2.96712 14.1066 -3.91122 3.06391 14.2306 
-3.76359 2.96712 14.1066 -3.49094 3.27834 14.1053 -3.54424 3.49219 14.2345 
-3.49094 3.27834 14.1053 -3.0917 3.66497 14.1064 -3.54424 3.49219 14.2345 
-3.0917 3.66497 14.1064 -2.66673 3.97738 14.1049 -2.77096 4.127 14.2334 
-2.66673 3.97738 14.1049 -2.19756 4.25876 14.1051 -2.28373 4.40229 14.2217 
-2.19756 4.25876 14.1051 -1.68797 4.48262 14.1055 -1.78871 4.63453 14.2303 
-1.68797 4.48262 14.1055 -1.17228 4.64342 14.1035 -1.45244 4.80805 14.271 
-1.17228 4.64342 14.1035 -0.636799 4.75525 14.1105 -0.89736 4.88928 14.2334 
-0.636799 4.75525 14.1105 -0.100402 4.79604 14.1086 -0.459311 4.99378 14.2665 
-0.100402 4.79604 14.1086 0.560501 4.75371 14.1012 0.151378 4.97051 14.2336 
0.560501 4.75371 14.1012 1.32872 4.59052 14.0954 1.10489 4.83897 14.2271 
1.32872 4.59052 14.0954 1.97 4.35985 14.1012 1.73037 4.70423 14.2627 
2.49878 4.10628 14.1162 2.87934 3.84362 14.112 2.9229 4.09663 14.2785 
3.29173 3.5804 14.1495 3.65003 3.09502 14.103 3.68758 3.33054 14.2303 
3.65003 3.09502 14.103 3.99076 2.65625 14.1059 4.07 2.8381 14.2258 
3.99076 2.65625 14.1059 4.25994 2.21791 14.1135 4.37101 2.48639 14.2784 
4.25994 2.21791 14.1135 4.46128 1.77295 14.1112 4.60736 1.95892 14.258 
4.46128 1.77295 14.1112 4.58419 1.38421 14.1051 4.78136 1.34206 14.2275 
4.58419 1.38421 14.1051 4.72598 0.801213 14.1054 4.78136 1.34206 14.2275 
4.72598 0.801213 14.1054 4.79129 0.187397 14.1067 5.01856 0.231449 14.2713 
4.79129 0.187397 14.1067 4.76296 -0.433897 14.1 4.95914 -0.342241 14.2334 
4.76296 -0.433897 14.1 4.69774 -0.959075 14.1083 4.93297 -0.921777 14.2663 
4.69774 -0.959075 14.1083 4.57835 -1.41423 14.1063 4.74612 -1.46948 14.2306 
4.57835 -1.41423 14.1063 4.33266 -2.06662 14.1092 4.60217 -1.87891 14.2334 
4.09687 -2.64148 14.1582 3.76225 -2.96564 14.1053 3.92561 -3.05179 14.2332 
3.76225 -2.96564 14.1053 3.3084 -3.47583 14.1078 3.55128 -3.47599 14.23 
3.3084 -3.47583 14.1078 2.8437 -3.85714 14.1072 3.13292 -3.92576 14.2721 
2.8437 -3.85714 14.1072 2.39922 -4.14342 14.1027 2.69234 -4.24099 14.2711 
2.39922 -4.14342 14.1027 1.88831 -4.40221 14.105 2.1832 -4.46586 14.2334 
1.88831 -4.40221 14.105 1.46023 -4.57114 14.1107 1.72745 -4.73414 14.2839 
1.46023 -4.57114 14.1107 0.930312 -4.70523 14.1079 1.06616 -4.85683 14.2311 
0.930312 -4.70523 14.1079 0.327826 -4.78086 14.1048 0.449023 -4.95062 14.2334 
0.327826 -4.78086 14.1048 -0.467051 -4.78876 14.1135 -0.225675 -4.9696 14.2321 
-0.467051 -4.78876 14.1135 -1.18718 -4.65433 14.1116 -0.920531 -4.9501 14.2824 
-1.18718 -4.65433 14.1116 -1.70931 -4.47352 14.1052 -1.48689 -4.82778 14.2969 
-1.70931 -4.47352 14.1052 -2.19386 -4.25323 14.1011 -1.9832 -4.55821 14.2334 
-2.19386 -4.25323 14.1011 -2.67893 -3.97825 14.1095 -2.48983 -4.30559 14.2338 
-2.67893 -3.97825 14.1095 -3.11932 -3.63932 14.1055 -3.00259 -4.03206 14.2754 
-3.11932 -3.63932 14.1055 -3.51404 -3.24624 14.1016 -3.635 -3.39073 14.2334 
-3.51404 -3.24624 14.1016 -3.93969 -2.74181 14.1087 -4.01281 -2.94744 14.2368 
-3.93969 -2.74181 14.1087 -4.25495 -2.20323 14.107 -4.31963 -2.46301 14.2343 
-4.25495 -2.20323 14.107 -4.45889 -1.77387 14.1099 -4.60522 -2.03189 14.2783 
-4.45889 -1.77387 14.1099 -4.66667 -1.11591 14.1072 -4.78404 -1.34115 14.2293 
-4.66667 -1.11591 14.1072 -4.77147 -0.441418 14.1051 -4.97301 -0.781862 14.2818 
-4.77147 -0.441418 14.1051 -4.78814 0.103861 14.1055 -5.01353 -0.231128 14.2681 
-5.01353 -0.231128 14.2681 -4.95914 0.342241 14.2334 -5.13292 0.345574 14.3835 
-4.97154 0.776766 14.28 -4.77761 1.44843 14.2469 -5.04495 1.04221 14.3896 
-4.77761 1.44843 14.2469 -4.51186 2.08125 14.2309 -4.76057 1.94476 14.3817 
-4.51186 2.08125 14.2309 -4.23537 2.60851 14.2332 -4.56221 2.35855 14.3748 
-4.23537 2.60851 14.2332 -3.91122 3.06391 14.2306 -4.06554 3.14881 14.3811 
-3.91122 3.06391 14.2306 -3.54424 3.49219 14.2345 -3.68237 3.60148 14.3856 
-3.54424 3.49219 14.2345 -3.1115 3.87698 14.2331 -3.24193 3.99127 14.3804 
-3.1115 3.87698 14.2331 -2.77096 4.127 14.2334 -2.84954 4.28219 14.3819 
-2.77096 4.127 14.2334 -2.28373 4.40229 14.2217 -2.38905 4.55159 14.3779 
-2.28373 4.40229 14.2217 -1.78871 4.63453 14.2303 -1.94916 4.75473 14.3794 
-1.45244 4.80805 14.271 -0.89736 4.88928 14.2334 -1.03828 5.04886 14.3898 
-0.459311 4.99378 14.2665 0.151378 4.97051 14.2336 -0.197985 5.13532 14.3775 
0.151378 4.97051 14.2336 0.679877 4.92423 14.2334 0.370993 5.14089 14.3903 
0.679877 4.92423 14.2334 1.10489 4.83897 14.2271 0.934268 5.06226 14.3862 
1.10489 4.83897 14.2271 1.73037 4.70423 14.2627 1.39989 4.95682 14.3877 
1.73037 4.70423 14.2627 2.35317 4.40869 14.2506 2.16706 4.66834 14.3858 
2.9229 4.09663 14.2785 3.29173 3.5804 14.1495 3.49061 3.78299 14.384 
3.29173 3.5804 14.1495 3.68758 3.33054 14.2303 3.49061 3.78299 14.384 
3.68758 3.33054 14.2303 4.07 2.8381 14.2258 4.16511 3.01536 14.3783 
4.37101 2.48639 14.2784 4.60736 1.95892 14.258 4.71228 2.08105 14.3873 
4.60736 1.95892 14.258 4.78136 1.34206 14.2275 4.95373 1.37945 14.3784 
5.01856 0.231449 14.2713 4.95914 -0.342241 14.2334 5.15535 -0.202997 14.3968 
4.95914 -0.342241 14.2334 4.93297 -0.921777 14.2663 5.18386 -0.633444 14.4615 
4.93297 -0.921777 14.2663 4.74612 -1.46948 14.2306 4.92685 -1.52846 14.3961 
4.74612 -1.46948 14.2306 4.60217 -1.87891 14.2334 4.76231 -1.93861 14.3809 
4.60217 -1.87891 14.2334 4.41342 -2.29037 14.2333 4.56483 -2.34938 14.3729 
4.41342 -2.29037 14.2333 4.09687 -2.64148 14.1582 4.33438 -2.76931 14.3826 
4.09687 -2.64148 14.1582 3.92561 -3.05179 14.2332 4.06865 -3.13811 14.3763 
3.92561 -3.05179 14.2332 3.55128 -3.47599 14.23 3.66912 -3.61127 14.3825 
2.69234 -4.24099 14.2711 2.1832 -4.46586 14.2334 2.26719 -4.61803 14.3835 
1.06616 -4.85683 14.2311 0.449023 -4.95062 14.2334 0.582276 -5.10885 14.3814 
0.449023 -4.95062 14.2334 -0.225675 -4.9696 14.2321 0.213184 -5.1366 14.3796 
-1.48689 -4.82778 14.2969 -1.9832 -4.55821 14.2334 -2.05318 -4.71392 14.3807 
-1.9832 -4.55821 14.2334 -2.48983 -4.30559 14.2338 -2.58278 -4.44354 14.3744 
-3.34424 -3.74473 14.2715 -3.635 -3.39073 14.2334 -3.83207 -3.44343 14.386 
-3.635 -3.39073 14.2334 -4.01281 -2.94744 14.2368 -3.83207 -3.44343 14.386 
-4.01281 -2.94744 14.2368 -4.31963 -2.46301 14.2343 -4.45173 -2.60057 14.3949 
-4.60522 -2.03189 14.2783 -4.78404 -1.34115 14.2293 -4.95511 -1.38202 14.3805 
-5.13292 0.345574 14.3835 -4.97154 0.776766 14.28 -5.2129 0.633759 14.4977 
-1.94916 4.75473 14.3794 -1.45244 4.80805 14.271 -1.68338 4.9634 14.4862 
-1.03828 5.04886 14.3898 -0.459311 4.99378 14.2665 -0.589889 5.15999 14.4374 
1.39989 4.95682 14.3877 1.73037 4.70423 14.2627 1.85278 4.85279 14.4369 
2.16706 4.66834 14.3858 2.35317 4.40869 14.2506 2.64292 4.48356 14.4451 
2.35317 4.40869 14.2506 2.9229 4.09663 14.2785 2.64292 4.48356 14.4451 
4.16511 3.01536 14.3783 4.37101 2.48639 14.2784 4.51539 2.65176 14.4811 
4.95373 1.37945 14.3784 4.96386 0.781009 14.2736 5.12728 0.81307 14.432 
4.96386 0.781009 14.2736 5.01856 0.231449 14.2713 5.17529 0.346968 14.4285 
5.18386 -0.633444 14.4615 4.93297 -0.921777 14.2663 5.14065 -1.25393 14.539 
3.66912 -3.61127 14.3825 3.13292 -3.92576 14.2721 3.25413 -4.04625 14.4341 
3.13292 -3.92576 14.2721 2.69234 -4.24099 14.2711 2.80739 -4.36499 14.4291 
2.26719 -4.61803 14.3835 1.72745 -4.73414 14.2839 2.05691 -4.83166 14.4977 
-0.395144 -5.13263 14.3844 -0.920531 -4.9501 14.2824 -1.05872 -5.14445 14.4915 
-0.920531 -4.9501 14.2824 -1.48689 -4.82778 14.2969 -1.05872 -5.14445 14.4915 
-2.58278 -4.44354 14.3744 -3.00259 -4.03206 14.2754 -3.12747 -4.21494 14.4929 
-3.00259 -4.03206 14.2754 -3.34424 -3.74473 14.2715 -3.48748 -3.92262 14.4922 
-4.45173 -2.60057 14.3949 -4.60522 -2.03189 14.2783 -4.67812 -2.38959 14.4997 
-4.95511 -1.38202 14.3805 -4.97301 -0.781862 14.2818 -5.12728 -0.81307 14.432 
-4.97301 -0.781862 14.2818 -5.01353 -0.231128 14.2681 -5.15729 -0.211061 14.3985 
-5.15729 -0.211061 14.3985 -5.13292 0.345574 14.3835 -5.28765 0.240915 14.5512 
-5.2129 0.633759 14.4977 -5.04495 1.04221 14.3896 -5.20623 1.20516 14.6085 
-5.04495 1.04221 14.3896 -4.92327 1.52837 14.3918 -5.20623 1.20516 14.6085 
-4.92327 1.52837 14.3918 -4.76057 1.94476 14.3817 -4.99576 1.91708 14.6185 
-4.76057 1.94476 14.3817 -4.56221 2.35855 14.3748 -4.66791 2.49749 14.5449 
-4.56221 2.35855 14.3748 -4.33518 2.7778 14.3881 -4.66791 2.49749 14.5449 
-4.33518 2.7778 14.3881 -4.06554 3.14881 14.3811 -4.32381 3.05478 14.5507 
-4.06554 3.14881 14.3811 -3.68237 3.60148 14.3856 -4.02812 3.4353 14.5506 
-3.68237 3.60148 14.3856 -3.24193 3.99127 14.3804 -3.67099 3.8972 14.6184 
-3.24193 3.99127 14.3804 -2.84954 4.28219 14.3819 -3.17243 4.30192 14.612 
-2.84954 4.28219 14.3819 -2.38905 4.55159 14.3779 -2.63919 4.63617 14.5956 
-2.38905 4.55159 14.3779 -1.94916 4.75473 14.3794 -2.10714 4.85664 14.5507 
-1.68338 4.9634 14.4862 -1.03828 5.04886 14.3898 -1.42942 5.19895 14.6726 
-1.03828 5.04886 14.3898 -0.589889 5.15999 14.4374 -0.737467 5.32789 14.6565 
-0.589889 5.15999 14.4374 -0.197985 5.13532 14.3775 -0.131787 5.34851 14.6151 
-0.197985 5.13532 14.3775 0.370993 5.14089 14.3903 -0.131787 5.34851 14.6151 
0.370993 5.14089 14.3903 0.934268 5.06226 14.3862 0.853674 5.27068 14.6056 
0.934268 5.06226 14.3862 1.39989 4.95682 14.3877 1.2284 5.19 14.598 
1.39989 4.95682 14.3877 1.85278 4.85279 14.4369 1.69422 5.12235 14.6768 
1.85278 4.85279 14.4369 2.16706 4.66834 14.3858 2.13891 4.89141 14.6058 
2.16706 4.66834 14.3858 2.64292 4.48356 14.4451 2.66599 4.62225 14.5974 
2.64292 4.48356 14.4451 3.09251 4.16419 14.4285 3.08412 4.35607 14.6054 
3.09251 4.16419 14.4285 3.49061 3.78299 14.384 3.50499 4.0305 14.6052 
3.49061 3.78299 14.384 3.84082 3.41967 14.3834 3.8706 3.61186 14.5507 
3.84082 3.41967 14.3834 4.16511 3.01536 14.3783 4.24773 3.14393 14.5353 
4.51539 2.65176 14.4811 4.71228 2.08105 14.3873 4.80485 2.34292 14.6092 
4.71228 2.08105 14.3873 4.95373 1.37945 14.3784 4.98912 1.77079 14.5506 
4.95373 1.37945 14.3784 5.12728 0.81307 14.432 5.13333 1.2622 14.5395 
5.12728 0.81307 14.432 5.17529 0.346968 14.4285 5.31717 0.421789 14.5997 
5.17529 0.346968 14.4285 5.15535 -0.202997 14.3968 5.33491 -0.105527 14.5995 
4.92685 -1.52846 14.3961 4.76231 -1.93861 14.3809 4.99515 -1.91686 14.6175 
4.76231 -1.93861 14.3809 4.56483 -2.34938 14.3729 4.668 -2.49771 14.5452 
4.56483 -2.34938 14.3729 4.33438 -2.76931 14.3826 4.668 -2.49771 14.5452 
4.33438 -2.76931 14.3826 4.06865 -3.13811 14.3763 4.32381 -3.05478 14.5507 
4.06865 -3.13811 14.3763 3.66912 -3.61127 14.3825 4.02812 -3.4353 14.5506 
3.66912 -3.61127 14.3825 3.25413 -4.04625 14.4341 3.6715 -3.89528 14.6177 
3.25413 -4.04625 14.4341 2.80739 -4.36499 14.4291 3.17243 -4.30192 14.612 
2.80739 -4.36499 14.4291 2.26719 -4.61803 14.3835 2.64631 -4.6389 14.6045 
1.68 -4.96395 14.4854 1.10366 -5.03668 14.3914 1.21707 -5.15581 14.5537 
1.10366 -5.03668 14.3914 0.582276 -5.10885 14.3814 0.679264 -5.25684 14.5587 
0.582276 -5.10885 14.3814 0.213184 -5.1366 14.3796 0.307554 -5.33005 14.6047 
0.213184 -5.1366 14.3796 -0.395144 -5.13263 14.3844 -0.336037 -5.29603 14.5597 
-1.65287 -4.98143 14.4929 -2.05318 -4.71392 14.3807 -2.09084 -4.85379 14.5386 
-2.05318 -4.71392 14.3807 -2.58278 -4.44354 14.3744 -2.65066 -4.57872 14.5421 
-3.48748 -3.92262 14.4922 -3.83207 -3.44343 14.386 -3.819 -3.72809 14.6052 
-3.83207 -3.44343 14.386 -4.21943 -2.96797 14.3962 -4.32579 -3.11488 14.5946 
-4.21943 -2.96797 14.3962 -4.45173 -2.60057 14.3949 -4.60924 -2.73049 14.6283 
-4.67812 -2.38959 14.4997 -4.91814 -1.85019 14.4985 -4.9373 -2.20522 14.6971 
-4.95511 -1.38202 14.3805 -5.12728 -0.81307 14.432 -5.13334 -1.26221 14.5395 
-5.12728 -0.81307 14.432 -5.15729 -0.211061 14.3985 -5.33513 -0.267201 14.6052 
-5.33513 -0.267201 14.6052 -5.28765 0.240915 14.5512 -5.43741 0.0262399 14.7466 
-5.28765 0.240915 14.5512 -5.2129 0.633759 14.4977 -5.39619 0.619949 14.7366 
-4.99576 1.91708 14.6185 -4.66791 2.49749 14.5449 -4.8277 2.51793 14.7573 
-4.66791 2.49749 14.5449 -4.32381 3.05478 14.5507 -4.56596 2.94744 14.7424 
-4.32381 3.05478 14.5507 -4.02812 3.4353 14.5506 -4.21786 3.42876 14.7422 
-2.63919 4.63617 14.5956 -2.10714 4.85664 14.5507 -2.27906 4.94543 14.7577 
-2.10714 4.85664 14.5507 -1.68338 4.9634 14.4862 -1.84129 5.10977 14.7381 
3.50499 4.0305 14.6052 3.8706 3.61186 14.5507 4.05388 3.62409 14.7434 
3.8706 3.61186 14.5507 4.24773 3.14393 14.5353 4.05388 3.62409 14.7434 
4.24773 3.14393 14.5353 4.51539 2.65176 14.4811 4.57199 2.92859 14.7333 
4.80485 2.34292 14.6092 4.98912 1.77079 14.5506 5.08314 1.93792 14.7543 
4.98912 1.77079 14.5506 5.13333 1.2622 14.5395 5.25966 1.3997 14.7515 
5.33491 -0.105527 14.5995 5.18386 -0.633444 14.4615 5.39317 -0.731655 14.7492 
5.18386 -0.633444 14.4615 5.14065 -1.25393 14.539 5.39317 -0.731655 14.7492 
4.99515 -1.91686 14.6175 4.668 -2.49771 14.5452 4.8277 -2.51794 14.7573 
4.668 -2.49771 14.5452 4.32381 -3.05478 14.5507 4.56596 -2.94744 14.7424 
4.32381 -3.05478 14.5507 4.02812 -3.4353 14.5506 4.21193 -3.43421 14.7399 
2.64631 -4.6389 14.6045 2.05691 -4.83166 14.4977 2.15676 -4.98324 14.7341 
2.05691 -4.83166 14.4977 1.68 -4.96395 14.4854 1.81973 -5.11499 14.7336 
1.68 -4.96395 14.4854 1.21707 -5.15581 14.5537 1.46677 -5.23249 14.7415 
1.21707 -5.15581 14.5537 0.679264 -5.25684 14.5587 0.87182 -5.37314 14.7551 
0.307554 -5.33005 14.6047 -0.336037 -5.29603 14.5597 -0.0152766 -5.43675 14.7467 
-0.336037 -5.29603 14.5597 -1.05872 -5.14445 14.4915 -0.65408 -5.4056 14.7563 
-1.05872 -5.14445 14.4915 -1.65287 -4.98143 14.4929 -1.47158 -5.23245 14.7434 
-1.65287 -4.98143 14.4929 -2.09084 -4.85379 14.5386 -1.95466 -5.07166 14.7432 
-2.09084 -4.85379 14.5386 -2.65066 -4.57872 14.5421 -2.41733 -4.87747 14.7555 
-2.65066 -4.57872 14.5421 -3.12747 -4.21494 14.4929 -3.12842 -4.44541 14.7468 
-3.12747 -4.21494 14.4929 -3.48748 -3.92262 14.4922 -3.443 -4.20252 14.7392 
-4.9373 -2.20522 14.6971 -4.91814 -1.85019 14.4985 -5.16799 -1.70327 14.75 
-4.91814 -1.85019 14.4985 -5.13334 -1.26221 14.5395 -5.16799 -1.70327 14.75 
-5.39619 0.619949 14.7366 -5.20623 1.20516 14.6085 -5.38993 1.23392 14.9045 
-5.20623 1.20516 14.6085 -4.99576 1.91708 14.6185 -5.18983 1.71244 14.7998 
-4.21786 3.42876 14.7422 -3.67099 3.8972 14.6184 -3.93489 3.84789 14.8657 
-3.67099 3.8972 14.6184 -3.17243 4.30192 14.612 -3.24751 4.38273 14.7773 
-3.17243 4.30192 14.612 -2.63919 4.63617 14.5956 -2.82993 4.66758 14.7855 
-0.737467 5.32789 14.6565 -0.131787 5.34851 14.6151 -0.374458 5.49085 14.8657 
0.465991 5.38029 14.688 0.853674 5.27068 14.6056 0.874436 5.43369 14.8657 
0.853674 5.27068 14.6056 1.2284 5.19 14.598 1.239 5.31599 14.7856 
1.69422 5.12235 14.6768 2.13891 4.89141 14.6058 2.18132 5.00367 14.7856 
2.13891 4.89141 14.6058 2.66599 4.62225 14.5974 2.73472 4.71343 14.764 
2.66599 4.62225 14.5974 3.08412 4.35607 14.6054 3.24517 4.39375 14.7912 
3.08412 4.35607 14.6054 3.50499 4.0305 14.6052 3.24517 4.39375 14.7912 
4.57199 2.92859 14.7333 4.80485 2.34292 14.6092 4.91269 2.40705 14.8033 
5.34313 0.825581 14.6969 5.31717 0.421789 14.5997 5.52129 0.455608 14.9321 
5.31717 0.421789 14.5997 5.33491 -0.105527 14.5995 5.44863 -0.0110658 14.7662 
5.39317 -0.731655 14.7492 5.14065 -1.25393 14.539 5.25979 -1.52751 14.814 
5.14065 -1.25393 14.539 4.99515 -1.91686 14.6175 5.25979 -1.52751 14.814 
4.21193 -3.43421 14.7399 3.6715 -3.89528 14.6177 3.93489 -3.84789 14.8657 
3.6715 -3.89528 14.6177 3.17243 -4.30192 14.612 3.24751 -4.38273 14.7773 
3.17243 -4.30192 14.612 2.64631 -4.6389 14.6045 2.69039 -4.74305 14.7676 
0.87182 -5.37314 14.7551 0.307554 -5.33005 14.6047 0.374458 -5.49085 14.8657 
-0.0152766 -5.43675 14.7467 -0.336037 -5.29603 14.5597 -0.65408 -5.4056 14.7563 
-4.1181 -3.48706 14.68 -4.32579 -3.11488 14.5946 -4.50461 -3.0895 14.7897 
-4.32579 -3.11488 14.5946 -4.60924 -2.73049 14.6283 -4.50461 -3.0895 14.7897 
-5.33943 -0.813869 14.6884 -5.33513 -0.267201 14.6052 -5.44241 -0.496964 14.7998 
-5.43741 0.0262399 14.7466 -5.39619 0.619949 14.7366 -5.55723 0.382161 14.9969 
-5.39619 0.619949 14.7366 -5.38993 1.23392 14.9045 -5.50133 0.90036 15.0105 
-5.38993 1.23392 14.9045 -5.18983 1.71244 14.7998 -5.36571 1.63674 15.0864 
-5.18983 1.71244 14.7998 -5.05203 2.06684 14.7855 -5.15428 2.10826 14.9954 
-5.05203 2.06684 14.7855 -4.8277 2.51793 14.7573 -4.94485 2.56553 14.997 
-4.8277 2.51793 14.7573 -4.56596 2.94744 14.7424 -4.68719 3.00692 14.9954 
-4.56596 2.94744 14.7424 -4.21786 3.42876 14.7422 -4.47556 3.31549 15.0017 
-3.93489 3.84789 14.8657 -3.6285 4.07784 14.7855 -3.7228 4.1476 15.005 
-3.6285 4.07784 14.7855 -3.24751 4.38273 14.7773 -3.41509 4.40004 15.0017 
-3.24751 4.38273 14.7773 -2.82993 4.66758 14.7855 -3.10845 4.62436 15.0034 
-2.82993 4.66758 14.7855 -2.27906 4.94543 14.7577 -2.67419 4.89634 15.0163 
-2.27906 4.94543 14.7577 -1.84129 5.10977 14.7381 -1.86439 5.24855 15.0017 
-1.84129 5.10977 14.7381 -1.42942 5.19895 14.6726 -1.35152 5.40369 14.9921 
-1.42942 5.19895 14.6726 -1.07132 5.2906 14.6858 -1.35152 5.40369 14.9921 
-1.07132 5.2906 14.6858 -0.737467 5.32789 14.6565 -0.741509 5.51685 14.9898 
-0.374458 5.49085 14.8657 0.00725762 5.45846 14.7856 -0.0166685 5.57329 15.005 
0.00725762 5.45846 14.7856 0.465991 5.38029 14.688 0.487217 5.54793 14.9957 
0.874436 5.43369 14.8657 1.239 5.31599 14.7856 1.24258 5.42969 14.9983 
1.239 5.31599 14.7856 1.69422 5.12235 14.6768 1.62528 5.32744 15.0017 
1.69422 5.12235 14.6768 2.18132 5.00367 14.7856 1.98539 5.20629 15.0034 
2.18132 5.00367 14.7856 2.73472 4.71343 14.764 2.46353 5.00394 15.0131 
2.73472 4.71343 14.764 3.24517 4.39375 14.7912 3.21275 4.54988 15.0017 
3.24517 4.39375 14.7912 3.63933 4.06818 14.7855 3.51675 4.32199 15.0034 
3.63933 4.06818 14.7855 4.05388 3.62409 14.7434 3.90678 3.98306 15.0166 
4.05388 3.62409 14.7434 4.37179 3.23747 14.7543 4.47663 3.31405 15.0017 
4.37179 3.23747 14.7543 4.57199 2.92859 14.7333 4.69475 2.9951 14.9954 
4.57199 2.92859 14.7333 4.91269 2.40705 14.8033 4.97942 2.46932 14.9653 
4.91269 2.40705 14.8033 5.08314 1.93792 14.7543 5.20475 1.98337 15.0017 
5.08314 1.93792 14.7543 5.25966 1.3997 14.7515 5.37565 1.47863 15.0039 
5.25966 1.3997 14.7515 5.34313 0.825581 14.6969 5.49933 0.876742 14.9954 
5.52129 0.455608 14.9321 5.44863 -0.0110658 14.7662 5.56749 0.11975 14.9954 
5.44863 -0.0110658 14.7662 5.39317 -0.731655 14.7492 5.55672 -0.387824 14.9962 
5.39317 -0.731655 14.7492 5.25979 -1.52751 14.814 5.47536 -1.04966 15.0042 
5.25979 -1.52751 14.814 5.05203 -2.06684 14.7855 5.15428 -2.10826 14.9954 
5.05203 -2.06684 14.7855 4.8277 -2.51794 14.7573 4.94485 -2.56553 14.997 
4.8277 -2.51794 14.7573 4.56596 -2.94744 14.7424 4.68719 -3.00692 14.9954 
4.56596 -2.94744 14.7424 4.21193 -3.43421 14.7399 4.47556 -3.31549 15.0017 
3.93489 -3.84789 14.8657 3.6285 -4.07784 14.7855 3.7228 -4.1476 15.005 
3.6285 -4.07784 14.7855 3.24751 -4.38273 14.7773 3.41509 -4.40004 15.0017 
3.24751 -4.38273 14.7773 2.69039 -4.74305 14.7676 3.10845 -4.62436 15.0034 
2.69039 -4.74305 14.7676 2.15676 -4.98324 14.7341 2.21218 -5.11054 14.9954 
2.15676 -4.98324 14.7341 1.81973 -5.11499 14.7336 1.86439 -5.24855 15.0017 
1.81973 -5.11499 14.7336 1.46677 -5.23249 14.7415 1.49568 -5.36417 14.9954 
1.46677 -5.23249 14.7415 0.87182 -5.37314 14.7551 1.13234 -5.45353 15.0017 
0.374458 -5.49085 14.8657 -0.0152766 -5.43675 14.7467 0.255641 -5.58975 15.0551 
-0.0152766 -5.43675 14.7467 -0.65408 -5.4056 14.7563 -0.271007 -5.56725 15.009 
-0.65408 -5.4056 14.7563 -1.09599 -5.32553 14.7498 -1.25499 -5.42878 15.0006 
-1.09599 -5.32553 14.7498 -1.47158 -5.23245 14.7434 -1.25499 -5.42878 15.0006 
-1.47158 -5.23245 14.7434 -1.95466 -5.07166 14.7432 -1.76158 -5.28958 15.0119 
-1.95466 -5.07166 14.7432 -2.41733 -4.87747 14.7555 -2.20258 -5.12037 15.008 
-2.41733 -4.87747 14.7555 -2.82808 -4.64334 14.7463 -2.89944 -4.75443 14.9954 
-2.82808 -4.64334 14.7463 -3.12842 -4.44541 14.7468 -3.21275 -4.54988 15.0017 
-3.12842 -4.44541 14.7468 -3.443 -4.20252 14.7392 -3.51982 -4.31534 14.9954 
-3.443 -4.20252 14.7392 -3.81451 -3.89926 14.7755 -3.89782 -3.98429 15.0032 
-3.81451 -3.89926 14.7755 -4.1181 -3.48706 14.68 -4.2432 -3.60647 14.9954 
-4.1181 -3.48706 14.68 -4.50461 -3.0895 14.7897 -4.47663 -3.31405 15.0017 
-4.8282 -2.6416 14.8657 -4.9373 -2.20522 14.6971 -5.05303 -2.35132 15.005 
-4.9373 -2.20522 14.6971 -5.16799 -1.70327 14.75 -5.27375 -1.77273 14.9772 
-5.16799 -1.70327 14.75 -5.29998 -1.22822 14.7549 -5.42634 -1.25618 15.0017 
-5.29998 -1.22822 14.7549 -5.33943 -0.813869 14.6884 -5.51477 -0.732706 14.9789 
-5.33943 -0.813869 14.6884 -5.44241 -0.496964 14.7998 -5.51477 -0.732706 14.9789 
-5.44241 -0.496964 14.7998 -5.43741 0.0262399 14.7466 -5.56749 -0.11975 14.9954 
-4.21921 3.63064 14.9893 -3.93489 3.84789 14.8657 -4.02247 3.93289 15.1422 
-0.741509 5.51685 14.9898 -0.374458 5.49085 14.8657 -0.383217 5.61257 15.1422 
0.487217 5.54793 14.9957 0.874436 5.43369 14.8657 0.92186 5.58383 15.2317 
4.21921 -3.63064 14.9893 3.93489 -3.84789 14.8657 4.02247 -3.93289 15.1422 
0.741674 -5.51669 14.9897 0.374458 -5.49085 14.8657 0.255641 -5.58975 15.0551 
-4.6977 -2.98599 14.9898 -4.8282 -2.6416 14.8657 -4.93505 -2.70058 15.1422 
-5.56749 -0.11975 14.9954 -5.55723 0.382161 14.9969 -5.6682 0.234182 15.2736 
-5.55723 0.382161 14.9969 -5.50133 0.90036 15.0105 -5.59542 0.769072 15.214 
-5.50133 0.90036 15.0105 -5.38993 1.23392 14.9045 -5.54094 1.23276 15.2935 
-5.36571 1.63674 15.0864 -5.15428 2.10826 14.9954 -5.26584 2.09956 15.2718 
-5.15428 2.10826 14.9954 -4.94485 2.56553 14.997 -5.06171 2.57185 15.2928 
-4.94485 2.56553 14.997 -4.68719 3.00692 14.9954 -4.77187 3.06323 15.2722 
-4.68719 3.00692 14.9954 -4.47556 3.31549 15.0017 -4.43373 3.54135 15.2774 
-4.47556 3.31549 15.0017 -4.21921 3.63064 14.9893 -4.43373 3.54135 15.2774 
-4.02247 3.93289 15.1422 -3.7228 4.1476 15.005 -3.65338 4.34738 15.2943 
-3.7228 4.1476 15.005 -3.41509 4.40004 15.0017 -3.65338 4.34738 15.2943 
-3.41509 4.40004 15.0017 -3.10845 4.62436 15.0034 -3.19179 4.68926 15.2806 
-3.10845 4.62436 15.0034 -2.67419 4.89634 15.0163 -2.81956 4.917 15.2713 
-2.67419 4.89634 15.0163 -2.21218 5.11054 14.9954 -2.53366 5.0915 15.3316 
-2.21218 5.11054 14.9954 -1.86439 5.24855 15.0017 -2.06918 5.27611 15.2673 
-1.86439 5.24855 15.0017 -1.35152 5.40369 14.9921 -1.79859 5.39773 15.343 
-1.35152 5.40369 14.9921 -0.741509 5.51685 14.9898 -1.14315 5.56391 15.2999 
-0.383217 5.61257 15.1422 -0.0166685 5.57329 15.005 -0.0597739 5.69353 15.3543 
-0.0166685 5.57329 15.005 0.487217 5.54793 14.9957 0.476249 5.65168 15.2768 
0.92186 5.58383 15.2317 1.24258 5.42969 14.9983 1.28171 5.52681 15.2872 
1.24258 5.42969 14.9983 1.62528 5.32744 15.0017 1.69887 5.42646 15.3303 
1.62528 5.32744 15.0017 1.98539 5.20629 15.0034 2.11749 5.26221 15.2804 
1.98539 5.20629 15.0034 2.46353 5.00394 15.0131 2.47054 5.07482 15.195 
2.46353 5.00394 15.0131 2.89944 4.75443 14.9954 2.91765 4.85882 15.2669 
2.89944 4.75443 14.9954 3.21275 4.54988 15.0017 3.19685 4.6922 15.302 
3.21275 4.54988 15.0017 3.51675 4.32199 15.0034 3.60663 4.38567 15.2952 
3.51675 4.32199 15.0034 3.90678 3.98306 15.0166 3.92118 4.05832 15.1938 
3.90678 3.98306 15.0166 4.2432 3.60647 14.9954 4.24536 3.76128 15.2846 
4.2432 3.60647 14.9954 4.47663 3.31405 15.0017 4.48359 3.47673 15.2839 
4.47663 3.31405 15.0017 4.69475 2.9951 14.9954 4.70807 3.16305 15.2848 
4.69475 2.9951 14.9954 4.97942 2.46932 14.9653 4.91073 2.8428 15.2869 
4.97942 2.46932 14.9653 5.20475 1.98337 15.0017 5.18476 2.31056 15.2853 
5.20475 1.98337 15.0017 5.37565 1.47863 15.0039 5.39382 1.77826 15.3109 
5.37565 1.47863 15.0039 5.49933 0.876742 14.9954 5.57585 0.907942 15.2137 
5.49933 0.876742 14.9954 5.52129 0.455608 14.9321 5.66301 0.38487 15.2893 
5.52129 0.455608 14.9321 5.56749 0.11975 14.9954 5.66301 0.38487 15.2893 
5.56749 0.11975 14.9954 5.55672 -0.387824 14.9962 5.669 -0.230747 15.2769 
5.55672 -0.387824 14.9962 5.47536 -1.04966 15.0042 5.62125 -0.796 15.3046 
5.3658 -1.64202 15.0915 5.15428 -2.10826 14.9954 5.26584 -2.09956 15.2718 
5.15428 -2.10826 14.9954 4.94485 -2.56553 14.997 5.06171 -2.57185 15.2928 
4.94485 -2.56553 14.997 4.68719 -3.00692 14.9954 4.77187 -3.06323 15.2722 
4.68719 -3.00692 14.9954 4.47556 -3.31549 15.0017 4.43373 -3.54135 15.2774 
4.47556 -3.31549 15.0017 4.21921 -3.63064 14.9893 4.43373 -3.54135 15.2774 
4.02247 -3.93289 15.1422 3.7228 -4.1476 15.005 3.65338 -4.34738 15.2943 
3.7228 -4.1476 15.005 3.41509 -4.40004 15.0017 3.65338 -4.34738 15.2943 
3.41509 -4.40004 15.0017 3.10845 -4.62436 15.0034 3.19179 -4.68926 15.2806 
3.10845 -4.62436 15.0034 2.66905 -4.89846 15.0149 2.81916 -4.91708 15.2707 
2.66905 -4.89846 15.0149 2.21218 -5.11054 14.9954 2.5337 -5.09148 15.3316 
2.21218 -5.11054 14.9954 1.86439 -5.24855 15.0017 2.06918 -5.27611 15.2673 
1.86439 -5.24855 15.0017 1.49568 -5.36417 14.9954 1.79859 -5.39773 15.343 
1.49568 -5.36417 14.9954 1.13234 -5.45353 15.0017 1.33269 -5.51271 15.2826 
1.13234 -5.45353 15.0017 0.741674 -5.51669 14.9897 0.992613 -5.58773 15.2942 
0.255641 -5.58975 15.0551 -0.271007 -5.56725 15.009 0.0592456 -5.69188 15.3455 
-0.271007 -5.56725 15.009 -0.765239 -5.51595 14.9954 -0.496743 -5.65024 15.2794 
-0.765239 -5.51595 14.9954 -1.25499 -5.42878 15.0006 -0.965678 -5.5888 15.2793 
-1.25499 -5.42878 15.0006 -1.76158 -5.28958 15.0119 -1.52391 -5.43636 15.2009 
-1.76158 -5.28958 15.0119 -2.20258 -5.12037 15.008 -2.10758 -5.26697 15.2828 
-2.20258 -5.12037 15.008 -2.56329 -4.94497 15.0017 -2.57177 -5.05758 15.287 
-2.56329 -4.94497 15.0017 -2.89944 -4.75443 14.9954 -2.91765 -4.85882 15.2669 
-2.89944 -4.75443 14.9954 -3.21275 -4.54988 15.0017 -3.19685 -4.6922 15.302 
-3.21275 -4.54988 15.0017 -3.51982 -4.31534 14.9954 -3.60586 -4.38628 15.295 
-3.51982 -4.31534 14.9954 -3.89782 -3.98429 15.0032 -3.97776 -4.03385 15.2571 
-3.89782 -3.98429 15.0032 -4.2432 -3.60647 14.9954 -4.2932 -3.69984 15.2668 
-4.2432 -3.60647 14.9954 -4.47663 -3.31405 15.0017 -4.50807 -3.44957 15.2991 
-4.47663 -3.31405 15.0017 -4.6977 -2.98599 14.9898 -4.78018 -3.05811 15.2853 
-4.93505 -2.70058 15.1422 -5.05303 -2.35132 15.005 -5.21549 -2.23068 15.2793 
-5.05303 -2.35132 15.005 -5.27375 -1.77273 14.9772 -5.21549 -2.23068 15.2793 
-5.27375 -1.77273 14.9772 -5.42634 -1.25618 15.0017 -5.5022 -1.39052 15.2903 
-5.42634 -1.25618 15.0017 -5.51477 -0.732706 14.9789 -5.57585 -0.907942 15.2137 
-5.51477 -0.732706 14.9789 -5.56749 -0.11975 14.9954 -5.66108 -0.395412 15.286 
-5.6682 0.234182 15.2736 -5.59542 0.769072 15.214 -5.6604 0.803293 15.496 
-4.43373 3.54135 15.2774 -4.02247 3.93289 15.1422 -4.08347 3.97506 15.4049 
-0.666966 5.63346 15.2884 -0.383217 5.61257 15.1422 -0.0597739 5.69353 15.3543 
5.5022 1.39052 15.2903 5.57585 0.907942 15.2137 5.63851 0.928415 15.4748 
4.43373 -3.54135 15.2774 4.02247 -3.93289 15.1422 4.08347 -3.97506 15.4049 
0.666966 -5.63346 15.2884 0.255641 -5.58975 15.0551 0.0592456 -5.69188 15.3455 
-0.965678 -5.5888 15.2793 -1.52391 -5.43636 15.2009 -1.26367 -5.58045 15.5138 
-1.52391 -5.43636 15.2009 -2.10758 -5.26697 15.2828 -1.761 -5.42524 15.4196 
-4.78018 -3.05811 15.2853 -4.93505 -2.70058 15.1422 -5.07544 -2.63332 15.4864 
-4.93505 -2.70058 15.1422 -5.21549 -2.23068 15.2793 -5.07544 -2.63332 15.4864 
-5.5022 -1.39052 15.2903 -5.57585 -0.907942 15.2137 -5.63836 -0.928847 15.4745 
-5.6604 0.803293 15.496 -5.54094 1.23276 15.2935 -5.611 1.15622 15.5826 
-5.42106 1.76534 15.4202 -5.26584 2.09956 15.2718 -5.323 2.12969 15.6042 
-5.26584 2.09956 15.2718 -5.06171 2.57185 15.2928 -5.323 2.12969 15.6042 
-5.06171 2.57185 15.2928 -4.77187 3.06323 15.2722 -4.89932 2.96548 15.5799 
-4.77187 3.06323 15.2722 -4.43373 3.54135 15.2774 -4.7052 3.26687 15.5765 
-4.08347 3.97506 15.4049 -3.65338 4.34738 15.2943 -3.80983 4.2787 15.5819 
-3.65338 4.34738 15.2943 -3.19179 4.68926 15.2806 -3.43682 4.58323 15.5864 
-3.19179 4.68926 15.2806 -2.81956 4.917 15.2713 -3.00873 4.87635 15.5825 
-2.53366 5.0915 15.3316 -2.06918 5.27611 15.2673 -2.26117 5.26457 15.5868 
-1.79859 5.39773 15.343 -1.14315 5.56391 15.2999 -1.43536 5.54418 15.5804 
-1.14315 5.56391 15.2999 -0.666966 5.63346 15.2884 -0.524763 5.70579 15.5814 
-0.666966 5.63346 15.2884 -0.0597739 5.69353 15.3543 -0.524763 5.70579 15.5814 
-0.0597739 5.69353 15.3543 0.476249 5.65168 15.2768 0.376066 5.71457 15.5801 
0.476249 5.65168 15.2768 0.92186 5.58383 15.2317 0.73477 5.68088 15.5771 
0.92186 5.58383 15.2317 1.28171 5.52681 15.2872 1.26621 5.58858 15.5844 
1.69887 5.42646 15.3303 2.11749 5.26221 15.2804 2.0323 5.35634 15.5829 
2.60327 5.07223 15.4203 2.91765 4.85882 15.2669 2.95415 4.90976 15.5945 
2.91765 4.85882 15.2669 3.19685 4.6922 15.302 2.95415 4.90976 15.5945 
3.19685 4.6922 15.302 3.60663 4.38567 15.2952 3.59896 4.45584 15.5735 
4.01327 4.08203 15.539 4.24536 3.76128 15.2846 4.35095 3.72818 15.5915 
4.24536 3.76128 15.2846 4.48359 3.47673 15.2839 4.35095 3.72818 15.5915 
4.48359 3.47673 15.2839 4.70807 3.16305 15.2848 4.80122 3.12462 15.58 
4.70807 3.16305 15.2848 4.91073 2.8428 15.2869 4.80122 3.12462 15.58 
4.91073 2.8428 15.2869 5.18476 2.31056 15.2853 5.19075 2.42104 15.5727 
5.39382 1.77826 15.3109 5.5022 1.39052 15.2903 5.55156 1.41067 15.5729 
5.63851 0.928415 15.4748 5.66301 0.38487 15.2893 5.71585 0.434966 15.6003 
5.66301 0.38487 15.2893 5.669 -0.230747 15.2769 5.72748 -0.100468 15.5764 
5.62125 -0.796 15.3046 5.54094 -1.23276 15.2935 5.611 -1.15622 15.5826 
5.42106 -1.76534 15.4202 5.26584 -2.09956 15.2718 5.323 -2.12969 15.6042 
5.26584 -2.09956 15.2718 5.06171 -2.57185 15.2928 5.323 -2.12969 15.6042 
5.06171 -2.57185 15.2928 4.77187 -3.06323 15.2722 4.89932 -2.96548 15.5799 
4.77187 -3.06323 15.2722 4.43373 -3.54135 15.2774 4.7052 -3.26687 15.5765 
4.08347 -3.97506 15.4049 3.65338 -4.34738 15.2943 3.80983 -4.2787 15.5819 
3.65338 -4.34738 15.2943 3.19179 -4.68926 15.2806 3.43682 -4.58323 15.5864 
3.19179 -4.68926 15.2806 2.81916 -4.91708 15.2707 3.00873 -4.87635 15.5825 
2.5337 -5.09148 15.3316 2.06918 -5.27611 15.2673 2.26117 -5.26457 15.5868 
1.79859 -5.39773 15.343 1.33269 -5.51271 15.2826 1.43536 -5.54418 15.5804 
1.33269 -5.51271 15.2826 0.992613 -5.58773 15.2942 1.0207 -5.63727 15.5784 
0.992613 -5.58773 15.2942 0.666966 -5.63346 15.2884 0.524763 -5.70579 15.5814 
0.666966 -5.63346 15.2884 0.0592456 -5.69188 15.3455 0.524763 -5.70579 15.5814 
0.0592456 -5.69188 15.3455 -0.496743 -5.65024 15.2794 -0.376066 -5.71457 15.5801 
-0.496743 -5.65024 15.2794 -0.965678 -5.5888 15.2793 -0.73477 -5.68088 15.5771 
-1.761 -5.42524 15.4196 -2.10758 -5.26697 15.2828 -2.0323 -5.35634 15.5829 
-2.57177 -5.05758 15.287 -2.91765 -4.85882 15.2669 -2.95415 -4.90976 15.5945 
-2.91765 -4.85882 15.2669 -3.19685 -4.6922 15.302 -2.95415 -4.90976 15.5945 
-3.19685 -4.6922 15.302 -3.60586 -4.38628 15.295 -3.59896 -4.45584 15.5735 
-3.97776 -4.03385 15.2571 -4.2932 -3.69984 15.2668 -4.2345 -3.85894 15.5897 
-4.2932 -3.69984 15.2668 -4.50807 -3.44957 15.2991 -4.53339 -3.50235 15.5741 
-4.50807 -3.44957 15.2991 -4.78018 -3.05811 15.2853 -4.80534 -3.11842 15.5777 
-5.07544 -2.63332 15.4864 -5.21549 -2.23068 15.2793 -5.19879 -2.40405 15.5766 
-5.39614 -1.76922 15.3094 -5.5022 -1.39052 15.2903 -5.55156 -1.41067 15.5729 
-5.63836 -0.928847 15.4745 -5.66108 -0.395412 15.286 -5.69607 -0.615847 15.5945 
-5.66108 -0.395412 15.286 -5.6682 0.234182 15.2736 -5.72945 -0.11504 15.5834 
-5.51399 1.54822 15.5819 -5.42106 1.76534 15.4202 -5.323 2.12969 15.6042 
-4.38943 3.68334 15.585 -4.08347 3.97506 15.4049 -4.11224 4.00339 15.7134 
-3.00873 4.87635 15.5825 -2.53366 5.0915 15.3316 -2.64564 5.09285 15.7145 
-2.26117 5.26457 15.5868 -1.79859 5.39773 15.343 -1.80932 5.44142 15.6613 
-0.524763 5.70579 15.5814 -0.0597739 5.69353 15.3543 -0.0095616 5.73432 15.6609 
1.26621 5.58858 15.5844 1.69887 5.42646 15.3303 1.67204 5.48389 15.6587 
5.51399 -1.54822 15.5819 5.42106 -1.76534 15.4202 5.323 -2.12969 15.6042 
4.38943 -3.68334 15.585 4.08347 -3.97506 15.4049 4.11224 -4.00339 15.7134 
3.00873 -4.87635 15.5825 2.5337 -5.09148 15.3316 2.64564 -5.09285 15.7145 
2.26117 -5.26457 15.5868 1.79859 -5.39773 15.343 1.80932 -5.44142 15.6613 
0.524763 -5.70579 15.5814 0.0592456 -5.69188 15.3455 0.0095616 -5.73432 15.6609 
-1.26367 -5.58045 15.5138 -1.761 -5.42524 15.4196 -1.67204 -5.48389 15.6587 
-3.91148 -4.18345 15.5818 -3.97776 -4.03385 15.2571 -4.2345 -3.85894 15.5897 
-5.72945 -0.11504 15.5834 -5.71325 0.401727 15.5697 -5.7329 0.261201 15.8098 
-5.71325 0.401727 15.5697 -5.71507 0.521861 15.8098 -5.72706 0.367689 15.8098 
-5.71325 0.401727 15.5697 -5.6604 0.803293 15.496 -5.68882 0.76001 15.809 
-5.6604 0.803293 15.496 -5.611 1.15622 15.5826 -5.63985 1.06469 15.8137 
-5.611 1.15622 15.5826 -5.59078 1.2952 15.8098 -5.63985 1.06469 15.8137 
-5.611 1.15622 15.5826 -5.51399 1.54822 15.5819 -5.53648 1.51339 15.8032 
-5.51399 1.54822 15.5819 -5.323 2.12969 15.6042 -5.44816 1.8033 15.8098 
-5.323 2.12969 15.6042 -5.36234 2.04442 15.8098 -5.44816 1.8033 15.8098 
-5.323 2.12969 15.6042 -5.26374 2.28636 15.8098 -5.31943 2.1536 15.8098 
-5.323 2.12969 15.6042 -5.09707 2.61445 15.583 -5.16218 2.50818 15.8107 
-4.89932 2.96548 15.5799 -4.90338 2.98181 15.8098 -5.02031 2.78185 15.8163 
-5.02031 2.78185 15.8163 -5.09707 2.61445 15.583 -4.89932 2.96548 15.5799 
-4.89932 2.96548 15.5799 -4.7052 3.26687 15.5765 -4.78239 3.17359 15.8114 
-4.38943 3.68334 15.585 -4.45169 3.62172 15.8098 -4.60602 3.4237 15.81 
-4.60602 3.4237 15.81 -4.7052 3.26687 15.5765 -4.38943 3.68334 15.585 
-4.38943 3.68334 15.585 -4.28223 3.82058 15.8098 -4.36982 3.72008 15.8098 
-4.11224 4.00339 15.7134 -3.80983 4.2787 15.5819 -3.89332 4.2172 15.817 
-3.80983 4.2787 15.5819 -3.72211 4.36809 15.8098 -3.89332 4.2172 15.817 
-3.80983 4.2787 15.5819 -3.43682 4.58323 15.5864 -3.54466 4.51419 15.8106 
-3.00873 4.87635 15.5825 -3.09266 4.83424 15.8098 -3.29739 4.69741 15.8103 
-3.29739 4.69741 15.8103 -3.43682 4.58323 15.5864 -3.00873 4.87635 15.5825 
-3.00873 4.87635 15.5825 -2.86942 4.96999 15.8098 -2.97498 4.90753 15.8098 
-2.64564 5.09285 15.7145 -2.26117 5.26457 15.5868 -2.37433 5.22552 15.8238 
-2.26117 5.26457 15.5868 -2.16595 5.31442 15.8098 -2.37433 5.22552 15.8238 
-2.26117 5.26457 15.5868 -1.80932 5.44142 15.6613 -1.94818 5.39874 15.8129 
-1.43536 5.54418 15.5804 -1.42213 5.55985 15.8098 -1.63286 5.50165 15.8098 
-1.63286 5.50165 15.8098 -1.80932 5.44142 15.6613 -1.43536 5.54418 15.5804 
-1.43536 5.54418 15.5804 -1.0207 5.63727 15.5784 -1.27701 5.59496 15.8098 
-1.0207 5.63727 15.5784 -1.1676 5.61881 15.8098 -1.27701 5.59496 15.8098 
-1.0207 5.63727 15.5784 -0.524763 5.70579 15.5814 -0.616074 5.7065 15.8102 
-0.524763 5.70579 15.5814 -0.391633 5.72547 15.8098 -0.616074 5.7065 15.8102 
-0.524763 5.70579 15.5814 -0.0095616 5.73432 15.6609 -0.183939 5.7359 15.8098 
-0.0095616 5.73432 15.6609 -0.130635 5.73736 15.8098 -0.183939 5.7359 15.8098 
0.376066 5.71457 15.5801 0.391633 5.72547 15.8098 0.183939 5.7359 15.8098 
0.183939 5.7359 15.8098 -0.0095616 5.73432 15.6609 0.376066 5.71457 15.5801 
0.376066 5.71457 15.5801 0.73477 5.68088 15.5771 0.614585 5.70659 15.8088 
1.26621 5.58858 15.5844 1.1676 5.61881 15.8098 0.913282 5.66577 15.8099 
0.913282 5.66577 15.8099 0.73477 5.68088 15.5771 1.26621 5.58858 15.5844 
1.26621 5.58858 15.5844 1.42213 5.55985 15.8098 1.27701 5.59496 15.8098 
1.26621 5.58858 15.5844 1.67204 5.48389 15.6587 1.63286 5.50165 15.8098 
1.67204 5.48389 15.6587 1.67371 5.48936 15.8098 1.63286 5.50165 15.8098 
1.67204 5.48389 15.6587 2.0323 5.35634 15.5829 1.94819 5.39874 15.8137 
2.0323 5.35634 15.5829 2.16595 5.31442 15.8098 1.94819 5.39874 15.8137 
2.0323 5.35634 15.5829 2.47481 5.16885 15.5988 2.37379 5.22571 15.8042 
2.95415 4.90976 15.5945 2.86942 4.96999 15.8098 2.64734 5.09175 15.8098 
2.64734 5.09175 15.8098 2.47481 5.16885 15.5988 2.95415 4.90976 15.5945 
2.95415 4.90976 15.5945 3.09266 4.83424 15.8098 2.97498 4.90753 15.8098 
2.95415 4.90976 15.5945 3.30492 4.67833 15.582 3.29739 4.69741 15.8104 
3.30492 4.67833 15.582 3.59896 4.45584 15.5735 3.54467 4.51418 15.8117 
3.59896 4.45584 15.5735 3.72211 4.36809 15.8098 3.54467 4.51418 15.8117 
3.59896 4.45584 15.5735 4.01327 4.08203 15.539 3.89323 4.21728 15.8055 
4.35095 3.72818 15.5915 4.28223 3.82058 15.8098 4.1132 4.00197 15.8098 
4.1132 4.00197 15.8098 4.01327 4.08203 15.539 4.35095 3.72818 15.5915 
4.35095 3.72818 15.5915 4.45169 3.62172 15.8098 4.36982 3.72008 15.8098 
4.35095 3.72818 15.5915 4.60449 3.40686 15.5812 4.60656 3.42299 15.807 
4.60449 3.40686 15.5812 4.80122 3.12462 15.58 4.78189 3.1744 15.8132 
4.80122 3.12462 15.58 4.90338 2.98181 15.8098 4.78189 3.1744 15.8132 
4.80122 3.12462 15.58 5.02678 2.74586 15.5813 5.02033 2.78182 15.8053 
5.02678 2.74586 15.5813 5.19075 2.42104 15.5727 5.16218 2.50818 15.8105 
5.19075 2.42104 15.5727 5.26374 2.28636 15.8098 5.16218 2.50818 15.8105 
5.19075 2.42104 15.5727 5.39137 1.94789 15.6073 5.31943 2.1536 15.8098 
5.39137 1.94789 15.6073 5.36234 2.04442 15.8098 5.31943 2.1536 15.8098 
5.39137 1.94789 15.6073 5.55156 1.41067 15.5729 5.53616 1.51481 15.811 
5.55156 1.41067 15.5729 5.59078 1.2952 15.8098 5.53616 1.51481 15.811 
5.55156 1.41067 15.5729 5.63851 0.928415 15.4748 5.63985 1.06465 15.8072 
5.63851 0.928415 15.4748 5.71585 0.434966 15.6003 5.68882 0.759991 15.8093 
5.71585 0.434966 15.6003 5.71507 0.521861 15.8098 5.68882 0.759991 15.8093 
5.71585 0.434966 15.6003 5.7329 0.261201 15.8098 5.72706 0.367689 15.8098 
5.71585 0.434966 15.6003 5.72748 -0.100468 15.5764 5.73885 0 15.8098 
5.69873 -0.617971 15.6018 5.71507 -0.521861 15.8098 5.72706 -0.367689 15.8098 
5.72706 -0.367689 15.8098 5.72748 -0.100468 15.5764 5.69873 -0.617971 15.6018 
5.69873 -0.617971 15.6018 5.611 -1.15622 15.5826 5.63985 -1.06469 15.8137 
5.611 -1.15622 15.5826 5.59078 -1.2952 15.8098 5.63985 -1.06469 15.8137 
5.611 -1.15622 15.5826 5.51399 -1.54822 15.5819 5.53648 -1.51339 15.8032 
5.51399 -1.54822 15.5819 5.323 -2.12969 15.6042 5.44816 -1.8033 15.8098 
5.323 -2.12969 15.6042 5.36234 -2.04442 15.8098 5.44816 -1.8033 15.8098 
5.323 -2.12969 15.6042 5.26374 -2.28636 15.8098 5.31943 -2.1536 15.8098 
5.323 -2.12969 15.6042 5.09707 -2.61445 15.583 5.16218 -2.50818 15.8107 
4.89932 -2.96548 15.5799 4.90338 -2.98181 15.8098 5.02031 -2.78185 15.8163 
5.02031 -2.78185 15.8163 5.09707 -2.61445 15.583 4.89932 -2.96548 15.5799 
4.89932 -2.96548 15.5799 4.7052 -3.26687 15.5765 4.78239 -3.17359 15.8114 
4.38943 -3.68334 15.585 4.45169 -3.62172 15.8098 4.60602 -3.4237 15.81 
4.60602 -3.4237 15.81 4.7052 -3.26687 15.5765 4.38943 -3.68334 15.585 
4.38943 -3.68334 15.585 4.28223 -3.82058 15.8098 4.36982 -3.72008 15.8098 
4.11224 -4.00339 15.7134 3.80983 -4.2787 15.5819 3.89332 -4.2172 15.817 
3.80983 -4.2787 15.5819 3.72211 -4.36809 15.8098 3.89332 -4.2172 15.817 
3.80983 -4.2787 15.5819 3.43682 -4.58323 15.5864 3.54466 -4.51419 15.8106 
3.00873 -4.87635 15.5825 3.09266 -4.83424 15.8098 3.29739 -4.69741 15.8103 
3.29739 -4.69741 15.8103 3.43682 -4.58323 15.5864 3.00873 -4.87635 15.5825 
3.00873 -4.87635 15.5825 2.86942 -4.96999 15.8098 2.97498 -4.90753 15.8098 
2.64564 -5.09285 15.7145 2.26117 -5.26457 15.5868 2.37433 -5.22552 15.8238 
2.26117 -5.26457 15.5868 2.16595 -5.31442 15.8098 2.37433 -5.22552 15.8238 
2.26117 -5.26457 15.5868 1.80932 -5.44142 15.6613 1.94818 -5.39874 15.8129 
1.43536 -5.54418 15.5804 1.42213 -5.55985 15.8098 1.63286 -5.50165 15.8098 
1.63286 -5.50165 15.8098 1.80932 -5.44142 15.6613 1.43536 -5.54418 15.5804 
1.43536 -5.54418 15.5804 1.0207 -5.63727 15.5784 1.27701 -5.59496 15.8098 
1.0207 -5.63727 15.5784 1.1676 -5.61881 15.8098 1.27701 -5.59496 15.8098 
1.0207 -5.63727 15.5784 0.524763 -5.70579 15.5814 0.616074 -5.7065 15.8102 
0.524763 -5.70579 15.5814 0.391633 -5.72547 15.8098 0.616074 -5.7065 15.8102 
0.524763 -5.70579 15.5814 0.0095616 -5.73432 15.6609 0.183939 -5.7359 15.8098 
0.0095616 -5.73432 15.6609 0.130635 -5.73736 15.8098 0.183939 -5.7359 15.8098 
-0.376066 -5.71457 15.5801 -0.391633 -5.72547 15.8098 -0.183939 -5.7359 15.8098 
-0.183939 -5.7359 15.8098 0.0095616 -5.73432 15.6609 -0.376066 -5.71457 15.5801 
-0.376066 -5.71457 15.5801 -0.73477 -5.68088 15.5771 -0.614585 -5.70659 15.8088 
-1.26367 -5.58045 15.5138 -1.1676 -5.61881 15.8098 -0.913282 -5.66577 15.8099 
-0.913282 -5.66577 15.8099 -0.73477 -5.68088 15.5771 -1.26367 -5.58045 15.5138 
-1.26367 -5.58045 15.5138 -1.42213 -5.55985 15.8098 -1.27701 -5.59496 15.8098 
-1.26367 -5.58045 15.5138 -1.67204 -5.48389 15.6587 -1.63286 -5.50165 15.8098 
-1.67204 -5.48389 15.6587 -1.67371 -5.48936 15.8098 -1.63286 -5.50165 15.8098 
-1.67204 -5.48389 15.6587 -2.0323 -5.35634 15.5829 -1.94819 -5.39874 15.8137 
-2.0323 -5.35634 15.5829 -2.16595 -5.31442 15.8098 -1.94819 -5.39874 15.8137 
-2.0323 -5.35634 15.5829 -2.47481 -5.16885 15.5988 -2.37379 -5.22571 15.8042 
-2.95415 -4.90976 15.5945 -2.86942 -4.96999 15.8098 -2.64734 -5.09175 15.8098 
-2.64734 -5.09175 15.8098 -2.47481 -5.16885 15.5988 -2.95415 -4.90976 15.5945 
-2.95415 -4.90976 15.5945 -3.09266 -4.83424 15.8098 -2.97498 -4.90753 15.8098 
-2.95415 -4.90976 15.5945 -3.30492 -4.67833 15.582 -3.29739 -4.69741 15.8104 
-3.30492 -4.67833 15.582 -3.59896 -4.45584 15.5735 -3.54467 -4.51418 15.8117 
-3.59896 -4.45584 15.5735 -3.72211 -4.36809 15.8098 -3.54467 -4.51418 15.8117 
-3.59896 -4.45584 15.5735 -3.91148 -4.18345 15.5818 -3.89377 -4.21679 15.8046 
-3.91148 -4.18345 15.5818 -4.2345 -3.85894 15.5897 -4.1132 -4.00197 15.8098 
-4.2345 -3.85894 15.5897 -4.28223 -3.82058 15.8098 -4.1132 -4.00197 15.8098 
-4.2345 -3.85894 15.5897 -4.53339 -3.50235 15.5741 -4.36982 -3.72008 15.8098 
-4.53339 -3.50235 15.5741 -4.45169 -3.62172 15.8098 -4.36982 -3.72008 15.8098 
-4.53339 -3.50235 15.5741 -4.80534 -3.11842 15.5777 -4.78186 -3.17445 15.8096 
-4.80534 -3.11842 15.5777 -4.90338 -2.98181 15.8098 -4.78186 -3.17445 15.8096 
-4.80534 -3.11842 15.5777 -5.07544 -2.63332 15.4864 -5.02033 -2.78182 15.8058 
-5.07544 -2.63332 15.4864 -5.19879 -2.40405 15.5766 -5.16218 -2.50818 15.8105 
-5.19879 -2.40405 15.5766 -5.26374 -2.28636 15.8098 -5.16218 -2.50818 15.8105 
-5.19879 -2.40405 15.5766 -5.39215 -1.94542 15.6071 -5.31943 -2.1536 15.8098 
-5.39215 -1.94542 15.6071 -5.36234 -2.04442 15.8098 -5.31943 -2.1536 15.8098 
-5.39215 -1.94542 15.6071 -5.55156 -1.41067 15.5729 -5.53616 -1.51481 15.811 
-5.55156 -1.41067 15.5729 -5.59078 -1.2952 15.8098 -5.53616 -1.51481 15.811 
-5.55156 -1.41067 15.5729 -5.63836 -0.928847 15.4745 -5.63985 -1.06465 15.8072 
-5.63836 -0.928847 15.4745 -5.69607 -0.615847 15.5945 -5.68882 -0.759991 15.8093 
-5.69607 -0.615847 15.5945 -5.71507 -0.521861 15.8098 -5.68882 -0.759991 15.8093 
-5.69607 -0.615847 15.5945 -5.72945 -0.11504 15.5834 -5.72706 -0.367689 15.8098 
-5.72945 -0.11504 15.5834 -5.7329 -0.261201 15.8098 -5.72706 -0.367689 15.8098 
-5.73885 0 15.8098 -5.7329 -0.261201 15.8098 -5.72945 -0.11504 15.5834 
-5.72706 -0.367689 15.8098 -5.71507 -0.521861 15.8098 -5.69607 -0.615847 15.5945 
-5.68882 -0.759991 15.8093 -5.63985 -1.06465 15.8072 -5.63836 -0.928847 15.4745 
-5.63985 -1.06465 15.8072 -5.59078 -1.2952 15.8098 -5.55156 -1.41067 15.5729 
-5.53616 -1.51481 15.811 -5.44816 -1.8033 15.8098 -5.39215 -1.94542 15.6071 
-5.44816 -1.8033 15.8098 -5.36234 -2.04442 15.8098 -5.39215 -1.94542 15.6071 
-5.31943 -2.1536 15.8098 -5.26374 -2.28636 15.8098 -5.19879 -2.40405 15.5766 
-5.16218 -2.50818 15.8105 -5.02033 -2.78182 15.8058 -5.07544 -2.63332 15.4864 
-5.02033 -2.78182 15.8058 -4.90338 -2.98181 15.8098 -4.80534 -3.11842 15.5777 
-4.78186 -3.17445 15.8096 -4.60656 -3.42299 15.807 -4.53339 -3.50235 15.5741 
-4.60656 -3.42299 15.807 -4.45169 -3.62172 15.8098 -4.53339 -3.50235 15.5741 
-4.36982 -3.72008 15.8098 -4.28223 -3.82058 15.8098 -4.2345 -3.85894 15.5897 
-4.1132 -4.00197 15.8098 -3.89377 -4.21679 15.8046 -3.91148 -4.18345 15.5818 
-3.89377 -4.21679 15.8046 -3.72211 -4.36809 15.8098 -3.59896 -4.45584 15.5735 
-3.54467 -4.51418 15.8117 -3.29739 -4.69741 15.8104 -3.30492 -4.67833 15.582 
-3.29739 -4.69741 15.8104 -3.09266 -4.83424 15.8098 -2.95415 -4.90976 15.5945 
-2.97498 -4.90753 15.8098 -2.86942 -4.96999 15.8098 -2.95415 -4.90976 15.5945 
-2.64734 -5.09175 15.8098 -2.37379 -5.22571 15.8042 -2.47481 -5.16885 15.5988 
-2.37379 -5.22571 15.8042 -2.16595 -5.31442 15.8098 -2.0323 -5.35634 15.5829 
-1.94819 -5.39874 15.8137 -1.67371 -5.48936 15.8098 -1.67204 -5.48389 15.6587 
-1.63286 -5.50165 15.8098 -1.42213 -5.55985 15.8098 -1.26367 -5.58045 15.5138 
-1.27701 -5.59496 15.8098 -1.1676 -5.61881 15.8098 -1.26367 -5.58045 15.5138 
-0.913282 -5.66577 15.8099 -0.614585 -5.70659 15.8088 -0.73477 -5.68088 15.5771 
-0.614585 -5.70659 15.8088 -0.391633 -5.72547 15.8098 -0.376066 -5.71457 15.5801 
-0.183939 -5.7359 15.8098 -0.130635 -5.73736 15.8098 0.0095616 -5.73432 15.6609 
-0.130635 -5.73736 15.8098 0.130635 -5.73736 15.8098 0.0095616 -5.73432 15.6609 
0.183939 -5.7359 15.8098 0.391633 -5.72547 15.8098 0.524763 -5.70579 15.5814 
0.616074 -5.7065 15.8102 0.912935 -5.66583 15.8081 1.0207 -5.63727 15.5784 
0.912935 -5.66583 15.8081 1.1676 -5.61881 15.8098 1.0207 -5.63727 15.5784 
1.27701 -5.59496 15.8098 1.42213 -5.55985 15.8098 1.43536 -5.54418 15.5804 
1.63286 -5.50165 15.8098 1.67371 -5.48936 15.8098 1.80932 -5.44142 15.6613 
1.67371 -5.48936 15.8098 1.94818 -5.39874 15.8129 1.80932 -5.44142 15.6613 
1.94818 -5.39874 15.8129 2.16595 -5.31442 15.8098 2.26117 -5.26457 15.5868 
2.64564 -5.09285 15.7145 2.86942 -4.96999 15.8098 3.00873 -4.87635 15.5825 
2.97498 -4.90753 15.8098 3.09266 -4.83424 15.8098 3.00873 -4.87635 15.5825 
3.29739 -4.69741 15.8103 3.54466 -4.51419 15.8106 3.43682 -4.58323 15.5864 
3.54466 -4.51419 15.8106 3.72211 -4.36809 15.8098 3.80983 -4.2787 15.5819 
4.11224 -4.00339 15.7134 4.28223 -3.82058 15.8098 4.38943 -3.68334 15.585 
4.36982 -3.72008 15.8098 4.45169 -3.62172 15.8098 4.38943 -3.68334 15.585 
4.60602 -3.4237 15.81 4.78239 -3.17359 15.8114 4.7052 -3.26687 15.5765 
4.78239 -3.17359 15.8114 4.90338 -2.98181 15.8098 4.89932 -2.96548 15.5799 
5.02031 -2.78185 15.8163 5.16218 -2.50818 15.8107 5.09707 -2.61445 15.583 
5.16218 -2.50818 15.8107 5.26374 -2.28636 15.8098 5.323 -2.12969 15.6042 
5.31943 -2.1536 15.8098 5.36234 -2.04442 15.8098 5.323 -2.12969 15.6042 
5.44816 -1.8033 15.8098 5.53648 -1.51339 15.8032 5.51399 -1.54822 15.5819 
5.53648 -1.51339 15.8032 5.59078 -1.2952 15.8098 5.611 -1.15622 15.5826 
5.63985 -1.06469 15.8137 5.68882 -0.76001 15.809 5.69873 -0.617971 15.6018 
5.68882 -0.76001 15.809 5.71507 -0.521861 15.8098 5.69873 -0.617971 15.6018 
5.72706 -0.367689 15.8098 5.7329 -0.261201 15.8098 5.72748 -0.100468 15.5764 
5.7329 -0.261201 15.8098 5.73885 0 15.8098 5.72748 -0.100468 15.5764 
5.73885 0 15.8098 5.7329 0.261201 15.8098 5.71585 0.434966 15.6003 
5.72706 0.367689 15.8098 5.71507 0.521861 15.8098 5.71585 0.434966 15.6003 
5.68882 0.759991 15.8093 5.63985 1.06465 15.8072 5.63851 0.928415 15.4748 
5.63985 1.06465 15.8072 5.59078 1.2952 15.8098 5.55156 1.41067 15.5729 
5.53616 1.51481 15.811 5.44816 1.8033 15.8098 5.39137 1.94789 15.6073 
5.44816 1.8033 15.8098 5.36234 2.04442 15.8098 5.39137 1.94789 15.6073 
5.31943 2.1536 15.8098 5.26374 2.28636 15.8098 5.19075 2.42104 15.5727 
5.16218 2.50818 15.8105 5.02033 2.78182 15.8053 5.02678 2.74586 15.5813 
5.02033 2.78182 15.8053 4.90338 2.98181 15.8098 4.80122 3.12462 15.58 
4.78189 3.1744 15.8132 4.60656 3.42299 15.807 4.60449 3.40686 15.5812 
4.60656 3.42299 15.807 4.45169 3.62172 15.8098 4.35095 3.72818 15.5915 
4.36982 3.72008 15.8098 4.28223 3.82058 15.8098 4.35095 3.72818 15.5915 
4.1132 4.00197 15.8098 3.89323 4.21728 15.8055 4.01327 4.08203 15.539 
3.89323 4.21728 15.8055 3.72211 4.36809 15.8098 3.59896 4.45584 15.5735 
3.54467 4.51418 15.8117 3.29739 4.69741 15.8104 3.30492 4.67833 15.582 
3.29739 4.69741 15.8104 3.09266 4.83424 15.8098 2.95415 4.90976 15.5945 
2.97498 4.90753 15.8098 2.86942 4.96999 15.8098 2.95415 4.90976 15.5945 
2.64734 5.09175 15.8098 2.37379 5.22571 15.8042 2.47481 5.16885 15.5988 
2.37379 5.22571 15.8042 2.16595 5.31442 15.8098 2.0323 5.35634 15.5829 
1.94819 5.39874 15.8137 1.67371 5.48936 15.8098 1.67204 5.48389 15.6587 
1.63286 5.50165 15.8098 1.42213 5.55985 15.8098 1.26621 5.58858 15.5844 
1.27701 5.59496 15.8098 1.1676 5.61881 15.8098 1.26621 5.58858 15.5844 
0.913282 5.66577 15.8099 0.614585 5.70659 15.8088 0.73477 5.68088 15.5771 
0.614585 5.70659 15.8088 0.391633 5.72547 15.8098 0.376066 5.71457 15.5801 
0.183939 5.7359 15.8098 0.130635 5.73736 15.8098 -0.0095616 5.73432 15.6609 
0.130635 5.73736 15.8098 -0.130635 5.73736 15.8098 -0.0095616 5.73432 15.6609 
-0.183939 5.7359 15.8098 -0.391633 5.72547 15.8098 -0.524763 5.70579 15.5814 
-0.616074 5.7065 15.8102 -0.912935 5.66583 15.8081 -1.0207 5.63727 15.5784 
-0.912935 5.66583 15.8081 -1.1676 5.61881 15.8098 -1.0207 5.63727 15.5784 
-1.27701 5.59496 15.8098 -1.42213 5.55985 15.8098 -1.43536 5.54418 15.5804 
-1.63286 5.50165 15.8098 -1.67371 5.48936 15.8098 -1.80932 5.44142 15.6613 
-1.67371 5.48936 15.8098 -1.94818 5.39874 15.8129 -1.80932 5.44142 15.6613 
-1.94818 5.39874 15.8129 -2.16595 5.31442 15.8098 -2.26117 5.26457 15.5868 
-2.64564 5.09285 15.7145 -2.86942 4.96999 15.8098 -3.00873 4.87635 15.5825 
-2.97498 4.90753 15.8098 -3.09266 4.83424 15.8098 -3.00873 4.87635 15.5825 
-3.29739 4.69741 15.8103 -3.54466 4.51419 15.8106 -3.43682 4.58323 15.5864 
-3.54466 4.51419 15.8106 -3.72211 4.36809 15.8098 -3.80983 4.2787 15.5819 
-4.11224 4.00339 15.7134 -4.28223 3.82058 15.8098 -4.38943 3.68334 15.585 
-4.36982 3.72008 15.8098 -4.45169 3.62172 15.8098 -4.38943 3.68334 15.585 
-4.60602 3.4237 15.81 -4.78239 3.17359 15.8114 -4.7052 3.26687 15.5765 
-4.78239 3.17359 15.8114 -4.90338 2.98181 15.8098 -4.89932 2.96548 15.5799 
-5.02031 2.78185 15.8163 -5.16218 2.50818 15.8107 -5.09707 2.61445 15.583 
-5.16218 2.50818 15.8107 -5.26374 2.28636 15.8098 -5.323 2.12969 15.6042 
-5.31943 2.1536 15.8098 -5.36234 2.04442 15.8098 -5.323 2.12969 15.6042 
-5.44816 1.8033 15.8098 -5.53648 1.51339 15.8032 -5.51399 1.54822 15.5819 
-5.53648 1.51339 15.8032 -5.59078 1.2952 15.8098 -5.611 1.15622 15.5826 
-5.63985 1.06469 15.8137 -5.68882 0.76001 15.809 -5.6604 0.803293 15.496 
-5.68882 0.76001 15.809 -5.71507 0.521861 15.8098 -5.71325 0.401727 15.5697 
-5.72706 0.367689 15.8098 -5.7329 0.261201 15.8098 -5.71325 0.401727 15.5697 
-5.7329 0.261201 15.8098 -5.73885 0 15.8098 -5.72945 -0.11504 15.5834 
-5.55156 -1.41067 15.5729 -5.39215 -1.94542 15.6071 -5.39614 -1.76922 15.3094 
-2.95415 -4.90976 15.5945 -2.47481 -5.16885 15.5988 -2.57177 -5.05758 15.287 
-2.0323 -5.35634 15.5829 -1.67204 -5.48389 15.6587 -1.761 -5.42524 15.4196 
-0.376066 -5.71457 15.5801 0.0095616 -5.73432 15.6609 0.0592456 -5.69188 15.3455 
1.43536 -5.54418 15.5804 1.80932 -5.44142 15.6613 1.79859 -5.39773 15.343 
2.26117 -5.26457 15.5868 2.64564 -5.09285 15.7145 2.5337 -5.09148 15.3316 
3.80983 -4.2787 15.5819 4.11224 -4.00339 15.7134 4.08347 -3.97506 15.4049 
5.611 -1.15622 15.5826 5.69873 -0.617971 15.6018 5.62125 -0.796 15.3046 
5.55156 1.41067 15.5729 5.39137 1.94789 15.6073 5.39382 1.77826 15.3109 
2.95415 4.90976 15.5945 2.47481 5.16885 15.5988 2.60327 5.07223 15.4203 
2.0323 5.35634 15.5829 1.67204 5.48389 15.6587 1.69887 5.42646 15.3303 
0.376066 5.71457 15.5801 -0.0095616 5.73432 15.6609 -0.0597739 5.69353 15.3543 
-1.43536 5.54418 15.5804 -1.80932 5.44142 15.6613 -1.79859 5.39773 15.343 
-2.26117 5.26457 15.5868 -2.64564 5.09285 15.7145 -2.53366 5.0915 15.3316 
-3.80983 4.2787 15.5819 -4.11224 4.00339 15.7134 -4.08347 3.97506 15.4049 
-5.72945 -0.11504 15.5834 -5.69607 -0.615847 15.5945 -5.66108 -0.395412 15.286 
-5.63836 -0.928847 15.4745 -5.55156 -1.41067 15.5729 -5.5022 -1.39052 15.2903 
-5.39614 -1.76922 15.3094 -5.39215 -1.94542 15.6071 -5.21549 -2.23068 15.2793 
-5.39215 -1.94542 15.6071 -5.19879 -2.40405 15.5766 -5.21549 -2.23068 15.2793 
-5.07544 -2.63332 15.4864 -4.80534 -3.11842 15.5777 -4.78018 -3.05811 15.2853 
-4.80534 -3.11842 15.5777 -4.53339 -3.50235 15.5741 -4.50807 -3.44957 15.2991 
-4.53339 -3.50235 15.5741 -4.2345 -3.85894 15.5897 -4.2932 -3.69984 15.2668 
-3.97776 -4.03385 15.2571 -3.91148 -4.18345 15.5818 -3.60586 -4.38628 15.295 
-3.91148 -4.18345 15.5818 -3.59896 -4.45584 15.5735 -3.60586 -4.38628 15.295 
-3.59896 -4.45584 15.5735 -3.30492 -4.67833 15.582 -3.19685 -4.6922 15.302 
-3.30492 -4.67833 15.582 -2.95415 -4.90976 15.5945 -3.19685 -4.6922 15.302 
-2.57177 -5.05758 15.287 -2.47481 -5.16885 15.5988 -2.10758 -5.26697 15.2828 
-2.47481 -5.16885 15.5988 -2.0323 -5.35634 15.5829 -2.10758 -5.26697 15.2828 
-1.26367 -5.58045 15.5138 -0.73477 -5.68088 15.5771 -0.965678 -5.5888 15.2793 
-0.73477 -5.68088 15.5771 -0.376066 -5.71457 15.5801 -0.496743 -5.65024 15.2794 
0.524763 -5.70579 15.5814 1.0207 -5.63727 15.5784 0.992613 -5.58773 15.2942 
1.0207 -5.63727 15.5784 1.43536 -5.54418 15.5804 1.33269 -5.51271 15.2826 
1.79859 -5.39773 15.343 2.26117 -5.26457 15.5868 2.06918 -5.27611 15.2673 
2.5337 -5.09148 15.3316 3.00873 -4.87635 15.5825 2.81916 -4.91708 15.2707 
3.00873 -4.87635 15.5825 3.43682 -4.58323 15.5864 3.19179 -4.68926 15.2806 
3.43682 -4.58323 15.5864 3.80983 -4.2787 15.5819 3.65338 -4.34738 15.2943 
4.08347 -3.97506 15.4049 4.38943 -3.68334 15.585 4.43373 -3.54135 15.2774 
4.38943 -3.68334 15.585 4.7052 -3.26687 15.5765 4.43373 -3.54135 15.2774 
4.7052 -3.26687 15.5765 4.89932 -2.96548 15.5799 4.77187 -3.06323 15.2722 
4.89932 -2.96548 15.5799 5.09707 -2.61445 15.583 5.06171 -2.57185 15.2928 
5.09707 -2.61445 15.583 5.323 -2.12969 15.6042 5.06171 -2.57185 15.2928 
5.42106 -1.76534 15.4202 5.51399 -1.54822 15.5819 5.54094 -1.23276 15.2935 
5.51399 -1.54822 15.5819 5.611 -1.15622 15.5826 5.54094 -1.23276 15.2935 
5.62125 -0.796 15.3046 5.69873 -0.617971 15.6018 5.669 -0.230747 15.2769 
5.69873 -0.617971 15.6018 5.72748 -0.100468 15.5764 5.669 -0.230747 15.2769 
5.72748 -0.100468 15.5764 5.71585 0.434966 15.6003 5.66301 0.38487 15.2893 
5.63851 0.928415 15.4748 5.55156 1.41067 15.5729 5.5022 1.39052 15.2903 
5.39382 1.77826 15.3109 5.39137 1.94789 15.6073 5.18476 2.31056 15.2853 
5.39137 1.94789 15.6073 5.19075 2.42104 15.5727 5.18476 2.31056 15.2853 
5.19075 2.42104 15.5727 5.02678 2.74586 15.5813 4.91073 2.8428 15.2869 
5.02678 2.74586 15.5813 4.80122 3.12462 15.58 4.91073 2.8428 15.2869 
4.80122 3.12462 15.58 4.60449 3.40686 15.5812 4.48359 3.47673 15.2839 
4.60449 3.40686 15.5812 4.35095 3.72818 15.5915 4.48359 3.47673 15.2839 
4.01327 4.08203 15.539 3.59896 4.45584 15.5735 3.60663 4.38567 15.2952 
3.59896 4.45584 15.5735 3.30492 4.67833 15.582 3.19685 4.6922 15.302 
3.30492 4.67833 15.582 2.95415 4.90976 15.5945 3.19685 4.6922 15.302 
2.60327 5.07223 15.4203 2.47481 5.16885 15.5988 2.11749 5.26221 15.2804 
2.47481 5.16885 15.5988 2.0323 5.35634 15.5829 2.11749 5.26221 15.2804 
1.69887 5.42646 15.3303 1.26621 5.58858 15.5844 1.28171 5.52681 15.2872 
1.26621 5.58858 15.5844 0.73477 5.68088 15.5771 0.92186 5.58383 15.2317 
0.73477 5.68088 15.5771 0.376066 5.71457 15.5801 0.476249 5.65168 15.2768 
-0.524763 5.70579 15.5814 -1.0207 5.63727 15.5784 -1.14315 5.56391 15.2999 
-1.0207 5.63727 15.5784 -1.43536 5.54418 15.5804 -1.14315 5.56391 15.2999 
-1.79859 5.39773 15.343 -2.26117 5.26457 15.5868 -2.06918 5.27611 15.2673 
-2.53366 5.0915 15.3316 -3.00873 4.87635 15.5825 -2.81956 4.917 15.2713 
-3.00873 4.87635 15.5825 -3.43682 4.58323 15.5864 -3.19179 4.68926 15.2806 
-3.43682 4.58323 15.5864 -3.80983 4.2787 15.5819 -3.65338 4.34738 15.2943 
-4.08347 3.97506 15.4049 -4.38943 3.68334 15.585 -4.43373 3.54135 15.2774 
-4.38943 3.68334 15.585 -4.7052 3.26687 15.5765 -4.43373 3.54135 15.2774 
-4.7052 3.26687 15.5765 -4.89932 2.96548 15.5799 -4.77187 3.06323 15.2722 
-4.89932 2.96548 15.5799 -5.09707 2.61445 15.583 -5.06171 2.57185 15.2928 
-5.09707 2.61445 15.583 -5.323 2.12969 15.6042 -5.06171 2.57185 15.2928 
-5.42106 1.76534 15.4202 -5.51399 1.54822 15.5819 -5.54094 1.23276 15.2935 
-5.51399 1.54822 15.5819 -5.611 1.15622 15.5826 -5.54094 1.23276 15.2935 
-5.6604 0.803293 15.496 -5.71325 0.401727 15.5697 -5.6682 0.234182 15.2736 
-5.71325 0.401727 15.5697 -5.72945 -0.11504 15.5834 -5.6682 0.234182 15.2736 
-5.66108 -0.395412 15.286 -5.63836 -0.928847 15.4745 -5.57585 -0.907942 15.2137 
-1.761 -5.42524 15.4196 -1.26367 -5.58045 15.5138 -1.52391 -5.43636 15.2009 
3.65338 -4.34738 15.2943 4.08347 -3.97506 15.4049 4.02247 -3.93289 15.1422 
5.26584 -2.09956 15.2718 5.42106 -1.76534 15.4202 5.3658 -1.64202 15.0915 
5.42106 -1.76534 15.4202 5.54094 -1.23276 15.2935 5.3658 -1.64202 15.0915 
5.66301 0.38487 15.2893 5.63851 0.928415 15.4748 5.57585 0.907942 15.2137 
4.24536 3.76128 15.2846 4.01327 4.08203 15.539 3.92118 4.05832 15.1938 
4.01327 4.08203 15.539 3.60663 4.38567 15.2952 3.92118 4.05832 15.1938 
2.91765 4.85882 15.2669 2.60327 5.07223 15.4203 2.47054 5.07482 15.195 
2.60327 5.07223 15.4203 2.11749 5.26221 15.2804 2.47054 5.07482 15.195 
-3.65338 4.34738 15.2943 -4.08347 3.97506 15.4049 -4.02247 3.93289 15.1422 
-5.26584 2.09956 15.2718 -5.42106 1.76534 15.4202 -5.36571 1.63674 15.0864 
-5.42106 1.76534 15.4202 -5.54094 1.23276 15.2935 -5.36571 1.63674 15.0864 
-5.54094 1.23276 15.2935 -5.6604 0.803293 15.496 -5.59542 0.769072 15.214 
-5.6682 0.234182 15.2736 -5.66108 -0.395412 15.286 -5.56749 -0.11975 14.9954 
-5.66108 -0.395412 15.286 -5.57585 -0.907942 15.2137 -5.51477 -0.732706 14.9789 
-5.57585 -0.907942 15.2137 -5.5022 -1.39052 15.2903 -5.42634 -1.25618 15.0017 
-5.5022 -1.39052 15.2903 -5.39614 -1.76922 15.3094 -5.27375 -1.77273 14.9772 
-5.39614 -1.76922 15.3094 -5.21549 -2.23068 15.2793 -5.27375 -1.77273 14.9772 
-4.93505 -2.70058 15.1422 -4.78018 -3.05811 15.2853 -4.6977 -2.98599 14.9898 
-4.78018 -3.05811 15.2853 -4.50807 -3.44957 15.2991 -4.47663 -3.31405 15.0017 
-4.50807 -3.44957 15.2991 -4.2932 -3.69984 15.2668 -4.2432 -3.60647 14.9954 
-4.2932 -3.69984 15.2668 -3.97776 -4.03385 15.2571 -3.89782 -3.98429 15.0032 
-3.97776 -4.03385 15.2571 -3.60586 -4.38628 15.295 -3.51982 -4.31534 14.9954 
-3.60586 -4.38628 15.295 -3.19685 -4.6922 15.302 -3.21275 -4.54988 15.0017 
-3.19685 -4.6922 15.302 -2.91765 -4.85882 15.2669 -2.89944 -4.75443 14.9954 
-2.91765 -4.85882 15.2669 -2.57177 -5.05758 15.287 -2.56329 -4.94497 15.0017 
-2.57177 -5.05758 15.287 -2.10758 -5.26697 15.2828 -2.20258 -5.12037 15.008 
-2.10758 -5.26697 15.2828 -1.52391 -5.43636 15.2009 -1.76158 -5.28958 15.0119 
-1.52391 -5.43636 15.2009 -0.965678 -5.5888 15.2793 -1.25499 -5.42878 15.0006 
-0.965678 -5.5888 15.2793 -0.496743 -5.65024 15.2794 -0.765239 -5.51595 14.9954 
-0.496743 -5.65024 15.2794 0.0592456 -5.69188 15.3455 -0.271007 -5.56725 15.009 
0.255641 -5.58975 15.0551 0.666966 -5.63346 15.2884 0.741674 -5.51669 14.9897 
0.666966 -5.63346 15.2884 0.992613 -5.58773 15.2942 0.741674 -5.51669 14.9897 
0.992613 -5.58773 15.2942 1.33269 -5.51271 15.2826 1.13234 -5.45353 15.0017 
1.33269 -5.51271 15.2826 1.79859 -5.39773 15.343 1.49568 -5.36417 14.9954 
1.79859 -5.39773 15.343 2.06918 -5.27611 15.2673 1.86439 -5.24855 15.0017 
2.06918 -5.27611 15.2673 2.5337 -5.09148 15.3316 2.21218 -5.11054 14.9954 
2.5337 -5.09148 15.3316 2.81916 -4.91708 15.2707 2.66905 -4.89846 15.0149 
2.81916 -4.91708 15.2707 3.19179 -4.68926 15.2806 3.10845 -4.62436 15.0034 
3.19179 -4.68926 15.2806 3.65338 -4.34738 15.2943 3.41509 -4.40004 15.0017 
4.02247 -3.93289 15.1422 4.43373 -3.54135 15.2774 4.21921 -3.63064 14.9893 
4.43373 -3.54135 15.2774 4.77187 -3.06323 15.2722 4.68719 -3.00692 14.9954 
4.77187 -3.06323 15.2722 5.06171 -2.57185 15.2928 4.94485 -2.56553 14.997 
5.06171 -2.57185 15.2928 5.26584 -2.09956 15.2718 5.15428 -2.10826 14.9954 
5.3658 -1.64202 15.0915 5.54094 -1.23276 15.2935 5.47536 -1.04966 15.0042 
5.54094 -1.23276 15.2935 5.62125 -0.796 15.3046 5.47536 -1.04966 15.0042 
5.62125 -0.796 15.3046 5.669 -0.230747 15.2769 5.55672 -0.387824 14.9962 
5.669 -0.230747 15.2769 5.66301 0.38487 15.2893 5.56749 0.11975 14.9954 
5.66301 0.38487 15.2893 5.57585 0.907942 15.2137 5.49933 0.876742 14.9954 
5.57585 0.907942 15.2137 5.5022 1.39052 15.2903 5.37565 1.47863 15.0039 
5.5022 1.39052 15.2903 5.39382 1.77826 15.3109 5.37565 1.47863 15.0039 
5.39382 1.77826 15.3109 5.18476 2.31056 15.2853 5.20475 1.98337 15.0017 
5.18476 2.31056 15.2853 4.91073 2.8428 15.2869 4.97942 2.46932 14.9653 
4.91073 2.8428 15.2869 4.70807 3.16305 15.2848 4.69475 2.9951 14.9954 
4.70807 3.16305 15.2848 4.48359 3.47673 15.2839 4.47663 3.31405 15.0017 
4.48359 3.47673 15.2839 4.24536 3.76128 15.2846 4.2432 3.60647 14.9954 
4.24536 3.76128 15.2846 3.92118 4.05832 15.1938 3.90678 3.98306 15.0166 
3.92118 4.05832 15.1938 3.60663 4.38567 15.2952 3.51675 4.32199 15.0034 
3.60663 4.38567 15.2952 3.19685 4.6922 15.302 3.21275 4.54988 15.0017 
3.19685 4.6922 15.302 2.91765 4.85882 15.2669 2.89944 4.75443 14.9954 
2.91765 4.85882 15.2669 2.47054 5.07482 15.195 2.46353 5.00394 15.0131 
2.47054 5.07482 15.195 2.11749 5.26221 15.2804 1.98539 5.20629 15.0034 
2.11749 5.26221 15.2804 1.69887 5.42646 15.3303 1.62528 5.32744 15.0017 
1.69887 5.42646 15.3303 1.28171 5.52681 15.2872 1.24258 5.42969 14.9983 
0.92186 5.58383 15.2317 0.476249 5.65168 15.2768 0.487217 5.54793 14.9957 
0.476249 5.65168 15.2768 -0.0597739 5.69353 15.3543 -0.0166685 5.57329 15.005 
-0.383217 5.61257 15.1422 -0.666966 5.63346 15.2884 -0.741509 5.51685 14.9898 
-0.666966 5.63346 15.2884 -1.14315 5.56391 15.2999 -0.741509 5.51685 14.9898 
-1.14315 5.56391 15.2999 -1.79859 5.39773 15.343 -1.35152 5.40369 14.9921 
-1.79859 5.39773 15.343 -2.06918 5.27611 15.2673 -1.86439 5.24855 15.0017 
-2.06918 5.27611 15.2673 -2.53366 5.0915 15.3316 -2.21218 5.11054 14.9954 
-2.53366 5.0915 15.3316 -2.81956 4.917 15.2713 -2.67419 4.89634 15.0163 
-2.81956 4.917 15.2713 -3.19179 4.68926 15.2806 -3.10845 4.62436 15.0034 
-3.19179 4.68926 15.2806 -3.65338 4.34738 15.2943 -3.41509 4.40004 15.0017 
-4.02247 3.93289 15.1422 -4.43373 3.54135 15.2774 -4.21921 3.63064 14.9893 
-4.43373 3.54135 15.2774 -4.77187 3.06323 15.2722 -4.68719 3.00692 14.9954 
-4.77187 3.06323 15.2722 -5.06171 2.57185 15.2928 -4.94485 2.56553 14.997 
-5.06171 2.57185 15.2928 -5.26584 2.09956 15.2718 -5.15428 2.10826 14.9954 
-5.36571 1.63674 15.0864 -5.54094 1.23276 15.2935 -5.38993 1.23392 14.9045 
-5.54094 1.23276 15.2935 -5.59542 0.769072 15.214 -5.50133 0.90036 15.0105 
-5.59542 0.769072 15.214 -5.6682 0.234182 15.2736 -5.55723 0.382161 14.9969 
-5.05303 -2.35132 15.005 -4.93505 -2.70058 15.1422 -4.8282 -2.6416 14.8657 
3.7228 -4.1476 15.005 4.02247 -3.93289 15.1422 3.93489 -3.84789 14.8657 
1.24258 5.42969 14.9983 0.92186 5.58383 15.2317 0.874436 5.43369 14.8657 
-0.0166685 5.57329 15.005 -0.383217 5.61257 15.1422 -0.374458 5.49085 14.8657 
-3.7228 4.1476 15.005 -4.02247 3.93289 15.1422 -3.93489 3.84789 14.8657 
-5.56749 -0.11975 14.9954 -5.51477 -0.732706 14.9789 -5.44241 -0.496964 14.7998 
-5.51477 -0.732706 14.9789 -5.42634 -1.25618 15.0017 -5.29998 -1.22822 14.7549 
-5.42634 -1.25618 15.0017 -5.27375 -1.77273 14.9772 -5.16799 -1.70327 14.75 
-5.27375 -1.77273 14.9772 -5.05303 -2.35132 15.005 -4.9373 -2.20522 14.6971 
-4.8282 -2.6416 14.8657 -4.6977 -2.98599 14.9898 -4.50461 -3.0895 14.7897 
-4.6977 -2.98599 14.9898 -4.47663 -3.31405 15.0017 -4.50461 -3.0895 14.7897 
-4.47663 -3.31405 15.0017 -4.2432 -3.60647 14.9954 -4.1181 -3.48706 14.68 
-4.2432 -3.60647 14.9954 -3.89782 -3.98429 15.0032 -3.81451 -3.89926 14.7755 
-3.89782 -3.98429 15.0032 -3.51982 -4.31534 14.9954 -3.443 -4.20252 14.7392 
-3.51982 -4.31534 14.9954 -3.21275 -4.54988 15.0017 -3.12842 -4.44541 14.7468 
-3.21275 -4.54988 15.0017 -2.89944 -4.75443 14.9954 -2.82808 -4.64334 14.7463 
-2.89944 -4.75443 14.9954 -2.56329 -4.94497 15.0017 -2.41733 -4.87747 14.7555 
-2.56329 -4.94497 15.0017 -2.20258 -5.12037 15.008 -2.41733 -4.87747 14.7555 
-2.20258 -5.12037 15.008 -1.76158 -5.28958 15.0119 -1.95466 -5.07166 14.7432 
-1.76158 -5.28958 15.0119 -1.25499 -5.42878 15.0006 -1.47158 -5.23245 14.7434 
-1.25499 -5.42878 15.0006 -0.765239 -5.51595 14.9954 -0.65408 -5.4056 14.7563 
-0.765239 -5.51595 14.9954 -0.271007 -5.56725 15.009 -0.65408 -5.4056 14.7563 
-0.271007 -5.56725 15.009 0.255641 -5.58975 15.0551 -0.0152766 -5.43675 14.7467 
0.374458 -5.49085 14.8657 0.741674 -5.51669 14.9897 0.87182 -5.37314 14.7551 
0.741674 -5.51669 14.9897 1.13234 -5.45353 15.0017 0.87182 -5.37314 14.7551 
1.13234 -5.45353 15.0017 1.49568 -5.36417 14.9954 1.46677 -5.23249 14.7415 
1.49568 -5.36417 14.9954 1.86439 -5.24855 15.0017 1.81973 -5.11499 14.7336 
1.86439 -5.24855 15.0017 2.21218 -5.11054 14.9954 2.15676 -4.98324 14.7341 
2.21218 -5.11054 14.9954 2.66905 -4.89846 15.0149 2.69039 -4.74305 14.7676 
2.66905 -4.89846 15.0149 3.10845 -4.62436 15.0034 2.69039 -4.74305 14.7676 
3.10845 -4.62436 15.0034 3.41509 -4.40004 15.0017 3.24751 -4.38273 14.7773 
3.41509 -4.40004 15.0017 3.7228 -4.1476 15.005 3.6285 -4.07784 14.7855 
3.93489 -3.84789 14.8657 4.21921 -3.63064 14.9893 4.21193 -3.43421 14.7399 
4.21921 -3.63064 14.9893 4.47556 -3.31549 15.0017 4.21193 -3.43421 14.7399 
4.47556 -3.31549 15.0017 4.68719 -3.00692 14.9954 4.56596 -2.94744 14.7424 
4.68719 -3.00692 14.9954 4.94485 -2.56553 14.997 4.8277 -2.51794 14.7573 
4.94485 -2.56553 14.997 5.15428 -2.10826 14.9954 5.05203 -2.06684 14.7855 
5.15428 -2.10826 14.9954 5.3658 -1.64202 15.0915 5.25979 -1.52751 14.814 
5.3658 -1.64202 15.0915 5.47536 -1.04966 15.0042 5.25979 -1.52751 14.814 
5.47536 -1.04966 15.0042 5.55672 -0.387824 14.9962 5.39317 -0.731655 14.7492 
5.55672 -0.387824 14.9962 5.56749 0.11975 14.9954 5.44863 -0.0110658 14.7662 
5.52129 0.455608 14.9321 5.49933 0.876742 14.9954 5.34313 0.825581 14.6969 
5.49933 0.876742 14.9954 5.37565 1.47863 15.0039 5.25966 1.3997 14.7515 
5.37565 1.47863 15.0039 5.20475 1.98337 15.0017 5.08314 1.93792 14.7543 
5.20475 1.98337 15.0017 4.97942 2.46932 14.9653 4.91269 2.40705 14.8033 
4.97942 2.46932 14.9653 4.69475 2.9951 14.9954 4.57199 2.92859 14.7333 
4.69475 2.9951 14.9954 4.47663 3.31405 15.0017 4.37179 3.23747 14.7543 
4.47663 3.31405 15.0017 4.2432 3.60647 14.9954 4.05388 3.62409 14.7434 
4.2432 3.60647 14.9954 3.90678 3.98306 15.0166 4.05388 3.62409 14.7434 
3.90678 3.98306 15.0166 3.51675 4.32199 15.0034 3.63933 4.06818 14.7855 
3.51675 4.32199 15.0034 3.21275 4.54988 15.0017 3.24517 4.39375 14.7912 
3.21275 4.54988 15.0017 2.89944 4.75443 14.9954 2.73472 4.71343 14.764 
2.89944 4.75443 14.9954 2.46353 5.00394 15.0131 2.73472 4.71343 14.764 
2.46353 5.00394 15.0131 1.98539 5.20629 15.0034 2.18132 5.00367 14.7856 
1.98539 5.20629 15.0034 1.62528 5.32744 15.0017 1.69422 5.12235 14.6768 
1.62528 5.32744 15.0017 1.24258 5.42969 14.9983 1.239 5.31599 14.7856 
0.874436 5.43369 14.8657 0.487217 5.54793 14.9957 0.465991 5.38029 14.688 
0.487217 5.54793 14.9957 -0.0166685 5.57329 15.005 0.00725762 5.45846 14.7856 
-0.374458 5.49085 14.8657 -0.741509 5.51685 14.9898 -0.737467 5.32789 14.6565 
-0.741509 5.51685 14.9898 -1.35152 5.40369 14.9921 -1.07132 5.2906 14.6858 
-1.35152 5.40369 14.9921 -1.86439 5.24855 15.0017 -1.84129 5.10977 14.7381 
-1.86439 5.24855 15.0017 -2.21218 5.11054 14.9954 -2.27906 4.94543 14.7577 
-2.21218 5.11054 14.9954 -2.67419 4.89634 15.0163 -2.27906 4.94543 14.7577 
-2.67419 4.89634 15.0163 -3.10845 4.62436 15.0034 -2.82993 4.66758 14.7855 
-3.10845 4.62436 15.0034 -3.41509 4.40004 15.0017 -3.24751 4.38273 14.7773 
-3.41509 4.40004 15.0017 -3.7228 4.1476 15.005 -3.6285 4.07784 14.7855 
-3.93489 3.84789 14.8657 -4.21921 3.63064 14.9893 -4.21786 3.42876 14.7422 
-4.21921 3.63064 14.9893 -4.47556 3.31549 15.0017 -4.21786 3.42876 14.7422 
-4.47556 3.31549 15.0017 -4.68719 3.00692 14.9954 -4.56596 2.94744 14.7424 
-4.68719 3.00692 14.9954 -4.94485 2.56553 14.997 -4.8277 2.51793 14.7573 
-4.94485 2.56553 14.997 -5.15428 2.10826 14.9954 -5.05203 2.06684 14.7855 
-5.15428 2.10826 14.9954 -5.36571 1.63674 15.0864 -5.18983 1.71244 14.7998 
-5.50133 0.90036 15.0105 -5.55723 0.382161 14.9969 -5.39619 0.619949 14.7366 
-5.55723 0.382161 14.9969 -5.56749 -0.11975 14.9954 -5.43741 0.0262399 14.7466 
-5.43741 0.0262399 14.7466 -5.44241 -0.496964 14.7998 -5.33513 -0.267201 14.6052 
-4.9373 -2.20522 14.6971 -4.8282 -2.6416 14.8657 -4.60924 -2.73049 14.6283 
-4.8282 -2.6416 14.8657 -4.50461 -3.0895 14.7897 -4.60924 -2.73049 14.6283 
-4.1181 -3.48706 14.68 -3.81451 -3.89926 14.7755 -3.819 -3.72809 14.6052 
-0.0152766 -5.43675 14.7467 0.374458 -5.49085 14.8657 0.307554 -5.33005 14.6047 
2.69039 -4.74305 14.7676 3.24751 -4.38273 14.7773 3.17243 -4.30192 14.612 
3.24751 -4.38273 14.7773 3.6285 -4.07784 14.7855 3.6715 -3.89528 14.6177 
3.6285 -4.07784 14.7855 3.93489 -3.84789 14.8657 3.6715 -3.89528 14.6177 
4.8277 -2.51794 14.7573 5.05203 -2.06684 14.7855 4.99515 -1.91686 14.6175 
5.05203 -2.06684 14.7855 5.25979 -1.52751 14.814 4.99515 -1.91686 14.6175 
5.39317 -0.731655 14.7492 5.44863 -0.0110658 14.7662 5.33491 -0.105527 14.5995 
5.44863 -0.0110658 14.7662 5.52129 0.455608 14.9321 5.31717 0.421789 14.5997 
5.08314 1.93792 14.7543 4.91269 2.40705 14.8033 4.80485 2.34292 14.6092 
4.05388 3.62409 14.7434 3.63933 4.06818 14.7855 3.50499 4.0305 14.6052 
3.63933 4.06818 14.7855 3.24517 4.39375 14.7912 3.50499 4.0305 14.6052 
3.24517 4.39375 14.7912 2.73472 4.71343 14.764 2.66599 4.62225 14.5974 
2.73472 4.71343 14.764 2.18132 5.00367 14.7856 2.13891 4.89141 14.6058 
1.69422 5.12235 14.6768 1.239 5.31599 14.7856 1.2284 5.19 14.598 
1.239 5.31599 14.7856 0.874436 5.43369 14.8657 0.853674 5.27068 14.6056 
0.465991 5.38029 14.688 0.00725762 5.45846 14.7856 -0.131787 5.34851 14.6151 
0.00725762 5.45846 14.7856 -0.374458 5.49085 14.8657 -0.131787 5.34851 14.6151 
-2.27906 4.94543 14.7577 -2.82993 4.66758 14.7855 -2.63919 4.63617 14.5956 
-2.82993 4.66758 14.7855 -3.24751 4.38273 14.7773 -3.17243 4.30192 14.612 
-3.24751 4.38273 14.7773 -3.6285 4.07784 14.7855 -3.67099 3.8972 14.6184 
-3.6285 4.07784 14.7855 -3.93489 3.84789 14.8657 -3.67099 3.8972 14.6184 
-4.8277 2.51793 14.7573 -5.05203 2.06684 14.7855 -4.99576 1.91708 14.6185 
-5.05203 2.06684 14.7855 -5.18983 1.71244 14.7998 -4.99576 1.91708 14.6185 
-5.18983 1.71244 14.7998 -5.38993 1.23392 14.9045 -5.20623 1.20516 14.6085 
-5.33943 -0.813869 14.6884 -5.29998 -1.22822 14.7549 -5.13334 -1.26221 14.5395 
-5.29998 -1.22822 14.7549 -5.16799 -1.70327 14.75 -5.13334 -1.26221 14.5395 
-4.9373 -2.20522 14.6971 -4.60924 -2.73049 14.6283 -4.67812 -2.38959 14.4997 
-3.819 -3.72809 14.6052 -3.81451 -3.89926 14.7755 -3.48748 -3.92262 14.4922 
-3.81451 -3.89926 14.7755 -3.443 -4.20252 14.7392 -3.48748 -3.92262 14.4922 
-3.443 -4.20252 14.7392 -3.12842 -4.44541 14.7468 -3.12747 -4.21494 14.4929 
-3.12842 -4.44541 14.7468 -2.82808 -4.64334 14.7463 -2.65066 -4.57872 14.5421 
-2.82808 -4.64334 14.7463 -2.41733 -4.87747 14.7555 -2.65066 -4.57872 14.5421 
-2.41733 -4.87747 14.7555 -1.95466 -5.07166 14.7432 -2.09084 -4.85379 14.5386 
-1.95466 -5.07166 14.7432 -1.47158 -5.23245 14.7434 -1.65287 -4.98143 14.4929 
-1.47158 -5.23245 14.7434 -1.09599 -5.32553 14.7498 -1.05872 -5.14445 14.4915 
-1.09599 -5.32553 14.7498 -0.65408 -5.4056 14.7563 -1.05872 -5.14445 14.4915 
0.307554 -5.33005 14.6047 0.87182 -5.37314 14.7551 0.679264 -5.25684 14.5587 
0.87182 -5.37314 14.7551 1.46677 -5.23249 14.7415 1.21707 -5.15581 14.5537 
1.46677 -5.23249 14.7415 1.81973 -5.11499 14.7336 1.68 -4.96395 14.4854 
1.81973 -5.11499 14.7336 2.15676 -4.98324 14.7341 2.05691 -4.83166 14.4977 
2.15676 -4.98324 14.7341 2.69039 -4.74305 14.7676 2.64631 -4.6389 14.6045 
3.6715 -3.89528 14.6177 4.21193 -3.43421 14.7399 4.02812 -3.4353 14.5506 
4.21193 -3.43421 14.7399 4.56596 -2.94744 14.7424 4.32381 -3.05478 14.5507 
4.56596 -2.94744 14.7424 4.8277 -2.51794 14.7573 4.668 -2.49771 14.5452 
5.34313 0.825581 14.6969 5.25966 1.3997 14.7515 5.13333 1.2622 14.5395 
5.25966 1.3997 14.7515 5.08314 1.93792 14.7543 4.98912 1.77079 14.5506 
4.80485 2.34292 14.6092 4.57199 2.92859 14.7333 4.51539 2.65176 14.4811 
4.57199 2.92859 14.7333 4.37179 3.23747 14.7543 4.24773 3.14393 14.5353 
4.37179 3.23747 14.7543 4.05388 3.62409 14.7434 4.24773 3.14393 14.5353 
-1.42942 5.19895 14.6726 -1.84129 5.10977 14.7381 -1.68338 4.9634 14.4862 
-1.84129 5.10977 14.7381 -2.27906 4.94543 14.7577 -2.10714 4.85664 14.5507 
-3.67099 3.8972 14.6184 -4.21786 3.42876 14.7422 -4.02812 3.4353 14.5506 
-4.21786 3.42876 14.7422 -4.56596 2.94744 14.7424 -4.32381 3.05478 14.5507 
-4.56596 2.94744 14.7424 -4.8277 2.51793 14.7573 -4.66791 2.49749 14.5449 
-5.20623 1.20516 14.6085 -5.39619 0.619949 14.7366 -5.2129 0.633759 14.4977 
-5.39619 0.619949 14.7366 -5.43741 0.0262399 14.7466 -5.28765 0.240915 14.5512 
-5.33513 -0.267201 14.6052 -5.33943 -0.813869 14.6884 -5.12728 -0.81307 14.432 
-5.33943 -0.813869 14.6884 -5.13334 -1.26221 14.5395 -5.12728 -0.81307 14.432 
-5.13334 -1.26221 14.5395 -4.91814 -1.85019 14.4985 -4.95511 -1.38202 14.3805 
-4.67812 -2.38959 14.4997 -4.60924 -2.73049 14.6283 -4.45173 -2.60057 14.3949 
-4.60924 -2.73049 14.6283 -4.32579 -3.11488 14.5946 -4.21943 -2.96797 14.3962 
-4.32579 -3.11488 14.5946 -4.1181 -3.48706 14.68 -3.83207 -3.44343 14.386 
-4.1181 -3.48706 14.68 -3.819 -3.72809 14.6052 -3.83207 -3.44343 14.386 
-3.12747 -4.21494 14.4929 -2.65066 -4.57872 14.5421 -2.58278 -4.44354 14.3744 
-2.65066 -4.57872 14.5421 -2.09084 -4.85379 14.5386 -2.05318 -4.71392 14.3807 
-1.05872 -5.14445 14.4915 -0.336037 -5.29603 14.5597 -0.395144 -5.13263 14.3844 
-0.336037 -5.29603 14.5597 0.307554 -5.33005 14.6047 0.213184 -5.1366 14.3796 
0.307554 -5.33005 14.6047 0.679264 -5.25684 14.5587 0.582276 -5.10885 14.3814 
0.679264 -5.25684 14.5587 1.21707 -5.15581 14.5537 1.10366 -5.03668 14.3914 
2.05691 -4.83166 14.4977 2.64631 -4.6389 14.6045 2.26719 -4.61803 14.3835 
2.64631 -4.6389 14.6045 3.17243 -4.30192 14.612 2.80739 -4.36499 14.4291 
3.17243 -4.30192 14.612 3.6715 -3.89528 14.6177 3.25413 -4.04625 14.4341 
3.6715 -3.89528 14.6177 4.02812 -3.4353 14.5506 3.66912 -3.61127 14.3825 
4.02812 -3.4353 14.5506 4.32381 -3.05478 14.5507 4.06865 -3.13811 14.3763 
4.32381 -3.05478 14.5507 4.668 -2.49771 14.5452 4.33438 -2.76931 14.3826 
4.668 -2.49771 14.5452 4.99515 -1.91686 14.6175 4.76231 -1.93861 14.3809 
4.99515 -1.91686 14.6175 5.14065 -1.25393 14.539 4.92685 -1.52846 14.3961 
5.18386 -0.633444 14.4615 5.33491 -0.105527 14.5995 5.15535 -0.202997 14.3968 
5.33491 -0.105527 14.5995 5.31717 0.421789 14.5997 5.17529 0.346968 14.4285 
5.31717 0.421789 14.5997 5.34313 0.825581 14.6969 5.12728 0.81307 14.432 
5.34313 0.825581 14.6969 5.13333 1.2622 14.5395 5.12728 0.81307 14.432 
5.13333 1.2622 14.5395 4.98912 1.77079 14.5506 4.95373 1.37945 14.3784 
4.98912 1.77079 14.5506 4.80485 2.34292 14.6092 4.71228 2.08105 14.3873 
4.51539 2.65176 14.4811 4.24773 3.14393 14.5353 4.16511 3.01536 14.3783 
4.24773 3.14393 14.5353 3.8706 3.61186 14.5507 3.84082 3.41967 14.3834 
3.8706 3.61186 14.5507 3.50499 4.0305 14.6052 3.49061 3.78299 14.384 
3.50499 4.0305 14.6052 3.08412 4.35607 14.6054 3.09251 4.16419 14.4285 
3.08412 4.35607 14.6054 2.66599 4.62225 14.5974 2.64292 4.48356 14.4451 
2.66599 4.62225 14.5974 2.13891 4.89141 14.6058 2.16706 4.66834 14.3858 
2.13891 4.89141 14.6058 1.69422 5.12235 14.6768 1.85278 4.85279 14.4369 
1.69422 5.12235 14.6768 1.2284 5.19 14.598 1.39989 4.95682 14.3877 
1.2284 5.19 14.598 0.853674 5.27068 14.6056 0.934268 5.06226 14.3862 
0.853674 5.27068 14.6056 0.465991 5.38029 14.688 0.370993 5.14089 14.3903 
0.465991 5.38029 14.688 -0.131787 5.34851 14.6151 0.370993 5.14089 14.3903 
-0.131787 5.34851 14.6151 -0.737467 5.32789 14.6565 -0.589889 5.15999 14.4374 
-0.737467 5.32789 14.6565 -1.07132 5.2906 14.6858 -1.03828 5.04886 14.3898 
-1.07132 5.2906 14.6858 -1.42942 5.19895 14.6726 -1.03828 5.04886 14.3898 
-1.68338 4.9634 14.4862 -2.10714 4.85664 14.5507 -1.94916 4.75473 14.3794 
-2.10714 4.85664 14.5507 -2.63919 4.63617 14.5956 -2.38905 4.55159 14.3779 
-2.63919 4.63617 14.5956 -3.17243 4.30192 14.612 -2.84954 4.28219 14.3819 
-3.17243 4.30192 14.612 -3.67099 3.8972 14.6184 -3.24193 3.99127 14.3804 
-3.67099 3.8972 14.6184 -4.02812 3.4353 14.5506 -3.68237 3.60148 14.3856 
-4.02812 3.4353 14.5506 -4.32381 3.05478 14.5507 -4.06554 3.14881 14.3811 
-4.32381 3.05478 14.5507 -4.66791 2.49749 14.5449 -4.33518 2.7778 14.3881 
-4.66791 2.49749 14.5449 -4.99576 1.91708 14.6185 -4.76057 1.94476 14.3817 
-4.99576 1.91708 14.6185 -5.20623 1.20516 14.6085 -4.92327 1.52837 14.3918 
-5.2129 0.633759 14.4977 -5.28765 0.240915 14.5512 -5.13292 0.345574 14.3835 
-5.28765 0.240915 14.5512 -5.33513 -0.267201 14.6052 -5.15729 -0.211061 14.3985 
-5.15729 -0.211061 14.3985 -5.12728 -0.81307 14.432 -4.97301 -0.781862 14.2818 
-4.95511 -1.38202 14.3805 -4.91814 -1.85019 14.4985 -4.60522 -2.03189 14.2783 
-4.91814 -1.85019 14.4985 -4.67812 -2.38959 14.4997 -4.60522 -2.03189 14.2783 
-3.83207 -3.44343 14.386 -3.48748 -3.92262 14.4922 -3.34424 -3.74473 14.2715 
-3.48748 -3.92262 14.4922 -3.12747 -4.21494 14.4929 -3.00259 -4.03206 14.2754 
-2.05318 -4.71392 14.3807 -1.65287 -4.98143 14.4929 -1.48689 -4.82778 14.2969 
-1.65287 -4.98143 14.4929 -1.05872 -5.14445 14.4915 -1.48689 -4.82778 14.2969 
1.10366 -5.03668 14.3914 1.68 -4.96395 14.4854 1.72745 -4.73414 14.2839 
1.68 -4.96395 14.4854 2.05691 -4.83166 14.4977 1.72745 -4.73414 14.2839 
2.26719 -4.61803 14.3835 2.80739 -4.36499 14.4291 2.69234 -4.24099 14.2711 
2.80739 -4.36499 14.4291 3.25413 -4.04625 14.4341 3.13292 -3.92576 14.2721 
4.92685 -1.52846 14.3961 5.14065 -1.25393 14.539 4.93297 -0.921777 14.2663 
5.15535 -0.202997 14.3968 5.17529 0.346968 14.4285 5.01856 0.231449 14.2713 
5.17529 0.346968 14.4285 5.12728 0.81307 14.432 4.96386 0.781009 14.2736 
4.95373 1.37945 14.3784 4.71228 2.08105 14.3873 4.60736 1.95892 14.258 
4.71228 2.08105 14.3873 4.51539 2.65176 14.4811 4.37101 2.48639 14.2784 
3.49061 3.78299 14.384 3.09251 4.16419 14.4285 2.9229 4.09663 14.2785 
3.09251 4.16419 14.4285 2.64292 4.48356 14.4451 2.9229 4.09663 14.2785 
2.16706 4.66834 14.3858 1.85278 4.85279 14.4369 1.73037 4.70423 14.2627 
-0.197985 5.13532 14.3775 -0.589889 5.15999 14.4374 -0.459311 4.99378 14.2665 
-1.03828 5.04886 14.3898 -1.68338 4.9634 14.4862 -1.45244 4.80805 14.271 
-5.04495 1.04221 14.3896 -5.2129 0.633759 14.4977 -4.97154 0.776766 14.28 
-4.97301 -0.781862 14.2818 -4.95511 -1.38202 14.3805 -4.78404 -1.34115 14.2293 
-4.60522 -2.03189 14.2783 -4.45173 -2.60057 14.3949 -4.31963 -2.46301 14.2343 
-4.45173 -2.60057 14.3949 -4.21943 -2.96797 14.3962 -4.01281 -2.94744 14.2368 
-4.21943 -2.96797 14.3962 -3.83207 -3.44343 14.386 -4.01281 -2.94744 14.2368 
-3.00259 -4.03206 14.2754 -2.58278 -4.44354 14.3744 -2.48983 -4.30559 14.2338 
-2.58278 -4.44354 14.3744 -2.05318 -4.71392 14.3807 -1.9832 -4.55821 14.2334 
-0.920531 -4.9501 14.2824 -0.395144 -5.13263 14.3844 -0.225675 -4.9696 14.2321 
-0.395144 -5.13263 14.3844 0.213184 -5.1366 14.3796 -0.225675 -4.9696 14.2321 
0.213184 -5.1366 14.3796 0.582276 -5.10885 14.3814 0.449023 -4.95062 14.2334 
0.582276 -5.10885 14.3814 1.10366 -5.03668 14.3914 1.06616 -4.85683 14.2311 
1.10366 -5.03668 14.3914 1.72745 -4.73414 14.2839 1.06616 -4.85683 14.2311 
1.72745 -4.73414 14.2839 2.26719 -4.61803 14.3835 2.1832 -4.46586 14.2334 
3.13292 -3.92576 14.2721 3.66912 -3.61127 14.3825 3.55128 -3.47599 14.23 
3.66912 -3.61127 14.3825 4.06865 -3.13811 14.3763 3.92561 -3.05179 14.2332 
4.06865 -3.13811 14.3763 4.33438 -2.76931 14.3826 4.09687 -2.64148 14.1582 
4.33438 -2.76931 14.3826 4.56483 -2.34938 14.3729 4.41342 -2.29037 14.2333 
4.56483 -2.34938 14.3729 4.76231 -1.93861 14.3809 4.60217 -1.87891 14.2334 
4.76231 -1.93861 14.3809 4.92685 -1.52846 14.3961 4.74612 -1.46948 14.2306 
5.18386 -0.633444 14.4615 5.15535 -0.202997 14.3968 4.95914 -0.342241 14.2334 
4.96386 0.781009 14.2736 4.95373 1.37945 14.3784 4.78136 1.34206 14.2275 
4.37101 2.48639 14.2784 4.16511 3.01536 14.3783 4.07 2.8381 14.2258 
4.16511 3.01536 14.3783 3.84082 3.41967 14.3834 3.68758 3.33054 14.2303 
3.84082 3.41967 14.3834 3.49061 3.78299 14.384 3.68758 3.33054 14.2303 
1.39989 4.95682 14.3877 0.934268 5.06226 14.3862 1.10489 4.83897 14.2271 
0.934268 5.06226 14.3862 0.370993 5.14089 14.3903 0.679877 4.92423 14.2334 
0.370993 5.14089 14.3903 -0.197985 5.13532 14.3775 0.151378 4.97051 14.2336 
-0.459311 4.99378 14.2665 -1.03828 5.04886 14.3898 -0.89736 4.88928 14.2334 
-1.45244 4.80805 14.271 -1.94916 4.75473 14.3794 -1.78871 4.63453 14.2303 
-1.94916 4.75473 14.3794 -2.38905 4.55159 14.3779 -2.28373 4.40229 14.2217 
-2.38905 4.55159 14.3779 -2.84954 4.28219 14.3819 -2.77096 4.127 14.2334 
-2.84954 4.28219 14.3819 -3.24193 3.99127 14.3804 -3.1115 3.87698 14.2331 
-3.24193 3.99127 14.3804 -3.68237 3.60148 14.3856 -3.54424 3.49219 14.2345 
-3.68237 3.60148 14.3856 -4.06554 3.14881 14.3811 -3.91122 3.06391 14.2306 
-4.06554 3.14881 14.3811 -4.33518 2.7778 14.3881 -4.23537 2.60851 14.2332 
-4.33518 2.7778 14.3881 -4.56221 2.35855 14.3748 -4.23537 2.60851 14.2332 
-4.56221 2.35855 14.3748 -4.76057 1.94476 14.3817 -4.51186 2.08125 14.2309 
-4.76057 1.94476 14.3817 -4.92327 1.52837 14.3918 -4.77761 1.44843 14.2469 
-4.92327 1.52837 14.3918 -5.04495 1.04221 14.3896 -4.77761 1.44843 14.2469 
-4.97154 0.776766 14.28 -5.13292 0.345574 14.3835 -4.95914 0.342241 14.2334 
-5.13292 0.345574 14.3835 -5.15729 -0.211061 14.3985 -5.01353 -0.231128 14.2681 
-5.01353 -0.231128 14.2681 -4.97301 -0.781862 14.2818 -4.77147 -0.441418 14.1051 
-4.97301 -0.781862 14.2818 -4.78404 -1.34115 14.2293 -4.66667 -1.11591 14.1072 
-4.78404 -1.34115 14.2293 -4.60522 -2.03189 14.2783 -4.45889 -1.77387 14.1099 
-4.60522 -2.03189 14.2783 -4.31963 -2.46301 14.2343 -4.25495 -2.20323 14.107 
-4.31963 -2.46301 14.2343 -4.01281 -2.94744 14.2368 -3.93969 -2.74181 14.1087 
-4.01281 -2.94744 14.2368 -3.635 -3.39073 14.2334 -3.51404 -3.24624 14.1016 
-3.635 -3.39073 14.2334 -3.34424 -3.74473 14.2715 -3.11932 -3.63932 14.1055 
-3.34424 -3.74473 14.2715 -3.00259 -4.03206 14.2754 -3.11932 -3.63932 14.1055 
-3.00259 -4.03206 14.2754 -2.48983 -4.30559 14.2338 -2.67893 -3.97825 14.1095 
-2.48983 -4.30559 14.2338 -1.9832 -4.55821 14.2334 -2.19386 -4.25323 14.1011 
-1.9832 -4.55821 14.2334 -1.48689 -4.82778 14.2969 -1.70931 -4.47352 14.1052 
-1.48689 -4.82778 14.2969 -0.920531 -4.9501 14.2824 -1.18718 -4.65433 14.1116 
-0.920531 -4.9501 14.2824 -0.225675 -4.9696 14.2321 -0.467051 -4.78876 14.1135 
-0.225675 -4.9696 14.2321 0.449023 -4.95062 14.2334 0.327826 -4.78086 14.1048 
0.449023 -4.95062 14.2334 1.06616 -4.85683 14.2311 0.930312 -4.70523 14.1079 
1.06616 -4.85683 14.2311 1.72745 -4.73414 14.2839 1.46023 -4.57114 14.1107 
1.72745 -4.73414 14.2839 2.1832 -4.46586 14.2334 1.88831 -4.40221 14.105 
2.1832 -4.46586 14.2334 2.69234 -4.24099 14.2711 2.39922 -4.14342 14.1027 
2.69234 -4.24099 14.2711 3.13292 -3.92576 14.2721 2.8437 -3.85714 14.1072 
3.13292 -3.92576 14.2721 3.55128 -3.47599 14.23 3.3084 -3.47583 14.1078 
3.55128 -3.47599 14.23 3.92561 -3.05179 14.2332 3.76225 -2.96564 14.1053 
4.09687 -2.64148 14.1582 4.41342 -2.29037 14.2333 4.33266 -2.06662 14.1092 
4.41342 -2.29037 14.2333 4.60217 -1.87891 14.2334 4.33266 -2.06662 14.1092 
4.60217 -1.87891 14.2334 4.74612 -1.46948 14.2306 4.57835 -1.41423 14.1063 
4.74612 -1.46948 14.2306 4.93297 -0.921777 14.2663 4.69774 -0.959075 14.1083 
4.93297 -0.921777 14.2663 4.95914 -0.342241 14.2334 4.76296 -0.433897 14.1 
4.95914 -0.342241 14.2334 5.01856 0.231449 14.2713 4.79129 0.187397 14.1067 
5.01856 0.231449 14.2713 4.96386 0.781009 14.2736 4.72598 0.801213 14.1054 
4.96386 0.781009 14.2736 4.78136 1.34206 14.2275 4.72598 0.801213 14.1054 
4.78136 1.34206 14.2275 4.60736 1.95892 14.258 4.46128 1.77295 14.1112 
4.60736 1.95892 14.258 4.37101 2.48639 14.2784 4.25994 2.21791 14.1135 
4.37101 2.48639 14.2784 4.07 2.8381 14.2258 3.99076 2.65625 14.1059 
4.07 2.8381 14.2258 3.68758 3.33054 14.2303 3.65003 3.09502 14.103 
3.29173 3.5804 14.1495 2.9229 4.09663 14.2785 2.87934 3.84362 14.112 
2.9229 4.09663 14.2785 2.35317 4.40869 14.2506 2.49878 4.10628 14.1162 
2.35317 4.40869 14.2506 1.73037 4.70423 14.2627 1.97 4.35985 14.1012 
1.73037 4.70423 14.2627 1.10489 4.83897 14.2271 1.32872 4.59052 14.0954 
1.10489 4.83897 14.2271 0.679877 4.92423 14.2334 0.560501 4.75371 14.1012 
0.679877 4.92423 14.2334 0.151378 4.97051 14.2336 0.560501 4.75371 14.1012 
0.151378 4.97051 14.2336 -0.459311 4.99378 14.2665 -0.100402 4.79604 14.1086 
-0.459311 4.99378 14.2665 -0.89736 4.88928 14.2334 -0.636799 4.75525 14.1105 
-0.89736 4.88928 14.2334 -1.45244 4.80805 14.271 -1.17228 4.64342 14.1035 
-1.45244 4.80805 14.271 -1.78871 4.63453 14.2303 -1.68797 4.48262 14.1055 
-1.78871 4.63453 14.2303 -2.28373 4.40229 14.2217 -2.19756 4.25876 14.1051 
-2.28373 4.40229 14.2217 -2.77096 4.127 14.2334 -2.66673 3.97738 14.1049 
-2.77096 4.127 14.2334 -3.1115 3.87698 14.2331 -3.0917 3.66497 14.1064 
-3.1115 3.87698 14.2331 -3.54424 3.49219 14.2345 -3.0917 3.66497 14.1064 
-3.54424 3.49219 14.2345 -3.91122 3.06391 14.2306 -3.76359 2.96712 14.1066 
-3.91122 3.06391 14.2306 -4.23537 2.60851 14.2332 -4.03966 2.58278 14.1088 
-4.23537 2.60851 14.2332 -4.51186 2.08125 14.2309 -4.25578 2.19233 14.1039 
-4.51186 2.08125 14.2309 -4.77761 1.44843 14.2469 -4.46846 1.6982 14.0985 
-4.77761 1.44843 14.2469 -4.97154 0.776766 14.28 -4.67792 1.12523 14.1165 
-4.97154 0.776766 14.28 -4.95914 0.342241 14.2334 -4.75437 0.548867 14.1022 
-4.95914 0.342241 14.2334 -5.01353 -0.231128 14.2681 -4.78814 0.103861 14.1055 
2.49878 4.10628 14.1162 2.35317 4.40869 14.2506 1.97 4.35985 14.1012 
-4.50898 -0.826821 13.9972 -4.54139 -0.624199 13.9972 -4.77147 -0.441418 14.1051 
-4.42262 -1.20929 13.9974 -4.46581 -1.03458 13.9972 -4.66667 -1.11591 14.1072 
-4.21424 -1.80409 13.997 -4.28334 -1.63304 13.9972 -4.45889 -1.77387 14.1099 
-4.45889 -1.77387 14.1099 -4.25495 -2.20323 14.107 -4.10297 -2.04693 13.9974 
-3.92442 -2.36812 13.9969 -4.02108 -2.20108 13.9972 -4.25495 -2.20323 14.107 
-3.2969 -3.18407 13.9966 -3.42057 -3.05181 13.9972 -3.51404 -3.24624 14.1016 
-3.51404 -3.24624 14.1016 -3.11932 -3.63932 14.1055 -3.11341 -3.36513 13.9972 
-2.82483 -3.61165 13.9976 -2.97315 -3.48915 13.9972 -3.11932 -3.63932 14.1055 
-3.11932 -3.63932 14.1055 -2.67893 -3.97825 14.1095 -2.62038 -3.7626 13.9975 
-2.67893 -3.97825 14.1095 -2.19386 -4.25323 14.1011 -2.29204 -3.96993 13.9972 
-1.9479 -4.15037 13.9973 -2.10898 -4.07014 13.9972 -2.19386 -4.25323 14.1011 
-2.19386 -4.25323 14.1011 -1.70931 -4.47352 14.1052 -1.71488 -4.25168 13.9972 
-1.35843 -4.37994 13.9978 -1.53512 -4.3194 13.9972 -1.70931 -4.47352 14.1052 
-0.7343 -4.52504 13.9972 -0.932659 -4.4882 13.9972 -1.18718 -4.65433 14.1116 
0.286778 -4.57264 13.9958 0.104348 -4.5829 13.9972 0.327826 -4.78086 14.1048 
0.919586 -4.49105 13.9972 0.727414 -4.526 13.9972 0.930312 -4.70523 14.1079 
1.89577 -4.17284 13.9966 1.73012 -4.24506 13.9972 1.88831 -4.40221 14.105 
1.88831 -4.40221 14.105 2.39922 -4.14342 14.1027 2.12608 -4.0615 13.9971 
2.45485 -3.87287 13.9976 2.29204 -3.96993 13.9972 2.39922 -4.14342 14.1027 
2.39922 -4.14342 14.1027 2.8437 -3.85714 14.1072 2.6673 -3.7287 13.9971 
2.97052 -3.49152 13.9972 2.81127 -3.62086 13.9972 2.8437 -3.85714 14.1072 
3.25865 -3.22443 13.9971 3.12888 -3.35021 13.9972 3.3084 -3.47583 14.1078 
3.66974 -2.74775 13.9971 3.47251 -2.99099 13.9961 3.76225 -2.96564 14.1053 
3.76225 -2.96564 14.1053 4.09687 -2.64148 14.1582 3.81919 -2.53694 13.9974 
4.01637 -2.21015 13.9972 3.91673 -2.38182 13.9972 4.09687 -2.64148 14.1582 
4.40742 -1.26363 13.9974 4.35323 -1.43639 13.9972 4.57835 -1.41423 14.1063 
4.57835 -1.41423 14.1063 4.69774 -0.959075 14.1083 4.47048 -1.0134 13.9969 
4.54012 -0.640612 13.9975 4.50827 -0.830252 13.9972 4.69774 -0.959075 14.1083 
4.76296 -0.433897 14.1 4.79129 0.187397 14.1067 4.58408 0 13.9972 
4.56651 0.388065 13.9964 4.57933 0.208643 13.9972 4.79129 0.187397 14.1067 
4.79129 0.187397 14.1067 4.72598 0.801213 14.1054 4.53998 0.640462 13.9974 
4.47099 1.0139 13.9972 4.50827 0.830252 13.9972 4.72598 0.801213 14.1054 
4.72598 0.801213 14.1054 4.58419 1.38421 14.1051 4.40675 1.26381 13.9971 
4.28596 1.62653 13.9972 4.35323 1.43639 13.9972 4.58419 1.38421 14.1051 
4.12941 1.99145 13.9972 4.20457 1.8263 13.9972 4.46128 1.77295 14.1112 
3.81648 2.53521 13.9959 3.91673 2.38182 13.9972 3.99076 2.65625 14.1059 
3.42976 3.04189 13.9972 3.62588 2.79411 13.9934 3.65003 3.09502 14.103 
3.65003 3.09502 14.103 3.29173 3.5804 14.1495 3.26084 3.22671 13.9985 
2.66726 3.72877 13.9972 2.81127 3.62086 13.9972 2.87934 3.84362 14.112 
2.87934 3.84362 14.112 2.49878 4.10628 14.1162 2.45438 3.87203 13.9972 
2.12602 4.06134 13.9971 2.29204 3.96993 13.9972 2.49878 4.10628 14.1162 
1.53848 4.31828 13.9972 1.73012 4.24506 13.9972 1.97 4.35985 14.1012 
1.16394 4.43358 13.9968 1.33693 4.3848 13.9972 1.32872 4.59052 14.0954 
0.544466 4.55158 13.9969 0.727414 4.526 13.9972 0.560501 4.75371 14.1012 
-0.0940894 4.58331 13.9972 0.104348 4.5829 13.9972 -0.100402 4.79604 14.1086 
-1.10939 4.44509 13.9957 -0.932659 4.4882 13.9972 -1.17228 4.64342 14.1035 
-1.68797 4.48262 14.1055 -2.19756 4.25876 14.1051 -1.94931 4.15311 13.9987 
-2.19756 4.25876 14.1051 -2.66673 3.97738 14.1049 -2.47036 3.8615 13.9972 
-2.62072 3.76312 13.9977 -2.47036 3.8615 13.9972 -2.66673 3.97738 14.1049 
-2.66673 3.97738 14.1049 -3.0917 3.66497 14.1064 -2.82471 3.61152 13.9975 
-3.11304 3.365 13.997 -2.97315 3.48915 13.9972 -3.0917 3.66497 14.1064 
-3.0917 3.66497 14.1064 -3.49094 3.27834 14.1053 -3.30557 3.17744 13.9973 
-3.78843 2.58127 13.997 -3.68391 2.72812 13.9972 -3.76359 2.96712 14.1066 
-4.10539 2.03893 13.9968 -4.02108 2.20108 13.9972 -4.25578 2.19233 14.1039 
-4.25578 2.19233 14.1039 -4.46846 1.6982 14.0985 -4.21571 1.80508 13.9978 
-4.34919 1.44918 13.9972 -4.28334 1.63304 13.9972 -4.46846 1.6982 14.0985 
-4.46846 1.6982 14.0985 -4.67792 1.12523 14.1165 -4.4259 1.21013 13.999 
-4.56348 0.445314 13.9974 -4.51822 0.746347 13.9946 -4.75437 0.548867 14.1022 
-4.75437 0.548867 14.1022 -4.78814 0.103861 14.1055 -4.58065 0.189245 13.9972 
-5.73885 0 20.5357 -5.72706 -0.367689 20.5357 -5.7329 -0.261201 15.8098 
-5.72706 -0.367689 20.5357 -5.72706 -0.367689 15.8098 -5.7329 -0.261201 15.8098 
-5.69173 -0.733867 20.5357 -5.68882 -0.759991 15.8093 -5.71507 -0.521861 15.8098 
-5.71507 -0.521861 15.8098 -5.72706 -0.367689 20.5357 -5.69173 -0.733867 20.5357 
-5.69173 -0.733867 20.5357 -5.63302 -1.09703 20.5357 -5.63985 -1.06465 15.8072 
-5.63985 -1.06465 15.8072 -5.68882 -0.759991 15.8093 -5.69173 -0.733867 20.5357 
-5.63302 -1.09703 20.5357 -5.55116 -1.45568 20.5357 -5.59078 -1.2952 15.8098 
-5.55116 -1.45568 20.5357 -5.53616 -1.51481 15.811 -5.59078 -1.2952 15.8098 
-5.55116 -1.45568 20.5357 -5.44816 -1.8033 15.8098 -5.53616 -1.51481 15.811 
-5.44816 -1.8033 15.8098 -5.55116 -1.45568 20.5357 -5.44649 -1.80836 20.5357 
-5.44649 -1.80836 20.5357 -5.31943 -2.1536 20.5357 -5.36234 -2.04442 15.8098 
-5.31943 -2.1536 20.5357 -5.31943 -2.1536 15.8098 -5.36234 -2.04442 15.8098 
-5.17052 -2.48999 20.5357 -5.16218 -2.50818 15.8105 -5.26374 -2.28636 15.8098 
-5.26374 -2.28636 15.8098 -5.31943 -2.1536 20.5357 -5.17052 -2.48999 20.5357 
-5.17052 -2.48999 20.5357 -5.00036 -2.81615 20.5357 -5.02033 -2.78182 15.8058 
-5.02033 -2.78182 15.8058 -5.16218 -2.50818 15.8105 -5.17052 -2.48999 20.5357 
-5.00036 -2.81615 20.5357 -4.80966 -3.13074 20.5357 -4.90338 -2.98181 15.8098 
-4.80966 -3.13074 20.5357 -4.78186 -3.17445 15.8096 -4.90338 -2.98181 15.8098 
-4.80966 -3.13074 20.5357 -4.60656 -3.42299 15.807 -4.78186 -3.17445 15.8096 
-4.60656 -3.42299 15.807 -4.80966 -3.13074 20.5357 -4.59919 -3.43246 20.5357 
-4.59919 -3.43246 20.5357 -4.36982 -3.72008 20.5357 -4.45169 -3.62172 15.8098 
-4.36982 -3.72008 20.5357 -4.36982 -3.72008 15.8098 -4.45169 -3.62172 15.8098 
-4.1225 -3.99242 20.5357 -4.1132 -4.00197 15.8098 -4.28223 -3.82058 15.8098 
-4.28223 -3.82058 15.8098 -4.36982 -3.72008 20.5357 -4.1225 -3.99242 20.5357 
-4.1225 -3.99242 20.5357 -3.85823 -4.24834 20.5357 -3.89377 -4.21679 15.8046 
-3.89377 -4.21679 15.8046 -4.1132 -4.00197 15.8098 -4.1225 -3.99242 20.5357 
-3.57811 -4.48681 20.5357 -3.54467 -4.51418 15.8117 -3.72211 -4.36809 15.8098 
-3.72211 -4.36809 15.8098 -3.85823 -4.24834 20.5357 -3.57811 -4.48681 20.5357 
-3.28329 -4.70684 20.5357 -3.29739 -4.69741 15.8104 -3.54467 -4.51418 15.8117 
-3.54467 -4.51418 15.8117 -3.57811 -4.48681 20.5357 -3.28329 -4.70684 20.5357 
-3.28329 -4.70684 20.5357 -2.97498 -4.90753 20.5357 -3.09266 -4.83424 15.8098 
-2.97498 -4.90753 20.5357 -2.97498 -4.90753 15.8098 -3.09266 -4.83424 15.8098 
-2.65444 -5.08806 20.5357 -2.64734 -5.09175 15.8098 -2.86942 -4.96999 15.8098 
-2.86942 -4.96999 15.8098 -2.97498 -4.90753 20.5357 -2.65444 -5.08806 20.5357 
-2.65444 -5.08806 20.5357 -2.32299 -5.24767 20.5357 -2.37379 -5.22571 15.8042 
-2.37379 -5.22571 15.8042 -2.64734 -5.09175 15.8098 -2.65444 -5.08806 20.5357 
-1.982 -5.38573 20.5357 -1.94819 -5.39874 15.8137 -2.16595 -5.31442 15.8098 
-2.16595 -5.31442 15.8098 -2.32299 -5.24767 20.5357 -1.982 -5.38573 20.5357 
-1.63286 -5.50165 20.5357 -1.67371 -5.48936 15.8098 -1.94819 -5.39874 15.8137 
-1.94819 -5.39874 15.8137 -1.982 -5.38573 20.5357 -1.63286 -5.50165 20.5357 
-1.63286 -5.50165 20.5357 -1.63286 -5.50165 15.8098 -1.67371 -5.48936 15.8098 
-1.63286 -5.50165 20.5357 -1.27701 -5.59496 20.5357 -1.42213 -5.55985 15.8098 
-1.27701 -5.59496 20.5357 -1.27701 -5.59496 15.8098 -1.42213 -5.55985 15.8098 
-0.915919 -5.66529 20.5357 -0.913282 -5.66577 15.8099 -1.1676 -5.61881 15.8098 
-1.1676 -5.61881 15.8098 -1.27701 -5.59496 20.5357 -0.915919 -5.66529 20.5357 
-0.915919 -5.66529 20.5357 -0.551061 -5.71233 20.5357 -0.614585 -5.70659 15.8088 
-0.614585 -5.70659 15.8088 -0.913282 -5.66577 15.8099 -0.915919 -5.66529 20.5357 
-0.183939 -5.7359 20.5357 -0.183939 -5.7359 15.8098 -0.391633 -5.72547 15.8098 
-0.391633 -5.72547 15.8098 -0.551061 -5.71233 20.5357 -0.183939 -5.7359 20.5357 
0.183939 -5.7359 20.5357 0.130635 -5.73736 15.8098 -0.130635 -5.73736 15.8098 
-0.130635 -5.73736 15.8098 -0.183939 -5.7359 20.5357 0.183939 -5.7359 20.5357 
0.183939 -5.7359 20.5357 0.183939 -5.7359 15.8098 0.130635 -5.73736 15.8098 
0.183939 -5.7359 20.5357 0.551061 -5.71233 20.5357 0.391633 -5.72547 15.8098 
0.551061 -5.71233 20.5357 0.616074 -5.7065 15.8102 0.391633 -5.72547 15.8098 
0.551061 -5.71233 20.5357 0.912935 -5.66583 15.8081 0.616074 -5.7065 15.8102 
0.912935 -5.66583 15.8081 0.551061 -5.71233 20.5357 0.915919 -5.66529 20.5357 
0.915919 -5.66529 20.5357 1.27701 -5.59496 20.5357 1.1676 -5.61881 15.8098 
1.27701 -5.59496 20.5357 1.27701 -5.59496 15.8098 1.1676 -5.61881 15.8098 
1.63286 -5.50165 20.5357 1.63286 -5.50165 15.8098 1.42213 -5.55985 15.8098 
1.42213 -5.55985 15.8098 1.27701 -5.59496 20.5357 1.63286 -5.50165 20.5357 
1.63286 -5.50165 20.5357 1.982 -5.38573 20.5357 1.94818 -5.39874 15.8129 
1.94818 -5.39874 15.8129 1.67371 -5.48936 15.8098 1.63286 -5.50165 20.5357 
1.982 -5.38573 20.5357 2.32299 -5.24767 20.5357 2.16595 -5.31442 15.8098 
2.32299 -5.24767 20.5357 2.37433 -5.22552 15.8238 2.16595 -5.31442 15.8098 
2.32299 -5.24767 20.5357 2.64564 -5.09285 15.7145 2.37433 -5.22552 15.8238 
2.64564 -5.09285 15.7145 2.32299 -5.24767 20.5357 2.65444 -5.08806 20.5357 
2.65444 -5.08806 20.5357 2.97498 -4.90753 20.5357 2.86942 -4.96999 15.8098 
2.97498 -4.90753 20.5357 2.97498 -4.90753 15.8098 2.86942 -4.96999 15.8098 
3.28329 -4.70684 20.5357 3.29739 -4.69741 15.8103 3.09266 -4.83424 15.8098 
3.09266 -4.83424 15.8098 2.97498 -4.90753 20.5357 3.28329 -4.70684 20.5357 
3.28329 -4.70684 20.5357 3.57811 -4.48681 20.5357 3.54466 -4.51419 15.8106 
3.54466 -4.51419 15.8106 3.29739 -4.69741 15.8103 3.28329 -4.70684 20.5357 
3.57811 -4.48681 20.5357 3.85823 -4.24834 20.5357 3.72211 -4.36809 15.8098 
3.85823 -4.24834 20.5357 3.89332 -4.2172 15.817 3.72211 -4.36809 15.8098 
4.1225 -3.99242 20.5357 4.11224 -4.00339 15.7134 3.89332 -4.2172 15.817 
3.89332 -4.2172 15.817 3.85823 -4.24834 20.5357 4.1225 -3.99242 20.5357 
4.1225 -3.99242 20.5357 4.36982 -3.72008 20.5357 4.28223 -3.82058 15.8098 
4.36982 -3.72008 20.5357 4.36982 -3.72008 15.8098 4.28223 -3.82058 15.8098 
4.59919 -3.43246 20.5357 4.60602 -3.4237 15.81 4.45169 -3.62172 15.8098 
4.45169 -3.62172 15.8098 4.36982 -3.72008 20.5357 4.59919 -3.43246 20.5357 
4.59919 -3.43246 20.5357 4.80966 -3.13074 20.5357 4.78239 -3.17359 15.8114 
4.78239 -3.17359 15.8114 4.60602 -3.4237 15.81 4.59919 -3.43246 20.5357 
5.00036 -2.81615 20.5357 5.02031 -2.78185 15.8163 4.90338 -2.98181 15.8098 
4.90338 -2.98181 15.8098 4.80966 -3.13074 20.5357 5.00036 -2.81615 20.5357 
5.17052 -2.48999 20.5357 5.16218 -2.50818 15.8107 5.02031 -2.78185 15.8163 
5.02031 -2.78185 15.8163 5.00036 -2.81615 20.5357 5.17052 -2.48999 20.5357 
5.17052 -2.48999 20.5357 5.31943 -2.1536 20.5357 5.26374 -2.28636 15.8098 
5.31943 -2.1536 20.5357 5.31943 -2.1536 15.8098 5.26374 -2.28636 15.8098 
5.44649 -1.80836 20.5357 5.44816 -1.8033 15.8098 5.36234 -2.04442 15.8098 
5.36234 -2.04442 15.8098 5.31943 -2.1536 20.5357 5.44649 -1.80836 20.5357 
5.44649 -1.80836 20.5357 5.55116 -1.45568 20.5357 5.53648 -1.51339 15.8032 
5.53648 -1.51339 15.8032 5.44816 -1.8033 15.8098 5.44649 -1.80836 20.5357 
5.63302 -1.09703 20.5357 5.63985 -1.06469 15.8137 5.59078 -1.2952 15.8098 
5.59078 -1.2952 15.8098 5.55116 -1.45568 20.5357 5.63302 -1.09703 20.5357 
5.69173 -0.733867 20.5357 5.68882 -0.76001 15.809 5.63985 -1.06469 15.8137 
5.63985 -1.06469 15.8137 5.63302 -1.09703 20.5357 5.69173 -0.733867 20.5357 
5.69173 -0.733867 20.5357 5.72706 -0.367689 20.5357 5.71507 -0.521861 15.8098 
5.72706 -0.367689 20.5357 5.72706 -0.367689 15.8098 5.71507 -0.521861 15.8098 
5.73885 0 20.5357 5.73885 0 15.8098 5.7329 -0.261201 15.8098 
5.7329 -0.261201 15.8098 5.72706 -0.367689 20.5357 5.73885 0 20.5357 
5.73885 0 20.5357 5.72706 0.367689 20.5357 5.7329 0.261201 15.8098 
5.72706 0.367689 20.5357 5.72706 0.367689 15.8098 5.7329 0.261201 15.8098 
5.69173 0.733867 20.5357 5.68882 0.759991 15.8093 5.71507 0.521861 15.8098 
5.71507 0.521861 15.8098 5.72706 0.367689 20.5357 5.69173 0.733867 20.5357 
5.69173 0.733867 20.5357 5.63302 1.09703 20.5357 5.63985 1.06465 15.8072 
5.63985 1.06465 15.8072 5.68882 0.759991 15.8093 5.69173 0.733867 20.5357 
5.63302 1.09703 20.5357 5.55116 1.45568 20.5357 5.59078 1.2952 15.8098 
5.55116 1.45568 20.5357 5.53616 1.51481 15.811 5.59078 1.2952 15.8098 
5.55116 1.45568 20.5357 5.44816 1.8033 15.8098 5.53616 1.51481 15.811 
5.44816 1.8033 15.8098 5.55116 1.45568 20.5357 5.44649 1.80836 20.5357 
5.44649 1.80836 20.5357 5.31943 2.1536 20.5357 5.36234 2.04442 15.8098 
5.31943 2.1536 20.5357 5.31943 2.1536 15.8098 5.36234 2.04442 15.8098 
5.17052 2.48999 20.5357 5.16218 2.50818 15.8105 5.26374 2.28636 15.8098 
5.26374 2.28636 15.8098 5.31943 2.1536 20.5357 5.17052 2.48999 20.5357 
5.17052 2.48999 20.5357 5.00036 2.81615 20.5357 5.02033 2.78182 15.8053 
5.02033 2.78182 15.8053 5.16218 2.50818 15.8105 5.17052 2.48999 20.5357 
5.00036 2.81615 20.5357 4.80966 3.13074 20.5357 4.90338 2.98181 15.8098 
4.80966 3.13074 20.5357 4.78189 3.1744 15.8132 4.90338 2.98181 15.8098 
4.80966 3.13074 20.5357 4.60656 3.42299 15.807 4.78189 3.1744 15.8132 
4.60656 3.42299 15.807 4.80966 3.13074 20.5357 4.59919 3.43246 20.5357 
4.59919 3.43246 20.5357 4.36982 3.72008 20.5357 4.45169 3.62172 15.8098 
4.36982 3.72008 20.5357 4.36982 3.72008 15.8098 4.45169 3.62172 15.8098 
4.1225 3.99242 20.5357 4.1132 4.00197 15.8098 4.28223 3.82058 15.8098 
4.28223 3.82058 15.8098 4.36982 3.72008 20.5357 4.1225 3.99242 20.5357 
4.1225 3.99242 20.5357 3.85823 4.24834 20.5357 3.89323 4.21728 15.8055 
3.89323 4.21728 15.8055 4.1132 4.00197 15.8098 4.1225 3.99242 20.5357 
3.57811 4.48681 20.5357 3.54467 4.51418 15.8117 3.72211 4.36809 15.8098 
3.72211 4.36809 15.8098 3.85823 4.24834 20.5357 3.57811 4.48681 20.5357 
3.28329 4.70684 20.5357 3.29739 4.69741 15.8104 3.54467 4.51418 15.8117 
3.54467 4.51418 15.8117 3.57811 4.48681 20.5357 3.28329 4.70684 20.5357 
3.28329 4.70684 20.5357 2.97498 4.90753 20.5357 3.09266 4.83424 15.8098 
2.97498 4.90753 20.5357 2.97498 4.90753 15.8098 3.09266 4.83424 15.8098 
2.65444 5.08806 20.5357 2.64734 5.09175 15.8098 2.86942 4.96999 15.8098 
2.86942 4.96999 15.8098 2.97498 4.90753 20.5357 2.65444 5.08806 20.5357 
2.65444 5.08806 20.5357 2.32299 5.24767 20.5357 2.37379 5.22571 15.8042 
2.37379 5.22571 15.8042 2.64734 5.09175 15.8098 2.65444 5.08806 20.5357 
1.982 5.38573 20.5357 1.94819 5.39874 15.8137 2.16595 5.31442 15.8098 
2.16595 5.31442 15.8098 2.32299 5.24767 20.5357 1.982 5.38573 20.5357 
1.63286 5.50165 20.5357 1.67371 5.48936 15.8098 1.94819 5.39874 15.8137 
1.94819 5.39874 15.8137 1.982 5.38573 20.5357 1.63286 5.50165 20.5357 
1.63286 5.50165 20.5357 1.63286 5.50165 15.8098 1.67371 5.48936 15.8098 
1.63286 5.50165 20.5357 1.27701 5.59496 20.5357 1.42213 5.55985 15.8098 
1.27701 5.59496 20.5357 1.27701 5.59496 15.8098 1.42213 5.55985 15.8098 
0.915919 5.66529 20.5357 0.913282 5.66577 15.8099 1.1676 5.61881 15.8098 
1.1676 5.61881 15.8098 1.27701 5.59496 20.5357 0.915919 5.66529 20.5357 
0.915919 5.66529 20.5357 0.551061 5.71233 20.5357 0.614585 5.70659 15.8088 
0.614585 5.70659 15.8088 0.913282 5.66577 15.8099 0.915919 5.66529 20.5357 
0.183939 5.7359 20.5357 0.183939 5.7359 15.8098 0.391633 5.72547 15.8098 
0.391633 5.72547 15.8098 0.551061 5.71233 20.5357 0.183939 5.7359 20.5357 
0.183939 5.7359 20.5357 -0.183939 5.7359 20.5357 -0.130635 5.73736 15.8098 
-0.130635 5.73736 15.8098 0.130635 5.73736 15.8098 0.183939 5.7359 20.5357 
-0.183939 5.7359 20.5357 -0.183939 5.7359 15.8098 -0.130635 5.73736 15.8098 
-0.183939 5.7359 20.5357 -0.551061 5.71233 20.5357 -0.391633 5.72547 15.8098 
-0.551061 5.71233 20.5357 -0.616074 5.7065 15.8102 -0.391633 5.72547 15.8098 
-0.551061 5.71233 20.5357 -0.912935 5.66583 15.8081 -0.616074 5.7065 15.8102 
-0.912935 5.66583 15.8081 -0.551061 5.71233 20.5357 -0.915919 5.66529 20.5357 
-0.915919 5.66529 20.5357 -1.27701 5.59496 20.5357 -1.1676 5.61881 15.8098 
-1.27701 5.59496 20.5357 -1.27701 5.59496 15.8098 -1.1676 5.61881 15.8098 
-1.63286 5.50165 20.5357 -1.63286 5.50165 15.8098 -1.42213 5.55985 15.8098 
-1.42213 5.55985 15.8098 -1.27701 5.59496 20.5357 -1.63286 5.50165 20.5357 
-1.63286 5.50165 20.5357 -1.982 5.38573 20.5357 -1.94818 5.39874 15.8129 
-1.94818 5.39874 15.8129 -1.67371 5.48936 15.8098 -1.63286 5.50165 20.5357 
-1.982 5.38573 20.5357 -2.32299 5.24767 20.5357 -2.16595 5.31442 15.8098 
-2.32299 5.24767 20.5357 -2.37433 5.22552 15.8238 -2.16595 5.31442 15.8098 
-2.32299 5.24767 20.5357 -2.64564 5.09285 15.7145 -2.37433 5.22552 15.8238 
-2.64564 5.09285 15.7145 -2.32299 5.24767 20.5357 -2.65444 5.08806 20.5357 
-2.65444 5.08806 20.5357 -2.97498 4.90753 20.5357 -2.86942 4.96999 15.8098 
-2.97498 4.90753 20.5357 -2.97498 4.90753 15.8098 -2.86942 4.96999 15.8098 
-3.28329 4.70684 20.5357 -3.29739 4.69741 15.8103 -3.09266 4.83424 15.8098 
-3.09266 4.83424 15.8098 -2.97498 4.90753 20.5357 -3.28329 4.70684 20.5357 
-3.28329 4.70684 20.5357 -3.57811 4.48681 20.5357 -3.54466 4.51419 15.8106 
-3.54466 4.51419 15.8106 -3.29739 4.69741 15.8103 -3.28329 4.70684 20.5357 
-3.57811 4.48681 20.5357 -3.85823 4.24834 20.5357 -3.72211 4.36809 15.8098 
-3.85823 4.24834 20.5357 -3.89332 4.2172 15.817 -3.72211 4.36809 15.8098 
-4.1225 3.99242 20.5357 -4.11224 4.00339 15.7134 -3.89332 4.2172 15.817 
-3.89332 4.2172 15.817 -3.85823 4.24834 20.5357 -4.1225 3.99242 20.5357 
-4.1225 3.99242 20.5357 -4.36982 3.72008 20.5357 -4.28223 3.82058 15.8098 
-4.36982 3.72008 20.5357 -4.36982 3.72008 15.8098 -4.28223 3.82058 15.8098 
-4.59919 3.43246 20.5357 -4.60602 3.4237 15.81 -4.45169 3.62172 15.8098 
-4.45169 3.62172 15.8098 -4.36982 3.72008 20.5357 -4.59919 3.43246 20.5357 
-4.59919 3.43246 20.5357 -4.80966 3.13074 20.5357 -4.78239 3.17359 15.8114 
-4.78239 3.17359 15.8114 -4.60602 3.4237 15.81 -4.59919 3.43246 20.5357 
-5.00036 2.81615 20.5357 -5.02031 2.78185 15.8163 -4.90338 2.98181 15.8098 
-4.90338 2.98181 15.8098 -4.80966 3.13074 20.5357 -5.00036 2.81615 20.5357 
-5.17052 2.48999 20.5357 -5.16218 2.50818 15.8107 -5.02031 2.78185 15.8163 
-5.02031 2.78185 15.8163 -5.00036 2.81615 20.5357 -5.17052 2.48999 20.5357 
-5.17052 2.48999 20.5357 -5.31943 2.1536 20.5357 -5.26374 2.28636 15.8098 
-5.31943 2.1536 20.5357 -5.31943 2.1536 15.8098 -5.26374 2.28636 15.8098 
-5.44649 1.80836 20.5357 -5.44816 1.8033 15.8098 -5.36234 2.04442 15.8098 
-5.36234 2.04442 15.8098 -5.31943 2.1536 20.5357 -5.44649 1.80836 20.5357 
-5.44649 1.80836 20.5357 -5.55116 1.45568 20.5357 -5.53648 1.51339 15.8032 
-5.53648 1.51339 15.8032 -5.44816 1.8033 15.8098 -5.44649 1.80836 20.5357 
-5.63302 1.09703 20.5357 -5.63985 1.06469 15.8137 -5.59078 1.2952 15.8098 
-5.59078 1.2952 15.8098 -5.55116 1.45568 20.5357 -5.63302 1.09703 20.5357 
-5.69173 0.733867 20.5357 -5.68882 0.76001 15.809 -5.63985 1.06469 15.8137 
-5.63985 1.06469 15.8137 -5.63302 1.09703 20.5357 -5.69173 0.733867 20.5357 
-5.69173 0.733867 20.5357 -5.72706 0.367689 20.5357 -5.71507 0.521861 15.8098 
-5.72706 0.367689 20.5357 -5.72706 0.367689 15.8098 -5.71507 0.521861 15.8098 
-5.73885 0 20.5357 -5.73885 0 15.8098 -5.7329 0.261201 15.8098 
-5.7329 0.261201 15.8098 -5.72706 0.367689 20.5357 -5.73885 0 20.5357 
-5.7329 0.261201 15.8098 -5.72706 0.367689 15.8098 -5.72706 0.367689 20.5357 
-5.71507 0.521861 15.8098 -5.68882 0.76001 15.809 -5.69173 0.733867 20.5357 
-5.59078 1.2952 15.8098 -5.53648 1.51339 15.8032 -5.55116 1.45568 20.5357 
-5.36234 2.04442 15.8098 -5.31943 2.1536 15.8098 -5.31943 2.1536 20.5357 
-5.26374 2.28636 15.8098 -5.16218 2.50818 15.8107 -5.17052 2.48999 20.5357 
-4.90338 2.98181 15.8098 -4.78239 3.17359 15.8114 -4.80966 3.13074 20.5357 
-4.45169 3.62172 15.8098 -4.36982 3.72008 15.8098 -4.36982 3.72008 20.5357 
-4.28223 3.82058 15.8098 -4.11224 4.00339 15.7134 -4.1225 3.99242 20.5357 
-3.72211 4.36809 15.8098 -3.54466 4.51419 15.8106 -3.57811 4.48681 20.5357 
-3.09266 4.83424 15.8098 -2.97498 4.90753 15.8098 -2.97498 4.90753 20.5357 
-2.86942 4.96999 15.8098 -2.64564 5.09285 15.7145 -2.65444 5.08806 20.5357 
-2.16595 5.31442 15.8098 -1.94818 5.39874 15.8129 -1.982 5.38573 20.5357 
-1.67371 5.48936 15.8098 -1.63286 5.50165 15.8098 -1.63286 5.50165 20.5357 
-1.42213 5.55985 15.8098 -1.27701 5.59496 15.8098 -1.27701 5.59496 20.5357 
-1.1676 5.61881 15.8098 -0.912935 5.66583 15.8081 -0.915919 5.66529 20.5357 
-0.391633 5.72547 15.8098 -0.183939 5.7359 15.8098 -0.183939 5.7359 20.5357 
0.130635 5.73736 15.8098 0.183939 5.7359 15.8098 0.183939 5.7359 20.5357 
0.391633 5.72547 15.8098 0.614585 5.70659 15.8088 0.551061 5.71233 20.5357 
1.1676 5.61881 15.8098 1.27701 5.59496 15.8098 1.27701 5.59496 20.5357 
1.42213 5.55985 15.8098 1.63286 5.50165 15.8098 1.63286 5.50165 20.5357 
2.16595 5.31442 15.8098 2.37379 5.22571 15.8042 2.32299 5.24767 20.5357 
2.86942 4.96999 15.8098 2.97498 4.90753 15.8098 2.97498 4.90753 20.5357 
3.09266 4.83424 15.8098 3.29739 4.69741 15.8104 3.28329 4.70684 20.5357 
3.72211 4.36809 15.8098 3.89323 4.21728 15.8055 3.85823 4.24834 20.5357 
4.28223 3.82058 15.8098 4.36982 3.72008 15.8098 4.36982 3.72008 20.5357 
4.45169 3.62172 15.8098 4.60656 3.42299 15.807 4.59919 3.43246 20.5357 
4.90338 2.98181 15.8098 5.02033 2.78182 15.8053 5.00036 2.81615 20.5357 
5.26374 2.28636 15.8098 5.31943 2.1536 15.8098 5.31943 2.1536 20.5357 
5.36234 2.04442 15.8098 5.44816 1.8033 15.8098 5.44649 1.80836 20.5357 
5.59078 1.2952 15.8098 5.63985 1.06465 15.8072 5.63302 1.09703 20.5357 
5.71507 0.521861 15.8098 5.72706 0.367689 15.8098 5.72706 0.367689 20.5357 
5.7329 0.261201 15.8098 5.73885 0 15.8098 5.73885 0 20.5357 
5.7329 -0.261201 15.8098 5.72706 -0.367689 15.8098 5.72706 -0.367689 20.5357 
5.71507 -0.521861 15.8098 5.68882 -0.76001 15.809 5.69173 -0.733867 20.5357 
5.59078 -1.2952 15.8098 5.53648 -1.51339 15.8032 5.55116 -1.45568 20.5357 
5.36234 -2.04442 15.8098 5.31943 -2.1536 15.8098 5.31943 -2.1536 20.5357 
5.26374 -2.28636 15.8098 5.16218 -2.50818 15.8107 5.17052 -2.48999 20.5357 
4.90338 -2.98181 15.8098 4.78239 -3.17359 15.8114 4.80966 -3.13074 20.5357 
4.45169 -3.62172 15.8098 4.36982 -3.72008 15.8098 4.36982 -3.72008 20.5357 
4.28223 -3.82058 15.8098 4.11224 -4.00339 15.7134 4.1225 -3.99242 20.5357 
3.72211 -4.36809 15.8098 3.54466 -4.51419 15.8106 3.57811 -4.48681 20.5357 
3.09266 -4.83424 15.8098 2.97498 -4.90753 15.8098 2.97498 -4.90753 20.5357 
2.86942 -4.96999 15.8098 2.64564 -5.09285 15.7145 2.65444 -5.08806 20.5357 
2.16595 -5.31442 15.8098 1.94818 -5.39874 15.8129 1.982 -5.38573 20.5357 
1.67371 -5.48936 15.8098 1.63286 -5.50165 15.8098 1.63286 -5.50165 20.5357 
1.42213 -5.55985 15.8098 1.27701 -5.59496 15.8098 1.27701 -5.59496 20.5357 
1.1676 -5.61881 15.8098 0.912935 -5.66583 15.8081 0.915919 -5.66529 20.5357 
0.391633 -5.72547 15.8098 0.183939 -5.7359 15.8098 0.183939 -5.7359 20.5357 
-0.130635 -5.73736 15.8098 -0.183939 -5.7359 15.8098 -0.183939 -5.7359 20.5357 
-0.391633 -5.72547 15.8098 -0.614585 -5.70659 15.8088 -0.551061 -5.71233 20.5357 
-1.1676 -5.61881 15.8098 -1.27701 -5.59496 15.8098 -1.27701 -5.59496 20.5357 
-1.42213 -5.55985 15.8098 -1.63286 -5.50165 15.8098 -1.63286 -5.50165 20.5357 
-2.16595 -5.31442 15.8098 -2.37379 -5.22571 15.8042 -2.32299 -5.24767 20.5357 
-2.86942 -4.96999 15.8098 -2.97498 -4.90753 15.8098 -2.97498 -4.90753 20.5357 
-3.09266 -4.83424 15.8098 -3.29739 -4.69741 15.8104 -3.28329 -4.70684 20.5357 
-3.72211 -4.36809 15.8098 -3.89377 -4.21679 15.8046 -3.85823 -4.24834 20.5357 
-4.28223 -3.82058 15.8098 -4.36982 -3.72008 15.8098 -4.36982 -3.72008 20.5357 
-4.45169 -3.62172 15.8098 -4.60656 -3.42299 15.807 -4.59919 -3.43246 20.5357 
-4.90338 -2.98181 15.8098 -5.02033 -2.78182 15.8058 -5.00036 -2.81615 20.5357 
-5.26374 -2.28636 15.8098 -5.31943 -2.1536 15.8098 -5.31943 -2.1536 20.5357 
-5.36234 -2.04442 15.8098 -5.44816 -1.8033 15.8098 -5.44649 -1.80836 20.5357 
-5.59078 -1.2952 15.8098 -5.63985 -1.06465 15.8072 -5.63302 -1.09703 20.5357 
-5.71507 -0.521861 15.8098 -5.72706 -0.367689 15.8098 -5.72706 -0.367689 20.5357 
-5.7329 -0.261201 15.8098 -5.73885 0 15.8098 -5.73885 0 20.5357 
1.27701 5.59496 20.5357 5.72706 -0.367689 20.5357 5.69173 -0.733867 20.5357 
5.69173 -0.733867 20.5357 5.63302 -1.09703 20.5357 1.27701 5.59496 20.5357 
5.63302 -1.09703 20.5357 5.55116 -1.45568 20.5357 1.27701 5.59496 20.5357 
5.55116 -1.45568 20.5357 5.44649 -1.80836 20.5357 1.27701 5.59496 20.5357 
5.44649 -1.80836 20.5357 5.31943 -2.1536 20.5357 1.27701 5.59496 20.5357 
5.31943 -2.1536 20.5357 5.17052 -2.48999 20.5357 1.27701 5.59496 20.5357 
5.17052 -2.48999 20.5357 5.00036 -2.81615 20.5357 1.27701 5.59496 20.5357 
5.00036 -2.81615 20.5357 4.80966 -3.13074 20.5357 1.27701 5.59496 20.5357 
4.80966 -3.13074 20.5357 4.59919 -3.43246 20.5357 1.27701 5.59496 20.5357 
4.59919 -3.43246 20.5357 4.36982 -3.72008 20.5357 1.27701 5.59496 20.5357 
4.36982 -3.72008 20.5357 4.1225 -3.99242 20.5357 1.27701 5.59496 20.5357 
4.1225 -3.99242 20.5357 3.85823 -4.24834 20.5357 1.27701 5.59496 20.5357 
3.85823 -4.24834 20.5357 3.57811 -4.48681 20.5357 1.27701 5.59496 20.5357 
3.57811 -4.48681 20.5357 3.28329 -4.70684 20.5357 1.27701 5.59496 20.5357 
3.28329 -4.70684 20.5357 2.97498 -4.90753 20.5357 1.27701 5.59496 20.5357 
2.97498 -4.90753 20.5357 2.65444 -5.08806 20.5357 1.27701 5.59496 20.5357 
2.65444 -5.08806 20.5357 2.32299 -5.24767 20.5357 1.27701 5.59496 20.5357 
2.32299 -5.24767 20.5357 1.982 -5.38573 20.5357 1.27701 5.59496 20.5357 
1.982 -5.38573 20.5357 1.63286 -5.50165 20.5357 1.27701 5.59496 20.5357 
1.63286 -5.50165 20.5357 1.27701 -5.59496 20.5357 1.27701 5.59496 20.5357 
1.27701 -5.59496 20.5357 0.915919 -5.66529 20.5357 1.27701 5.59496 20.5357 
0.915919 -5.66529 20.5357 0.551061 -5.71233 20.5357 1.27701 5.59496 20.5357 
0.551061 -5.71233 20.5357 0.183939 -5.7359 20.5357 1.27701 5.59496 20.5357 
0.183939 -5.7359 20.5357 -0.183939 -5.7359 20.5357 1.27701 5.59496 20.5357 
-0.183939 -5.7359 20.5357 -0.551061 -5.71233 20.5357 1.27701 5.59496 20.5357 
-0.551061 -5.71233 20.5357 -0.915919 -5.66529 20.5357 1.27701 5.59496 20.5357 
-0.915919 -5.66529 20.5357 -1.27701 -5.59496 20.5357 1.27701 5.59496 20.5357 
-1.27701 -5.59496 20.5357 -1.63286 -5.50165 20.5357 1.27701 5.59496 20.5357 
-1.63286 -5.50165 20.5357 -1.982 -5.38573 20.5357 1.27701 5.59496 20.5357 
-1.982 -5.38573 20.5357 -2.32299 -5.24767 20.5357 1.27701 5.59496 20.5357 
-2.32299 -5.24767 20.5357 -2.65444 -5.08806 20.5357 1.27701 5.59496 20.5357 
-2.65444 -5.08806 20.5357 -2.97498 -4.90753 20.5357 1.27701 5.59496 20.5357 
-2.97498 -4.90753 20.5357 -3.28329 -4.70684 20.5357 1.27701 5.59496 20.5357 
-3.28329 -4.70684 20.5357 -3.57811 -4.48681 20.5357 1.27701 5.59496 20.5357 
-3.57811 -4.48681 20.5357 -3.85823 -4.24834 20.5357 1.27701 5.59496 20.5357 
-3.85823 -4.24834 20.5357 -4.1225 -3.99242 20.5357 1.27701 5.59496 20.5357 
-4.1225 -3.99242 20.5357 -4.36982 -3.72008 20.5357 1.27701 5.59496 20.5357 
-4.36982 -3.72008 20.5357 -4.59919 -3.43246 20.5357 1.27701 5.59496 20.5357 
-4.59919 -3.43246 20.5357 -4.80966 -3.13074 20.5357 1.27701 5.59496 20.5357 
-4.80966 -3.13074 20.5357 -5.00036 -2.81615 20.5357 1.27701 5.59496 20.5357 
-5.00036 -2.81615 20.5357 -5.17052 -2.48999 20.5357 1.27701 5.59496 20.5357 
-5.17052 -2.48999 20.5357 -5.31943 -2.1536 20.5357 1.27701 5.59496 20.5357 
-5.31943 -2.1536 20.5357 -5.44649 -1.80836 20.5357 1.27701 5.59496 20.5357 
-5.44649 -1.80836 20.5357 -5.55116 -1.45568 20.5357 1.27701 5.59496 20.5357 
-5.55116 -1.45568 20.5357 -5.63302 -1.09703 20.5357 1.27701 5.59496 20.5357 
-5.63302 -1.09703 20.5357 -5.69173 -0.733867 20.5357 1.27701 5.59496 20.5357 
-5.69173 -0.733867 20.5357 -5.72706 -0.367689 20.5357 1.27701 5.59496 20.5357 
-5.72706 -0.367689 20.5357 -5.73885 0 20.5357 1.27701 5.59496 20.5357 
-5.73885 0 20.5357 -5.72706 0.367689 20.5357 1.27701 5.59496 20.5357 
-5.72706 0.367689 20.5357 -5.69173 0.733867 20.5357 1.27701 5.59496 20.5357 
-5.69173 0.733867 20.5357 -5.63302 1.09703 20.5357 1.27701 5.59496 20.5357 
-5.63302 1.09703 20.5357 -5.55116 1.45568 20.5357 1.27701 5.59496 20.5357 
-5.55116 1.45568 20.5357 -5.44649 1.80836 20.5357 1.27701 5.59496 20.5357 
-5.44649 1.80836 20.5357 -5.31943 2.1536 20.5357 1.27701 5.59496 20.5357 
-5.31943 2.1536 20.5357 -5.17052 2.48999 20.5357 1.27701 5.59496 20.5357 
-5.17052 2.48999 20.5357 -5.00036 2.81615 20.5357 1.27701 5.59496 20.5357 
-5.00036 2.81615 20.5357 -4.80966 3.13074 20.5357 1.27701 5.59496 20.5357 
-4.80966 3.13074 20.5357 -4.59919 3.43246 20.5357 1.27701 5.59496 20.5357 
-4.59919 3.43246 20.5357 -4.36982 3.72008 20.5357 1.27701 5.59496 20.5357 
-4.36982 3.72008 20.5357 -4.1225 3.99242 20.5357 1.27701 5.59496 20.5357 
-4.1225 3.99242 20.5357 -3.85823 4.24834 20.5357 1.27701 5.59496 20.5357 
-3.85823 4.24834 20.5357 -3.57811 4.48681 20.5357 1.27701 5.59496 20.5357 
-3.57811 4.48681 20.5357 -3.28329 4.70684 20.5357 1.27701 5.59496 20.5357 
-3.28329 4.70684 20.5357 -2.97498 4.90753 20.5357 1.27701 5.59496 20.5357 
-2.97498 4.90753 20.5357 -2.65444 5.08806 20.5357 1.27701 5.59496 20.5357 
-2.65444 5.08806 20.5357 -2.32299 5.24767 20.5357 1.27701 5.59496 20.5357 
-2.32299 5.24767 20.5357 -1.982 5.38573 20.5357 1.27701 5.59496 20.5357 
-1.982 5.38573 20.5357 -1.63286 5.50165 20.5357 1.27701 5.59496 20.5357 
-1.63286 5.50165 20.5357 -1.27701 5.59496 20.5357 1.27701 5.59496 20.5357 
-1.27701 5.59496 20.5357 -0.915919 5.66529 20.5357 1.27701 5.59496 20.5357 
-0.915919 5.66529 20.5357 -0.551061 5.71233 20.5357 1.27701 5.59496 20.5357 
-0.551061 5.71233 20.5357 -0.183939 5.7359 20.5357 1.27701 5.59496 20.5357 
-0.183939 5.7359 20.5357 0.183939 5.7359 20.5357 1.27701 5.59496 20.5357 
0.183939 5.7359 20.5357 0.551061 5.71233 20.5357 1.27701 5.59496 20.5357 
0.551061 5.71233 20.5357 0.915919 5.66529 20.5357 1.27701 5.59496 20.5357 
1.63286 5.50165 20.5357 1.982 5.38573 20.5357 1.27701 5.59496 20.5357 
1.982 5.38573 20.5357 2.32299 5.24767 20.5357 1.27701 5.59496 20.5357 
2.32299 5.24767 20.5357 2.65444 5.08806 20.5357 1.27701 5.59496 20.5357 
2.65444 5.08806 20.5357 2.97498 4.90753 20.5357 1.27701 5.59496 20.5357 
2.97498 4.90753 20.5357 3.28329 4.70684 20.5357 1.27701 5.59496 20.5357 
3.28329 4.70684 20.5357 3.57811 4.48681 20.5357 1.27701 5.59496 20.5357 
3.57811 4.48681 20.5357 3.85823 4.24834 20.5357 1.27701 5.59496 20.5357 
3.85823 4.24834 20.5357 4.1225 3.99242 20.5357 1.27701 5.59496 20.5357 
4.1225 3.99242 20.5357 4.36982 3.72008 20.5357 1.27701 5.59496 20.5357 
4.36982 3.72008 20.5357 4.59919 3.43246 20.5357 1.27701 5.59496 20.5357 
4.59919 3.43246 20.5357 4.80966 3.13074 20.5357 1.27701 5.59496 20.5357 
4.80966 3.13074 20.5357 5.00036 2.81615 20.5357 1.27701 5.59496 20.5357 
5.00036 2.81615 20.5357 5.17052 2.48999 20.5357 1.27701 5.59496 20.5357 
5.17052 2.48999 20.5357 5.31943 2.1536 20.5357 1.27701 5.59496 20.5357 
5.31943 2.1536 20.5357 5.44649 1.80836 20.5357 1.27701 5.59496 20.5357 
5.44649 1.80836 20.5357 5.55116 1.45568 20.5357 1.27701 5.59496 20.5357 
5.55116 1.45568 20.5357 5.63302 1.09703 20.5357 1.27701 5.59496 20.5357 
5.63302 1.09703 20.5357 5.69173 0.733867 20.5357 1.27701 5.59496 20.5357 
5.69173 0.733867 20.5357 5.72706 0.367689 20.5357 1.27701 5.59496 20.5357 
5.72706 0.367689 20.5357 5.73885 0 20.5357 1.27701 5.59496 20.5357 
5.73885 0 20.5357 5.72706 -0.367689 20.5357 1.27701 5.59496 20.5357 

POLYGONS 5744 22976
3 0 1 2 
3 3 4 5 
3 6 7 8 
3 9 10 11 
3 12 13 14 
3 15 16 17 
3 18 19 20 
3 21 22 23 
3 24 25 26 
3 27 28 29 
3 30 31 32 
3 33 34 35 
3 36 37 38 
3 39 40 41 
3 42 43 44 
3 45 46 47 
3 48 49 50 
3 51 52 53 
3 54 55 56 
3 57 58 59 
3 60 61 62 
3 63 64 65 
3 66 67 68 
3 69 70 71 
3 72 73 74 
3 75 76 77 
3 78 79 80 
3 81 82 83 
3 84 85 86 
3 87 88 89 
3 90 91 92 
3 93 94 95 
3 96 97 98 
3 99 100 101 
3 102 103 104 
3 105 106 107 
3 108 109 110 
3 111 112 113 
3 114 115 116 
3 117 118 119 
3 120 121 122 
3 123 124 125 
3 126 127 128 
3 129 130 131 
3 132 133 134 
3 135 136 137 
3 138 139 140 
3 141 142 143 
3 144 145 146 
3 147 148 149 
3 150 151 152 
3 153 154 155 
3 156 157 158 
3 159 160 161 
3 162 163 164 
3 165 166 167 
3 168 169 170 
3 171 172 173 
3 174 175 176 
3 177 178 179 
3 180 181 182 
3 183 184 185 
3 186 187 188 
3 189 190 191 
3 192 193 194 
3 195 196 197 
3 198 199 200 
3 201 202 203 
3 204 205 206 
3 207 208 209 
3 210 211 212 
3 213 214 215 
3 216 217 218 
3 219 220 221 
3 222 223 224 
3 225 226 227 
3 228 229 230 
3 231 232 233 
3 234 235 236 
3 237 238 239 
3 240 241 242 
3 243 244 245 
3 246 247 248 
3 249 250 251 
3 252 253 254 
3 255 256 257 
3 258 259 260 
3 261 262 263 
3 264 265 266 
3 267 268 269 
3 270 271 272 
3 273 274 275 
3 276 277 278 
3 279 280 281 
3 282 283 284 
3 285 286 287 
3 288 289 290 
3 291 292 293 
3 294 295 296 
3 297 298 299 
3 300 301 302 
3 303 304 305 
3 306 307 308 
3 309 310 311 
3 312 313 314 
3 315 316 317 
3 318 319 320 
3 321 322 323 
3 324 325 326 
3 327 328 329 
3 330 331 332 
3 333 334 335 
3 336 337 338 
3 339 340 341 
3 342 343 344 
3 345 346 347 
3 348 349 350 
3 351 352 353 
3 354 355 356 
3 357 358 359 
3 360 361 362 
3 363 364 365 
3 366 367 368 
3 369 370 371 
3 372 373 374 
3 375 376 377 
3 378 379 380 
3 381 382 383 
3 384 385 386 
3 387 388 389 
3 390 391 392 
3 393 394 395 
3 396 397 398 
3 399 400 401 
3 402 403 404 
3 405 406 407 
3 408 409 410 
3 411 412 413 
3 414 415 416 
3 417 418 419 
3 420 421 422 
3 423 424 425 
3 426 427 428 
3 429 430 431 
3 432 433 434 
3 435 436 437 
3 438 439 440 
3 441 442 443 
3 444 445 446 
3 447 448 449 
3 450 451 452 
3 453 454 455 
3 456 457 458 
3 459 460 461 
3 462 463 464 
3 465 466 467 
3 468 469 470 
3 471 472 473 
3 474 475 476 
3 477 478 479 
3 480 481 482 
3 483 484 485 
3 486 487 488 
3 489 490 491 
3 492 493 494 
3 495 496 497 
3 498 499 500 
3 501 502 503 
3 504 505 506 
3 507 508 509 
3 510 511 512 
3 513 514 515 
3 516 517 518 
3 519 520 521 
3 522 523 524 
3 525 526 527 
3 528 529 530 
3 531 532 533 
3 534 535 536 
3 537 538 539 
3 540 541 542 
3 543 544 545 
3 546 547 548 
3 549 550 551 
3 552 553 554 
3 555 556 557 
3 558 559 560 
3 561 562 563 
3 564 565 566 
3 567 568 569 
3 570 571 572 
3 573 574 575 
3 576 577 578 
3 579 580 581 
3 582 583 584 
3 585 586 587 
3 588 589 590 
3 591 592 593 
3 594 595 596 
3 597 598 599 
3 600 601 602 
3 603 604 605 
3 606 607 608 
3 609 610 611 
3 612 613 614 
3 615 616 617 
3 618 619 620 
3 621 622 623 
3 624 625 626 
3 627 628 629 
3 630 631 632 
3 633 634 635 
3 636 637 638 
3 639 640 641 
3 642 643 644 
3 645 646 647 
3 648 649 650 
3 651 652 653 
3 654 655 656 
3 657 658 659 
3 660 661 662 
3 663 664 665 
3 666 667 668 
3 669 670 671 
3 672 673 674 
3 675 676 677 
3 678 679 680 
3 681 682 683 
3 684 685 686 
3 687 688 689 
3 690 691 692 
3 693 694 695 
3 696 697 698 
3 699 700 701 
3 702 703 704 
3 705 706 707 
3 708 709 710 
3 711 712 713 
3 714 715 716 
3 717 718 719 
3 720 721 722 
3 723 724 725 
3 726 727 728 
3 729 730 731 
3 732 733 734 
3 735 736 737 
3 738 739 740 
3 741 742 743 
3 744 745 746 
3 747 748 749 
3 750 751 752 
3 753 754 755 
3 756 757 758 
3 759 760 761 
3 762 763 764 
3 765 766 767 
3 768 769 770 
3 771 772 773 
3 774 775 776 
3 777 778 779 
3 780 781 782 
3 783 784 785 
3 786 787 788 
3 789 790 791 
3 792 793 794 
3 795 796 797 
3 798 799 800 
3 801 802 803 
3 804 805 806 
3 807 808 809 
3 810 811 812 
3 813 814 815 
3 816 817 818 
3 819 820 821 
3 822 823 824 
3 825 826 827 
3 828 829 830 
3 831 832 833 
3 834 835 836 
3 837 838 839 
3 840 841 842 
3 843 844 845 
3 846 847 848 
3 849 850 851 
3 852 853 854 
3 855 856 857 
3 858 859 860 
3 861 862 863 
3 864 865 866 
3 867 868 869 
3 870 871 872 
3 873 874 875 
3 876 877 878 
3 879 880 881 
3 882 883 884 
3 885 886 887 
3 888 889 890 
3 891 892 893 
3 894 895 896 
3 897 898 899 
3 900 901 902 
3 903 904 905 
3 906 907 908 
3 909 910 911 
3 912 913 914 
3 915 916 917 
3 918 919 920 
3 921 922 923 
3 924 925 926 
3 927 928 929 
3 930 931 932 
3 933 934 935 
3 936 937 938 
3 939 940 941 
3 942 943 944 
3 945 946 947 
3 948 949 950 
3 951 952 953 
3 954 955 956 
3 957 958 959 
3 960 961 962 
3 963 964 965 
3 966 967 968 
3 969 970 971 
3 972 973 974 
3 975 976 977 
3 978 979 980 
3 981 982 983 
3 984 985 986 
3 987 988 989 
3 990 991 992 
3 993 994 995 
3 996 997 998 
3 999 1000 1001 
3 1002 1003 1004 
3 1005 1006 1007 
3 1008 1009 1010 
3 1011 1012 1013 
3 1014 1015 1016 
3 1017 1018 1019 
3 1020 1021 1022 
3 1023 1024 1025 
3 1026 1027 1028 
3 1029 1030 1031 
3 1032 1033 1034 
3 1035 1036 1037 
3 1038 1039 1040 
3 1041 1042 1043 
3 1044 1045 1046 
3 1047 1048 1049 
3 1050 1051 1052 
3 1053 1054 1055 
3 1056 1057 1058 
3 1059 1060 1061 
3 1062 1063 1064 
3 1065 1066 1067 
3 1068 1069 1070 
3 1071 1072 1073 
3 1074 1075 1076 
3 1077 1078 1079 
3 1080 1081 1082 
3 1083 1084 1085 
3 1086 1087 1088 
3 1089 1090 1091 
3 1092 1093 1094 
3 1095 1096 1097 
3 1098 1099 1100 
3 1101 1102 1103 
3 1104 1105 1106 
3 1107 1108 1109 
3 1110 1111 1112 
3 1113 1114 1115 
3 1116 1117 1118 
3 1119 1120 1121 
3 1122 1123 1124 
3 1125 1126 1127 
3 1128 1129 1130 
3 1131 1132 1133 
3 1134 1135 1136 
3 1137 1138 1139 
3 1140 1141 1142 
3 1143 1144 1145 
3 1146 1147 1148 
3 1149 1150 1151 
3 1152 1153 1154 
3 1155 1156 1157 
3 1158 1159 1160 
3 1161 1162 1163 
3 1164 1165 1166 
3 1167 1168 1169 
3 1170 1171 1172 
3 1173 1174 1175 
3 1176 1177 1178 
3 1179 1180 1181 
3 1182 1183 1184 
3 1185 1186 1187 
3 1188 1189 1190 
3 1191 1192 1193 
3 1194 1195 1196 
3 1197 1198 1199 
3 1200 1201 1202 
3 1203 1204 1205 
3 1206 1207 1208 
3 1209 1210 1211 
3 1212 1213 1214 
3 1215 1216 1217 
3 1218 1219 1220 
3 1221 1222 1223 
3 1224 1225 1226 
3 1227 1228 1229 
3 1230 1231 1232 
3 1233 1234 1235 
3 1236 1237 1238 
3 1239 1240 1241 
3 1242 1243 1244 
3 1245 1246 1247 
3 1248 1249 1250 
3 1251 1252 1253 
3 1254 1255 1256 
3 1257 1258 1259 
3 1260 1261 1262 
3 1263 1264 1265 
3 1266 1267 1268 
3 1269 1270 1271 
3 1272 1273 1274 
3 1275 1276 1277 
3 1278 1279 1280 
3 1281 1282 1283 
3 1284 1285 1286 
3 1287 1288 1289 
3 1290 1291 1292 
3 1293 1294 1295 
3 1296 1297 1298 
3 1299 1300 1301 
3 1302 1303 1304 
3 1305 1306 1307 
3 1308 1309 1310 
3 1311 1312 1313 
3 1314 1315 1316 
3 1317 1318 1319 
3 1320 1321 1322 
3 1323 1324 1325 
3 1326 1327 1328 
3 1329 1330 1331 
3 1332 1333 1334 
3 1335 1336 1337 
3 1338 1339 1340 
3 1341 1342 1343 
3 1344 1345 1346 
3 1347 1348 1349 
3 1350 1351 1352 
3 1353 1354 1355 
3 1356 1357 1358 
3 1359 1360 1361 
3 1362 1363 1364 
3 1365 1366 1367 
3 1368 1369 1370 
3 1371 1372 1373 
3 1374 1375 1376 
3 1377 1378 1379 
3 1380 1381 1382 
3 1383 1384 1385 
3 1386 1387 1388 
3 1389 1390 1391 
3 1392 1393 1394 
3 1395 1396 1397 
3 1398 1399 1400 
3 1401 1402 1403 
3 1404 1405 1406 
3 1407 1408 1409 
3 1410 1411 1412 
3 1413 1414 1415 
3 1416 1417 1418 
3 1419 1420 1421 
3 1422 1423 1424 
3 1425 1426 1427 
3 1428 1429 1430 
3 1431 1432 1433 
3 1434 1435 1436 
3 1437 1438 1439 
3 1440 1441 1442 
3 1443 1444 1445 
3 1446 1447 1448 
3 1449 1450 1451 
3 1452 1453 1454 
3 1455 1456 1457 
3 1458 1459 1460 
3 1461 1462 1463 
3 1464 1465 1466 
3 1467 1468 1469 
3 1470 1471 1472 
3 1473 1474 1475 
3 1476 1477 1478 
3 1479 1480 1481 
3 1482 1483 1484 
3 1485 1486 1487 
3 1488 1489 1490 
3 1491 1492 1493 
3 1494 1495 1496 
3 1497 1498 1499 
3 1500 1501 1502 
3 1503 1504 1505 
3 1506 1507 1508 
3 1509 1510 1511 
3 1512 1513 1514 
3 1515 1516 1517 
3 1518 1519 1520 
3 1521 1522 1523 
3 1524 1525 1526 
3 1527 1528 1529 
3 1530 1531 1532 
3 1533 1534 1535 
3 1536 1537 1538 
3 1539 1540 1541 
3 1542 1543 1544 
3 1545 1546 1547 
3 1548 1549 1550 
3 1551 1552 1553 
3 1554 1555 1556 
3 1557 1558 1559 
3 1560 1561 1562 
3 1563 1564 1565 
3 1566 1567 1568 
3 1569 1570 1571 
3 1572 1573 1574 
3 1575 1576 1577 
3 1578 1579 1580 
3 1581 1582 1583 
3 1584 1585 1586 
3 1587 1588 1589 
3 1590 1591 1592 
3 1593 1594 1595 
3 1596 1597 1598 
3 1599 1600 1601 
3 1602 1603 1604 
3 1605 1606 1607 
3 1608 1609 1610 
3 1611 1612 1613 
3 1614 1615 1616 
3 1617 1618 1619 
3 1620 1621 1622 
3 1623 1624 1625 
3 1626 1627 1628 
3 1629 1630 1631 
3 1632 1633 1634 
3 1635 1636 1637 
3 1638 1639 1640 
3 1641 1642 1643 
3 1644 1645 1646 
3 1647 1648 1649 
3 1650 1651 1652 
3 1653 1654 1655 
3 1656 1657 1658 
3 1659 1660 1661 
3 1662 1663 1664 
3 1665 1666 1667 
3 1668 1669 1670 
3 1671 1672 1673 
3 1674 1675 1676 
3 1677 1678 1679 
3 1680 1681 1682 
3 1683 1684 1685 
3 1686 1687 1688 
3 1689 1690 1691 
3 1692 1693 1694 
3 1695 1696 1697 
3 1698 1699 1700 
3 1701 1702 1703 
3 1704 1705 1706 
3 1707 1708 1709 
3 1710 1711 1712 
3 1713 1714 1715 
3 1716 1717 1718 
3 1719 1720 1721 
3 1722 1723 1724 
3 1725 1726 1727 
3 1728 1729 1730 
3 1731 1732 1733 
3 1734 1735 1736 
3 1737 1738 1739 
3 1740 1741 1742 
3 1743 1744 1745 
3 1746 1747 1748 
3 1749 1750 1751 
3 1752 1753 1754 
3 1755 1756 1757 
3 1758 1759 1760 
3 1761 1762 1763 
3 1764 1765 1766 
3 1767 1768 1769 
3 1770 1771 1772 
3 1773 1774 1775 
3 1776 1777 1778 
3 1779 1780 1781 
3 1782 1783 1784 
3 1785 1786 1787 
3 1788 1789 1790 
3 1791 1792 1793 
3 1794 1795 1796 
3 1797 1798 1799 
3 1800 1801 1802 
3 1803 1804 1805 
3 1806 1807 1808 
3 1809 1810 1811 
3 1812 1813 1814 
3 1815 1816 1817 
3 1818 1819 1820 
3 1821 1822 1823 
3 1824 1825 1826 
3 1827 1828 1829 
3 1830 1831 1832 
3 1833 1834 1835 
3 1836 1837 1838 
3 1839 1840 1841 
3 1842 1843 1844 
3 1845 1846 1847 
3 1848 1849 1850 
3 1851 1852 1853 
3 1854 1855 1856 
3 1857 1858 1859 
3 1860 1861 1862 
3 1863 1864 1865 
3 1866 1867 1868 
3 1869 1870 1871 
3 1872 1873 1874 
3 1875 1876 1877 
3 1878 1879 1880 
3 1881 1882 1883 
3 1884 1885 1886 
3 1887 1888 1889 
3 1890 1891 1892 
3 1893 1894 1895 
3 1896 1897 1898 
3 1899 1900 1901 
3 1902 1903 1904 
3 1905 1906 1907 
3 1908 1909 1910 
3 1911 1912 1913 
3 1914 1915 1916 
3 1917 1918 1919 
3 1920 1921 1922 
3 1923 1924 1925 
3 1926 1927 1928 
3 1929 1930 1931 
3 1932 1933 1934 
3 1935 1936 1937 
3 1938 1939 1940 
3 1941 1942 1943 
3 1944 1945 1946 
3 1947 1948 1949 
3 1950 1951 1952 
3 1953 1954 1955 
3 1956 1957 1958 
3 1959 1960 1961 
3 1962 1963 1964 
3 1965 1966 1967 
3 1968 1969 1970 
3 1971 1972 1973 
3 1974 1975 1976 
3 1977 1978 1979 
3 1980 1981 1982 
3 1983 1984 1985 
3 1986 1987 1988 
3 1989 1990 1991 
3 1992 1993 1994 
3 1995 1996 1997 
3 1998 1999 2000 
3 2001 2002 2003 
3 2004 2005 2006 
3 2007 2008 2009 
3 2010 2011 2012 
3 2013 2014 2015 
3 2016 2017 2018 
3 2019 2020 2021 
3 2022 2023 2024 
3 2025 2026 2027 
3 2028 2029 2030 
3 2031 2032 2033 
3 2034 2035 2036 
3 2037 2038 2039 
3 2040 2041 2042 
3 2043 2044 2045 
3 2046 2047 2048 
3 2049 2050 2051 
3 2052 2053 2054 
3 2055 2056 2057 
3 2058 2059 2060 
3 2061 2062 2063 
3 2064 2065 2066 
3 2067 2068 2069 
3 2070 2071 2072 
3 2073 2074 2075 
3 2076 2077 2078 
3 2079 2080 2081 
3 2082 2083 2084 
3 2085 2086 2087 
3 2088 2089 2090 
3 2091 2092 2093 
3 2094 2095 2096 
3 2097 2098 2099 
3 2100 2101 2102 
3 2103 2104 2105 
3 2106 2107 2108 
3 2109 2110 2111 
3 2112 2113 2114 
3 2115 2116 2117 
3 2118 2119 2120 
3 2121 2122 2123 
3 2124 2125 2126 
3 2127 2128 2129 
3 2130 2131 2132 
3 2133 2134 2135 
3 2136 2137 2138 
3 2139 2140 2141 
3 2142 2143 2144 
3 2145 2146 2147 
3 2148 2149 2150 
3 2151 2152 2153 
3 2154 2155 2156 
3 2157 2158 2159 
3 2160 2161 2162 
3 2163 2164 2165 
3 2166 2167 2168 
3 2169 2170 2171 
3 2172 2173 2174 
3 2175 2176 2177 
3 2178 2179 2180 
3 2181 2182 2183 
3 2184 2185 2186 
3 2187 2188 2189 
3 2190 2191 2192 
3 2193 2194 2195 
3 2196 2197 2198 
3 2199 2200 2201 
3 2202 2203 2204 
3 2205 2206 2207 
3 2208 2209 2210 
3 2211 2212 2213 
3 2214 2215 2216 
3 2217 2218 2219 
3 2220 2221 2222 
3 2223 2224 2225 
3 2226 2227 2228 
3 2229 2230 2231 
3 2232 2233 2234 
3 2235 2236 2237 
3 2238 2239 2240 
3 2241 2242 2243 
3 2244 2245 2246 
3 2247 2248 2249 
3 2250 2251 2252 
3 2253 2254 2255 
3 2256 2257 2258 
3 2259 2260 2261 
3 2262 2263 2264 
3 2265 2266 2267 
3 2268 2269 2270 
3 2271 2272 2273 
3 2274 2275 2276 
3 2277 2278 2279 
3 2280 2281 2282 
3 2283 2284 2285 
3 2286 2287 2288 
3 2289 2290 2291 
3 2292 2293 2294 
3 2295 2296 2297 
3 2298 2299 2300 
3 2301 2302 2303 
3 2304 2305 2306 
3 2307 2308 2309 
3 2310 2311 2312 
3 2313 2314 2315 
3 2316 2317 2318 
3 2319 2320 2321 
3 2322 2323 2324 
3 2325 2326 2327 
3 2328 2329 2330 
3 2331 2332 2333 
3 2334 2335 2336 
3 2337 2338 2339 
3 2340 2341 2342 
3 2343 2344 2345 
3 2346 2347 2348 
3 2349 2350 2351 
3 2352 2353 2354 
3 2355 2356 2357 
3 2358 2359 2360 
3 2361 2362 2363 
3 2364 2365 2366 
3 2367 2368 2369 
3 2370 2371 2372 
3 2373 2374 2375 
3 2376 2377 2378 
3 2379 2380 2381 
3 2382 2383 2384 
3 2385 2386 2387 
3 2388 2389 2390 
3 2391 2392 2393 
3 2394 2395 2396 
3 2397 2398 2399 
3 2400 2401 2402 
3 2403 2404 2405 
3 2406 2407 2408 
3 2409 2410 2411 
3 2412 2413 2414 
3 2415 2416 2417 
3 2418 2419 2420 
3 2421 2422 2423 
3 2424 2425 2426 
3 2427 2428 2429 
3 2430 2431 2432 
3 2433 2434 2435 
3 2436 2437 2438 
3 2439 2440 2441 
3 2442 2443 2444 
3 2445 2446 2447 
3 2448 2449 2450 
3 2451 2452 2453 
3 2454 2455 2456 
3 2457 2458 2459 
3 2460 2461 2462 
3 2463 2464 2465 
3 2466 2467 2468 
3 2469 2470 2471 
3 2472 2473 2474 
3 2475 2476 2477 
3 2478 2479 2480 
3 2481 2482 2483 
3 2484 2485 2486 
3 2487 2488 2489 
3 2490 2491 2492 
3 2493 2494 2495 
3 2496 2497 2498 
3 2499 2500 2501 
3 2502 2503 2504 
3 2505 2506 2507 
3 2508 2509 2510 
3 2511 2512 2513 
3 2514 2515 2516 
3 2517 2518 2519 
3 2520 2521 2522 
3 2523 2524 2525 
3 2526 2527 2528 
3 2529 2530 2531 
3 2532 2533 2534 
3 2535 2536 2537 
3 2538 2539 2540 
3 2541 2542 2543 
3 2544 2545 2546 
3 2547 2548 2549 
3 2550 2551 2552 
3 2553 2554 2555 
3 2556 2557 2558 
3 2559 2560 2561 
3 2562 2563 2564 
3 2565 2566 2567 
3 2568 2569 2570 
3 2571 2572 2573 
3 2574 2575 2576 
3 2577 2578 2579 
3 2580 2581 2582 
3 2583 2584 2585 
3 2586 2587 2588 
3 2589 2590 2591 
3 2592 2593 2594 
3 2595 2596 2597 
3 2598 2599 2600 
3 2601 2602 2603 
3 2604 2605 2606 
3 2607 2608 2609 
3 2610 2611 2612 
3 2613 2614 2615 
3 2616 2617 2618 
3 2619 2620 2621 
3 2622 2623 2624 
3 2625 2626 2627 
3 2628 2629 2630 
3 2631 2632 2633 
3 2634 2635 2636 
3 2637 2638 2639 
3 2640 2641 2642 
3 2643 2644 2645 
3 2646 2647 2648 
3 2649 2650 2651 
3 2652 2653 2654 
3 2655 2656 2657 
3 2658 2659 2660 
3 2661 2662 2663 
3 2664 2665 2666 
3 2667 2668 2669 
3 2670 2671 2672 
3 2673 2674 2675 
3 2676 2677 2678 
3 2679 2680 2681 
3 2682 2683 2684 
3 2685 2686 2687 
3 2688 2689 2690 
3 2691 2692 2693 
3 2694 2695 2696 
3 2697 2698 2699 
3 2700 2701 2702 
3 2703 2704 2705 
3 2706 2707 2708 
3 2709 2710 2711 
3 2712 2713 2714 
3 2715 2716 2717 
3 2718 2719 2720 
3 2721 2722 2723 
3 2724 2725 2726 
3 2727 2728 2729 
3 2730 2731 2732 
3 2733 2734 2735 
3 2736 2737 2738 
3 2739 2740 2741 
3 2742 2743 2744 
3 2745 2746 2747 
3 2748 2749 2750 
3 2751 2752 2753 
3 2754 2755 2756 
3 2757 2758 2759 
3 2760 2761 2762 
3 2763 2764 2765 
3 2766 2767 2768 
3 2769 2770 2771 
3 2772 2773 2774 
3 2775 2776 2777 
3 2778 2779 2780 
3 2781 2782 2783 
3 2784 2785 2786 
3 2787 2788 2789 
3 2790 2791 2792 
3 2793 2794 2795 
3 2796 2797 2798 
3 2799 2800 2801 
3 2802 2803 2804 
3 2805 2806 2807 
3 2808 2809 2810 
3 2811 2812 2813 
3 2814 2815 2816 
3 2817 2818 2819 
3 2820 2821 2822 
3 2823 2824 2825 
3 2826 2827 2828 
3 2829 2830 2831 
3 2832 2833 2834 
3 2835 2836 2837 
3 2838 2839 2840 
3 2841 2842 2843 
3 2844 2845 2846 
3 2847 2848 2849 
3 2850 2851 2852 
3 2853 2854 2855 
3 2856 2857 2858 
3 2859 2860 2861 
3 2862 2863 2864 
3 2865 2866 2867 
3 2868 2869 2870 
3 2871 2872 2873 
3 2874 2875 2876 
3 2877 2878 2879 
3 2880 2881 2882 
3 2883 2884 2885 
3 2886 2887 2888 
3 2889 2890 2891 
3 2892 2893 2894 
3 2895 2896 2897 
3 2898 2899 2900 
3 2901 2902 2903 
3 2904 2905 2906 
3 2907 2908 2909 
3 2910 2911 2912 
3 2913 2914 2915 
3 2916 2917 2918 
3 2919 2920 2921 
3 2922 2923 2924 
3 2925 2926 2927 
3 2928 2929 2930 
3 2931 2932 2933 
3 2934 2935 2936 
3 2937 2938 2939 
3 2940 2941 2942 
3 2943 2944 2945 
3 2946 2947 2948 
3 2949 2950 2951 
3 2952 2953 2954 
3 2955 2956 2957 
3 2958 2959 2960 
3 2961 2962 2963 
3 2964 2965 2966 
3 2967 2968 2969 
3 2970 2971 2972 
3 2973 2974 2975 
3 2976 2977 2978 
3 2979 2980 2981 
3 2982 2983 2984 
3 2985 2986 2987 
3 2988 2989 2990 
3 2991 2992 2993 
3 2994 2995 2996 
3 2997 2998 2999 
3 3000 3001 3002 
3 3003 3004 3005 
3 3006 3007 3008 
3 3009 3010 3011 
3 3012 3013 3014 
3 3015 3016 3017 
3 3018 3019 3020 
3 3021 3022 3023 
3 3024 3025 3026 
3 3027 3028 3029 
3 3030 3031 3032 
3 3033 3034 3035 
3 3036 3037 3038 
3 3039 3040 3041 
3 3042 3043 3044 
3 3045 3046 3047 
3 3048 3049 3050 
3 3051 3052 3053 
3 3054 3055 3056 
3 3057 3058 3059 
3 3060 3061 3062 
3 3063 3064 3065 
3 3066 3067 3068 
3 3069 3070 3071 
3 3072 3073 3074 
3 3075 3076 3077 
3 3078 3079 3080 
3 3081 3082 3083 
3 3084 3085 3086 
3 3087 3088 3089 
3 3090 3091 3092 
3 3093 3094 3095 
3 3096 3097 3098 
3 3099 3100 3101 
3 3102 3103 3104 
3 3105 3106 3107 
3 3108 3109 3110 
3 3111 3112 3113 
3 3114 3115 3116 
3 3117 3118 3119 
3 3120 3121 3122 
3 3123 3124 3125 
3 3126 3127 3128 
3 3129 3130 3131 
3 3132 3133 3134 
3 3135 3136 3137 
3 3138 3139 3140 
3 3141 3142 3143 
3 3144 3145 3146 
3 3147 3148 3149 
3 3150 3151 3152 
3 3153 3154 3155 
3 3156 3157 3158 
3 3159 3160 3161 
3 3162 3163 3164 
3 3165 3166 3167 
3 3168 3169 3170 
3 3171 3172 3173 
3 3174 3175 3176 
3 3177 3178 3179 
3 3180 3181 3182 
3 3183 3184 3185 
3 3186 3187 3188 
3 3189 3190 3191 
3 3192 3193 3194 
3 3195 3196 3197 
3 3198 3199 3200 
3 3201 3202 3203 
3 3204 3205 3206 
3 3207 3208 3209 
3 3210 3211 3212 
3 3213 3214 3215 
3 3216 3217 3218 
3 3219 3220 3221 
3 3222 3223 3224 
3 3225 3226 3227 
3 3228 3229 3230 
3 3231 3232 3233 
3 3234 3235 3236 
3 3237 3238 3239 
3 3240 3241 3242 
3 3243 3244 3245 
3 3246 3247 3248 
3 3249 3250 3251 
3 3252 3253 3254 
3 3255 3256 3257 
3 3258 3259 3260 
3 3261 3262 3263 
3 3264 3265 3266 
3 3267 3268 3269 
3 3270 3271 3272 
3 3273 3274 3275 
3 3276 3277 3278 
3 3279 3280 3281 
3 3282 3283 3284 
3 3285 3286 3287 
3 3288 3289 3290 
3 3291 3292 3293 
3 3294 3295 3296 
3 3297 3298 3299 
3 3300 3301 3302 
3 3303 3304 3305 
3 3306 3307 3308 
3 3309 3310 3311 
3 3312 3313 3314 
3 3315 3316 3317 
3 3318 3319 3320 
3 3321 3322 3323 
3 3324 3325 3326 
3 3327 3328 3329 
3 3330 3331 3332 
3 3333 3334 3335 
3 3336 3337 3338 
3 3339 3340 3341 
3 3342 3343 3344 
3 3345 3346 3347 
3 3348 3349 3350 
3 3351 3352 3353 
3 3354 3355 3356 
3 3357 3358 3359 
3 3360 3361 3362 
3 3363 3364 3365 
3 3366 3367 3368 
3 3369 3370 3371 
3 3372 3373 3374 
3 3375 3376 3377 
3 3378 3379 3380 
3 3381 3382 3383 
3 3384 3385 3386 
3 3387 3388 3389 
3 3390 3391 3392 
3 3393 3394 3395 
3 3396 3397 3398 
3 3399 3400 3401 
3 3402 3403 3404 
3 3405 3406 3407 
3 3408 3409 3410 
3 3411 3412 3413 
3 3414 3415 3416 
3 3417 3418 3419 
3 3420 3421 3422 
3 3423 3424 3425 
3 3426 3427 3428 
3 3429 3430 3431 
3 3432 3433 3434 
3 3435 3436 3437 
3 3438 3439 3440 
3 3441 3442 3443 
3 3444 3445 3446 
3 3447 3448 3449 
3 3450 3451 3452 
3 3453 3454 3455 
3 3456 3457 3458 
3 3459 3460 3461 
3 3462 3463 3464 
3 3465 3466 3467 
3 3468 3469 3470 
3 3471 3472 3473 
3 3474 3475 3476 
3 3477 3478 3479 
3 3480 3481 3482 
3 3483 3484 3485 
3 3486 3487 3488 
3 3489 3490 3491 
3 3492 3493 3494 
3 3495 3496 3497 
3 3498 3499 3500 
3 3501 3502 3503 
3 3504 3505 3506 
3 3507 3508 3509 
3 3510 3511 3512 
3 3513 3514 3515 
3 3516 3517 3518 
3 3519 3520 3521 
3 3522 3523 3524 
3 3525 3526 3527 
3 3528 3529 3530 
3 3531 3532 3533 
3 3534 3535 3536 
3 3537 3538 3539 
3 3540 3541 3542 
3 3543 3544 3545 
3 3546 3547 3548 
3 3549 3550 3551 
3 3552 3553 3554 
3 3555 3556 3557 
3 3558 3559 3560 
3 3561 3562 3563 
3 3564 3565 3566 
3 3567 3568 3569 
3 3570 3571 3572 
3 3573 3574 3575 
3 3576 3577 3578 
3 3579 3580 3581 
3 3582 3583 3584 
3 3585 3586 3587 
3 3588 3589 3590 
3 3591 3592 3593 
3 3594 3595 3596 
3 3597 3598 3599 
3 3600 3601 3602 
3 3603 3604 3605 
3 3606 3607 3608 
3 3609 3610 3611 
3 3612 3613 3614 
3 3615 3616 3617 
3 3618 3619 3620 
3 3621 3622 3623 
3 3624 3625 3626 
3 3627 3628 3629 
3 3630 3631 3632 
3 3633 3634 3635 
3 3636 3637 3638 
3 3639 3640 3641 
3 3642 3643 3644 
3 3645 3646 3647 
3 3648 3649 3650 
3 3651 3652 3653 
3 3654 3655 3656 
3 3657 3658 3659 
3 3660 3661 3662 
3 3663 3664 3665 
3 3666 3667 3668 
3 3669 3670 3671 
3 3672 3673 3674 
3 3675 3676 3677 
3 3678 3679 3680 
3 3681 3682 3683 
3 3684 3685 3686 
3 3687 3688 3689 
3 3690 3691 3692 
3 3693 3694 3695 
3 3696 3697 3698 
3 3699 3700 3701 
3 3702 3703 3704 
3 3705 3706 3707 
3 3708 3709 3710 
3 3711 3712 3713 
3 3714 3715 3716 
3 3717 3718 3719 
3 3720 3721 3722 
3 3723 3724 3725 
3 3726 3727 3728 
3 3729 3730 3731 
3 3732 3733 3734 
3 3735 3736 3737 
3 3738 3739 3740 
3 3741 3742 3743 
3 3744 3745 3746 
3 3747 3748 3749 
3 3750 3751 3752 
3 3753 3754 3755 
3 3756 3757 3758 
3 3759 3760 3761 
3 3762 3763 3764 
3 3765 3766 3767 
3 3768 3769 3770 
3 3771 3772 3773 
3 3774 3775 3776 
3 3777 3778 3779 
3 3780 3781 3782 
3 3783 3784 3785 
3 3786 3787 3788 
3 3789 3790 3791 
3 3792 3793 3794 
3 3795 3796 3797 
3 3798 3799 3800 
3 3801 3802 3803 
3 3804 3805 3806 
3 3807 3808 3809 
3 3810 3811 3812 
3 3813 3814 3815 
3 3816 3817 3818 
3 3819 3820 3821 
3 3822 3823 3824 
3 3825 3826 3827 
3 3828 3829 3830 
3 3831 3832 3833 
3 3834 3835 3836 
3 3837 3838 3839 
3 3840 3841 3842 
3 3843 3844 3845 
3 3846 3847 3848 
3 3849 3850 3851 
3 3852 3853 3854 
3 3855 3856 3857 
3 3858 3859 3860 
3 3861 3862 3863 
3 3864 3865 3866 
3 3867 3868 3869 
3 3870 3871 3872 
3 3873 3874 3875 
3 3876 3877 3878 
3 3879 3880 3881 
3 3882 3883 3884 
3 3885 3886 3887 
3 3888 3889 3890 
3 3891 3892 3893 
3 3894 3895 3896 
3 3897 3898 3899 
3 3900 3901 3902 
3 3903 3904 3905 
3 3906 3907 3908 
3 3909 3910 3911 
3 3912 3913 3914 
3 3915 3916 3917 
3 3918 3919 3920 
3 3921 3922 3923 
3 3924 3925 3926 
3 3927 3928 3929 
3 3930 3931 3932 
3 3933 3934 3935 
3 3936 3937 3938 
3 3939 3940 3941 
3 3942 3943 3944 
3 3945 3946 3947 
3 3948 3949 3950 
3 3951 3952 3953 
3 3954 3955 3956 
3 3957 3958 3959 
3 3960 3961 3962 
3 3963 3964 3965 
3 3966 3967 3968 
3 3969 3970 3971 
3 3972 3973 3974 
3 3975 3976 3977 
3 3978 3979 3980 
3 3981 3982 3983 
3 3984 3985 3986 
3 3987 3988 3989 
3 3990 3991 3992 
3 3993 3994 3995 
3 3996 3997 3998 
3 3999 4000 4001 
3 4002 4003 4004 
3 4005 4006 4007 
3 4008 4009 4010 
3 4011 4012 4013 
3 4014 4015 4016 
3 4017 4018 4019 
3 4020 4021 4022 
3 4023 4024 4025 
3 4026 4027 4028 
3 4029 4030 4031 
3 4032 4033 4034 
3 4035 4036 4037 
3 4038 4039 4040 
3 4041 4042 4043 
3 4044 4045 4046 
3 4047 4048 4049 
3 4050 4051 4052 
3 4053 4054 4055 
3 4056 4057 4058 
3 4059 4060 4061 
3 4062 4063 4064 
3 4065 4066 4067 
3 4068 4069 4070 
3 4071 4072 4073 
3 4074 4075 4076 
3 4077 4078 4079 
3 4080 4081 4082 
3 4083 4084 4085 
3 4086 4087 4088 
3 4089 4090 4091 
3 4092 4093 4094 
3 4095 4096 4097 
3 4098 4099 4100 
3 4101 4102 4103 
3 4104 4105 4106 
3 4107 4108 4109 
3 4110 4111 4112 
3 4113 4114 4115 
3 4116 4117 4118 
3 4119 4120 4121 
3 4122 4123 4124 
3 4125 4126 4127 
3 4128 4129 4130 
3 4131 4132 4133 
3 4134 4135 4136 
3 4137 4138 4139 
3 4140 4141 4142 
3 4143 4144 4145 
3 4146 4147 4148 
3 4149 4150 4151 
3 4152 4153 4154 
3 4155 4156 4157 
3 4158 4159 4160 
3 4161 4162 4163 
3 4164 4165 4166 
3 4167 4168 4169 
3 4170 4171 4172 
3 4173 4174 4175 
3 4176 4177 4178 
3 4179 4180 4181 
3 4182 4183 4184 
3 4185 4186 4187 
3 4188 4189 4190 
3 4191 4192 4193 
3 4194 4195 4196 
3 4197 4198 4199 
3 4200 4201 4202 
3 4203 4204 4205 
3 4206 4207 4208 
3 4209 4210 4211 
3 4212 4213 4214 
3 4215 4216 4217 
3 4218 4219 4220 
3 4221 4222 4223 
3 4224 4225 4226 
3 4227 4228 4229 
3 4230 4231 4232 
3 4233 4234 4235 
3 4236 4237 4238 
3 4239 4240 4241 
3 4242 4243 4244 
3 4245 4246 4247 
3 4248 4249 4250 
3 4251 4252 4253 
3 4254 4255 4256 
3 4257 4258 4259 
3 4260 4261 4262 
3 4263 4264 4265 
3 4266 4267 4268 
3 4269 4270 4271 
3 4272 4273 4274 
3 4275 4276 4277 
3 4278 4279 4280 
3 4281 4282 4283 
3 4284 4285 4286 
3 4287 4288 4289 
3 4290 4291 4292 
3 4293 4294 4295 
3 4296 4297 4298 
3 4299 4300 4301 
3 4302 4303 4304 
3 4305 4306 4307 
3 4308 4309 4310 
3 4311 4312 4313 
3 4314 4315 4316 
3 4317 4318 4319 
3 4320 4321 4322 
3 4323 4324 4325 
3 4326 4327 4328 
3 4329 4330 4331 
3 4332 4333 4334 
3 4335 4336 4337 
3 4338 4339 4340 
3 4341 4342 4343 
3 4344 4345 4346 
3 4347 4348 4349 
3 4350 4351 4352 
3 4353 4354 4355 
3 4356 4357 4358 
3 4359 4360 4361 
3 4362 4363 4364 
3 4365 4366 4367 
3 4368 4369 4370 
3 4371 4372 4373 
3 4374 4375 4376 
3 4377 4378 4379 
3 4380 4381 4382 
3 4383 4384 4385 
3 4386 4387 4388 
3 4389 4390 4391 
3 4392 4393 4394 
3 4395 4396 4397 
3 4398 4399 4400 
3 4401 4402 4403 
3 4404 4405 4406 
3 4407 4408 4409 
3 4410 4411 4412 
3 4413 4414 4415 
3 4416 4417 4418 
3 4419 4420 4421 
3 4422 4423 4424 
3 4425 4426 4427 
3 4428 4429 4430 
3 4431 4432 4433 
3 4434 4435 4436 
3 4437 4438 4439 
3 4440 4441 4442 
3 4443 4444 4445 
3 4446 4447 4448 
3 4449 4450 4451 
3 4452 4453 4454 
3 4455 4456 4457 
3 4458 4459 4460 
3 4461 4462 4463 
3 4464 4465 4466 
3 4467 4468 4469 
3 4470 4471 4472 
3 4473 4474 4475 
3 4476 4477 4478 
3 4479 4480 4481 
3 4482 4483 4484 
3 4485 4486 4487 
3 4488 4489 4490 
3 4491 4492 4493 
3 4494 4495 4496 
3 4497 4498 4499 
3 4500 4501 4502 
3 4503 4504 4505 
3 4506 4507 4508 
3 4509 4510 4511 
3 4512 4513 4514 
3 4515 4516 4517 
3 4518 4519 4520 
3 4521 4522 4523 
3 4524 4525 4526 
3 4527 4528 4529 
3 4530 4531 4532 
3 4533 4534 4535 
3 4536 4537 4538 
3 4539 4540 4541 
3 4542 4543 4544 
3 4545 4546 4547 
3 4548 4549 4550 
3 4551 4552 4553 
3 4554 4555 4556 
3 4557 4558 4559 
3 4560 4561 4562 
3 4563 4564 4565 
3 4566 4567 4568 
3 4569 4570 4571 
3 4572 4573 4574 
3 4575 4576 4577 
3 4578 4579 4580 
3 4581 4582 4583 
3 4584 4585 4586 
3 4587 4588 4589 
3 4590 4591 4592 
3 4593 4594 4595 
3 4596 4597 4598 
3 4599 4600 4601 
3 4602 4603 4604 
3 4605 4606 4607 
3 4608 4609 4610 
3 4611 4612 4613 
3 4614 4615 4616 
3 4617 4618 4619 
3 4620 4621 4622 
3 4623 4624 4625 
3 4626 4627 4628 
3 4629 4630 4631 
3 4632 4633 4634 
3 4635 4636 4637 
3 4638 4639 4640 
3 4641 4642 4643 
3 4644 4645 4646 
3 4647 4648 4649 
3 4650 4651 4652 
3 4653 4654 4655 
3 4656 4657 4658 
3 4659 4660 4661 
3 4662 4663 4664 
3 4665 4666 4667 
3 4668 4669 4670 
3 4671 4672 4673 
3 4674 4675 4676 
3 4677 4678 4679 
3 4680 4681 4682 
3 4683 4684 4685 
3 4686 4687 4688 
3 4689 4690 4691 
3 4692 4693 4694 
3 4695 4696 4697 
3 4698 4699 4700 
3 4701 4702 4703 
3 4704 4705 4706 
3 4707 4708 4709 
3 4710 4711 4712 
3 4713 4714 4715 
3 4716 4717 4718 
3 4719 4720 4721 
3 4722 4723 4724 
3 4725 4726 4727 
3 4728 4729 4730 
3 4731 4732 4733 
3 4734 4735 4736 
3 4737 4738 4739 
3 4740 4741 4742 
3 4743 4744 4745 
3 4746 4747 4748 
3 4749 4750 4751 
3 4752 4753 4754 
3 4755 4756 4757 
3 4758 4759 4760 
3 4761 4762 4763 
3 4764 4765 4766 
3 4767 4768 4769 
3 4770 4771 4772 
3 4773 4774 4775 
3 4776 4777 4778 
3 4779 4780 4781 
3 4782 4783 4784 
3 4785 4786 4787 
3 4788 4789 4790 
3 4791 4792 4793 
3 4794 4795 4796 
3 4797 4798 4799 
3 4800 4801 4802 
3 4803 4804 4805 
3 4806 4807 4808 
3 4809 4810 4811 
3 4812 4813 4814 
3 4815 4816 4817 
3 4818 4819 4820 
3 4821 4822 4823 
3 4824 4825 4826 
3 4827 4828 4829 
3 4830 4831 4832 
3 4833 4834 4835 
3 4836 4837 4838 
3 4839 4840 4841 
3 4842 4843 4844 
3 4845 4846 4847 
3 4848 4849 4850 
3 4851 4852 4853 
3 4854 4855 4856 
3 4857 4858 4859 
3 4860 4861 4862 
3 4863 4864 4865 
3 4866 4867 4868 
3 4869 4870 4871 
3 4872 4873 4874 
3 4875 4876 4877 
3 4878 4879 4880 
3 4881 4882 4883 
3 4884 4885 4886 
3 4887 4888 4889 
3 4890 4891 4892 
3 4893 4894 4895 
3 4896 4897 4898 
3 4899 4900 4901 
3 4902 4903 4904 
3 4905 4906 4907 
3 4908 4909 4910 
3 4911 4912 4913 
3 4914 4915 4916 
3 4917 4918 4919 
3 4920 4921 4922 
3 4923 4924 4925 
3 4926 4927 4928 
3 4929 4930 4931 
3 4932 4933 4934 
3 4935 4936 4937 
3 4938 4939 4940 
3 4941 4942 4943 
3 4944 4945 4946 
3 4947 4948 4949 
3 4950 4951 4952 
3 4953 4954 4955 
3 4956 4957 4958 
3 4959 4960 4961 
3 4962 4963 4964 
3 4965 4966 4967 
3 4968 4969 4970 
3 4971 4972 4973 
3 4974 4975 4976 
3 4977 4978 4979 
3 4980 4981 4982 
3 4983 4984 4985 
3 4986 4987 4988 
3 4989 4990 4991 
3 4992 4993 4994 
3 4995 4996 4997 
3 4998 4999 5000 
3 5001 5002 5003 
3 5004 5005 5006 
3 5007 5008 5009 
3 5010 5011 5012 
3 5013 5014 5015 
3 5016 5017 5018 
3 5019 5020 5021 
3 5022 5023 5024 
3 5025 5026 5027 
3 5028 5029 5030 
3 5031 5032 5033 
3 5034 5035 5036 
3 5037 5038 5039 
3 5040 5041 5042 
3 5043 5044 5045 
3 5046 5047 5048 
3 5049 5050 5051 
3 5052 5053 5054 
3 5055 5056 5057 
3 5058 5059 5060 
3 5061 5062 5063 
3 5064 5065 5066 
3 5067 5068 5069 
3 5070 5071 5072 
3 5073 5074 5075 
3 5076 5077 5078 
3 5079 5080 5081 
3 5082 5083 5084 
3 5085 5086 5087 
3 5088 5089 5090 
3 5091 5092 5093 
3 5094 5095 5096 
3 5097 5098 5099 
3 5100 5101 5102 
3 5103 5104 5105 
3 5106 5107 5108 
3 5109 5110 5111 
3 5112 5113 5114 
3 5115 5116 5117 
3 5118 5119 5120 
3 5121 5122 5123 
3 5124 5125 5126 
3 5127 5128 5129 
3 5130 5131 5132 
3 5133 5134 5135 
3 5136 5137 5138 
3 5139 5140 5141 
3 5142 5143 5144 
3 5145 5146 5147 
3 5148 5149 5150 
3 5151 5152 5153 
3 5154 5155 5156 
3 5157 5158 5159 
3 5160 5161 5162 
3 5163 5164 5165 
3 5166 5167 5168 
3 5169 5170 5171 
3 5172 5173 5174 
3 5175 5176 5177 
3 5178 5179 5180 
3 5181 5182 5183 
3 5184 5185 5186 
3 5187 5188 5189 
3 5190 5191 5192 
3 5193 5194 5195 
3 5196 5197 5198 
3 5199 5200 5201 
3 5202 5203 5204 
3 5205 5206 5207 
3 5208 5209 5210 
3 5211 5212 5213 
3 5214 5215 5216 
3 5217 5218 5219 
3 5220 5221 5222 
3 5223 5224 5225 
3 5226 5227 5228 
3 5229 5230 5231 
3 5232 5233 5234 
3 5235 5236 5237 
3 5238 5239 5240 
3 5241 5242 5243 
3 5244 5245 5246 
3 5247 5248 5249 
3 5250 5251 5252 
3 5253 5254 5255 
3 5256 5257 5258 
3 5259 5260 5261 
3 5262 5263 5264 
3 5265 5266 5267 
3 5268 5269 5270 
3 5271 5272 5273 
3 5274 5275 5276 
3 5277 5278 5279 
3 5280 5281 5282 
3 5283 5284 5285 
3 5286 5287 5288 
3 5289 5290 5291 
3 5292 5293 5294 
3 5295 5296 5297 
3 5298 5299 5300 
3 5301 5302 5303 
3 5304 5305 5306 
3 5307 5308 5309 
3 5310 5311 5312 
3 5313 5314 5315 
3 5316 5317 5318 
3 5319 5320 5321 
3 5322 5323 5324 
3 5325 5326 5327 
3 5328 5329 5330 
3 5331 5332 5333 
3 5334 5335 5336 
3 5337 5338 5339 
3 5340 5341 5342 
3 5343 5344 5345 
3 5346 5347 5348 
3 5349 5350 5351 
3 5352 5353 5354 
3 5355 5356 5357 
3 5358 5359 5360 
3 5361 5362 5363 
3 5364 5365 5366 
3 5367 5368 5369 
3 5370 5371 5372 
3 5373 5374 5375 
3 5376 5377 5378 
3 5379 5380 5381 
3 5382 5383 5384 
3 5385 5386 5387 
3 5388 5389 5390 
3 5391 5392 5393 
3 5394 5395 5396 
3 5397 5398 5399 
3 5400 5401 5402 
3 5403 5404 5405 
3 5406 5407 5408 
3 5409 5410 5411 
3 5412 5413 5414 
3 5415 5416 5417 
3 5418 5419 5420 
3 5421 5422 5423 
3 5424 5425 5426 
3 5427 5428 5429 
3 5430 5431 5432 
3 5433 5434 5435 
3 5436 5437 5438 
3 5439 5440 5441 
3 5442 5443 5444 
3 5445 5446 5447 
3 5448 5449 5450 
3 5451 5452 5453 
3 5454 5455 5456 
3 5457 5458 5459 
3 5460 5461 5462 
3 5463 5464 5465 
3 5466 5467 5468 
3 5469 5470 5471 
3 5472 5473 5474 
3 5475 5476 5477 
3 5478 5479 5480 
3 5481 5482 5483 
3 5484 5485 5486 
3 5487 5488 5489 
3 5490 5491 5492 
3 5493 5494 5495 
3 5496 5497 5498 
3 5499 5500 5501 
3 5502 5503 5504 
3 5505 5506 5507 
3 5508 5509 5510 
3 5511 5512 5513 
3 5514 5515 5516 
3 5517 5518 5519 
3 5520 5521 5522 
3 5523 5524 5525 
3 5526 5527 5528 
3 5529 5530 5531 
3 5532 5533 5534 
3 5535 5536 5537 
3 5538 5539 5540 
3 5541 5542 5543 
3 5544 5545 5546 
3 5547 5548 5549 
3 5550 5551 5552 
3 5553 5554 5555 
3 5556 5557 5558 
3 5559 5560 5561 
3 5562 5563 5564 
3 5565 5566 5567 
3 5568 5569 5570 
3 5571 5572 5573 
3 5574 5575 5576 
3 5577 5578 5579 
3 5580 5581 5582 
3 5583 5584 5585 
3 5586 5587 5588 
3 5589 5590 5591 
3 5592 5593 5594 
3 5595 5596 5597 
3 5598 5599 5600 
3 5601 5602 5603 
3 5604 5605 5606 
3 5607 5608 5609 
3 5610 5611 5612 
3 5613 5614 5615 
3 5616 5617 5618 
3 5619 5620 5621 
3 5622 5623 5624 
3 5625 5626 5627 
3 5628 5629 5630 
3 5631 5632 5633 
3 5634 5635 5636 
3 5637 5638 5639 
3 5640 5641 5642 
3 5643 5644 5645 
3 5646 5647 5648 
3 5649 5650 5651 
3 5652 5653 5654 
3 5655 5656 5657 
3 5658 5659 5660 
3 5661 5662 5663 
3 5664 5665 5666 
3 5667 5668 5669 
3 5670 5671 5672 
3 5673 5674 5675 
3 5676 5677 5678 
3 5679 5680 5681 
3 5682 5683 5684 
3 5685 5686 5687 
3 5688 5689 5690 
3 5691 5692 5693 
3 5694 5695 5696 
3 5697 5698 5699 
3 5700 5701 5702 
3 5703 5704 5705 
3 5706 5707 5708 
3 5709 5710 5711 
3 5712 5713 5714 
3 5715 5716 5717 
3 5718 5719 5720 
3 5721 5722 5723 
3 5724 5725 5726 
3 5727 5728 5729 
3 5730 5731 5732 
3 5733 5734 5735 
3 5736 5737 5738 
3 5739 5740 5741 
3 5742 5743 5744 
3 5745 5746 5747 
3 5748 5749 5750 
3 5751 5752 5753 
3 5754 5755 5756 
3 5757 5758 5759 
3 5760 5761 5762 
3 5763 5764 5765 
3 5766 5767 5768 
3 5769 5770 5771 
3 5772 5773 5774 
3 5775 5776 5777 
3 5778 5779 5780 
3 5781 5782 5783 
3 5784 5785 5786 
3 5787 5788 5789 
3 5790 5791 5792 
3 5793 5794 5795 
3 5796 5797 5798 
3 5799 5800 5801 
3 5802 5803 5804 
3 5805 5806 5807 
3 5808 5809 5810 
3 5811 5812 5813 
3 5814 5815 5816 
3 5817 5818 5819 
3 5820 5821 5822 
3 5823 5824 5825 
3 5826 5827 5828 
3 5829 5830 5831 
3 5832 5833 5834 
3 5835 5836 5837 
3 5838 5839 5840 
3 5841 5842 5843 
3 5844 5845 5846 
3 5847 5848 5849 
3 5850 5851 5852 
3 5853 5854 5855 
3 5856 5857 5858 
3 5859 5860 5861 
3 5862 5863 5864 
3 5865 5866 5867 
3 5868 5869 5870 
3 5871 5872 5873 
3 5874 5875 5876 
3 5877 5878 5879 
3 5880 5881 5882 
3 5883 5884 5885 
3 5886 5887 5888 
3 5889 5890 5891 
3 5892 5893 5894 
3 5895 5896 5897 
3 5898 5899 5900 
3 5901 5902 5903 
3 5904 5905 5906 
3 5907 5908 5909 
3 5910 5911 5912 
3 5913 5914 5915 
3 5916 5917 5918 
3 5919 5920 5921 
3 5922 5923 5924 
3 5925 5926 5927 
3 5928 5929 5930 
3 5931 5932 5933 
3 5934 5935 5936 
3 5937 5938 5939 
3 5940 5941 5942 
3 5943 5944 5945 
3 5946 5947 5948 
3 5949 5950 5951 
3 5952 5953 5954 
3 5955 5956 5957 
3 5958 5959 5960 
3 5961 5962 5963 
3 5964 5965 5966 
3 5967 5968 5969 
3 5970 5971 5972 
3 5973 5974 5975 
3 5976 5977 5978 
3 5979 5980 5981 
3 5982 5983 5984 
3 5985 5986 5987 
3 5988 5989 5990 
3 5991 5992 5993 
3 5994 5995 5996 
3 5997 5998 5999 
3 6000 6001 6002 
3 6003 6004 6005 
3 6006 6007 6008 
3 6009 6010 6011 
3 6012 6013 6014 
3 6015 6016 6017 
3 6018 6019 6020 
3 6021 6022 6023 
3 6024 6025 6026 
3 6027 6028 6029 
3 6030 6031 6032 
3 6033 6034 6035 
3 6036 6037 6038 
3 6039 6040 6041 
3 6042 6043 6044 
3 6045 6046 6047 
3 6048 6049 6050 
3 6051 6052 6053 
3 6054 6055 6056 
3 6057 6058 6059 
3 6060 6061 6062 
3 6063 6064 6065 
3 6066 6067 6068 
3 6069 6070 6071 
3 6072 6073 6074 
3 6075 6076 6077 
3 6078 6079 6080 
3 6081 6082 6083 
3 6084 6085 6086 
3 6087 6088 6089 
3 6090 6091 6092 
3 6093 6094 6095 
3 6096 6097 6098 
3 6099 6100 6101 
3 6102 6103 6104 
3 6105 6106 6107 
3 6108 6109 6110 
3 6111 6112 6113 
3 6114 6115 6116 
3 6117 6118 6119 
3 6120 6121 6122 
3 6123 6124 6125 
3 6126 6127 6128 
3 6129 6130 6131 
3 6132 6133 6134 
3 6135 6136 6137 
3 6138 6139 6140 
3 6141 6142 6143 
3 6144 6145 6146 
3 6147 6148 6149 
3 6150 6151 6152 
3 6153 6154 6155 
3 6156 6157 6158 
3 6159 6160 6161 
3 6162 6163 6164 
3 6165 6166 6167 
3 6168 6169 6170 
3 6171 6172 6173 
3 6174 6175 6176 
3 6177 6178 6179 
3 6180 6181 6182 
3 6183 6184 6185 
3 6186 6187 6188 
3 6189 6190 6191 
3 6192 6193 6194 
3 6195 6196 6197 
3 6198 6199 6200 
3 6201 6202 6203 
3 6204 6205 6206 
3 6207 6208 6209 
3 6210 6211 6212 
3 6213 6214 6215 
3 6216 6217 6218 
3 6219 6220 6221 
3 6222 6223 6224 
3 6225 6226 6227 
3 6228 6229 6230 
3 6231 6232 6233 
3 6234 6235 6236 
3 6237 6238 6239 
3 6240 6241 6242 
3 6243 6244 6245 
3 6246 6247 6248 
3 6249 6250 6251 
3 6252 6253 6254 
3 6255 6256 6257 
3 6258 6259 6260 
3 6261 6262 6263 
3 6264 6265 6266 
3 6267 6268 6269 
3 6270 6271 6272 
3 6273 6274 6275 
3 6276 6277 6278 
3 6279 6280 6281 
3 6282 6283 6284 
3 6285 6286 6287 
3 6288 6289 6290 
3 6291 6292 6293 
3 6294 6295 6296 
3 6297 6298 6299 
3 6300 6301 6302 
3 6303 6304 6305 
3 6306 6307 6308 
3 6309 6310 6311 
3 6312 6313 6314 
3 6315 6316 6317 
3 6318 6319 6320 
3 6321 6322 6323 
3 6324 6325 6326 
3 6327 6328 6329 
3 6330 6331 6332 
3 6333 6334 6335 
3 6336 6337 6338 
3 6339 6340 6341 
3 6342 6343 6344 
3 6345 6346 6347 
3 6348 6349 6350 
3 6351 6352 6353 
3 6354 6355 6356 
3 6357 6358 6359 
3 6360 6361 6362 
3 6363 6364 6365 
3 6366 6367 6368 
3 6369 6370 6371 
3 6372 6373 6374 
3 6375 6376 6377 
3 6378 6379 6380 
3 6381 6382 6383 
3 6384 6385 6386 
3 6387 6388 6389 
3 6390 6391 6392 
3 6393 6394 6395 
3 6396 6397 6398 
3 6399 6400 6401 
3 6402 6403 6404 
3 6405 6406 6407 
3 6408 6409 6410 
3 6411 6412 6413 
3 6414 6415 6416 
3 6417 6418 6419 
3 6420 6421 6422 
3 6423 6424 6425 
3 6426 6427 6428 
3 6429 6430 6431 
3 6432 6433 6434 
3 6435 6436 6437 
3 6438 6439 6440 
3 6441 6442 6443 
3 6444 6445 6446 
3 6447 6448 6449 
3 6450 6451 6452 
3 6453 6454 6455 
3 6456 6457 6458 
3 6459 6460 6461 
3 6462 6463 6464 
3 6465 6466 6467 
3 6468 6469 6470 
3 6471 6472 6473 
3 6474 6475 6476 
3 6477 6478 6479 
3 6480 6481 6482 
3 6483 6484 6485 
3 6486 6487 6488 
3 6489 6490 6491 
3 6492 6493 6494 
3 6495 6496 6497 
3 6498 6499 6500 
3 6501 6502 6503 
3 6504 6505 6506 
3 6507 6508 6509 
3 6510 6511 6512 
3 6513 6514 6515 
3 6516 6517 6518 
3 6519 6520 6521 
3 6522 6523 6524 
3 6525 6526 6527 
3 6528 6529 6530 
3 6531 6532 6533 
3 6534 6535 6536 
3 6537 6538 6539 
3 6540 6541 6542 
3 6543 6544 6545 
3 6546 6547 6548 
3 6549 6550 6551 
3 6552 6553 6554 
3 6555 6556 6557 
3 6558 6559 6560 
3 6561 6562 6563 
3 6564 6565 6566 
3 6567 6568 6569 
3 6570 6571 6572 
3 6573 6574 6575 
3 6576 6577 6578 
3 6579 6580 6581 
3 6582 6583 6584 
3 6585 6586 6587 
3 6588 6589 6590 
3 6591 6592 6593 
3 6594 6595 6596 
3 6597 6598 6599 
3 6600 6601 6602 
3 6603 6604 6605 
3 6606 6607 6608 
3 6609 6610 6611 
3 6612 6613 6614 
3 6615 6616 6617 
3 6618 6619 6620 
3 6621 6622 6623 
3 6624 6625 6626 
3 6627 6628 6629 
3 6630 6631 6632 
3 6633 6634 6635 
3 6636 6637 6638 
3 6639 6640 6641 
3 6642 6643 6644 
3 6645 6646 6647 
3 6648 6649 6650 
3 6651 6652 6653 
3 6654 6655 6656 
3 6657 6658 6659 
3 6660 6661 6662 
3 6663 6664 6665 
3 6666 6667 6668 
3 6669 6670 6671 
3 6672 6673 6674 
3 6675 6676 6677 
3 6678 6679 6680 
3 6681 6682 6683 
3 6684 6685 6686 
3 6687 6688 6689 
3 6690 6691 6692 
3 6693 6694 6695 
3 6696 6697 6698 
3 6699 6700 6701 
3 6702 6703 6704 
3 6705 6706 6707 
3 6708 6709 6710 
3 6711 6712 6713 
3 6714 6715 6716 
3 6717 6718 6719 
3 6720 6721 6722 
3 6723 6724 6725 
3 6726 6727 6728 
3 6729 6730 6731 
3 6732 6733 6734 
3 6735 6736 6737 
3 6738 6739 6740 
3 6741 6742 6743 
3 6744 6745 6746 
3 6747 6748 6749 
3 6750 6751 6752 
3 6753 6754 6755 
3 6756 6757 6758 
3 6759 6760 6761 
3 6762 6763 6764 
3 6765 6766 6767 
3 6768 6769 6770 
3 6771 6772 6773 
3 6774 6775 6776 
3 6777 6778 6779 
3 6780 6781 6782 
3 6783 6784 6785 
3 6786 6787 6788 
3 6789 6790 6791 
3 6792 6793 6794 
3 6795 6796 6797 
3 6798 6799 6800 
3 6801 6802 6803 
3 6804 6805 6806 
3 6807 6808 6809 
3 6810 6811 6812 
3 6813 6814 6815 
3 6816 6817 6818 
3 6819 6820 6821 
3 6822 6823 6824 
3 6825 6826 6827 
3 6828 6829 6830 
3 6831 6832 6833 
3 6834 6835 6836 
3 6837 6838 6839 
3 6840 6841 6842 
3 6843 6844 6845 
3 6846 6847 6848 
3 6849 6850 6851 
3 6852 6853 6854 
3 6855 6856 6857 
3 6858 6859 6860 
3 6861 6862 6863 
3 6864 6865 6866 
3 6867 6868 6869 
3 6870 6871 6872 
3 6873 6874 6875 
3 6876 6877 6878 
3 6879 6880 6881 
3 6882 6883 6884 
3 6885 6886 6887 
3 6888 6889 6890 
3 6891 6892 6893 
3 6894 6895 6896 
3 6897 6898 6899 
3 6900 6901 6902 
3 6903 6904 6905 
3 6906 6907 6908 
3 6909 6910 6911 
3 6912 6913 6914 
3 6915 6916 6917 
3 6918 6919 6920 
3 6921 6922 6923 
3 6924 6925 6926 
3 6927 6928 6929 
3 6930 6931 6932 
3 6933 6934 6935 
3 6936 6937 6938 
3 6939 6940 6941 
3 6942 6943 6944 
3 6945 6946 6947 
3 6948 6949 6950 
3 6951 6952 6953 
3 6954 6955 6956 
3 6957 6958 6959 
3 6960 6961 6962 
3 6963 6964 6965 
3 6966 6967 6968 
3 6969 6970 6971 
3 6972 6973 6974 
3 6975 6976 6977 
3 6978 6979 6980 
3 6981 6982 6983 
3 6984 6985 6986 
3 6987 6988 6989 
3 6990 6991 6992 
3 6993 6994 6995 
3 6996 6997 6998 
3 6999 7000 7001 
3 7002 7003 7004 
3 7005 7006 7007 
3 7008 7009 7010 
3 7011 7012 7013 
3 7014 7015 7016 
3 7017 7018 7019 
3 7020 7021 7022 
3 7023 7024 7025 
3 7026 7027 7028 
3 7029 7030 7031 
3 7032 7033 7034 
3 7035 7036 7037 
3 7038 7039 7040 
3 7041 7042 7043 
3 7044 7045 7046 
3 7047 7048 7049 
3 7050 7051 7052 
3 7053 7054 7055 
3 7056 7057 7058 
3 7059 7060 7061 
3 7062 7063 7064 
3 7065 7066 7067 
3 7068 7069 7070 
3 7071 7072 7073 
3 7074 7075 7076 
3 7077 7078 7079 
3 7080 7081 7082 
3 7083 7084 7085 
3 7086 7087 7088 
3 7089 7090 7091 
3 7092 7093 7094 
3 7095 7096 7097 
3 7098 7099 7100 
3 7101 7102 7103 
3 7104 7105 7106 
3 7107 7108 7109 
3 7110 7111 7112 
3 7113 7114 7115 
3 7116 7117 7118 
3 7119 7120 7121 
3 7122 7123 7124 
3 7125 7126 7127 
3 7128 7129 7130 
3 7131 7132 7133 
3 7134 7135 7136 
3 7137 7138 7139 
3 7140 7141 7142 
3 7143 7144 7145 
3 7146 7147 7148 
3 7149 7150 7151 
3 7152 7153 7154 
3 7155 7156 7157 
3 7158 7159 7160 
3 7161 7162 7163 
3 7164 7165 7166 
3 7167 7168 7169 
3 7170 7171 7172 
3 7173 7174 7175 
3 7176 7177 7178 
3 7179 7180 7181 
3 7182 7183 7184 
3 7185 7186 7187 
3 7188 7189 7190 
3 7191 7192 7193 
3 7194 7195 7196 
3 7197 7198 7199 
3 7200 7201 7202 
3 7203 7204 7205 
3 7206 7207 7208 
3 7209 7210 7211 
3 7212 7213 7214 
3 7215 7216 7217 
3 7218 7219 7220 
3 7221 7222 7223 
3 7224 7225 7226 
3 7227 7228 7229 
3 7230 7231 7232 
3 7233 7234 7235 
3 7236 7237 7238 
3 7239 7240 7241 
3 7242 7243 7244 
3 7245 7246 7247 
3 7248 7249 7250 
3 7251 7252 7253 
3 7254 7255 7256 
3 7257 7258 7259 
3 7260 7261 7262 
3 7263 7264 7265 
3 7266 7267 7268 
3 7269 7270 7271 
3 7272 7273 7274 
3 7275 7276 7277 
3 7278 7279 7280 
3 7281 7282 7283 
3 7284 7285 7286 
3 7287 7288 7289 
3 7290 7291 7292 
3 7293 7294 7295 
3 7296 7297 7298 
3 7299 7300 7301 
3 7302 7303 7304 
3 7305 7306 7307 
3 7308 7309 7310 
3 7311 7312 7313 
3 7314 7315 7316 
3 7317 7318 7319 
3 7320 7321 7322 
3 7323 7324 7325 
3 7326 7327 7328 
3 7329 7330 7331 
3 7332 7333 7334 
3 7335 7336 7337 
3 7338 7339 7340 
3 7341 7342 7343 
3 7344 7345 7346 
3 7347 7348 7349 
3 7350 7351 7352 
3 7353 7354 7355 
3 7356 7357 7358 
3 7359 7360 7361 
3 7362 7363 7364 
3 7365 7366 7367 
3 7368 7369 7370 
3 7371 7372 7373 
3 7374 7375 7376 
3 7377 7378 7379 
3 7380 7381 7382 
3 7383 7384 7385 
3 7386 7387 7388 
3 7389 7390 7391 
3 7392 7393 7394 
3 7395 7396 7397 
3 7398 7399 7400 
3 7401 7402 7403 
3 7404 7405 7406 
3 7407 7408 7409 
3 7410 7411 7412 
3 7413 7414 7415 
3 7416 7417 7418 
3 7419 7420 7421 
3 7422 7423 7424 
3 7425 7426 7427 
3 7428 7429 7430 
3 7431 7432 7433 
3 7434 7435 7436 
3 7437 7438 7439 
3 7440 7441 7442 
3 7443 7444 7445 
3 7446 7447 7448 
3 7449 7450 7451 
3 7452 7453 7454 
3 7455 7456 7457 
3 7458 7459 7460 
3 7461 7462 7463 
3 7464 7465 7466 
3 7467 7468 7469 
3 7470 7471 7472 
3 7473 7474 7475 
3 7476 7477 7478 
3 7479 7480 7481 
3 7482 7483 7484 
3 7485 7486 7487 
3 7488 7489 7490 
3 7491 7492 7493 
3 7494 7495 7496 
3 7497 7498 7499 
3 7500 7501 7502 
3 7503 7504 7505 
3 7506 7507 7508 
3 7509 7510 7511 
3 7512 7513 7514 
3 7515 7516 7517 
3 7518 7519 7520 
3 7521 7522 7523 
3 7524 7525 7526 
3 7527 7528 7529 
3 7530 7531 7532 
3 7533 7534 7535 
3 7536 7537 7538 
3 7539 7540 7541 
3 7542 7543 7544 
3 7545 7546 7547 
3 7548 7549 7550 
3 7551 7552 7553 
3 7554 7555 7556 
3 7557 7558 7559 
3 7560 7561 7562 
3 7563 7564 7565 
3 7566 7567 7568 
3 7569 7570 7571 
3 7572 7573 7574 
3 7575 7576 7577 
3 7578 7579 7580 
3 7581 7582 7583 
3 7584 7585 7586 
3 7587 7588 7589 
3 7590 7591 7592 
3 7593 7594 7595 
3 7596 7597 7598 
3 7599 7600 7601 
3 7602 7603 7604 
3 7605 7606 7607 
3 7608 7609 7610 
3 7611 7612 7613 
3 7614 7615 7616 
3 7617 7618 7619 
3 7620 7621 7622 
3 7623 7624 7625 
3 7626 7627 7628 
3 7629 7630 7631 
3 7632 7633 7634 
3 7635 7636 7637 
3 7638 7639 7640 
3 7641 7642 7643 
3 7644 7645 7646 
3 7647 7648 7649 
3 7650 7651 7652 
3 7653 7654 7655 
3 7656 7657 7658 
3 7659 7660 7661 
3 7662 7663 7664 
3 7665 7666 7667 
3 7668 7669 7670 
3 7671 7672 7673 
3 7674 7675 7676 
3 7677 7678 7679 
3 7680 7681 7682 
3 7683 7684 7685 
3 7686 7687 7688 
3 7689 7690 7691 
3 7692 7693 7694 
3 7695 7696 7697 
3 7698 7699 7700 
3 7701 7702 7703 
3 7704 7705 7706 
3 7707 7708 7709 
3 7710 7711 7712 
3 7713 7714 7715 
3 7716 7717 7718 
3 7719 7720 7721 
3 7722 7723 7724 
3 7725 7726 7727 
3 7728 7729 7730 
3 7731 7732 7733 
3 7734 7735 7736 
3 7737 7738 7739 
3 7740 7741 7742 
3 7743 7744 7745 
3 7746 7747 7748 
3 7749 7750 7751 
3 7752 7753 7754 
3 7755 7756 7757 
3 7758 7759 7760 
3 7761 7762 7763 
3 7764 7765 7766 
3 7767 7768 7769 
3 7770 7771 7772 
3 7773 7774 7775 
3 7776 7777 7778 
3 7779 7780 7781 
3 7782 7783 7784 
3 7785 7786 7787 
3 7788 7789 7790 
3 7791 7792 7793 
3 7794 7795 7796 
3 7797 7798 7799 
3 7800 7801 7802 
3 7803 7804 7805 
3 7806 7807 7808 
3 7809 7810 7811 
3 7812 7813 7814 
3 7815 7816 7817 
3 7818 7819 7820 
3 7821 7822 7823 
3 7824 7825 7826 
3 7827 7828 7829 
3 7830 7831 7832 
3 7833 7834 7835 
3 7836 7837 7838 
3 7839 7840 7841 
3 7842 7843 7844 
3 7845 7846 7847 
3 7848 7849 7850 
3 7851 7852 7853 
3 7854 7855 7856 
3 7857 7858 7859 
3 7860 7861 7862 
3 7863 7864 7865 
3 7866 7867 7868 
3 7869 7870 7871 
3 7872 7873 7874 
3 7875 7876 7877 
3 7878 7879 7880 
3 7881 7882 7883 
3 7884 7885 7886 
3 7887 7888 7889 
3 7890 7891 7892 
3 7893 7894 7895 
3 7896 7897 7898 
3 7899 7900 7901 
3 7902 7903 7904 
3 7905 7906 7907 
3 7908 7909 7910 
3 7911 7912 7913 
3 7914 7915 7916 
3 7917 7918 7919 
3 7920 7921 7922 
3 7923 7924 7925 
3 7926 7927 7928 
3 7929 7930 7931 
3 7932 7933 7934 
3 7935 7936 7937 
3 7938 7939 7940 
3 7941 7942 7943 
3 7944 7945 7946 
3 7947 7948 7949 
3 7950 7951 7952 
3 7953 7954 7955 
3 7956 7957 7958 
3 7959 7960 7961 
3 7962 7963 7964 
3 7965 7966 7967 
3 7968 7969 7970 
3 7971 7972 7973 
3 7974 7975 7976 
3 7977 7978 7979 
3 7980 7981 7982 
3 7983 7984 7985 
3 7986 7987 7988 
3 7989 7990 7991 
3 7992 7993 7994 
3 7995 7996 7997 
3 7998 7999 8000 
3 8001 8002 8003 
3 8004 8005 8006 
3 8007 8008 8009 
3 8010 8011 8012 
3 8013 8014 8015 
3 8016 8017 8018 
3 8019 8020 8021 
3 8022 8023 8024 
3 8025 8026 8027 
3 8028 8029 8030 
3 8031 8032 8033 
3 8034 8035 8036 
3 8037 8038 8039 
3 8040 8041 8042 
3 8043 8044 8045 
3 8046 8047 8048 
3 8049 8050 8051 
3 8052 8053 8054 
3 8055 8056 8057 
3 8058 8059 8060 
3 8061 8062 8063 
3 8064 8065 8066 
3 8067 8068 8069 
3 8070 8071 8072 
3 8073 8074 8075 
3 8076 8077 8078 
3 8079 8080 8081 
3 8082 8083 8084 
3 8085 8086 8087 
3 8088 8089 8090 
3 8091 8092 8093 
3 8094 8095 8096 
3 8097 8098 8099 
3 8100 8101 8102 
3 8103 8104 8105 
3 8106 8107 8108 
3 8109 8110 8111 
3 8112 8113 8114 
3 8115 8116 8117 
3 8118 8119 8120 
3 8121 8122 8123 
3 8124 8125 8126 
3 8127 8128 8129 
3 8130 8131 8132 
3 8133 8134 8135 
3 8136 8137 8138 
3 8139 8140 8141 
3 8142 8143 8144 
3 8145 8146 8147 
3 8148 8149 8150 
3 8151 8152 8153 
3 8154 8155 8156 
3 8157 8158 8159 
3 8160 8161 8162 
3 8163 8164 8165 
3 8166 8167 8168 
3 8169 8170 8171 
3 8172 8173 8174 
3 8175 8176 8177 
3 8178 8179 8180 
3 8181 8182 8183 
3 8184 8185 8186 
3 8187 8188 8189 
3 8190 8191 8192 
3 8193 8194 8195 
3 8196 8197 8198 
3 8199 8200 8201 
3 8202 8203 8204 
3 8205 8206 8207 
3 8208 8209 8210 
3 8211 8212 8213 
3 8214 8215 8216 
3 8217 8218 8219 
3 8220 8221 8222 
3 8223 8224 8225 
3 8226 8227 8228 
3 8229 8230 8231 
3 8232 8233 8234 
3 8235 8236 8237 
3 8238 8239 8240 
3 8241 8242 8243 
3 8244 8245 8246 
3 8247 8248 8249 
3 8250 8251 8252 
3 8253 8254 8255 
3 8256 8257 8258 
3 8259 8260 8261 
3 8262 8263 8264 
3 8265 8266 8267 
3 8268 8269 8270 
3 8271 8272 8273 
3 8274 8275 8276 
3 8277 8278 8279 
3 8280 8281 8282 
3 8283 8284 8285 
3 8286 8287 8288 
3 8289 8290 8291 
3 8292 8293 8294 
3 8295 8296 8297 
3 8298 8299 8300 
3 8301 8302 8303 
3 8304 8305 8306 
3 8307 8308 8309 
3 8310 8311 8312 
3 8313 8314 8315 
3 8316 8317 8318 
3 8319 8320 8321 
3 8322 8323 8324 
3 8325 8326 8327 
3 8328 8329 8330 
3 8331 8332 8333 
3 8334 8335 8336 
3 8337 8338 8339 
3 8340 8341 8342 
3 8343 8344 8345 
3 8346 8347 8348 
3 8349 8350 8351 
3 8352 8353 8354 
3 8355 8356 8357 
3 8358 8359 8360 
3 8361 8362 8363 
3 8364 8365 8366 
3 8367 8368 8369 
3 8370 8371 8372 
3 8373 8374 8375 
3 8376 8377 8378 
3 8379 8380 8381 
3 8382 8383 8384 
3 8385 8386 8387 
3 8388 8389 8390 
3 8391 8392 8393 
3 8394 8395 8396 
3 8397 8398 8399 
3 8400 8401 8402 
3 8403 8404 8405 
3 8406 8407 8408 
3 8409 8410 8411 
3 8412 8413 8414 
3 8415 8416 8417 
3 8418 8419 8420 
3 8421 8422 8423 
3 8424 8425 8426 
3 8427 8428 8429 
3 8430 8431 8432 
3 8433 8434 8435 
3 8436 8437 8438 
3 8439 8440 8441 
3 8442 8443 8444 
3 8445 8446 8447 
3 8448 8449 8450 
3 8451 8452 8453 
3 8454 8455 8456 
3 8457 8458 8459 
3 8460 8461 8462 
3 8463 8464 8465 
3 8466 8467 8468 
3 8469 8470 8471 
3 8472 8473 8474 
3 8475 8476 8477 
3 8478 8479 8480 
3 8481 8482 8483 
3 8484 8485 8486 
3 8487 8488 8489 
3 8490 8491 8492 
3 8493 8494 8495 
3 8496 8497 8498 
3 8499 8500 8501 
3 8502 8503 8504 
3 8505 8506 8507 
3 8508 8509 8510 
3 8511 8512 8513 
3 8514 8515 8516 
3 8517 8518 8519 
3 8520 8521 8522 
3 8523 8524 8525 
3 8526 8527 8528 
3 8529 8530 8531 
3 8532 8533 8534 
3 8535 8536 8537 
3 8538 8539 8540 
3 8541 8542 8543 
3 8544 8545 8546 
3 8547 8548 8549 
3 8550 8551 8552 
3 8553 8554 8555 
3 8556 8557 8558 
3 8559 8560 8561 
3 8562 8563 8564 
3 8565 8566 8567 
3 8568 8569 8570 
3 8571 8572 8573 
3 8574 8575 8576 
3 8577 8578 8579 
3 8580 8581 8582 
3 8583 8584 8585 
3 8586 8587 8588 
3 8589 8590 8591 
3 8592 8593 8594 
3 8595 8596 8597 
3 8598 8599 8600 
3 8601 8602 8603 
3 8604 8605 8606 
3 8607 8608 8609 
3 8610 8611 8612 
3 8613 8614 8615 
3 8616 8617 8618 
3 8619 8620 8621 
3 8622 8623 8624 
3 8625 8626 8627 
3 8628 8629 8630 
3 8631 8632 8633 
3 8634 8635 8636 
3 8637 8638 8639 
3 8640 8641 8642 
3 8643 8644 8645 
3 8646 8647 8648 
3 8649 8650 8651 
3 8652 8653 8654 
3 8655 8656 8657 
3 8658 8659 8660 
3 8661 8662 8663 
3 8664 8665 8666 
3 8667 8668 8669 
3 8670 8671 8672 
3 8673 8674 8675 
3 8676 8677 8678 
3 8679 8680 8681 
3 8682 8683 8684 
3 8685 8686 8687 
3 8688 8689 8690 
3 8691 8692 8693 
3 8694 8695 8696 
3 8697 8698 8699 
3 8700 8701 8702 
3 8703 8704 8705 
3 8706 8707 8708 
3 8709 8710 8711 
3 8712 8713 8714 
3 8715 8716 8717 
3 8718 8719 8720 
3 8721 8722 8723 
3 8724 8725 8726 
3 8727 8728 8729 
3 8730 8731 8732 
3 8733 8734 8735 
3 8736 8737 8738 
3 8739 8740 8741 
3 8742 8743 8744 
3 8745 8746 8747 
3 8748 8749 8750 
3 8751 8752 8753 
3 8754 8755 8756 
3 8757 8758 8759 
3 8760 8761 8762 
3 8763 8764 8765 
3 8766 8767 8768 
3 8769 8770 8771 
3 8772 8773 8774 
3 8775 8776 8777 
3 8778 8779 8780 
3 8781 8782 8783 
3 8784 8785 8786 
3 8787 8788 8789 
3 8790 8791 8792 
3 8793 8794 8795 
3 8796 8797 8798 
3 8799 8800 8801 
3 8802 8803 8804 
3 8805 8806 8807 
3 8808 8809 8810 
3 8811 8812 8813 
3 8814 8815 8816 
3 8817 8818 8819 
3 8820 8821 8822 
3 8823 8824 8825 
3 8826 8827 8828 
3 8829 8830 8831 
3 8832 8833 8834 
3 8835 8836 8837 
3 8838 8839 8840 
3 8841 8842 8843 
3 8844 8845 8846 
3 8847 8848 8849 
3 8850 8851 8852 
3 8853 8854 8855 
3 8856 8857 8858 
3 8859 8860 8861 
3 8862 8863 8864 
3 8865 8866 8867 
3 8868 8869 8870 
3 8871 8872 8873 
3 8874 8875 8876 
3 8877 8878 8879 
3 8880 8881 8882 
3 8883 8884 8885 
3 8886 8887 8888 
3 8889 8890 8891 
3 8892 8893 8894 
3 8895 8896 8897 
3 8898 8899 8900 
3 8901 8902 8903 
3 8904 8905 8906 
3 8907 8908 8909 
3 8910 8911 8912 
3 8913 8914 8915 
3 8916 8917 8918 
3 8919 8920 8921 
3 8922 8923 8924 
3 8925 8926 8927 
3 8928 8929 8930 
3 8931 8932 8933 
3 8934 8935 8936 
3 8937 8938 8939 
3 8940 8941 8942 
3 8943 8944 8945 
3 8946 8947 8948 
3 8949 8950 8951 
3 8952 8953 8954 
3 8955 8956 8957 
3 8958 8959 8960 
3 8961 8962 8963 
3 8964 8965 8966 
3 8967 8968 8969 
3 8970 8971 8972 
3 8973 8974 8975 
3 8976 8977 8978 
3 8979 8980 8981 
3 8982 8983 8984 
3 8985 8986 8987 
3 8988 8989 8990 
3 8991 8992 8993 
3 8994 8995 8996 
3 8997 8998 8999 
3 9000 9001 9002 
3 9003 9004 9005 
3 9006 9007 9008 
3 9009 9010 9011 
3 9012 9013 9014 
3 9015 9016 9017 
3 9018 9019 9020 
3 9021 9022 9023 
3 9024 9025 9026 
3 9027 9028 9029 
3 9030 9031 9032 
3 9033 9034 9035 
3 9036 9037 9038 
3 9039 9040 9041 
3 9042 9043 9044 
3 9045 9046 9047 
3 9048 9049 9050 
3 9051 9052 9053 
3 9054 9055 9056 
3 9057 9058 9059 
3 9060 9061 9062 
3 9063 9064 9065 
3 9066 9067 9068 
3 9069 9070 9071 
3 9072 9073 9074 
3 9075 9076 9077 
3 9078 9079 9080 
3 9081 9082 9083 
3 9084 9085 9086 
3 9087 9088 9089 
3 9090 9091 9092 
3 9093 9094 9095 
3 9096 9097 9098 
3 9099 9100 9101 
3 9102 9103 9104 
3 9105 9106 9107 
3 9108 9109 9110 
3 9111 9112 9113 
3 9114 9115 9116 
3 9117 9118 9119 
3 9120 9121 9122 
3 9123 9124 9125 
3 9126 9127 9128 
3 9129 9130 9131 
3 9132 9133 9134 
3 9135 9136 9137 
3 9138 9139 9140 
3 9141 9142 9143 
3 9144 9145 9146 
3 9147 9148 9149 
3 9150 9151 9152 
3 9153 9154 9155 
3 9156 9157 9158 
3 9159 9160 9161 
3 9162 9163 9164 
3 9165 9166 9167 
3 9168 9169 9170 
3 9171 9172 9173 
3 9174 9175 9176 
3 9177 9178 9179 
3 9180 9181 9182 
3 9183 9184 9185 
3 9186 9187 9188 
3 9189 9190 9191 
3 9192 9193 9194 
3 9195 9196 9197 
3 9198 9199 9200 
3 9201 9202 9203 
3 9204 9205 9206 
3 9207 9208 9209 
3 9210 9211 9212 
3 9213 9214 9215 
3 9216 9217 9218 
3 9219 9220 9221 
3 9222 9223 9224 
3 9225 9226 9227 
3 9228 9229 9230 
3 9231 9232 9233 
3 9234 9235 9236 
3 9237 9238 9239 
3 9240 9241 9242 
3 9243 9244 9245 
3 9246 9247 9248 
3 9249 9250 9251 
3 9252 9253 9254 
3 9255 9256 9257 
3 9258 9259 9260 
3 9261 9262 9263 
3 9264 9265 9266 
3 9267 9268 9269 
3 9270 9271 9272 
3 9273 9274 9275 
3 9276 9277 9278 
3 9279 9280 9281 
3 9282 9283 9284 
3 9285 9286 9287 
3 9288 9289 9290 
3 9291 9292 9293 
3 9294 9295 9296 
3 9297 9298 9299 
3 9300 9301 9302 
3 9303 9304 9305 
3 9306 9307 9308 
3 9309 9310 9311 
3 9312 9313 9314 
3 9315 9316 9317 
3 9318 9319 9320 
3 9321 9322 9323 
3 9324 9325 9326 
3 9327 9328 9329 
3 9330 9331 9332 
3 9333 9334 9335 
3 9336 9337 9338 
3 9339 9340 9341 
3 9342 9343 9344 
3 9345 9346 9347 
3 9348 9349 9350 
3 9351 9352 9353 
3 9354 9355 9356 
3 9357 9358 9359 
3 9360 9361 9362 
3 9363 9364 9365 
3 9366 9367 9368 
3 9369 9370 9371 
3 9372 9373 9374 
3 9375 9376 9377 
3 9378 9379 9380 
3 9381 9382 9383 
3 9384 9385 9386 
3 9387 9388 9389 
3 9390 9391 9392 
3 9393 9394 9395 
3 9396 9397 9398 
3 9399 9400 9401 
3 9402 9403 9404 
3 9405 9406 9407 
3 9408 9409 9410 
3 9411 9412 9413 
3 9414 9415 9416 
3 9417 9418 9419 
3 9420 9421 9422 
3 9423 9424 9425 
3 9426 9427 9428 
3 9429 9430 9431 
3 9432 9433 9434 
3 9435 9436 9437 
3 9438 9439 9440 
3 9441 9442 9443 
3 9444 9445 9446 
3 9447 9448 9449 
3 9450 9451 9452 
3 9453 9454 9455 
3 9456 9457 9458 
3 9459 9460 9461 
3 9462 9463 9464 
3 9465 9466 9467 
3 9468 9469 9470 
3 9471 9472 9473 
3 9474 9475 9476 
3 9477 9478 9479 
3 9480 9481 9482 
3 9483 9484 9485 
3 9486 9487 9488 
3 9489 9490 9491 
3 9492 9493 9494 
3 9495 9496 9497 
3 9498 9499 9500 
3 9501 9502 9503 
3 9504 9505 9506 
3 9507 9508 9509 
3 9510 9511 9512 
3 9513 9514 9515 
3 9516 9517 9518 
3 9519 9520 9521 
3 9522 9523 9524 
3 9525 9526 9527 
3 9528 9529 9530 
3 9531 9532 9533 
3 9534 9535 9536 
3 9537 9538 9539 
3 9540 9541 9542 
3 9543 9544 9545 
3 9546 9547 9548 
3 9549 9550 9551 
3 9552 9553 9554 
3 9555 9556 9557 
3 9558 9559 9560 
3 9561 9562 9563 
3 9564 9565 9566 
3 9567 9568 9569 
3 9570 9571 9572 
3 9573 9574 9575 
3 9576 9577 9578 
3 9579 9580 9581 
3 9582 9583 9584 
3 9585 9586 9587 
3 9588 9589 9590 
3 9591 9592 9593 
3 9594 9595 9596 
3 9597 9598 9599 
3 9600 9601 9602 
3 9603 9604 9605 
3 9606 9607 9608 
3 9609 9610 9611 
3 9612 9613 9614 
3 9615 9616 9617 
3 9618 9619 9620 
3 9621 9622 9623 
3 9624 9625 9626 
3 9627 9628 9629 
3 9630 9631 9632 
3 9633 9634 9635 
3 9636 9637 9638 
3 9639 9640 9641 
3 9642 9643 9644 
3 9645 9646 9647 
3 9648 9649 9650 
3 9651 9652 9653 
3 9654 9655 9656 
3 9657 9658 9659 
3 9660 9661 9662 
3 9663 9664 9665 
3 9666 9667 9668 
3 9669 9670 9671 
3 9672 9673 9674 
3 9675 9676 9677 
3 9678 9679 9680 
3 9681 9682 9683 
3 9684 9685 9686 
3 9687 9688 9689 
3 9690 9691 9692 
3 9693 9694 9695 
3 9696 9697 9698 
3 9699 9700 9701 
3 9702 9703 9704 
3 9705 9706 9707 
3 9708 9709 9710 
3 9711 9712 9713 
3 9714 9715 9716 
3 9717 9718 9719 
3 9720 9721 9722 
3 9723 9724 9725 
3 9726 9727 9728 
3 9729 9730 9731 
3 9732 9733 9734 
3 9735 9736 9737 
3 9738 9739 9740 
3 9741 9742 9743 
3 9744 9745 9746 
3 9747 9748 9749 
3 9750 9751 9752 
3 9753 9754 9755 
3 9756 9757 9758 
3 9759 9760 9761 
3 9762 9763 9764 
3 9765 9766 9767 
3 9768 9769 9770 
3 9771 9772 9773 
3 9774 9775 9776 
3 9777 9778 9779 
3 9780 9781 9782 
3 9783 9784 9785 
3 9786 9787 9788 
3 9789 9790 9791 
3 9792 9793 9794 
3 9795 9796 9797 
3 9798 9799 9800 
3 9801 9802 9803 
3 9804 9805 9806 
3 9807 9808 9809 
3 9810 9811 9812 
3 9813 9814 9815 
3 9816 9817 9818 
3 9819 9820 9821 
3 9822 9823 9824 
3 9825 9826 9827 
3 9828 9829 9830 
3 9831 9832 9833 
3 9834 9835 9836 
3 9837 9838 9839 
3 9840 9841 9842 
3 9843 9844 9845 
3 9846 9847 9848 
3 9849 9850 9851 
3 9852 9853 9854 
3 9855 9856 9857 
3 9858 9859 9860 
3 9861 9862 9863 
3 9864 9865 9866 
3 9867 9868 9869 
3 9870 9871 9872 
3 9873 9874 9875 
3 9876 9877 9878 
3 9879 9880 9881 
3 9882 9883 9884 
3 9885 9886 9887 
3 9888 9889 9890 
3 9891 9892 9893 
3 9894 9895 9896 
3 9897 9898 9899 
3 9900 9901 9902 
3 9903 9904 9905 
3 9906 9907 9908 
3 9909 9910 9911 
3 9912 9913 9914 
3 9915 9916 9917 
3 9918 9919 9920 
3 9921 9922 9923 
3 9924 9925 9926 
3 9927 9928 9929 
3 9930 9931 9932 
3 9933 9934 9935 
3 9936 9937 9938 
3 9939 9940 9941 
3 9942 9943 9944 
3 9945 9946 9947 
3 9948 9949 9950 
3 9951 9952 9953 
3 9954 9955 9956 
3 9957 9958 9959 
3 9960 9961 9962 
3 9963 9964 9965 
3 9966 9967 9968 
3 9969 9970 9971 
3 9972 9973 9974 
3 9975 9976 9977 
3 9978 9979 9980 
3 9981 9982 9983 
3 9984 9985 9986 
3 9987 9988 9989 
3 9990 9991 9992 
3 9993 9994 9995 
3 9996 9997 9998 
3 9999 10000 10001 
3 10002 10003 10004 
3 10005 10006 10007 
3 10008 10009 10010 
3 10011 10012 10013 
3 10014 10015 10016 
3 10017 10018 10019 
3 10020 10021 10022 
3 10023 10024 10025 
3 10026 10027 10028 
3 10029 10030 10031 
3 10032 10033 10034 
3 10035 10036 10037 
3 10038 10039 10040 
3 10041 10042 10043 
3 10044 10045 10046 
3 10047 10048 10049 
3 10050 10051 10052 
3 10053 10054 10055 
3 10056 10057 10058 
3 10059 10060 10061 
3 10062 10063 10064 
3 10065 10066 10067 
3 10068 10069 10070 
3 10071 10072 10073 
3 10074 10075 10076 
3 10077 10078 10079 
3 10080 10081 10082 
3 10083 10084 10085 
3 10086 10087 10088 
3 10089 10090 10091 
3 10092 10093 10094 
3 10095 10096 10097 
3 10098 10099 10100 
3 10101 10102 10103 
3 10104 10105 10106 
3 10107 10108 10109 
3 10110 10111 10112 
3 10113 10114 10115 
3 10116 10117 10118 
3 10119 10120 10121 
3 10122 10123 10124 
3 10125 10126 10127 
3 10128 10129 10130 
3 10131 10132 10133 
3 10134 10135 10136 
3 10137 10138 10139 
3 10140 10141 10142 
3 10143 10144 10145 
3 10146 10147 10148 
3 10149 10150 10151 
3 10152 10153 10154 
3 10155 10156 10157 
3 10158 10159 10160 
3 10161 10162 10163 
3 10164 10165 10166 
3 10167 10168 10169 
3 10170 10171 10172 
3 10173 10174 10175 
3 10176 10177 10178 
3 10179 10180 10181 
3 10182 10183 10184 
3 10185 10186 10187 
3 10188 10189 10190 
3 10191 10192 10193 
3 10194 10195 10196 
3 10197 10198 10199 
3 10200 10201 10202 
3 10203 10204 10205 
3 10206 10207 10208 
3 10209 10210 10211 
3 10212 10213 10214 
3 10215 10216 10217 
3 10218 10219 10220 
3 10221 10222 10223 
3 10224 10225 10226 
3 10227 10228 10229 
3 10230 10231 10232 
3 10233 10234 10235 
3 10236 10237 10238 
3 10239 10240 10241 
3 10242 10243 10244 
3 10245 10246 10247 
3 10248 10249 10250 
3 10251 10252 10253 
3 10254 10255 10256 
3 10257 10258 10259 
3 10260 10261 10262 
3 10263 10264 10265 
3 10266 10267 10268 
3 10269 10270 10271 
3 10272 10273 10274 
3 10275 10276 10277 
3 10278 10279 10280 
3 10281 10282 10283 
3 10284 10285 10286 
3 10287 10288 10289 
3 10290 10291 10292 
3 10293 10294 10295 
3 10296 10297 10298 
3 10299 10300 10301 
3 10302 10303 10304 
3 10305 10306 10307 
3 10308 10309 10310 
3 10311 10312 10313 
3 10314 10315 10316 
3 10317 10318 10319 
3 10320 10321 10322 
3 10323 10324 10325 
3 10326 10327 10328 
3 10329 10330 10331 
3 10332 10333 10334 
3 10335 10336 10337 
3 10338 10339 10340 
3 10341 10342 10343 
3 10344 10345 10346 
3 10347 10348 10349 
3 10350 10351 10352 
3 10353 10354 10355 
3 10356 10357 10358 
3 10359 10360 10361 
3 10362 10363 10364 
3 10365 10366 10367 
3 10368 10369 10370 
3 10371 10372 10373 
3 10374 10375 10376 
3 10377 10378 10379 
3 10380 10381 10382 
3 10383 10384 10385 
3 10386 10387 10388 
3 10389 10390 10391 
3 10392 10393 10394 
3 10395 10396 10397 
3 10398 10399 10400 
3 10401 10402 10403 
3 10404 10405 10406 
3 10407 10408 10409 
3 10410 10411 10412 
3 10413 10414 10415 
3 10416 10417 10418 
3 10419 10420 10421 
3 10422 10423 10424 
3 10425 10426 10427 
3 10428 10429 10430 
3 10431 10432 10433 
3 10434 10435 10436 
3 10437 10438 10439 
3 10440 10441 10442 
3 10443 10444 10445 
3 10446 10447 10448 
3 10449 10450 10451 
3 10452 10453 10454 
3 10455 10456 10457 
3 10458 10459 10460 
3 10461 10462 10463 
3 10464 10465 10466 
3 10467 10468 10469 
3 10470 10471 10472 
3 10473 10474 10475 
3 10476 10477 10478 
3 10479 10480 10481 
3 10482 10483 10484 
3 10485 10486 10487 
3 10488 10489 10490 
3 10491 10492 10493 
3 10494 10495 10496 
3 10497 10498 10499 
3 10500 10501 10502 
3 10503 10504 10505 
3 10506 10507 10508 
3 10509 10510 10511 
3 10512 10513 10514 
3 10515 10516 10517 
3 10518 10519 10520 
3 10521 10522 10523 
3 10524 10525 10526 
3 10527 10528 10529 
3 10530 10531 10532 
3 10533 10534 10535 
3 10536 10537 10538 
3 10539 10540 10541 
3 10542 10543 10544 
3 10545 10546 10547 
3 10548 10549 10550 
3 10551 10552 10553 
3 10554 10555 10556 
3 10557 10558 10559 
3 10560 10561 10562 
3 10563 10564 10565 
3 10566 10567 10568 
3 10569 10570 10571 
3 10572 10573 10574 
3 10575 10576 10577 
3 10578 10579 10580 
3 10581 10582 10583 
3 10584 10585 10586 
3 10587 10588 10589 
3 10590 10591 10592 
3 10593 10594 10595 
3 10596 10597 10598 
3 10599 10600 10601 
3 10602 10603 10604 
3 10605 10606 10607 
3 10608 10609 10610 
3 10611 10612 10613 
3 10614 10615 10616 
3 10617 10618 10619 
3 10620 10621 10622 
3 10623 10624 10625 
3 10626 10627 10628 
3 10629 10630 10631 
3 10632 10633 10634 
3 10635 10636 10637 
3 10638 10639 10640 
3 10641 10642 10643 
3 10644 10645 10646 
3 10647 10648 10649 
3 10650 10651 10652 
3 10653 10654 10655 
3 10656 10657 10658 
3 10659 10660 10661 
3 10662 10663 10664 
3 10665 10666 10667 
3 10668 10669 10670 
3 10671 10672 10673 
3 10674 10675 10676 
3 10677 10678 10679 
3 10680 10681 10682 
3 10683 10684 10685 
3 10686 10687 10688 
3 10689 10690 10691 
3 10692 10693 10694 
3 10695 10696 10697 
3 10698 10699 10700 
3 10701 10702 10703 
3 10704 10705 10706 
3 10707 10708 10709 
3 10710 10711 10712 
3 10713 10714 10715 
3 10716 10717 10718 
3 10719 10720 10721 
3 10722 10723 10724 
3 10725 10726 10727 
3 10728 10729 10730 
3 10731 10732 10733 
3 10734 10735 10736 
3 10737 10738 10739 
3 10740 10741 10742 
3 10743 10744 10745 
3 10746 10747 10748 
3 10749 10750 10751 
3 10752 10753 10754 
3 10755 10756 10757 
3 10758 10759 10760 
3 10761 10762 10763 
3 10764 10765 10766 
3 10767 10768 10769 
3 10770 10771 10772 
3 10773 10774 10775 
3 10776 10777 10778 
3 10779 10780 10781 
3 10782 10783 10784 
3 10785 10786 10787 
3 10788 10789 10790 
3 10791 10792 10793 
3 10794 10795 10796 
3 10797 10798 10799 
3 10800 10801 10802 
3 10803 10804 10805 
3 10806 10807 10808 
3 10809 10810 10811 
3 10812 10813 10814 
3 10815 10816 10817 
3 10818 10819 10820 
3 10821 10822 10823 
3 10824 10825 10826 
3 10827 10828 10829 
3 10830 10831 10832 
3 10833 10834 10835 
3 10836 10837 10838 
3 10839 10840 10841 
3 10842 10843 10844 
3 10845 10846 10847 
3 10848 10849 10850 
3 10851 10852 10853 
3 10854 10855 10856 
3 10857 10858 10859 
3 10860 10861 10862 
3 10863 10864 10865 
3 10866 10867 10868 
3 10869 10870 10871 
3 10872 10873 10874 
3 10875 10876 10877 
3 10878 10879 10880 
3 10881 10882 10883 
3 10884 10885 10886 
3 10887 10888 10889 
3 10890 10891 10892 
3 10893 10894 10895 
3 10896 10897 10898 
3 10899 10900 10901 
3 10902 10903 10904 
3 10905 10906 10907 
3 10908 10909 10910 
3 10911 10912 10913 
3 10914 10915 10916 
3 10917 10918 10919 
3 10920 10921 10922 
3 10923 10924 10925 
3 10926 10927 10928 
3 10929 10930 10931 
3 10932 10933 10934 
3 10935 10936 10937 
3 10938 10939 10940 
3 10941 10942 10943 
3 10944 10945 10946 
3 10947 10948 10949 
3 10950 10951 10952 
3 10953 10954 10955 
3 10956 10957 10958 
3 10959 10960 10961 
3 10962 10963 10964 
3 10965 10966 10967 
3 10968 10969 10970 
3 10971 10972 10973 
3 10974 10975 10976 
3 10977 10978 10979 
3 10980 10981 10982 
3 10983 10984 10985 
3 10986 10987 10988 
3 10989 10990 10991 
3 10992 10993 10994 
3 10995 10996 10997 
3 10998 10999 11000 
3 11001 11002 11003 
3 11004 11005 11006 
3 11007 11008 11009 
3 11010 11011 11012 
3 11013 11014 11015 
3 11016 11017 11018 
3 11019 11020 11021 
3 11022 11023 11024 
3 11025 11026 11027 
3 11028 11029 11030 
3 11031 11032 11033 
3 11034 11035 11036 
3 11037 11038 11039 
3 11040 11041 11042 
3 11043 11044 11045 
3 11046 11047 11048 
3 11049 11050 11051 
3 11052 11053 11054 
3 11055 11056 11057 
3 11058 11059 11060 
3 11061 11062 11063 
3 11064 11065 11066 
3 11067 11068 11069 
3 11070 11071 11072 
3 11073 11074 11075 
3 11076 11077 11078 
3 11079 11080 11081 
3 11082 11083 11084 
3 11085 11086 11087 
3 11088 11089 11090 
3 11091 11092 11093 
3 11094 11095 11096 
3 11097 11098 11099 
3 11100 11101 11102 
3 11103 11104 11105 
3 11106 11107 11108 
3 11109 11110 11111 
3 11112 11113 11114 
3 11115 11116 11117 
3 11118 11119 11120 
3 11121 11122 11123 
3 11124 11125 11126 
3 11127 11128 11129 
3 11130 11131 11132 
3 11133 11134 11135 
3 11136 11137 11138 
3 11139 11140 11141 
3 11142 11143 11144 
3 11145 11146 11147 
3 11148 11149 11150 
3 11151 11152 11153 
3 11154 11155 11156 
3 11157 11158 11159 
3 11160 11161 11162 
3 11163 11164 11165 
3 11166 11167 11168 
3 11169 11170 11171 
3 11172 11173 11174 
3 11175 11176 11177 
3 11178 11179 11180 
3 11181 11182 11183 
3 11184 11185 11186 
3 11187 11188 11189 
3 11190 11191 11192 
3 11193 11194 11195 
3 11196 11197 11198 
3 11199 11200 11201 
3 11202 11203 11204 
3 11205 11206 11207 
3 11208 11209 11210 
3 11211 11212 11213 
3 11214 11215 11216 
3 11217 11218 11219 
3 11220 11221 11222 
3 11223 11224 11225 
3 11226 11227 11228 
3 11229 11230 11231 
3 11232 11233 11234 
3 11235 11236 11237 
3 11238 11239 11240 
3 11241 11242 11243 
3 11244 11245 11246 
3 11247 11248 11249 
3 11250 11251 11252 
3 11253 11254 11255 
3 11256 11257 11258 
3 11259 11260 11261 
3 11262 11263 11264 
3 11265 11266 11267 
3 11268 11269 11270 
3 11271 11272 11273 
3 11274 11275 11276 
3 11277 11278 11279 
3 11280 11281 11282 
3 11283 11284 11285 
3 11286 11287 11288 
3 11289 11290 11291 
3 11292 11293 11294 
3 11295 11296 11297 
3 11298 11299 11300 
3 11301 11302 11303 
3 11304 11305 11306 
3 11307 11308 11309 
3 11310 11311 11312 
3 11313 11314 11315 
3 11316 11317 11318 
3 11319 11320 11321 
3 11322 11323 11324 
3 11325 11326 11327 
3 11328 11329 11330 
3 11331 11332 11333 
3 11334 11335 11336 
3 11337 11338 11339 
3 11340 11341 11342 
3 11343 11344 11345 
3 11346 11347 11348 
3 11349 11350 11351 
3 11352 11353 11354 
3 11355 11356 11357 
3 11358 11359 11360 
3 11361 11362 11363 
3 11364 11365 11366 
3 11367 11368 11369 
3 11370 11371 11372 
3 11373 11374 11375 
3 11376 11377 11378 
3 11379 11380 11381 
3 11382 11383 11384 
3 11385 11386 11387 
3 11388 11389 11390 
3 11391 11392 11393 
3 11394 11395 11396 
3 11397 11398 11399 
3 11400 11401 11402 
3 11403 11404 11405 
3 11406 11407 11408 
3 11409 11410 11411 
3 11412 11413 11414 
3 11415 11416 11417 
3 11418 11419 11420 
3 11421 11422 11423 
3 11424 11425 11426 
3 11427 11428 11429 
3 11430 11431 11432 
3 11433 11434 11435 
3 11436 11437 11438 
3 11439 11440 11441 
3 11442 11443 11444 
3 11445 11446 11447 
3 11448 11449 11450 
3 11451 11452 11453 
3 11454 11455 11456 
3 11457 11458 11459 
3 11460 11461 11462 
3 11463 11464 11465 
3 11466 11467 11468 
3 11469 11470 11471 
3 11472 11473 11474 
3 11475 11476 11477 
3 11478 11479 11480 
3 11481 11482 11483 
3 11484 11485 11486 
3 11487 11488 11489 
3 11490 11491 11492 
3 11493 11494 11495 
3 11496 11497 11498 
3 11499 11500 11501 
3 11502 11503 11504 
3 11505 11506 11507 
3 11508 11509 11510 
3 11511 11512 11513 
3 11514 11515 11516 
3 11517 11518 11519 
3 11520 11521 11522 
3 11523 11524 11525 
3 11526 11527 11528 
3 11529 11530 11531 
3 11532 11533 11534 
3 11535 11536 11537 
3 11538 11539 11540 
3 11541 11542 11543 
3 11544 11545 11546 
3 11547 11548 11549 
3 11550 11551 11552 
3 11553 11554 11555 
3 11556 11557 11558 
3 11559 11560 11561 
3 11562 11563 11564 
3 11565 11566 11567 
3 11568 11569 11570 
3 11571 11572 11573 
3 11574 11575 11576 
3 11577 11578 11579 
3 11580 11581 11582 
3 11583 11584 11585 
3 11586 11587 11588 
3 11589 11590 11591 
3 11592 11593 11594 
3 11595 11596 11597 
3 11598 11599 11600 
3 11601 11602 11603 
3 11604 11605 11606 
3 11607 11608 11609 
3 11610 11611 11612 
3 11613 11614 11615 
3 11616 11617 11618 
3 11619 11620 11621 
3 11622 11623 11624 
3 11625 11626 11627 
3 11628 11629 11630 
3 11631 11632 11633 
3 11634 11635 11636 
3 11637 11638 11639 
3 11640 11641 11642 
3 11643 11644 11645 
3 11646 11647 11648 
3 11649 11650 11651 
3 11652 11653 11654 
3 11655 11656 11657 
3 11658 11659 11660 
3 11661 11662 11663 
3 11664 11665 11666 
3 11667 11668 11669 
3 11670 11671 11672 
3 11673 11674 11675 
3 11676 11677 11678 
3 11679 11680 11681 
3 11682 11683 11684 
3 11685 11686 11687 
3 11688 11689 11690 
3 11691 11692 11693 
3 11694 11695 11696 
3 11697 11698 11699 
3 11700 11701 11702 
3 11703 11704 11705 
3 11706 11707 11708 
3 11709 11710 11711 
3 11712 11713 11714 
3 11715 11716 11717 
3 11718 11719 11720 
3 11721 11722 11723 
3 11724 11725 11726 
3 11727 11728 11729 
3 11730 11731 11732 
3 11733 11734 11735 
3 11736 11737 11738 
3 11739 11740 11741 
3 11742 11743 11744 
3 11745 11746 11747 
3 11748 11749 11750 
3 11751 11752 11753 
3 11754 11755 11756 
3 11757 11758 11759 
3 11760 11761 11762 
3 11763 11764 11765 
3 11766 11767 11768 
3 11769 11770 11771 
3 11772 11773 11774 
3 11775 11776 11777 
3 11778 11779 11780 
3 11781 11782 11783 
3 11784 11785 11786 
3 11787 11788 11789 
3 11790 11791 11792 
3 11793 11794 11795 
3 11796 11797 11798 
3 11799 11800 11801 
3 11802 11803 11804 
3 11805 11806 11807 
3 11808 11809 11810 
3 11811 11812 11813 
3 11814 11815 11816 
3 11817 11818 11819 
3 11820 11821 11822 
3 11823 11824 11825 
3 11826 11827 11828 
3 11829 11830 11831 
3 11832 11833 11834 
3 11835 11836 11837 
3 11838 11839 11840 
3 11841 11842 11843 
3 11844 11845 11846 
3 11847 11848 11849 
3 11850 11851 11852 
3 11853 11854 11855 
3 11856 11857 11858 
3 11859 11860 11861 
3 11862 11863 11864 
3 11865 11866 11867 
3 11868 11869 11870 
3 11871 11872 11873 
3 11874 11875 11876 
3 11877 11878 11879 
3 11880 11881 11882 
3 11883 11884 11885 
3 11886 11887 11888 
3 11889 11890 11891 
3 11892 11893 11894 
3 11895 11896 11897 
3 11898 11899 11900 
3 11901 11902 11903 
3 11904 11905 11906 
3 11907 11908 11909 
3 11910 11911 11912 
3 11913 11914 11915 
3 11916 11917 11918 
3 11919 11920 11921 
3 11922 11923 11924 
3 11925 11926 11927 
3 11928 11929 11930 
3 11931 11932 11933 
3 11934 11935 11936 
3 11937 11938 11939 
3 11940 11941 11942 
3 11943 11944 11945 
3 11946 11947 11948 
3 11949 11950 11951 
3 11952 11953 11954 
3 11955 11956 11957 
3 11958 11959 11960 
3 11961 11962 11963 
3 11964 11965 11966 
3 11967 11968 11969 
3 11970 11971 11972 
3 11973 11974 11975 
3 11976 11977 11978 
3 11979 11980 11981 
3 11982 11983 11984 
3 11985 11986 11987 
3 11988 11989 11990 
3 11991 11992 11993 
3 11994 11995 11996 
3 11997 11998 11999 
3 12000 12001 12002 
3 12003 12004 12005 
3 12006 12007 12008 
3 12009 12010 12011 
3 12012 12013 12014 
3 12015 12016 12017 
3 12018 12019 12020 
3 12021 12022 12023 
3 12024 12025 12026 
3 12027 12028 12029 
3 12030 12031 12032 
3 12033 12034 12035 
3 12036 12037 12038 
3 12039 12040 12041 
3 12042 12043 12044 
3 12045 12046 12047 
3 12048 12049 12050 
3 12051 12052 12053 
3 12054 12055 12056 
3 12057 12058 12059 
3 12060 12061 12062 
3 12063 12064 12065 
3 12066 12067 12068 
3 12069 12070 12071 
3 12072 12073 12074 
3 12075 12076 12077 
3 12078 12079 12080 
3 12081 12082 12083 
3 12084 12085 12086 
3 12087 12088 12089 
3 12090 12091 12092 
3 12093 12094 12095 
3 12096 12097 12098 
3 12099 12100 12101 
3 12102 12103 12104 
3 12105 12106 12107 
3 12108 12109 12110 
3 12111 12112 12113 
3 12114 12115 12116 
3 12117 12118 12119 
3 12120 12121 12122 
3 12123 12124 12125 
3 12126 12127 12128 
3 12129 12130 12131 
3 12132 12133 12134 
3 12135 12136 12137 
3 12138 12139 12140 
3 12141 12142 12143 
3 12144 12145 12146 
3 12147 12148 12149 
3 12150 12151 12152 
3 12153 12154 12155 
3 12156 12157 12158 
3 12159 12160 12161 
3 12162 12163 12164 
3 12165 12166 12167 
3 12168 12169 12170 
3 12171 12172 12173 
3 12174 12175 12176 
3 12177 12178 12179 
3 12180 12181 12182 
3 12183 12184 12185 
3 12186 12187 12188 
3 12189 12190 12191 
3 12192 12193 12194 
3 12195 12196 12197 
3 12198 12199 12200 
3 12201 12202 12203 
3 12204 12205 12206 
3 12207 12208 12209 
3 12210 12211 12212 
3 12213 12214 12215 
3 12216 12217 12218 
3 12219 12220 12221 
3 12222 12223 12224 
3 12225 12226 12227 
3 12228 12229 12230 
3 12231 12232 12233 
3 12234 12235 12236 
3 12237 12238 12239 
3 12240 12241 12242 
3 12243 12244 12245 
3 12246 12247 12248 
3 12249 12250 12251 
3 12252 12253 12254 
3 12255 12256 12257 
3 12258 12259 12260 
3 12261 12262 12263 
3 12264 12265 12266 
3 12267 12268 12269 
3 12270 12271 12272 
3 12273 12274 12275 
3 12276 12277 12278 
3 12279 12280 12281 
3 12282 12283 12284 
3 12285 12286 12287 
3 12288 12289 12290 
3 12291 12292 12293 
3 12294 12295 12296 
3 12297 12298 12299 
3 12300 12301 12302 
3 12303 12304 12305 
3 12306 12307 12308 
3 12309 12310 12311 
3 12312 12313 12314 
3 12315 12316 12317 
3 12318 12319 12320 
3 12321 12322 12323 
3 12324 12325 12326 
3 12327 12328 12329 
3 12330 12331 12332 
3 12333 12334 12335 
3 12336 12337 12338 
3 12339 12340 12341 
3 12342 12343 12344 
3 12345 12346 12347 
3 12348 12349 12350 
3 12351 12352 12353 
3 12354 12355 12356 
3 12357 12358 12359 
3 12360 12361 12362 
3 12363 12364 12365 
3 12366 12367 12368 
3 12369 12370 12371 
3 12372 12373 12374 
3 12375 12376 12377 
3 12378 12379 12380 
3 12381 12382 12383 
3 12384 12385 12386 
3 12387 12388 12389 
3 12390 12391 12392 
3 12393 12394 12395 
3 12396 12397 12398 
3 12399 12400 12401 
3 12402 12403 12404 
3 12405 12406 12407 
3 12408 12409 12410 
3 12411 12412 12413 
3 12414 12415 12416 
3 12417 12418 12419 
3 12420 12421 12422 
3 12423 12424 12425 
3 12426 12427 12428 
3 12429 12430 12431 
3 12432 12433 12434 
3 12435 12436 12437 
3 12438 12439 12440 
3 12441 12442 12443 
3 12444 12445 12446 
3 12447 12448 12449 
3 12450 12451 12452 
3 12453 12454 12455 
3 12456 12457 12458 
3 12459 12460 12461 
3 12462 12463 12464 
3 12465 12466 12467 
3 12468 12469 12470 
3 12471 12472 12473 
3 12474 12475 12476 
3 12477 12478 12479 
3 12480 12481 12482 
3 12483 12484 12485 
3 12486 12487 12488 
3 12489 12490 12491 
3 12492 12493 12494 
3 12495 12496 12497 
3 12498 12499 12500 
3 12501 12502 12503 
3 12504 12505 12506 
3 12507 12508 12509 
3 12510 12511 12512 
3 12513 12514 12515 
3 12516 12517 12518 
3 12519 12520 12521 
3 12522 12523 12524 
3 12525 12526 12527 
3 12528 12529 12530 
3 12531 12532 12533 
3 12534 12535 12536 
3 12537 12538 12539 
3 12540 12541 12542 
3 12543 12544 12545 
3 12546 12547 12548 
3 12549 12550 12551 
3 12552 12553 12554 
3 12555 12556 12557 
3 12558 12559 12560 
3 12561 12562 12563 
3 12564 12565 12566 
3 12567 12568 12569 
3 12570 12571 12572 
3 12573 12574 12575 
3 12576 12577 12578 
3 12579 12580 12581 
3 12582 12583 12584 
3 12585 12586 12587 
3 12588 12589 12590 
3 12591 12592 12593 
3 12594 12595 12596 
3 12597 12598 12599 
3 12600 12601 12602 
3 12603 12604 12605 
3 12606 12607 12608 
3 12609 12610 12611 
3 12612 12613 12614 
3 12615 12616 12617 
3 12618 12619 12620 
3 12621 12622 12623 
3 12624 12625 12626 
3 12627 12628 12629 
3 12630 12631 12632 
3 12633 12634 12635 
3 12636 12637 12638 
3 12639 12640 12641 
3 12642 12643 12644 
3 12645 12646 12647 
3 12648 12649 12650 
3 12651 12652 12653 
3 12654 12655 12656 
3 12657 12658 12659 
3 12660 12661 12662 
3 12663 12664 12665 
3 12666 12667 12668 
3 12669 12670 12671 
3 12672 12673 12674 
3 12675 12676 12677 
3 12678 12679 12680 
3 12681 12682 12683 
3 12684 12685 12686 
3 12687 12688 12689 
3 12690 12691 12692 
3 12693 12694 12695 
3 12696 12697 12698 
3 12699 12700 12701 
3 12702 12703 12704 
3 12705 12706 12707 
3 12708 12709 12710 
3 12711 12712 12713 
3 12714 12715 12716 
3 12717 12718 12719 
3 12720 12721 12722 
3 12723 12724 12725 
3 12726 12727 12728 
3 12729 12730 12731 
3 12732 12733 12734 
3 12735 12736 12737 
3 12738 12739 12740 
3 12741 12742 12743 
3 12744 12745 12746 
3 12747 12748 12749 
3 12750 12751 12752 
3 12753 12754 12755 
3 12756 12757 12758 
3 12759 12760 12761 
3 12762 12763 12764 
3 12765 12766 12767 
3 12768 12769 12770 
3 12771 12772 12773 
3 12774 12775 12776 
3 12777 12778 12779 
3 12780 12781 12782 
3 12783 12784 12785 
3 12786 12787 12788 
3 12789 12790 12791 
3 12792 12793 12794 
3 12795 12796 12797 
3 12798 12799 12800 
3 12801 12802 12803 
3 12804 12805 12806 
3 12807 12808 12809 
3 12810 12811 12812 
3 12813 12814 12815 
3 12816 12817 12818 
3 12819 12820 12821 
3 12822 12823 12824 
3 12825 12826 12827 
3 12828 12829 12830 
3 12831 12832 12833 
3 12834 12835 12836 
3 12837 12838 12839 
3 12840 12841 12842 
3 12843 12844 12845 
3 12846 12847 12848 
3 12849 12850 12851 
3 12852 12853 12854 
3 12855 12856 12857 
3 12858 12859 12860 
3 12861 12862 12863 
3 12864 12865 12866 
3 12867 12868 12869 
3 12870 12871 12872 
3 12873 12874 12875 
3 12876 12877 12878 
3 12879 12880 12881 
3 12882 12883 12884 
3 12885 12886 12887 
3 12888 12889 12890 
3 12891 12892 12893 
3 12894 12895 12896 
3 12897 12898 12899 
3 12900 12901 12902 
3 12903 12904 12905 
3 12906 12907 12908 
3 12909 12910 12911 
3 12912 12913 12914 
3 12915 12916 12917 
3 12918 12919 12920 
3 12921 12922 12923 
3 12924 12925 12926 
3 12927 12928 12929 
3 12930 12931 12932 
3 12933 12934 12935 
3 12936 12937 12938 
3 12939 12940 12941 
3 12942 12943 12944 
3 12945 12946 12947 
3 12948 12949 12950 
3 12951 12952 12953 
3 12954 12955 12956 
3 12957 12958 12959 
3 12960 12961 12962 
3 12963 12964 12965 
3 12966 12967 12968 
3 12969 12970 12971 
3 12972 12973 12974 
3 12975 12976 12977 
3 12978 12979 12980 
3 12981 12982 12983 
3 12984 12985 12986 
3 12987 12988 12989 
3 12990 12991 12992 
3 12993 12994 12995 
3 12996 12997 12998 
3 12999 13000 13001 
3 13002 13003 13004 
3 13005 13006 13007 
3 13008 13009 13010 
3 13011 13012 13013 
3 13014 13015 13016 
3 13017 13018 13019 
3 13020 13021 13022 
3 13023 13024 13025 
3 13026 13027 13028 
3 13029 13030 13031 
3 13032 13033 13034 
3 13035 13036 13037 
3 13038 13039 13040 
3 13041 13042 13043 
3 13044 13045 13046 
3 13047 13048 13049 
3 13050 13051 13052 
3 13053 13054 13055 
3 13056 13057 13058 
3 13059 13060 13061 
3 13062 13063 13064 
3 13065 13066 13067 
3 13068 13069 13070 
3 13071 13072 13073 
3 13074 13075 13076 
3 13077 13078 13079 
3 13080 13081 13082 
3 13083 13084 13085 
3 13086 13087 13088 
3 13089 13090 13091 
3 13092 13093 13094 
3 13095 13096 13097 
3 13098 13099 13100 
3 13101 13102 13103 
3 13104 13105 13106 
3 13107 13108 13109 
3 13110 13111 13112 
3 13113 13114 13115 
3 13116 13117 13118 
3 13119 13120 13121 
3 13122 13123 13124 
3 13125 13126 13127 
3 13128 13129 13130 
3 13131 13132 13133 
3 13134 13135 13136 
3 13137 13138 13139 
3 13140 13141 13142 
3 13143 13144 13145 
3 13146 13147 13148 
3 13149 13150 13151 
3 13152 13153 13154 
3 13155 13156 13157 
3 13158 13159 13160 
3 13161 13162 13163 
3 13164 13165 13166 
3 13167 13168 13169 
3 13170 13171 13172 
3 13173 13174 13175 
3 13176 13177 13178 
3 13179 13180 13181 
3 13182 13183 13184 
3 13185 13186 13187 
3 13188 13189 13190 
3 13191 13192 13193 
3 13194 13195 13196 
3 13197 13198 13199 
3 13200 13201 13202 
3 13203 13204 13205 
3 13206 13207 13208 
3 13209 13210 13211 
3 13212 13213 13214 
3 13215 13216 13217 
3 13218 13219 13220 
3 13221 13222 13223 
3 13224 13225 13226 
3 13227 13228 13229 
3 13230 13231 13232 
3 13233 13234 13235 
3 13236 13237 13238 
3 13239 13240 13241 
3 13242 13243 13244 
3 13245 13246 13247 
3 13248 13249 13250 
3 13251 13252 13253 
3 13254 13255 13256 
3 13257 13258 13259 
3 13260 13261 13262 
3 13263 13264 13265 
3 13266 13267 13268 
3 13269 13270 13271 
3 13272 13273 13274 
3 13275 13276 13277 
3 13278 13279 13280 
3 13281 13282 13283 
3 13284 13285 13286 
3 13287 13288 13289 
3 13290 13291 13292 
3 13293 13294 13295 
3 13296 13297 13298 
3 13299 13300 13301 
3 13302 13303 13304 
3 13305 13306 13307 
3 13308 13309 13310 
3 13311 13312 13313 
3 13314 13315 13316 
3 13317 13318 13319 
3 13320 13321 13322 
3 13323 13324 13325 
3 13326 13327 13328 
3 13329 13330 13331 
3 13332 13333 13334 
3 13335 13336 13337 
3 13338 13339 13340 
3 13341 13342 13343 
3 13344 13345 13346 
3 13347 13348 13349 
3 13350 13351 13352 
3 13353 13354 13355 
3 13356 13357 13358 
3 13359 13360 13361 
3 13362 13363 13364 
3 13365 13366 13367 
3 13368 13369 13370 
3 13371 13372 13373 
3 13374 13375 13376 
3 13377 13378 13379 
3 13380 13381 13382 
3 13383 13384 13385 
3 13386 13387 13388 
3 13389 13390 13391 
3 13392 13393 13394 
3 13395 13396 13397 
3 13398 13399 13400 
3 13401 13402 13403 
3 13404 13405 13406 
3 13407 13408 13409 
3 13410 13411 13412 
3 13413 13414 13415 
3 13416 13417 13418 
3 13419 13420 13421 
3 13422 13423 13424 
3 13425 13426 13427 
3 13428 13429 13430 
3 13431 13432 13433 
3 13434 13435 13436 
3 13437 13438 13439 
3 13440 13441 13442 
3 13443 13444 13445 
3 13446 13447 13448 
3 13449 13450 13451 
3 13452 13453 13454 
3 13455 13456 13457 
3 13458 13459 13460 
3 13461 13462 13463 
3 13464 13465 13466 
3 13467 13468 13469 
3 13470 13471 13472 
3 13473 13474 13475 
3 13476 13477 13478 
3 13479 13480 13481 
3 13482 13483 13484 
3 13485 13486 13487 
3 13488 13489 13490 
3 13491 13492 13493 
3 13494 13495 13496 
3 13497 13498 13499 
3 13500 13501 13502 
3 13503 13504 13505 
3 13506 13507 13508 
3 13509 13510 13511 
3 13512 13513 13514 
3 13515 13516 13517 
3 13518 13519 13520 
3 13521 13522 13523 
3 13524 13525 13526 
3 13527 13528 13529 
3 13530 13531 13532 
3 13533 13534 13535 
3 13536 13537 13538 
3 13539 13540 13541 
3 13542 13543 13544 
3 13545 13546 13547 
3 13548 13549 13550 
3 13551 13552 13553 
3 13554 13555 13556 
3 13557 13558 13559 
3 13560 13561 13562 
3 13563 13564 13565 
3 13566 13567 13568 
3 13569 13570 13571 
3 13572 13573 13574 
3 13575 13576 13577 
3 13578 13579 13580 
3 13581 13582 13583 
3 13584 13585 13586 
3 13587 13588 13589 
3 13590 13591 13592 
3 13593 13594 13595 
3 13596 13597 13598 
3 13599 13600 13601 
3 13602 13603 13604 
3 13605 13606 13607 
3 13608 13609 13610 
3 13611 13612 13613 
3 13614 13615 13616 
3 13617 13618 13619 
3 13620 13621 13622 
3 13623 13624 13625 
3 13626 13627 13628 
3 13629 13630 13631 
3 13632 13633 13634 
3 13635 13636 13637 
3 13638 13639 13640 
3 13641 13642 13643 
3 13644 13645 13646 
3 13647 13648 13649 
3 13650 13651 13652 
3 13653 13654 13655 
3 13656 13657 13658 
3 13659 13660 13661 
3 13662 13663 13664 
3 13665 13666 13667 
3 13668 13669 13670 
3 13671 13672 13673 
3 13674 13675 13676 
3 13677 13678 13679 
3 13680 13681 13682 
3 13683 13684 13685 
3 13686 13687 13688 
3 13689 13690 13691 
3 13692 13693 13694 
3 13695 13696 13697 
3 13698 13699 13700 
3 13701 13702 13703 
3 13704 13705 13706 
3 13707 13708 13709 
3 13710 13711 13712 
3 13713 13714 13715 
3 13716 13717 13718 
3 13719 13720 13721 
3 13722 13723 13724 
3 13725 13726 13727 
3 13728 13729 13730 
3 13731 13732 13733 
3 13734 13735 13736 
3 13737 13738 13739 
3 13740 13741 13742 
3 13743 13744 13745 
3 13746 13747 13748 
3 13749 13750 13751 
3 13752 13753 13754 
3 13755 13756 13757 
3 13758 13759 13760 
3 13761 13762 13763 
3 13764 13765 13766 
3 13767 13768 13769 
3 13770 13771 13772 
3 13773 13774 13775 
3 13776 13777 13778 
3 13779 13780 13781 
3 13782 13783 13784 
3 13785 13786 13787 
3 13788 13789 13790 
3 13791 13792 13793 
3 13794 13795 13796 
3 13797 13798 13799 
3 13800 13801 13802 
3 13803 13804 13805 
3 13806 13807 13808 
3 13809 13810 13811 
3 13812 13813 13814 
3 13815 13816 13817 
3 13818 13819 13820 
3 13821 13822 13823 
3 13824 13825 13826 
3 13827 13828 13829 
3 13830 13831 13832 
3 13833 13834 13835 
3 13836 13837 13838 
3 13839 13840 13841 
3 13842 13843 13844 
3 13845 13846 13847 
3 13848 13849 13850 
3 13851 13852 13853 
3 13854 13855 13856 
3 13857 13858 13859 
3 13860 13861 13862 
3 13863 13864 13865 
3 13866 13867 13868 
3 13869 13870 13871 
3 13872 13873 13874 
3 13875 13876 13877 
3 13878 13879 13880 
3 13881 13882 13883 
3 13884 13885 13886 
3 13887 13888 13889 
3 13890 13891 13892 
3 13893 13894 13895 
3 13896 13897 13898 
3 13899 13900 13901 
3 13902 13903 13904 
3 13905 13906 13907 
3 13908 13909 13910 
3 13911 13912 13913 
3 13914 13915 13916 
3 13917 13918 13919 
3 13920 13921 13922 
3 13923 13924 13925 
3 13926 13927 13928 
3 13929 13930 13931 
3 13932 13933 13934 
3 13935 13936 13937 
3 13938 13939 13940 
3 13941 13942 13943 
3 13944 13945 13946 
3 13947 13948 13949 
3 13950 13951 13952 
3 13953 13954 13955 
3 13956 13957 13958 
3 13959 13960 13961 
3 13962 13963 13964 
3 13965 13966 13967 
3 13968 13969 13970 
3 13971 13972 13973 
3 13974 13975 13976 
3 13977 13978 13979 
3 13980 13981 13982 
3 13983 13984 13985 
3 13986 13987 13988 
3 13989 13990 13991 
3 13992 13993 13994 
3 13995 13996 13997 
3 13998 13999 14000 
3 14001 14002 14003 
3 14004 14005 14006 
3 14007 14008 14009 
3 14010 14011 14012 
3 14013 14014 14015 
3 14016 14017 14018 
3 14019 14020 14021 
3 14022 14023 14024 
3 14025 14026 14027 
3 14028 14029 14030 
3 14031 14032 14033 
3 14034 14035 14036 
3 14037 14038 14039 
3 14040 14041 14042 
3 14043 14044 14045 
3 14046 14047 14048 
3 14049 14050 14051 
3 14052 14053 14054 
3 14055 14056 14057 
3 14058 14059 14060 
3 14061 14062 14063 
3 14064 14065 14066 
3 14067 14068 14069 
3 14070 14071 14072 
3 14073 14074 14075 
3 14076 14077 14078 
3 14079 14080 14081 
3 14082 14083 14084 
3 14085 14086 14087 
3 14088 14089 14090 
3 14091 14092 14093 
3 14094 14095 14096 
3 14097 14098 14099 
3 14100 14101 14102 
3 14103 14104 14105 
3 14106 14107 14108 
3 14109 14110 14111 
3 14112 14113 14114 
3 14115 14116 14117 
3 14118 14119 14120 
3 14121 14122 14123 
3 14124 14125 14126 
3 14127 14128 14129 
3 14130 14131 14132 
3 14133 14134 14135 
3 14136 14137 14138 
3 14139 14140 14141 
3 14142 14143 14144 
3 14145 14146 14147 
3 14148 14149 14150 
3 14151 14152 14153 
3 14154 14155 14156 
3 14157 14158 14159 
3 14160 14161 14162 
3 14163 14164 14165 
3 14166 14167 14168 
3 14169 14170 14171 
3 14172 14173 14174 
3 14175 14176 14177 
3 14178 14179 14180 
3 14181 14182 14183 
3 14184 14185 14186 
3 14187 14188 14189 
3 14190 14191 14192 
3 14193 14194 14195 
3 14196 14197 14198 
3 14199 14200 14201 
3 14202 14203 14204 
3 14205 14206 14207 
3 14208 14209 14210 
3 14211 14212 14213 
3 14214 14215 14216 
3 14217 14218 14219 
3 14220 14221 14222 
3 14223 14224 14225 
3 14226 14227 14228 
3 14229 14230 14231 
3 14232 14233 14234 
3 14235 14236 14237 
3 14238 14239 14240 
3 14241 14242 14243 
3 14244 14245 14246 
3 14247 14248 14249 
3 14250 14251 14252 
3 14253 14254 14255 
3 14256 14257 14258 
3 14259 14260 14261 
3 14262 14263 14264 
3 14265 14266 14267 
3 14268 14269 14270 
3 14271 14272 14273 
3 14274 14275 14276 
3 14277 14278 14279 
3 14280 14281 14282 
3 14283 14284 14285 
3 14286 14287 14288 
3 14289 14290 14291 
3 14292 14293 14294 
3 14295 14296 14297 
3 14298 14299 14300 
3 14301 14302 14303 
3 14304 14305 14306 
3 14307 14308 14309 
3 14310 14311 14312 
3 14313 14314 14315 
3 14316 14317 14318 
3 14319 14320 14321 
3 14322 14323 14324 
3 14325 14326 14327 
3 14328 14329 14330 
3 14331 14332 14333 
3 14334 14335 14336 
3 14337 14338 14339 
3 14340 14341 14342 
3 14343 14344 14345 
3 14346 14347 14348 
3 14349 14350 14351 
3 14352 14353 14354 
3 14355 14356 14357 
3 14358 14359 14360 
3 14361 14362 14363 
3 14364 14365 14366 
3 14367 14368 14369 
3 14370 14371 14372 
3 14373 14374 14375 
3 14376 14377 14378 
3 14379 14380 14381 
3 14382 14383 14384 
3 14385 14386 14387 
3 14388 14389 14390 
3 14391 14392 14393 
3 14394 14395 14396 
3 14397 14398 14399 
3 14400 14401 14402 
3 14403 14404 14405 
3 14406 14407 14408 
3 14409 14410 14411 
3 14412 14413 14414 
3 14415 14416 14417 
3 14418 14419 14420 
3 14421 14422 14423 
3 14424 14425 14426 
3 14427 14428 14429 
3 14430 14431 14432 
3 14433 14434 14435 
3 14436 14437 14438 
3 14439 14440 14441 
3 14442 14443 14444 
3 14445 14446 14447 
3 14448 14449 14450 
3 14451 14452 14453 
3 14454 14455 14456 
3 14457 14458 14459 
3 14460 14461 14462 
3 14463 14464 14465 
3 14466 14467 14468 
3 14469 14470 14471 
3 14472 14473 14474 
3 14475 14476 14477 
3 14478 14479 14480 
3 14481 14482 14483 
3 14484 14485 14486 
3 14487 14488 14489 
3 14490 14491 14492 
3 14493 14494 14495 
3 14496 14497 14498 
3 14499 14500 14501 
3 14502 14503 14504 
3 14505 14506 14507 
3 14508 14509 14510 
3 14511 14512 14513 
3 14514 14515 14516 
3 14517 14518 14519 
3 14520 14521 14522 
3 14523 14524 14525 
3 14526 14527 14528 
3 14529 14530 14531 
3 14532 14533 14534 
3 14535 14536 14537 
3 14538 14539 14540 
3 14541 14542 14543 
3 14544 14545 14546 
3 14547 14548 14549 
3 14550 14551 14552 
3 14553 14554 14555 
3 14556 14557 14558 
3 14559 14560 14561 
3 14562 14563 14564 
3 14565 14566 14567 
3 14568 14569 14570 
3 14571 14572 14573 
3 14574 14575 14576 
3 14577 14578 14579 
3 14580 14581 14582 
3 14583 14584 14585 
3 14586 14587 14588 
3 14589 14590 14591 
3 14592 14593 14594 
3 14595 14596 14597 
3 14598 14599 14600 
3 14601 14602 14603 
3 14604 14605 14606 
3 14607 14608 14609 
3 14610 14611 14612 
3 14613 14614 14615 
3 14616 14617 14618 
3 14619 14620 14621 
3 14622 14623 14624 
3 14625 14626 14627 
3 14628 14629 14630 
3 14631 14632 14633 
3 14634 14635 14636 
3 14637 14638 14639 
3 14640 14641 14642 
3 14643 14644 14645 
3 14646 14647 14648 
3 14649 14650 14651 
3 14652 14653 14654 
3 14655 14656 14657 
3 14658 14659 14660 
3 14661 14662 14663 
3 14664 14665 14666 
3 14667 14668 14669 
3 14670 14671 14672 
3 14673 14674 14675 
3 14676 14677 14678 
3 14679 14680 14681 
3 14682 14683 14684 
3 14685 14686 14687 
3 14688 14689 14690 
3 14691 14692 14693 
3 14694 14695 14696 
3 14697 14698 14699 
3 14700 14701 14702 
3 14703 14704 14705 
3 14706 14707 14708 
3 14709 14710 14711 
3 14712 14713 14714 
3 14715 14716 14717 
3 14718 14719 14720 
3 14721 14722 14723 
3 14724 14725 14726 
3 14727 14728 14729 
3 14730 14731 14732 
3 14733 14734 14735 
3 14736 14737 14738 
3 14739 14740 14741 
3 14742 14743 14744 
3 14745 14746 14747 
3 14748 14749 14750 
3 14751 14752 14753 
3 14754 14755 14756 
3 14757 14758 14759 
3 14760 14761 14762 
3 14763 14764 14765 
3 14766 14767 14768 
3 14769 14770 14771 
3 14772 14773 14774 
3 14775 14776 14777 
3 14778 14779 14780 
3 14781 14782 14783 
3 14784 14785 14786 
3 14787 14788 14789 
3 14790 14791 14792 
3 14793 14794 14795 
3 14796 14797 14798 
3 14799 14800 14801 
3 14802 14803 14804 
3 14805 14806 14807 
3 14808 14809 14810 
3 14811 14812 14813 
3 14814 14815 14816 
3 14817 14818 14819 
3 14820 14821 14822 
3 14823 14824 14825 
3 14826 14827 14828 
3 14829 14830 14831 
3 14832 14833 14834 
3 14835 14836 14837 
3 14838 14839 14840 
3 14841 14842 14843 
3 14844 14845 14846 
3 14847 14848 14849 
3 14850 14851 14852 
3 14853 14854 14855 
3 14856 14857 14858 
3 14859 14860 14861 
3 14862 14863 14864 
3 14865 14866 14867 
3 14868 14869 14870 
3 14871 14872 14873 
3 14874 14875 14876 
3 14877 14878 14879 
3 14880 14881 14882 
3 14883 14884 14885 
3 14886 14887 14888 
3 14889 14890 14891 
3 14892 14893 14894 
3 14895 14896 14897 
3 14898 14899 14900 
3 14901 14902 14903 
3 14904 14905 14906 
3 14907 14908 14909 
3 14910 14911 14912 
3 14913 14914 14915 
3 14916 14917 14918 
3 14919 14920 14921 
3 14922 14923 14924 
3 14925 14926 14927 
3 14928 14929 14930 
3 14931 14932 14933 
3 14934 14935 14936 
3 14937 14938 14939 
3 14940 14941 14942 
3 14943 14944 14945 
3 14946 14947 14948 
3 14949 14950 14951 
3 14952 14953 14954 
3 14955 14956 14957 
3 14958 14959 14960 
3 14961 14962 14963 
3 14964 14965 14966 
3 14967 14968 14969 
3 14970 14971 14972 
3 14973 14974 14975 
3 14976 14977 14978 
3 14979 14980 14981 
3 14982 14983 14984 
3 14985 14986 14987 
3 14988 14989 14990 
3 14991 14992 14993 
3 14994 14995 14996 
3 14997 14998 14999 
3 15000 15001 15002 
3 15003 15004 15005 
3 15006 15007 15008 
3 15009 15010 15011 
3 15012 15013 15014 
3 15015 15016 15017 
3 15018 15019 15020 
3 15021 15022 15023 
3 15024 15025 15026 
3 15027 15028 15029 
3 15030 15031 15032 
3 15033 15034 15035 
3 15036 15037 15038 
3 15039 15040 15041 
3 15042 15043 15044 
3 15045 15046 15047 
3 15048 15049 15050 
3 15051 15052 15053 
3 15054 15055 15056 
3 15057 15058 15059 
3 15060 15061 15062 
3 15063 15064 15065 
3 15066 15067 15068 
3 15069 15070 15071 
3 15072 15073 15074 
3 15075 15076 15077 
3 15078 15079 15080 
3 15081 15082 15083 
3 15084 15085 15086 
3 15087 15088 15089 
3 15090 15091 15092 
3 15093 15094 15095 
3 15096 15097 15098 
3 15099 15100 15101 
3 15102 15103 15104 
3 15105 15106 15107 
3 15108 15109 15110 
3 15111 15112 15113 
3 15114 15115 15116 
3 15117 15118 15119 
3 15120 15121 15122 
3 15123 15124 15125 
3 15126 15127 15128 
3 15129 15130 15131 
3 15132 15133 15134 
3 15135 15136 15137 
3 15138 15139 15140 
3 15141 15142 15143 
3 15144 15145 15146 
3 15147 15148 15149 
3 15150 15151 15152 
3 15153 15154 15155 
3 15156 15157 15158 
3 15159 15160 15161 
3 15162 15163 15164 
3 15165 15166 15167 
3 15168 15169 15170 
3 15171 15172 15173 
3 15174 15175 15176 
3 15177 15178 15179 
3 15180 15181 15182 
3 15183 15184 15185 
3 15186 15187 15188 
3 15189 15190 15191 
3 15192 15193 15194 
3 15195 15196 15197 
3 15198 15199 15200 
3 15201 15202 15203 
3 15204 15205 15206 
3 15207 15208 15209 
3 15210 15211 15212 
3 15213 15214 15215 
3 15216 15217 15218 
3 15219 15220 15221 
3 15222 15223 15224 
3 15225 15226 15227 
3 15228 15229 15230 
3 15231 15232 15233 
3 15234 15235 15236 
3 15237 15238 15239 
3 15240 15241 15242 
3 15243 15244 15245 
3 15246 15247 15248 
3 15249 15250 15251 
3 15252 15253 15254 
3 15255 15256 15257 
3 15258 15259 15260 
3 15261 15262 15263 
3 15264 15265 15266 
3 15267 15268 15269 
3 15270 15271 15272 
3 15273 15274 15275 
3 15276 15277 15278 
3 15279 15280 15281 
3 15282 15283 15284 
3 15285 15286 15287 
3 15288 15289 15290 
3 15291 15292 15293 
3 15294 15295 15296 
3 15297 15298 15299 
3 15300 15301 15302 
3 15303 15304 15305 
3 15306 15307 15308 
3 15309 15310 15311 
3 15312 15313 15314 
3 15315 15316 15317 
3 15318 15319 15320 
3 15321 15322 15323 
3 15324 15325 15326 
3 15327 15328 15329 
3 15330 15331 15332 
3 15333 15334 15335 
3 15336 15337 15338 
3 15339 15340 15341 
3 15342 15343 15344 
3 15345 15346 15347 
3 15348 15349 15350 
3 15351 15352 15353 
3 15354 15355 15356 
3 15357 15358 15359 
3 15360 15361 15362 
3 15363 15364 15365 
3 15366 15367 15368 
3 15369 15370 15371 
3 15372 15373 15374 
3 15375 15376 15377 
3 15378 15379 15380 
3 15381 15382 15383 
3 15384 15385 15386 
3 15387 15388 15389 
3 15390 15391 15392 
3 15393 15394 15395 
3 15396 15397 15398 
3 15399 15400 15401 
3 15402 15403 15404 
3 15405 15406 15407 
3 15408 15409 15410 
3 15411 15412 15413 
3 15414 15415 15416 
3 15417 15418 15419 
3 15420 15421 15422 
3 15423 15424 15425 
3 15426 15427 15428 
3 15429 15430 15431 
3 15432 15433 15434 
3 15435 15436 15437 
3 15438 15439 15440 
3 15441 15442 15443 
3 15444 15445 15446 
3 15447 15448 15449 
3 15450 15451 15452 
3 15453 15454 15455 
3 15456 15457 15458 
3 15459 15460 15461 
3 15462 15463 15464 
3 15465 15466 15467 
3 15468 15469 15470 
3 15471 15472 15473 
3 15474 15475 15476 
3 15477 15478 15479 
3 15480 15481 15482 
3 15483 15484 15485 
3 15486 15487 15488 
3 15489 15490 15491 
3 15492 15493 15494 
3 15495 15496 15497 
3 15498 15499 15500 
3 15501 15502 15503 
3 15504 15505 15506 
3 15507 15508 15509 
3 15510 15511 15512 
3 15513 15514 15515 
3 15516 15517 15518 
3 15519 15520 15521 
3 15522 15523 15524 
3 15525 15526 15527 
3 15528 15529 15530 
3 15531 15532 15533 
3 15534 15535 15536 
3 15537 15538 15539 
3 15540 15541 15542 
3 15543 15544 15545 
3 15546 15547 15548 
3 15549 15550 15551 
3 15552 15553 15554 
3 15555 15556 15557 
3 15558 15559 15560 
3 15561 15562 15563 
3 15564 15565 15566 
3 15567 15568 15569 
3 15570 15571 15572 
3 15573 15574 15575 
3 15576 15577 15578 
3 15579 15580 15581 
3 15582 15583 15584 
3 15585 15586 15587 
3 15588 15589 15590 
3 15591 15592 15593 
3 15594 15595 15596 
3 15597 15598 15599 
3 15600 15601 15602 
3 15603 15604 15605 
3 15606 15607 15608 
3 15609 15610 15611 
3 15612 15613 15614 
3 15615 15616 15617 
3 15618 15619 15620 
3 15621 15622 15623 
3 15624 15625 15626 
3 15627 15628 15629 
3 15630 15631 15632 
3 15633 15634 15635 
3 15636 15637 15638 
3 15639 15640 15641 
3 15642 15643 15644 
3 15645 15646 15647 
3 15648 15649 15650 
3 15651 15652 15653 
3 15654 15655 15656 
3 15657 15658 15659 
3 15660 15661 15662 
3 15663 15664 15665 
3 15666 15667 15668 
3 15669 15670 15671 
3 15672 15673 15674 
3 15675 15676 15677 
3 15678 15679 15680 
3 15681 15682 15683 
3 15684 15685 15686 
3 15687 15688 15689 
3 15690 15691 15692 
3 15693 15694 15695 
3 15696 15697 15698 
3 15699 15700 15701 
3 15702 15703 15704 
3 15705 15706 15707 
3 15708 15709 15710 
3 15711 15712 15713 
3 15714 15715 15716 
3 15717 15718 15719 
3 15720 15721 15722 
3 15723 15724 15725 
3 15726 15727 15728 
3 15729 15730 15731 
3 15732 15733 15734 
3 15735 15736 15737 
3 15738 15739 15740 
3 15741 15742 15743 
3 15744 15745 15746 
3 15747 15748 15749 
3 15750 15751 15752 
3 15753 15754 15755 
3 15756 15757 15758 
3 15759 15760 15761 
3 15762 15763 15764 
3 15765 15766 15767 
3 15768 15769 15770 
3 15771 15772 15773 
3 15774 15775 15776 
3 15777 15778 15779 
3 15780 15781 15782 
3 15783 15784 15785 
3 15786 15787 15788 
3 15789 15790 15791 
3 15792 15793 15794 
3 15795 15796 15797 
3 15798 15799 15800 
3 15801 15802 15803 
3 15804 15805 15806 
3 15807 15808 15809 
3 15810 15811 15812 
3 15813 15814 15815 
3 15816 15817 15818 
3 15819 15820 15821 
3 15822 15823 15824 
3 15825 15826 15827 
3 15828 15829 15830 
3 15831 15832 15833 
3 15834 15835 15836 
3 15837 15838 15839 
3 15840 15841 15842 
3 15843 15844 15845 
3 15846 15847 15848 
3 15849 15850 15851 
3 15852 15853 15854 
3 15855 15856 15857 
3 15858 15859 15860 
3 15861 15862 15863 
3 15864 15865 15866 
3 15867 15868 15869 
3 15870 15871 15872 
3 15873 15874 15875 
3 15876 15877 15878 
3 15879 15880 15881 
3 15882 15883 15884 
3 15885 15886 15887 
3 15888 15889 15890 
3 15891 15892 15893 
3 15894 15895 15896 
3 15897 15898 15899 
3 15900 15901 15902 
3 15903 15904 15905 
3 15906 15907 15908 
3 15909 15910 15911 
3 15912 15913 15914 
3 15915 15916 15917 
3 15918 15919 15920 
3 15921 15922 15923 
3 15924 15925 15926 
3 15927 15928 15929 
3 15930 15931 15932 
3 15933 15934 15935 
3 15936 15937 15938 
3 15939 15940 15941 
3 15942 15943 15944 
3 15945 15946 15947 
3 15948 15949 15950 
3 15951 15952 15953 
3 15954 15955 15956 
3 15957 15958 15959 
3 15960 15961 15962 
3 15963 15964 15965 
3 15966 15967 15968 
3 15969 15970 15971 
3 15972 15973 15974 
3 15975 15976 15977 
3 15978 15979 15980 
3 15981 15982 15983 
3 15984 15985 15986 
3 15987 15988 15989 
3 15990 15991 15992 
3 15993 15994 15995 
3 15996 15997 15998 
3 15999 16000 16001 
3 16002 16003 16004 
3 16005 16006 16007 
3 16008 16009 16010 
3 16011 16012 16013 
3 16014 16015 16016 
3 16017 16018 16019 
3 16020 16021 16022 
3 16023 16024 16025 
3 16026 16027 16028 
3 16029 16030 16031 
3 16032 16033 16034 
3 16035 16036 16037 
3 16038 16039 16040 
3 16041 16042 16043 
3 16044 16045 16046 
3 16047 16048 16049 
3 16050 16051 16052 
3 16053 16054 16055 
3 16056 16057 16058 
3 16059 16060 16061 
3 16062 16063 16064 
3 16065 16066 16067 
3 16068 16069 16070 
3 16071 16072 16073 
3 16074 16075 16076 
3 16077 16078 16079 
3 16080 16081 16082 
3 16083 16084 16085 
3 16086 16087 16088 
3 16089 16090 16091 
3 16092 16093 16094 
3 16095 16096 16097 
3 16098 16099 16100 
3 16101 16102 16103 
3 16104 16105 16106 
3 16107 16108 16109 
3 16110 16111 16112 
3 16113 16114 16115 
3 16116 16117 16118 
3 16119 16120 16121 
3 16122 16123 16124 
3 16125 16126 16127 
3 16128 16129 16130 
3 16131 16132 16133 
3 16134 16135 16136 
3 16137 16138 16139 
3 16140 16141 16142 
3 16143 16144 16145 
3 16146 16147 16148 
3 16149 16150 16151 
3 16152 16153 16154 
3 16155 16156 16157 
3 16158 16159 16160 
3 16161 16162 16163 
3 16164 16165 16166 
3 16167 16168 16169 
3 16170 16171 16172 
3 16173 16174 16175 
3 16176 16177 16178 
3 16179 16180 16181 
3 16182 16183 16184 
3 16185 16186 16187 
3 16188 16189 16190 
3 16191 16192 16193 
3 16194 16195 16196 
3 16197 16198 16199 
3 16200 16201 16202 
3 16203 16204 16205 
3 16206 16207 16208 
3 16209 16210 16211 
3 16212 16213 16214 
3 16215 16216 16217 
3 16218 16219 16220 
3 16221 16222 16223 
3 16224 16225 16226 
3 16227 16228 16229 
3 16230 16231 16232 
3 16233 16234 16235 
3 16236 16237 16238 
3 16239 16240 16241 
3 16242 16243 16244 
3 16245 16246 16247 
3 16248 16249 16250 
3 16251 16252 16253 
3 16254 16255 16256 
3 16257 16258 16259 
3 16260 16261 16262 
3 16263 16264 16265 
3 16266 16267 16268 
3 16269 16270 16271 
3 16272 16273 16274 
3 16275 16276 16277 
3 16278 16279 16280 
3 16281 16282 16283 
3 16284 16285 16286 
3 16287 16288 16289 
3 16290 16291 16292 
3 16293 16294 16295 
3 16296 16297 16298 
3 16299 16300 16301 
3 16302 16303 16304 
3 16305 16306 16307 
3 16308 16309 16310 
3 16311 16312 16313 
3 16314 16315 16316 
3 16317 16318 16319 
3 16320 16321 16322 
3 16323 16324 16325 
3 16326 16327 16328 
3 16329 16330 16331 
3 16332 16333 16334 
3 16335 16336 16337 
3 16338 16339 16340 
3 16341 16342 16343 
3 16344 16345 16346 
3 16347 16348 16349 
3 16350 16351 16352 
3 16353 16354 16355 
3 16356 16357 16358 
3 16359 16360 16361 
3 16362 16363 16364 
3 16365 16366 16367 
3 16368 16369 16370 
3 16371 16372 16373 
3 16374 16375 16376 
3 16377 16378 16379 
3 16380 16381 16382 
3 16383 16384 16385 
3 16386 16387 16388 
3 16389 16390 16391 
3 16392 16393 16394 
3 16395 16396 16397 
3 16398 16399 16400 
3 16401 16402 16403 
3 16404 16405 16406 
3 16407 16408 16409 
3 16410 16411 16412 
3 16413 16414 16415 
3 16416 16417 16418 
3 16419 16420 16421 
3 16422 16423 16424 
3 16425 16426 16427 
3 16428 16429 16430 
3 16431 16432 16433 
3 16434 16435 16436 
3 16437 16438 16439 
3 16440 16441 16442 
3 16443 16444 16445 
3 16446 16447 16448 
3 16449 16450 16451 
3 16452 16453 16454 
3 16455 16456 16457 
3 16458 16459 16460 
3 16461 16462 16463 
3 16464 16465 16466 
3 16467 16468 16469 
3 16470 16471 16472 
3 16473 16474 16475 
3 16476 16477 16478 
3 16479 16480 16481 
3 16482 16483 16484 
3 16485 16486 16487 
3 16488 16489 16490 
3 16491 16492 16493 
3 16494 16495 16496 
3 16497 16498 16499 
3 16500 16501 16502 
3 16503 16504 16505 
3 16506 16507 16508 
3 16509 16510 16511 
3 16512 16513 16514 
3 16515 16516 16517 
3 16518 16519 16520 
3 16521 16522 16523 
3 16524 16525 16526 
3 16527 16528 16529 
3 16530 16531 16532 
3 16533 16534 16535 
3 16536 16537 16538 
3 16539 16540 16541 
3 16542 16543 16544 
3 16545 16546 16547 
3 16548 16549 16550 
3 16551 16552 16553 
3 16554 16555 16556 
3 16557 16558 16559 
3 16560 16561 16562 
3 16563 16564 16565 
3 16566 16567 16568 
3 16569 16570 16571 
3 16572 16573 16574 
3 16575 16576 16577 
3 16578 16579 16580 
3 16581 16582 16583 
3 16584 16585 16586 
3 16587 16588 16589 
3 16590 16591 16592 
3 16593 16594 16595 
3 16596 16597 16598 
3 16599 16600 16601 
3 16602 16603 16604 
3 16605 16606 16607 
3 16608 16609 16610 
3 16611 16612 16613 
3 16614 16615 16616 
3 16617 16618 16619 
3 16620 16621 16622 
3 16623 16624 16625 
3 16626 16627 16628 
3 16629 16630 16631 
3 16632 16633 16634 
3 16635 16636 16637 
3 16638 16639 16640 
3 16641 16642 16643 
3 16644 16645 16646 
3 16647 16648 16649 
3 16650 16651 16652 
3 16653 16654 16655 
3 16656 16657 16658 
3 16659 16660 16661 
3 16662 16663 16664 
3 16665 16666 16667 
3 16668 16669 16670 
3 16671 16672 16673 
3 16674 16675 16676 
3 16677 16678 16679 
3 16680 16681 16682 
3 16683 16684 16685 
3 16686 16687 16688 
3 16689 16690 16691 
3 16692 16693 16694 
3 16695 16696 16697 
3 16698 16699 16700 
3 16701 16702 16703 
3 16704 16705 16706 
3 16707 16708 16709 
3 16710 16711 16712 
3 16713 16714 16715 
3 16716 16717 16718 
3 16719 16720 16721 
3 16722 16723 16724 
3 16725 16726 16727 
3 16728 16729 16730 
3 16731 16732 16733 
3 16734 16735 16736 
3 16737 16738 16739 
3 16740 16741 16742 
3 16743 16744 16745 
3 16746 16747 16748 
3 16749 16750 16751 
3 16752 16753 16754 
3 16755 16756 16757 
3 16758 16759 16760 
3 16761 16762 16763 
3 16764 16765 16766 
3 16767 16768 16769 
3 16770 16771 16772 
3 16773 16774 16775 
3 16776 16777 16778 
3 16779 16780 16781 
3 16782 16783 16784 
3 16785 16786 16787 
3 16788 16789 16790 
3 16791 16792 16793 
3 16794 16795 16796 
3 16797 16798 16799 
3 16800 16801 16802 
3 16803 16804 16805 
3 16806 16807 16808 
3 16809 16810 16811 
3 16812 16813 16814 
3 16815 16816 16817 
3 16818 16819 16820 
3 16821 16822 16823 
3 16824 16825 16826 
3 16827 16828 16829 
3 16830 16831 16832 
3 16833 16834 16835 
3 16836 16837 16838 
3 16839 16840 16841 
3 16842 16843 16844 
3 16845 16846 16847 
3 16848 16849 16850 
3 16851 16852 16853 
3 16854 16855 16856 
3 16857 16858 16859 
3 16860 16861 16862 
3 16863 16864 16865 
3 16866 16867 16868 
3 16869 16870 16871 
3 16872 16873 16874 
3 16875 16876 16877 
3 16878 16879 16880 
3 16881 16882 16883 
3 16884 16885 16886 
3 16887 16888 16889 
3 16890 16891 16892 
3 16893 16894 16895 
3 16896 16897 16898 
3 16899 16900 16901 
3 16902 16903 16904 
3 16905 16906 16907 
3 16908 16909 16910 
3 16911 16912 16913 
3 16914 16915 16916 
3 16917 16918 16919 
3 16920 16921 16922 
3 16923 16924 16925 
3 16926 16927 16928 
3 16929 16930 16931 
3 16932 16933 16934 
3 16935 16936 16937 
3 16938 16939 16940 
3 16941 16942 16943 
3 16944 16945 16946 
3 16947 16948 16949 
3 16950 16951 16952 
3 16953 16954 16955 
3 16956 16957 16958 
3 16959 16960 16961 
3 16962 16963 16964 
3 16965 16966 16967 
3 16968 16969 16970 
3 16971 16972 16973 
3 16974 16975 16976 
3 16977 16978 16979 
3 16980 16981 16982 
3 16983 16984 16985 
3 16986 16987 16988 
3 16989 16990 16991 
3 16992 16993 16994 
3 16995 16996 16997 
3 16998 16999 17000 
3 17001 17002 17003 
3 17004 17005 17006 
3 17007 17008 17009 
3 17010 17011 17012 
3 17013 17014 17015 
3 17016 17017 17018 
3 17019 17020 17021 
3 17022 17023 17024 
3 17025 17026 17027 
3 17028 17029 17030 
3 17031 17032 17033 
3 17034 17035 17036 
3 17037 17038 17039 
3 17040 17041 17042 
3 17043 17044 17045 
3 17046 17047 17048 
3 17049 17050 17051 
3 17052 17053 17054 
3 17055 17056 17057 
3 17058 17059 17060 
3 17061 17062 17063 
3 17064 17065 17066 
3 17067 17068 17069 
3 17070 17071 17072 
3 17073 17074 17075 
3 17076 17077 17078 
3 17079 17080 17081 
3 17082 17083 17084 
3 17085 17086 17087 
3 17088 17089 17090 
3 17091 17092 17093 
3 17094 17095 17096 
3 17097 17098 17099 
3 17100 17101 17102 
3 17103 17104 17105 
3 17106 17107 17108 
3 17109 17110 17111 
3 17112 17113 17114 
3 17115 17116 17117 
3 17118 17119 17120 
3 17121 17122 17123 
3 17124 17125 17126 
3 17127 17128 17129 
3 17130 17131 17132 
3 17133 17134 17135 
3 17136 17137 17138 
3 17139 17140 17141 
3 17142 17143 17144 
3 17145 17146 17147 
3 17148 17149 17150 
3 17151 17152 17153 
3 17154 17155 17156 
3 17157 17158 17159 
3 17160 17161 17162 
3 17163 17164 17165 
3 17166 17167 17168 
3 17169 17170 17171 
3 17172 17173 17174 
3 17175 17176 17177 
3 17178 17179 17180 
3 17181 17182 17183 
3 17184 17185 17186 
3 17187 17188 17189 
3 17190 17191 17192 
3 17193 17194 17195 
3 17196 17197 17198 
3 17199 17200 17201 
3 17202 17203 17204 
3 17205 17206 17207 
3 17208 17209 17210 
3 17211 17212 17213 
3 17214 17215 17216 
3 17217 17218 17219 
3 17220 17221 17222 
3 17223 17224 17225 
3 17226 17227 17228 
3 17229 17230 17231 

CELL_DATA 5744
FIELD FieldData 5
normal_stress_average 1 5744 double
0 0 0 0 0 0 0 0 0 
0 0 0 0 0 0 0 0 0 
0 0 0 0 0 0 0 0 0 
0 0 0 0 0 0 0 0 0 
0 0 0 0 0 0 0 0 0 
0 0 0 0 0 0 0 0 0 
0 0 0 0 0 0 0 0 0 
0 0 0 0 0 0 0 0 0 
0 0 0 0 0 0 0 0 0 
0 0 0 0 0 0 0 0 0 
0 0 0 0 0 0 0 0 0 
0 0 0 0 0 0 0 0 0 
0 0 0 0 0 0 0 0 0 
0 0 0 0 0 0 0 0 0 
0 0 0 0 0 0 0 0 0 
0 0 0 0 0 0 0 0 0 
0 0 0 0 0 0 0 0 0 
0 0 0 0 0 0 0 0 0 
0 0 0 0 0 0 0 0 0 
0 0 0 0 0 0 0 0 0 
0 0 0 0 0 0 0 0 0 
0 0 0 0 0 0 0 0 0 
0 0 0 0 0 0 0 0 0 
0 0 0 0 0 0 0 0 0 
0 0 0 0 0 0 0 0 0 
0 0 0 0 0 0 0 0 0 
0 0 0 0 0 0 0 0 0 
0 0 0 0 0 0 0 0 0 
0 0 0 0 0 0 0 0 0 
0 0 0 0 0 0 0 0 0 
0 0 0 0 0 0 0 0 0 
0 0 0 0 0 0 0 0 0 
0 0 0 0 0 0 0 0 0 
0 0 0 0 0 0 0 0 0 
0 0 0 0 0 0 0 0 0 
0 0 0 0 0 0 0 0 0 
0 0 0 0 0 0 0 0 0 
0 0 0 0 0 0 0 0 0 
0 0 0 0 0 0 0 0 0 
0 0 0 0 0 0 0 0 0 
0 0 0 0 0 0 0 0 0 
0 0 0 0 0 0 0 0 0 
0 0 0 0 0 0 0 0 0 
0 0 0 0 0 0 0 0 0 
0 0 0 0 0 0 0 0 0 
0 0 0 0 0 0 0 0 0 
0 0 0 0 0 0 0 0 0 
0 0 0 0 0 0 0 0 0 
0 0 0 0 0 0 0 0 0 
0 0 0 0 0 0 0 0 0 
0 0 0 0 0 0 0 0 0 
0 0 0 0 0 0 0 0 0 
0 0 0 0 0 0 0 0 0 
0 0 0 0 0 0 0 0 0 
0 0 0 0 0 0 0 0 0 
0 0 0 0 0 0 0 0 0 
0 0 0 0 0 0 0 0 0 
0 0 0 0 0 0 0 0 0 
0 0 0 0 0 0 0 0 0 
0 0 0 0 0 0 0 0 0 
0 0 0 0 0 0 0 0 0 
0 0 0 0 0 0 0 0 0 
0 0 0 0 0 0 0 0 0 
0 0 0 0 0 0 0 0 0 
0 0 0 0 0 0 0 0 0 
0 0 0 0 0 0 0 0 0 
0 0 0 0 0 0 0 0 0 
0 0 0 0 0 0 0 0 0 
0 0 0 0 0 0 0 0 0 
0 0 0 0 0 0 0 0 0 
0 0 0 0 0 0 0 0 0 
0 0 0 0 0 0 0 0 0 
0 0 0 0 0 0 0 0 0 
0 0 0 0 0 0 0 0 0 
0 0 0 0 0 0 0 0 0 
0 0 0 0 0 0 0 0 0 
0 0 0 0 0 0 0 0 0 
0 0 0 0 0 0 0 0 0 
0 0 0 0 0 0 0 0 0 
0 0 0 0 0 0 0 0 0 
0 0 0 0 0 0 0 0 0 
0 0 0 0 0 0 0 0 0 
0 0 0 0 0 0 0 0 0 
0 0 0 0 0 0 0 0 0 
0 0 0 0 0 0 0 0 0 
0 0 0 0 0 0 0 0 0 
0 0 0 0 0 0 0 0 0 
0 0 0 0 0 0 0 0 0 
0 0 0 0 0 0 0 0 0 
0 0 0 0 0 0 0 0 0 
0 0 0 0 0 0 0 0 0 
0 0 0 0 0 0 0 0 0 
0 0 0 0 0 0 0 0 0 
0 0 0 0 0 0 0 0 0 
0 0 0 0 0 0 0 0 0 
0 0 0 0 0 0 0 0 0 
0 0 0 0 0 0 0 0 0 
0 0 0 0 0 0 0 0 0 
0 0 0 0 0 0 0 0 0 
0 0 0 0 0 0 0 0 0 
0 0 0 0 0 0 0 0 0 
0 0 0 0 0 0 0 0 0 
0 0 0 0 0 0 0 0 0 
0 0 0 0 0 0 0 0 0 
0 0 0 0 0 0 0 0 0 
0 0 0 0 0 0 0 0 0 
0 0 0 0 0 0 0 0 0 
0 0 0 0 0 0 0 0 0 
0 0 0 0 0 0 0 0 0 
0 0 0 0 0 0 0 0 0 
0 0 0 0 0 0 0 0 0 
0 0 0 0 0 0 0 0 0 
0 0 0 0 0 0 0 0 0 
0 0 0 0 0 0 0 0 0 
0 0 0 0 0 0 0 0 0 
0 0 0 0 0 0 0 0 0 
0 0 0 0 0 0 0 0 0 
0 0 0 0 0 0 0 0 0 
0 0 0 0 0 0 0 0 0 
0 0 0 0 0 0 0 0 0 
0 0 0 0 0 0 0 0 0 
0 0 0 0 0 0 0 0 0 
0 0 0 0 0 0 0 0 0 
0 0 0 0 0 0 0 0 0 
0 0 0 0 0 0 0 0 0 
0 0 0 0 0 0 0 0 0 
0 0 0 0 0 0 0 0 0 
0 0 0 0 0 0 0 0 0 
0 0 0 0 0 0 0 0 0 
0 0 0 0 0 0 0 0 0 
0 0 0 0 0 0 0 0 0 
0 0 0 0 0 0 0 0 0 
0 0 0 0 0 0 0 0 0 
0 0 0 0 0 0 0 0 0 
0 0 0 0 0 0 0 0 0 
0 0 0 0 0 0 0 0 0 
0 0 0 0 0 0 0 0 0 
0 0 0 0 0 0 0 0 0 
0 0 0 0 0 0 0 0 0 
0 0 0 0 0 0 0 0 0 
0 0 0 0 0 0 0 0 0 
0 0 0 0 0 0 0 0 0 
0 0 0 0 0 0 0 0 0 
0 0 0 0 0 0 0 0 0 
0 0 0 0 0 0 0 0 0 
0 0 0 0 0 0 0 0 0 
0 0 0 0 0 0 0 0 0 
0 0 0 0 0 0 0 0 0 
0 0 0 0 0 0 0 0 0 
0 0 0 0 0 0 0 0 0 
0 0 0 0 0 0 0 0 0 
0 0 0 0 0 0 0 0 0 
0 0 0 0 0 0 0 0 0 
0 0 0 0 0 0 0 0 0 
0 0 0 0 0 0 0 0 0 
0 0 0 0 0 0 0 0 0 
0 0 0 0 0 0 0 0 0 
0 0 0 0 0 0 0 0 0 
0 0 0 0 0 0 0 0 0 
0 0 0 0 0 0 0 0 0 
0 0 0 0 0 0 0 0 0 
0 0 0 0 0 0 0 0 0 
0 0 0 0 0 0 0 0 0 
0 0 0 0 0 0 0 0 0 
0 0 0 0 0 0 0 0 0 
0 0 0 0 0 0 0 0 0 
0 0 0 0 0 0 0 0 0 
0 0 0 0 0 0 0 0 0 
0 0 0 0 0 0 0 0 0 
0 0 0 0 0 0 0 0 0 
0 0 0 0 0 0 0 0 0 
0 0 0 0 0 0 0 0 0 
0 0 0 0 0 0 0 0 0 
0 0 0 0 0 0 0 0 0 
0 0 0 0 0 0 0 0 0 
0 0 0 0 0 0 0 0 0 
0 0 0 0 0 0 0 0 0 
0 0 0 0 0 0 0 0 0 
0 0 0 0 0 0 0 0 0 
0 0 0 0 0 0 0 0 0 
0 0 0 0 0 0 0 0 0 
0 0 0 0 0 0 0 0 0 
0 0 0 0 0 0 0 0 0 
0 0 0 0 0 0 0 0 0 
0 0 0 0 0 0 0 0 0 
0 0 0 0 0 0 0 0 0 
0 0 0 0 0 0 0 0 0 
0 0 0 0 0 0 0 0 0 
0 0 0 0 0 0 0 0 0 
0 0 0 0 0 0 0 0 0 
0 0 0 0 0 0 0 0 0 
0 0 0 0 0 0 0 0 0 
0 0 0 0 0 0 0 0 0 
0 0 0 0 0 0 0 0 0 
0 0 0 0 0 0 0 0 0 
0 0 0 0 0 0 0 0 0 
0 0 0 0 0 0 0 0 0 
0 0 0 0 0 0 0 0 0 
0 0 0 0 0 0 0 0 0 
0 0 0 0 0 0 0 0 0 
0 0 0 0 0 0 0 0 0 
0 0 0 0 0 0 0 0 0 
0 0 0 0 0 0 0 0 0 
0 0 0 0 0 0 0 0 0 
0 0 0 0 0 0 0 0 0 
0 0 0 0 0 0 0 0 0 
0 0 0 0 0 0 0 0 0 
0 0 0 0 0 0 0 0 0 
0 0 0 0 0 0 0 0 0 
0 0 0 0 0 0 0 0 0 
0 0 0 0 0 0 0 0 0 
0 0 0 0 0 0 0 0 0 
0 0 0 0 0 0 0 0 0 
0 0 0 0 0 0 0 0 0 
0 0 0 0 0 0 0 0 0 
0 0 0 0 0 0 0 0 0 
0 0 0 0 0 0 0 0 0 
0 0 0 0 0 0 0 0 0 
0 0 0 0 0 0 0 0 0 
0 0 0 0 0 0 0 0 0 
0 0 0 0 0 0 0 0 0 
0 0 0 0 0 0 0 0 0 
0 0 0 0 0 0 0 0 0 
0 0 0 0 0 0 0 0 0 
0 0 0 0 0 0 0 0 0 
0 0 0 0 0 0 0 0 0 
0 0 0 0 0 0 0 0 0 
0 0 0 0 0 0 0 0 0 
0 0 0 0 0 0 0 0 0 
0 0 0 0 0 0 0 0 0 
0 0 0 0 0 0 0 0 0 
0 0 0 0 0 0 0 0 0 
0 0 0 0 0 0 0 0 0 
0 0 0 0 0 0 0 0 0 
0 0 0 0 0 0 0 0 0 
0 0 0 0 0 0 0 0 0 
0 0 0 0 0 0 0 0 0 
0 0 0 0 0 0 0 0 0 
0 0 0 0 0 0 0 0 0 
0 0 0 0 0 0 0 0 0 
0 0 0 0 0 0 0 0 0 
0 0 0 0 0 0 0 0 0 
0 0 0 0 0 0 0 0 0 
0 0 0 0 0 0 0 0 0 
0 0 0 0 0 0 0 0 0 
0 0 0 0 0 0 0 0 0 
0 0 0 0 0 0 0 0 0 
0 0 0 0 0 0 0 0 0 
0 0 0 0 0 0 0 0 0 
0 0 0 0 0 0 0 0 0 
0 0 0 0 0 0 0 0 0 
0 0 0 0 0 0 0 0 0 
0 0 0 0 0 0 0 0 0 
0 0 0 0 0 0 0 0 0 
0 0 0 0 0 0 0 0 0 
0 0 0 0 0 0 0 0 0 
0 0 0 0 0 0 0 0 0 
0 0 0 0 0 0 0 0 0 
0 0 0 0 0 0 0 0 0 
0 0 0 0 0 0 0 0 0 
0 0 0 0 0 0 0 0 0 
0 0 0 0 0 0 0 0 0 
0 0 0 0 0 0 0 0 0 
0 0 0 0 0 0 0 0 0 
0 0 0 0 0 0 0 0 0 
0 0 0 0 0 0 0 0 0 
0 0 0 0 0 0 0 0 0 
0 0 0 0 0 0 0 0 0 
0 0 0 0 0 0 0 0 0 
0 0 0 0 0 0 0 0 0 
0 0 0 0 0 0 0 0 0 
0 0 0 0 0 0 0 0 0 
0 0 0 0 0 0 0 0 0 
0 0 0 0 0 0 0 0 0 
0 0 0 0 0 0 0 0 0 
0 0 0 0 0 0 0 0 0 
0 0 0 0 0 0 0 0 0 
0 0 0 0 0 0 0 0 0 
0 0 0 0 0 0 0 0 0 
0 0 0 0 0 0 0 0 0 
0 0 0 0 0 0 0 0 0 
0 0 0 0 0 0 0 0 0 
0 0 0 0 0 0 0 0 0 
0 0 0 0 0 0 0 0 0 
0 0 0 0 0 0 0 0 0 
0 0 0 0 0 0 0 0 0 
0 0 0 0 0 0 0 0 0 
0 0 0 0 0 0 0 0 0 
0 0 0 0 0 0 0 0 0 
0 0 0 0 0 0 0 0 0 
0 0 0 0 0 0 0 0 0 
0 0 0 0 0 0 0 0 0 
0 0 0 0 0 0 0 0 0 
0 0 0 0 0 0 0 0 0 
0 0 0 0 0 0 0 0 0 
0 0 0 0 0 0 0 0 0 
0 0 0 0 0 0 0 0 0 
0 0 0 0 0 0 0 0 0 
0 0 0 0 0 0 0 0 0 
0 0 0 0 0 0 0 0 0 
0 0 0 0 0 0 0 0 0 
0 0 0 0 0 0 0 0 0 
0 0 0 0 0 0 0 0 0 
0 0 0 0 0 0 0 0 0 
0 0 0 0 0 0 0 0 0 
0 0 0 0 0 0 0 0 0 
0 0 0 0 0 0 0 0 0 
0 0 0 0 0 0 0 0 0 
0 0 0 0 0 0 0 0 0 
0 0 0 0 0 0 0 0 0 
0 0 0 0 0 0 0 0 0 
0 0 0 0 0 0 0 0 0 
0 0 0 0 0 0 0 0 0 
0 0 0 0 0 0 0 0 0 
0 0 0 0 0 0 0 0 0 
0 0 0 0 0 0 0 0 0 
0 0 0 0 0 0 0 0 0 
0 0 0 0 0 0 0 0 0 
0 0 0 0 0 0 0 0 0 
0 0 0 0 0 0 0 0 0 
0 0 0 0 0 0 0 0 0 
0 0 0 0 0 0 0 0 0 
0 0 0 0 0 0 0 0 0 
0 0 0 0 0 0 0 0 0 
0 0 0 0 0 0 0 0 0 
0 0 0 0 0 0 0 0 0 
0 0 0 0 0 0 0 0 0 
0 0 0 0 0 0 0 0 0 
0 0 0 0 0 0 0 0 0 
0 0 0 0 0 0 0 0 0 
0 0 0 0 0 0 0 0 0 
0 0 0 0 0 0 0 0 0 
0 0 0 0 0 0 0 0 0 
0 0 0 0 0 0 0 0 0 
0 0 0 0 0 0 0 0 0 
0 0 0 0 0 0 0 0 0 
0 0 0 0 0 0 0 0 0 
0 0 0 0 0 0 0 0 0 
0 0 0 0 0 0 0 0 0 
0 0 0 0 0 0 0 0 0 
0 0 0 0 0 0 0 0 0 
0 0 0 0 0 0 0 0 0 
0 0 0 0 0 0 0 0 0 
0 0 0 0 0 0 0 0 0 
0 0 0 0 0 0 0 0 0 
0 0 0 0 0 0 0 0 0 
0 0 0 0 0 0 0 0 0 
0 0 0 0 0 0 0 0 0 
0 0 0 0 0 0 0 0 0 
0 0 0 0 0 0 0 0 0 
0 0 0 0 0 0 0 0 0 
0 0 0 0 0 0 0 0 0 
0 0 0 0 0 0 0 0 0 
0 0 0 0 0 0 0 0 0 
0 0 0 0 0 0 0 0 0 
0 0 0 0 0 0 0 0 0 
0 0 0 0 0 0 0 0 0 
0 0 0 0 0 0 0 0 0 
0 0 0 0 0 0 0 0 0 
0 0 0 0 0 0 0 0 0 
0 0 0 0 0 0 0 0 0 
0 0 0 0 0 0 0 0 0 
0 0 0 0 0 0 0 0 0 
0 0 0 0 0 0 0 0 0 
0 0 0 0 0 0 0 0 0 
0 0 0 0 0 0 0 0 0 
0 0 0 0 0 0 0 0 0 
0 0 0 0 0 0 0 0 0 
0 0 0 0 0 0 0 0 0 
0 0 0 0 0 0 0 0 0 
0 0 0 0 0 0 0 0 0 
0 0 0 0 0 0 0 0 0 
0 0 0 0 0 0 0 0 0 
0 0 0 0 0 0 0 0 0 
0 0 0 0 0 0 0 0 0 
0 0 0 0 0 0 0 0 0 
0 0 0 0 0 0 0 0 0 
0 0 0 0 0 0 0 0 0 
0 0 0 0 0 0 0 0 0 
0 0 0 0 0 0 0 0 0 
0 0 0 0 0 0 0 0 0 
0 0 0 0 0 0 0 0 0 
0 0 0 0 0 0 0 0 0 
0 0 0 0 0 0 0 0 0 
0 0 0 0 0 0 0 0 0 
0 0 0 0 0 0 0 0 0 
0 0 0 0 0 0 0 0 0 
0 0 0 0 0 0 0 0 0 
0 0 0 0 0 0 0 0 0 
0 0 0 0 0 0 0 0 0 
0 0 0 0 0 0 0 0 0 
0 0 0 0 0 0 0 0 0 
0 0 0 0 0 0 0 0 0 
0 0 0 0 0 0 0 0 0 
0 0 0 0 0 0 0 0 0 
0 0 0 0 0 0 0 0 0 
0 0 0 0 0 0 0 0 0 
0 0 0 0 0 0 0 0 0 
0 0 0 0 0 0 0 0 0 
0 0 0 0 0 0 0 0 0 
0 0 0 0 0 0 0 0 0 
0 0 0 0 0 0 0 0 0 
0 0 0 0 0 0 0 0 0 
0 0 0 0 0 0 0 0 0 
0 0 0 0 0 0 0 0 0 
0 0 0 0 0 0 0 0 0 
0 0 0 0 0 0 0 0 0 
0 0 0 0 0 0 0 0 0 
0 0 0 0 0 0 0 0 0 
0 0 0 0 0 0 0 0 0 
0 0 0 0 0 0 0 0 0 
0 0 0 0 0 0 0 0 0 
0 0 0 0 0 0 0 0 0 
0 0 0 0 0 0 0 0 0 
0 0 0 0 0 0 0 0 0 
0 0 0 0 0 0 0 0 0 
0 0 0 0 0 0 0 0 0 
0 0 0 0 0 0 0 0 0 
0 0 0 0 0 0 0 0 0 
0 0 0 0 0 0 0 0 0 
0 0 0 0 0 0 0 0 0 
0 0 0 0 0 0 0 0 0 
0 0 0 0 0 0 0 0 0 
0 0 0 0 0 0 0 0 0 
0 0 0 0 0 0 0 0 0 
0 0 0 0 0 0 0 0 0 
0 0 0 0 0 0 0 0 0 
0 0 0 0 0 0 0 0 0 
0 0 0 0 0 0 0 0 0 
0 0 0 0 0 0 0 0 0 
0 0 0 0 0 0 0 0 0 
0 0 0 0 0 0 0 0 0 
0 0 0 0 0 0 0 0 0 
0 0 0 0 0 0 0 0 0 
0 0 0 0 0 0 0 0 0 
0 0 0 0 0 0 0 0 0 
0 0 0 0 0 0 0 0 0 
0 0 0 0 0 0 0 0 0 
0 0 0 0 0 0 0 0 0 
0 0 0 0 0 0 0 0 0 
0 0 0 0 0 0 0 0 0 
0 0 0 0 0 0 0 0 0 
0 0 0 0 0 0 0 0 0 
0 0 0 0 0 0 0 0 0 
0 0 0 0 0 0 0 0 0 
0 0 0 0 0 0 0 0 0 
0 0 0 0 0 0 0 0 0 
0 0 0 0 0 0 0 0 0 
0 0 0 0 0 0 0 0 0 
0 0 0 0 0 0 0 0 0 
0 0 0 0 0 0 0 0 0 
0 0 0 0 0 0 0 0 0 
0 0 0 0 0 0 0 0 0 
0 0 0 0 0 0 0 0 0 
0 0 0 0 0 0 0 0 0 
0 0 0 0 0 0 0 0 0 
0 0 0 0 0 0 0 0 0 
0 0 0 0 0 0 0 0 0 
0 0 0 0 0 0 0 0 0 
0 0 0 0 0 0 0 0 0 
0 0 0 0 0 0 0 0 0 
0 0 0 0 0 0 0 0 0 
0 0 0 0 0 0 0 0 0 
0 0 0 0 0 0 0 0 0 
0 0 0 0 0 0 0 0 0 
0 0 0 0 0 0 0 0 0 
0 0 0 0 0 0 0 0 0 
0 0 0 0 0 0 0 0 0 
0 0 0 0 0 0 0 0 0 
0 0 0 0 0 0 0 0 0 
0 0 0 0 0 0 0 0 0 
0 0 0 0 0 0 0 0 0 
0 0 0 0 0 0 0 0 0 
0 0 0 0 0 0 0 0 0 
0 0 0 0 0 0 0 0 0 
0 0 0 0 0 0 0 0 0 
0 0 0 0 0 0 0 0 0 
0 0 0 0 0 0 0 0 0 
0 0 0 0 0 0 0 0 0 
0 0 0 0 0 0 0 0 0 
0 0 0 0 0 0 0 0 0 
0 0 0 0 0 0 0 0 0 
0 0 0 0 0 0 0 0 0 
0 0 0 0 0 0 0 0 0 
0 0 0 0 0 0 0 0 0 
0 0 0 0 0 0 0 0 0 
0 0 0 0 0 0 0 0 0 
0 0 0 0 0 0 0 0 0 
0 0 0 0 0 0 0 0 0 
0 0 0 0 0 0 0 0 0 
0 0 0 0 0 0 0 0 0 
0 0 0 0 0 0 0 0 0 
0 0 0 0 0 0 0 0 0 
0 0 0 0 0 0 0 0 0 
0 0 0 0 0 0 0 0 0 
0 0 0 0 0 0 0 0 0 
0 0 0 0 0 0 0 0 0 
0 0 0 0 0 0 0 0 0 
0 0 0 0 0 0 0 0 0 
0 0 0 0 0 0 0 0 0 
0 0 0 0 0 0 0 0 0 
0 0 0 0 0 0 0 0 0 
0 0 0 0 0 0 0 0 0 
0 0 0 0 0 0 0 0 0 
0 0 0 0 0 0 0 0 0 
0 0 0 0 0 0 0 0 0 
0 0 0 0 0 0 0 0 0 
0 0 0 0 0 0 0 0 0 
0 0 0 0 0 0 0 0 0 
0 0 0 0 0 0 0 0 0 
0 0 0 0 0 0 0 0 0 
0 0 0 0 0 0 0 0 0 
0 0 0 0 0 0 0 0 0 
0 0 0 0 0 0 0 0 0 
0 0 0 0 0 0 0 0 0 
0 0 0 0 0 0 0 0 0 
0 0 0 0 0 0 0 0 0 
0 0 0 0 0 0 0 0 0 
0 0 0 0 0 0 0 0 0 
0 0 0 0 0 0 0 0 0 
0 0 0 0 0 0 0 0 0 
0 0 0 0 0 0 0 0 0 
0 0 0 0 0 0 0 0 0 
0 0 0 0 0 0 0 0 0 
0 0 0 0 0 0 0 0 0 
0 0 0 0 0 0 0 0 0 
0 0 0 0 0 0 0 0 0 
0 0 0 0 0 0 0 0 0 
0 0 0 0 0 0 0 0 0 
0 0 0 0 0 0 0 0 0 
0 0 0 0 0 0 0 0 0 
0 0 0 0 0 0 0 0 0 
0 0 0 0 0 0 0 0 0 
0 0 0 0 0 0 0 0 0 
0 0 0 0 0 0 0 0 0 
0 0 0 0 0 0 0 0 0 
0 0 0 0 0 0 0 0 0 
0 0 0 0 0 0 0 0 0 
0 0 0 0 0 0 0 0 0 
0 0 0 0 0 0 0 0 0 
0 0 0 0 0 0 0 0 0 
0 0 0 0 0 0 0 0 0 
0 0 0 0 0 0 0 0 0 
0 0 0 0 0 0 0 0 0 
0 0 0 0 0 0 0 0 0 
0 0 0 0 0 0 0 0 0 
0 0 0 0 0 0 0 0 0 
0 0 0 0 0 0 0 0 0 
0 0 0 0 0 0 0 0 0 
0 0 0 0 0 0 0 0 0 
0 0 0 0 0 0 0 0 0 
0 0 0 0 0 0 0 0 0 
0 0 0 0 0 0 0 0 0 
0 0 0 0 0 0 0 0 0 
0 0 0 0 0 0 0 0 0 
0 0 0 0 0 0 0 0 0 
0 0 0 0 0 0 0 0 0 
0 0 0 0 0 0 0 0 0 
0 0 0 0 0 0 0 0 0 
0 0 0 0 0 0 0 0 0 
0 0 0 0 0 0 0 0 0 
0 0 0 0 0 0 0 0 0 
0 0 0 0 0 0 0 0 0 
0 0 0 0 0 0 0 0 0 
0 0 0 0 0 0 0 0 0 
0 0 0 0 0 0 0 0 0 
0 0 0 0 0 0 0 0 0 
0 0 0 0 0 0 0 0 0 
0 0 0 0 0 0 0 0 0 
0 0 0 0 0 0 0 0 0 
0 0 0 0 0 0 0 0 0 
0 0 0 0 0 0 0 0 0 
0 0 0 0 0 0 0 0 0 
0 0 0 0 0 0 0 0 0 
0 0 0 0 0 0 0 0 0 
0 0 0 0 0 0 0 0 0 
0 0 0 0 0 0 0 0 0 
0 0 0 0 0 0 0 0 0 
0 0 0 0 0 0 0 0 0 
0 0 0 0 0 0 0 0 0 
0 0 0 0 0 0 0 0 0 
0 0 0 0 0 0 0 0 0 
0 0 0 0 0 0 0 0 0 
0 0 0 0 0 0 0 0 0 
0 0 0 0 0 0 0 0 0 
0 0 0 0 0 0 0 0 0 
0 0 0 0 0 0 0 0 0 
0 0 0 0 0 0 0 0 0 
0 0 0 0 0 0 0 0 0 
0 0 0 0 0 0 0 0 0 
0 0 0 0 0 0 0 0 0 
0 0 0 0 0 0 0 0 0 
0 0 0 0 0 0 0 0 0 
0 0 0 0 0 0 0 0 0 
0 0 0 0 0 0 0 0 0 
0 0 0 0 0 0 0 0 0 
0 0 0 0 0 0 0 0 0 
0 0 0 0 0 0 0 0 0 
0 0 0 0 0 0 0 0 0 
0 0 0 0 0 0 0 0 0 
0 0 0 0 0 0 0 0 0 
0 0 0 0 0 0 0 0 0 
0 0 0 0 0 0 0 0 0 
0 0 0 0 0 0 0 0 0 
0 0 0 0 0 0 0 0 0 
0 0 0 0 0 0 0 0 0 
0 0 0 0 0 0 0 0 0 
0 0 0 0 0 0 0 0 0 
0 0 0 0 0 0 0 0 0 
0 0 0 0 0 0 0 0 0 
0 0 0 0 0 0 0 0 0 
0 0 0 0 0 0 0 0 0 
0 0 0 0 0 0 0 0 0 
0 0 0 0 0 0 0 0 0 
0 0 0 0 0 0 0 0 0 
0 0 0 0 0 0 0 0 0 
0 0 0 0 0 0 0 0 0 
0 0 0 0 0 0 0 0 0 
0 0 0 0 0 0 0 0 0 
0 0 0 0 0 0 0 0 0 
0 0 0 0 0 0 0 0 0 
0 0 0 0 0 0 0 0 0 
0 0 0 0 0 0 0 0 0 
0 0 0 0 0 0 0 0 0 
0 0 0 0 0 0 0 0 0 
0 0 0 0 0 0 0 0 0 
0 0 0 0 0 0 0 0 0 
0 0 0 0 0 0 0 0 0 
0 0 0 0 0 0 0 0 0 
0 0 0 0 0 0 0 0 0 
0 0 0 0 0 0 0 0 0 
0 0 0 0 0 0 0 0 0 
0 0 0 0 0 0 0 0 0 
0 0 0 0 0 0 0 0 0 
0 0 0 0 0 0 0 0 0 
0 0 0 0 0 0 0 0 0 
0 0 0 0 0 0 0 0 0 
0 0 0 0 0 0 0 0 0 
0 0 
shear_stress_average 1 5744 double
0 0 0 0 0 0 0 0 0 
0 0 0 0 0 0 0 0 0 
0 0 0 0 0 0 0 0 0 
0 0 0 0 0 0 0 0 0 
0 0 0 0 0 0 0 0 0 
0 0 0 0 0 0 0 0 0 
0 0 0 0 0 0 0 0 0 
0 0 0 0 0 0 0 0 0 
0 0 0 0 0 0 0 0 0 
0 0 0 0 0 0 0 0 0 
0 0 0 0 0 0 0 0 0 
0 0 0 0 0 0 0 0 0 
0 0 0 0 0 0 0 0 0 
0 0 0 0 0 0 0 0 0 
0 0 0 0 0 0 0 0 0 
0 0 0 0 0 0 0 0 0 
0 0 0 0 0 0 0 0 0 
0 0 0 0 0 0 0 0 0 
0 0 0 0 0 0 0 0 0 
0 0 0 0 0 0 0 0 0 
0 0 0 0 0 0 0 0 0 
0 0 0 0 0 0 0 0 0 
0 0 0 0 0 0 0 0 0 
0 0 0 0 0 0 0 0 0 
0 0 0 0 0 0 0 0 0 
0 0 0 0 0 0 0 0 0 
0 0 0 0 0 0 0 0 0 
0 0 0 0 0 0 0 0 0 
0 0 0 0 0 0 0 0 0 
0 0 0 0 0 0 0 0 0 
0 0 0 0 0 0 0 0 0 
0 0 0 0 0 0 0 0 0 
0 0 0 0 0 0 0 0 0 
0 0 0 0 0 0 0 0 0 
0 0 0 0 0 0 0 0 0 
0 0 0 0 0 0 0 0 0 
0 0 0 0 0 0 0 0 0 
0 0 0 0 0 0 0 0 0 
0 0 0 0 0 0 0 0 0 
0 0 0 0 0 0 0 0 0 
0 0 0 0 0 0 0 0 0 
0 0 0 0 0 0 0 0 0 
0 0 0 0 0 0 0 0 0 
0 0 0 0 0 0 0 0 0 
0 0 0 0 0 0 0 0 0 
0 0 0 0 0 0 0 0 0 
0 0 0 0 0 0 0 0 0 
0 0 0 0 0 0 0 0 0 
0 0 0 0 0 0 0 0 0 
0 0 0 0 0 0 0 0 0 
0 0 0 0 0 0 0 0 0 
0 0 0 0 0 0 0 0 0 
0 0 0 0 0 0 0 0 0 
0 0 0 0 0 0 0 0 0 
0 0 0 0 0 0 0 0 0 
0 0 0 0 0 0 0 0 0 
0 0 0 0 0 0 0 0 0 
0 0 0 0 0 0 0 0 0 
0 0 0 0 0 0 0 0 0 
0 0 0 0 0 0 0 0 0 
0 0 0 0 0 0 0 0 0 
0 0 0 0 0 0 0 0 0 
0 0 0 0 0 0 0 0 0 
0 0 0 0 0 0 0 0 0 
0 0 0 0 0 0 0 0 0 
0 0 0 0 0 0 0 0 0 
0 0 0 0 0 0 0 0 0 
0 0 0 0 0 0 0 0 0 
0 0 0 0 0 0 0 0 0 
0 0 0 0 0 0 0 0 0 
0 0 0 0 0 0 0 0 0 
0 0 0 0 0 0 0 0 0 
0 0 0 0 0 0 0 0 0 
0 0 0 0 0 0 0 0 0 
0 0 0 0 0 0 0 0 0 
0 0 0 0 0 0 0 0 0 
0 0 0 0 0 0 0 0 0 
0 0 0 0 0 0 0 0 0 
0 0 0 0 0 0 0 0 0 
0 0 0 0 0 0 0 0 0 
0 0 0 0 0 0 0 0 0 
0 0 0 0 0 0 0 0 0 
0 0 0 0 0 0 0 0 0 
0 0 0 0 0 0 0 0 0 
0 0 0 0 0 0 0 0 0 
0 0 0 0 0 0 0 0 0 
0 0 0 0 0 0 0 0 0 
0 0 0 0 0 0 0 0 0 
0 0 0 0 0 0 0 0 0 
0 0 0 0 0 0 0 0 0 
0 0 0 0 0 0 0 0 0 
0 0 0 0 0 0 0 0 0 
0 0 0 0 0 0 0 0 0 
0 0 0 0 0 0 0 0 0 
0 0 0 0 0 0 0 0 0 
0 0 0 0 0 0 0 0 0 
0 0 0 0 0 0 0 0 0 
0 0 0 0 0 0 0 0 0 
0 0 0 0 0 0 0 0 0 
0 0 0 0 0 0 0 0 0 
0 0 0 0 0 0 0 0 0 
0 0 0 0 0 0 0 0 0 
0 0 0 0 0 0 0 0 0 
0 0 0 0 0 0 0 0 0 
0 0 0 0 0 0 0 0 0 
0 0 0 0 0 0 0 0 0 
0 0 0 0 0 0 0 0 0 
0 0 0 0 0 0 0 0 0 
0 0 0 0 0 0 0 0 0 
0 0 0 0 0 0 0 0 0 
0 0 0 0 0 0 0 0 0 
0 0 0 0 0 0 0 0 0 
0 0 0 0 0 0 0 0 0 
0 0 0 0 0 0 0 0 0 
0 0 0 0 0 0 0 0 0 
0 0 0 0 0 0 0 0 0 
0 0 0 0 0 0 0 0 0 
0 0 0 0 0 0 0 0 0 
0 0 0 0 0 0 0 0 0 
0 0 0 0 0 0 0 0 0 
0 0 0 0 0 0 0 0 0 
0 0 0 0 0 0 0 0 0 
0 0 0 0 0 0 0 0 0 
0 0 0 0 0 0 0 0 0 
0 0 0 0 0 0 0 0 0 
0 0 0 0 0 0 0 0 0 
0 0 0 0 0 0 0 0 0 
0 0 0 0 0 0 0 0 0 
0 0 0 0 0 0 0 0 0 
0 0 0 0 0 0 0 0 0 
0 0 0 0 0 0 0 0 0 
0 0 0 0 0 0 0 0 0 
0 0 0 0 0 0 0 0 0 
0 0 0 0 0 0 0 0 0 
0 0 0 0 0 0 0 0 0 
0 0 0 0 0 0 0 0 0 
0 0 0 0 0 0 0 0 0 
0 0 0 0 0 0 0 0 0 
0 0 0 0 0 0 0 0 0 
0 0 0 0 0 0 0 0 0 
0 0 0 0 0 0 0 0 0 
0 0 0 0 0 0 0 0 0 
0 0 0 0 0 0 0 0 0 
0 0 0 0 0 0 0 0 0 
0 0 0 0 0 0 0 0 0 
0 0 0 0 0 0 0 0 0 
0 0 0 0 0 0 0 0 0 
0 0 0 0 0 0 0 0 0 
0 0 0 0 0 0 0 0 0 
0 0 0 0 0 0 0 0 0 
0 0 0 0 0 0 0 0 0 
0 0 0 0 0 0 0 0 0 
0 0 0 0 0 0 0 0 0 
0 0 0 0 0 0 0 0 0 
0 0 0 0 0 0 0 0 0 
0 0 0 0 0 0 0 0 0 
0 0 0 0 0 0 0 0 0 
0 0 0 0 0 0 0 0 0 
0 0 0 0 0 0 0 0 0 
0 0 0 0 0 0 0 0 0 
0 0 0 0 0 0 0 0 0 
0 0 0 0 0 0 0 0 0 
0 0 0 0 0 0 0 0 0 
0 0 0 0 0 0 0 0 0 
0 0 0 0 0 0 0 0 0 
0 0 0 0 0 0 0 0 0 
0 0 0 0 0 0 0 0 0 
0 0 0 0 0 0 0 0 0 
0 0 0 0 0 0 0 0 0 
0 0 0 0 0 0 0 0 0 
0 0 0 0 0 0 0 0 0 
0 0 0 0 0 0 0 0 0 
0 0 0 0 0 0 0 0 0 
0 0 0 0 0 0 0 0 0 
0 0 0 0 0 0 0 0 0 
0 0 0 0 0 0 0 0 0 
0 0 0 0 0 0 0 0 0 
0 0 0 0 0 0 0 0 0 
0 0 0 0 0 0 0 0 0 
0 0 0 0 0 0 0 0 0 
0 0 0 0 0 0 0 0 0 
0 0 0 0 0 0 0 0 0 
0 0 0 0 0 0 0 0 0 
0 0 0 0 0 0 0 0 0 
0 0 0 0 0 0 0 0 0 
0 0 0 0 0 0 0 0 0 
0 0 0 0 0 0 0 0 0 
0 0 0 0 0 0 0 0 0 
0 0 0 0 0 0 0 0 0 
0 0 0 0 0 0 0 0 0 
0 0 0 0 0 0 0 0 0 
0 0 0 0 0 0 0 0 0 
0 0 0 0 0 0 0 0 0 
0 0 0 0 0 0 0 0 0 
0 0 0 0 0 0 0 0 0 
0 0 0 0 0 0 0 0 0 
0 0 0 0 0 0 0 0 0 
0 0 0 0 0 0 0 0 0 
0 0 0 0 0 0 0 0 0 
0 0 0 0 0 0 0 0 0 
0 0 0 0 0 0 0 0 0 
0 0 0 0 0 0 0 0 0 
0 0 0 0 0 0 0 0 0 
0 0 0 0 0 0 0 0 0 
0 0 0 0 0 0 0 0 0 
0 0 0 0 0 0 0 0 0 
0 0 0 0 0 0 0 0 0 
0 0 0 0 0 0 0 0 0 
0 0 0 0 0 0 0 0 0 
0 0 0 0 0 0 0 0 0 
0 0 0 0 0 0 0 0 0 
0 0 0 0 0 0 0 0 0 
0 0 0 0 0 0 0 0 0 
0 0 0 0 0 0 0 0 0 
0 0 0 0 0 0 0 0 0 
0 0 0 0 0 0 0 0 0 
0 0 0 0 0 0 0 0 0 
0 0 0 0 0 0 0 0 0 
0 0 0 0 0 0 0 0 0 
0 0 0 0 0 0 0 0 0 
0 0 0 0 0 0 0 0 0 
0 0 0 0 0 0 0 0 0 
0 0 0 0 0 0 0 0 0 
0 0 0 0 0 0 0 0 0 
0 0 0 0 0 0 0 0 0 
0 0 0 0 0 0 0 0 0 
0 0 0 0 0 0 0 0 0 
0 0 0 0 0 0 0 0 0 
0 0 0 0 0 0 0 0 0 
0 0 0 0 0 0 0 0 0 
0 0 0 0 0 0 0 0 0 
0 0 0 0 0 0 0 0 0 
0 0 0 0 0 0 0 0 0 
0 0 0 0 0 0 0 0 0 
0 0 0 0 0 0 0 0 0 
0 0 0 0 0 0 0 0 0 
0 0 0 0 0 0 0 0 0 
0 0 0 0 0 0 0 0 0 
0 0 0 0 0 0 0 0 0 
0 0 0 0 0 0 0 0 0 
0 0 0 0 0 0 0 0 0 
0 0 0 0 0 0 0 0 0 
0 0 0 0 0 0 0 0 0 
0 0 0 0 0 0 0 0 0 
0 0 0 0 0 0 0 0 0 
0 0 0 0 0 0 0 0 0 
0 0 0 0 0 0 0 0 0 
0 0 0 0 0 0 0 0 0 
0 0 0 0 0 0 0 0 0 
0 0 0 0 0 0 0 0 0 
0 0 0 0 0 0 0 0 0 
0 0 0 0 0 0 0 0 0 
0 0 0 0 0 0 0 0 0 
0 0 0 0 0 0 0 0 0 
0 0 0 0 0 0 0 0 0 
0 0 0 0 0 0 0 0 0 
0 0 0 0 0 0 0 0 0 
0 0 0 0 0 0 0 0 0 
0 0 0 0 0 0 0 0 0 
0 0 0 0 0 0 0 0 0 
0 0 0 0 0 0 0 0 0 
0 0 0 0 0 0 0 0 0 
0 0 0 0 0 0 0 0 0 
0 0 0 0 0 0 0 0 0 
0 0 0 0 0 0 0 0 0 
0 0 0 0 0 0 0 0 0 
0 0 0 0 0 0 0 0 0 
0 0 0 0 0 0 0 0 0 
0 0 0 0 0 0 0 0 0 
0 0 0 0 0 0 0 0 0 
0 0 0 0 0 0 0 0 0 
0 0 0 0 0 0 0 0 0 
0 0 0 0 0 0 0 0 0 
0 0 0 0 0 0 0 0 0 
0 0 0 0 0 0 0 0 0 
0 0 0 0 0 0 0 0 0 
0 0 0 0 0 0 0 0 0 
0 0 0 0 0 0 0 0 0 
0 0 0 0 0 0 0 0 0 
0 0 0 0 0 0 0 0 0 
0 0 0 0 0 0 0 0 0 
0 0 0 0 0 0 0 0 0 
0 0 0 0 0 0 0 0 0 
0 0 0 0 0 0 0 0 0 
0 0 0 0 0 0 0 0 0 
0 0 0 0 0 0 0 0 0 
0 0 0 0 0 0 0 0 0 
0 0 0 0 0 0 0 0 0 
0 0 0 0 0 0 0 0 0 
0 0 0 0 0 0 0 0 0 
0 0 0 0 0 0 0 0 0 
0 0 0 0 0 0 0 0 0 
0 0 0 0 0 0 0 0 0 
0 0 0 0 0 0 0 0 0 
0 0 0 0 0 0 0 0 0 
0 0 0 0 0 0 0 0 0 
0 0 0 0 0 0 0 0 0 
0 0 0 0 0 0 0 0 0 
0 0 0 0 0 0 0 0 0 
0 0 0 0 0 0 0 0 0 
0 0 0 0 0 0 0 0 0 
0 0 0 0 0 0 0 0 0 
0 0 0 0 0 0 0 0 0 
0 0 0 0 0 0 0 0 0 
0 0 0 0 0 0 0 0 0 
0 0 0 0 0 0 0 0 0 
0 0 0 0 0 0 0 0 0 
0 0 0 0 0 0 0 0 0 
0 0 0 0 0 0 0 0 0 
0 0 0 0 0 0 0 0 0 
0 0 0 0 0 0 0 0 0 
0 0 0 0 0 0 0 0 0 
0 0 0 0 0 0 0 0 0 
0 0 0 0 0 0 0 0 0 
0 0 0 0 0 0 0 0 0 
0 0 0 0 0 0 0 0 0 
0 0 0 0 0 0 0 0 0 
0 0 0 0 0 0 0 0 0 
0 0 0 0 0 0 0 0 0 
0 0 0 0 0 0 0 0 0 
0 0 0 0 0 0 0 0 0 
0 0 0 0 0 0 0 0 0 
0 0 0 0 0 0 0 0 0 
0 0 0 0 0 0 0 0 0 
0 0 0 0 0 0 0 0 0 
0 0 0 0 0 0 0 0 0 
0 0 0 0 0 0 0 0 0 
0 0 0 0 0 0 0 0 0 
0 0 0 0 0 0 0 0 0 
0 0 0 0 0 0 0 0 0 
0 0 0 0 0 0 0 0 0 
0 0 0 0 0 0 0 0 0 
0 0 0 0 0 0 0 0 0 
0 0 0 0 0 0 0 0 0 
0 0 0 0 0 0 0 0 0 
0 0 0 0 0 0 0 0 0 
0 0 0 0 0 0 0 0 0 
0 0 0 0 0 0 0 0 0 
0 0 0 0 0 0 0 0 0 
0 0 0 0 0 0 0 0 0 
0 0 0 0 0 0 0 0 0 
0 0 0 0 0 0 0 0 0 
0 0 0 0 0 0 0 0 0 
0 0 0 0 0 0 0 0 0 
0 0 0 0 0 0 0 0 0 
0 0 0 0 0 0 0 0 0 
0 0 0 0 0 0 0 0 0 
0 0 0 0 0 0 0 0 0 
0 0 0 0 0 0 0 0 0 
0 0 0 0 0 0 0 0 0 
0 0 0 0 0 0 0 0 0 
0 0 0 0 0 0 0 0 0 
0 0 0 0 0 0 0 0 0 
0 0 0 0 0 0 0 0 0 
0 0 0 0 0 0 0 0 0 
0 0 0 0 0 0 0 0 0 
0 0 0 0 0 0 0 0 0 
0 0 0 0 0 0 0 0 0 
0 0 0 0 0 0 0 0 0 
0 0 0 0 0 0 0 0 0 
0 0 0 0 0 0 0 0 0 
0 0 0 0 0 0 0 0 0 
0 0 0 0 0 0 0 0 0 
0 0 0 0 0 0 0 0 0 
0 0 0 0 0 0 0 0 0 
0 0 0 0 0 0 0 0 0 
0 0 0 0 0 0 0 0 0 
0 0 0 0 0 0 0 0 0 
0 0 0 0 0 0 0 0 0 
0 0 0 0 0 0 0 0 0 
0 0 0 0 0 0 0 0 0 
0 0 0 0 0 0 0 0 0 
0 0 0 0 0 0 0 0 0 
0 0 0 0 0 0 0 0 0 
0 0 0 0 0 0 0 0 0 
0 0 0 0 0 0 0 0 0 
0 0 0 0 0 0 0 0 0 
0 0 0 0 0 0 0 0 0 
0 0 0 0 0 0 0 0 0 
0 0 0 0 0 0 0 0 0 
0 0 0 0 0 0 0 0 0 
0 0 0 0 0 0 0 0 0 
0 0 0 0 0 0 0 0 0 
0 0 0 0 0 0 0 0 0 
0 0 0 0 0 0 0 0 0 
0 0 0 0 0 0 0 0 0 
0 0 0 0 0 0 0 0 0 
0 0 0 0 0 0 0 0 0 
0 0 0 0 0 0 0 0 0 
0 0 0 0 0 0 0 0 0 
0 0 0 0 0 0 0 0 0 
0 0 0 0 0 0 0 0 0 
0 0 0 0 0 0 0 0 0 
0 0 0 0 0 0 0 0 0 
0 0 0 0 0 0 0 0 0 
0 0 0 0 0 0 0 0 0 
0 0 0 0 0 0 0 0 0 
0 0 0 0 0 0 0 0 0 
0 0 0 0 0 0 0 0 0 
0 0 0 0 0 0 0 0 0 
0 0 0 0 0 0 0 0 0 
0 0 0 0 0 0 0 0 0 
0 0 0 0 0 0 0 0 0 
0 0 0 0 0 0 0 0 0 
0 0 0 0 0 0 0 0 0 
0 0 0 0 0 0 0 0 0 
0 0 0 0 0 0 0 0 0 
0 0 0 0 0 0 0 0 0 
0 0 0 0 0 0 0 0 0 
0 0 0 0 0 0 0 0 0 
0 0 0 0 0 0 0 0 0 
0 0 0 0 0 0 0 0 0 
0 0 0 0 0 0 0 0 0 
0 0 0 0 0 0 0 0 0 
0 0 0 0 0 0 0 0 0 
0 0 0 0 0 0 0 0 0 
0 0 0 0 0 0 0 0 0 
0 0 0 0 0 0 0 0 0 
0 0 0 0 0 0 0 0 0 
0 0 0 0 0 0 0 0 0 
0 0 0 0 0 0 0 0 0 
0 0 0 0 0 0 0 0 0 
0 0 0 0 0 0 0 0 0 
0 0 0 0 0 0 0 0 0 
0 0 0 0 0 0 0 0 0 
0 0 0 0 0 0 0 0 0 
0 0 0 0 0 0 0 0 0 
0 0 0 0 0 0 0 0 0 
0 0 0 0 0 0 0 0 0 
0 0 0 0 0 0 0 0 0 
0 0 0 0 0 0 0 0 0 
0 0 0 0 0 0 0 0 0 
0 0 0 0 0 0 0 0 0 
0 0 0 0 0 0 0 0 0 
0 0 0 0 0 0 0 0 0 
0 0 0 0 0 0 0 0 0 
0 0 0 0 0 0 0 0 0 
0 0 0 0 0 0 0 0 0 
0 0 0 0 0 0 0 0 0 
0 0 0 0 0 0 0 0 0 
0 0 0 0 0 0 0 0 0 
0 0 0 0 0 0 0 0 0 
0 0 0 0 0 0 0 0 0 
0 0 0 0 0 0 0 0 0 
0 0 0 0 0 0 0 0 0 
0 0 0 0 0 0 0 0 0 
0 0 0 0 0 0 0 0 0 
0 0 0 0 0 0 0 0 0 
0 0 0 0 0 0 0 0 0 
0 0 0 0 0 0 0 0 0 
0 0 0 0 0 0 0 0 0 
0 0 0 0 0 0 0 0 0 
0 0 0 0 0 0 0 0 0 
0 0 0 0 0 0 0 0 0 
0 0 0 0 0 0 0 0 0 
0 0 0 0 0 0 0 0 0 
0 0 0 0 0 0 0 0 0 
0 0 0 0 0 0 0 0 0 
0 0 0 0 0 0 0 0 0 
0 0 0 0 0 0 0 0 0 
0 0 0 0 0 0 0 0 0 
0 0 0 0 0 0 0 0 0 
0 0 0 0 0 0 0 0 0 
0 0 0 0 0 0 0 0 0 
0 0 0 0 0 0 0 0 0 
0 0 0 0 0 0 0 0 0 
0 0 0 0 0 0 0 0 0 
0 0 0 0 0 0 0 0 0 
0 0 0 0 0 0 0 0 0 
0 0 0 0 0 0 0 0 0 
0 0 0 0 0 0 0 0 0 
0 0 0 0 0 0 0 0 0 
0 0 0 0 0 0 0 0 0 
0 0 0 0 0 0 0 0 0 
0 0 0 0 0 0 0 0 0 
0 0 0 0 0 0 0 0 0 
0 0 0 0 0 0 0 0 0 
0 0 0 0 0 0 0 0 0 
0 0 0 0 0 0 0 0 0 
0 0 0 0 0 0 0 0 0 
0 0 0 0 0 0 0 0 0 
0 0 0 0 0 0 0 0 0 
0 0 0 0 0 0 0 0 0 
0 0 0 0 0 0 0 0 0 
0 0 0 0 0 0 0 0 0 
0 0 0 0 0 0 0 0 0 
0 0 0 0 0 0 0 0 0 
0 0 0 0 0 0 0 0 0 
0 0 0 0 0 0 0 0 0 
0 0 0 0 0 0 0 0 0 
0 0 0 0 0 0 0 0 0 
0 0 0 0 0 0 0 0 0 
0 0 0 0 0 0 0 0 0 
0 0 0 0 0 0 0 0 0 
0 0 0 0 0 0 0 0 0 
0 0 0 0 0 0 0 0 0 
0 0 0 0 0 0 0 0 0 
0 0 0 0 0 0 0 0 0 
0 0 0 0 0 0 0 0 0 
0 0 0 0 0 0 0 0 0 
0 0 0 0 0 0 0 0 0 
0 0 0 0 0 0 0 0 0 
0 0 0 0 0 0 0 0 0 
0 0 0 0 0 0 0 0 0 
0 0 0 0 0 0 0 0 0 
0 0 0 0 0 0 0 0 0 
0 0 0 0 0 0 0 0 0 
0 0 0 0 0 0 0 0 0 
0 0 0 0 0 0 0 0 0 
0 0 0 0 0 0 0 0 0 
0 0 0 0 0 0 0 0 0 
0 0 0 0 0 0 0 0 0 
0 0 0 0 0 0 0 0 0 
0 0 0 0 0 0 0 0 0 
0 0 0 0 0 0 0 0 0 
0 0 0 0 0 0 0 0 0 
0 0 0 0 0 0 0 0 0 
0 0 0 0 0 0 0 0 0 
0 0 0 0 0 0 0 0 0 
0 0 0 0 0 0 0 0 0 
0 0 0 0 0 0 0 0 0 
0 0 0 0 0 0 0 0 0 
0 0 0 0 0 0 0 0 0 
0 0 0 0 0 0 0 0 0 
0 0 0 0 0 0 0 0 0 
0 0 0 0 0 0 0 0 0 
0 0 0 0 0 0 0 0 0 
0 0 0 0 0 0 0 0 0 
0 0 0 0 0 0 0 0 0 
0 0 0 0 0 0 0 0 0 
0 0 0 0 0 0 0 0 0 
0 0 0 0 0 0 0 0 0 
0 0 0 0 0 0 0 0 0 
0 0 0 0 0 0 0 0 0 
0 0 0 0 0 0 0 0 0 
0 0 0 0 0 0 0 0 0 
0 0 0 0 0 0 0 0 0 
0 0 0 0 0 0 0 0 0 
0 0 0 0 0 0 0 0 0 
0 0 0 0 0 0 0 0 0 
0 0 0 0 0 0 0 0 0 
0 0 0 0 0 0 0 0 0 
0 0 0 0 0 0 0 0 0 
0 0 0 0 0 0 0 0 0 
0 0 0 0 0 0 0 0 0 
0 0 0 0 0 0 0 0 0 
0 0 0 0 0 0 0 0 0 
0 0 0 0 0 0 0 0 0 
0 0 0 0 0 0 0 0 0 
0 0 0 0 0 0 0 0 0 
0 0 0 0 0 0 0 0 0 
0 0 0 0 0 0 0 0 0 
0 0 0 0 0 0 0 0 0 
0 0 0 0 0 0 0 0 0 
0 0 0 0 0 0 0 0 0 
0 0 0 0 0 0 0 0 0 
0 0 0 0 0 0 0 0 0 
0 0 0 0 0 0 0 0 0 
0 0 0 0 0 0 0 0 0 
0 0 0 0 0 0 0 0 0 
0 0 0 0 0 0 0 0 0 
0 0 0 0 0 0 0 0 0 
0 0 0 0 0 0 0 0 0 
0 0 0 0 0 0 0 0 0 
0 0 0 0 0 0 0 0 0 
0 0 0 0 0 0 0 0 0 
0 0 0 0 0 0 0 0 0 
0 0 0 0 0 0 0 0 0 
0 0 0 0 0 0 0 0 0 
0 0 0 0 0 0 0 0 0 
0 0 0 0 0 0 0 0 0 
0 0 0 0 0 0 0 0 0 
0 0 0 0 0 0 0 0 0 
0 0 0 0 0 0 0 0 0 
0 0 0 0 0 0 0 0 0 
0 0 0 0 0 0 0 0 0 
0 0 0 0 0 0 0 0 0 
0 0 0 0 0 0 0 0 0 
0 0 0 0 0 0 0 0 0 
0 0 0 0 0 0 0 0 0 
0 0 0 0 0 0 0 0 0 
0 0 0 0 0 0 0 0 0 
0 0 0 0 0 0 0 0 0 
0 0 0 0 0 0 0 0 0 
0 0 0 0 0 0 0 0 0 
0 0 0 0 0 0 0 0 0 
0 0 0 0 0 0 0 0 0 
0 0 0 0 0 0 0 0 0 
0 0 0 0 0 0 0 0 0 
0 0 0 0 0 0 0 0 0 
0 0 0 0 0 0 0 0 0 
0 0 0 0 0 0 0 0 0 
0 0 0 0 0 0 0 0 0 
0 0 0 0 0 0 0 0 0 
0 0 0 0 0 0 0 0 0 
0 0 0 0 0 0 0 0 0 
0 0 0 0 0 0 0 0 0 
0 0 0 0 0 0 0 0 0 
0 0 0 0 0 0 0 0 0 
0 0 0 0 0 0 0 0 0 
0 0 0 0 0 0 0 0 0 
0 0 0 0 0 0 0 0 0 
0 0 0 0 0 0 0 0 0 
0 0 0 0 0 0 0 0 0 
0 0 0 0 0 0 0 0 0 
0 0 0 0 0 0 0 0 0 
0 0 0 0 0 0 0 0 0 
0 0 0 0 0 0 0 0 0 
0 0 0 0 0 0 0 0 0 
0 0 0 0 0 0 0 0 0 
0 0 0 0 0 0 0 0 0 
0 0 0 0 0 0 0 0 0 
0 0 0 0 0 0 0 0 0 
0 0 0 0 0 0 0 0 0 
0 0 0 0 0 0 0 0 0 
0 0 0 0 0 0 0 0 0 
0 0 0 0 0 0 0 0 0 
0 0 0 0 0 0 0 0 0 
0 0 0 0 0 0 0 0 0 
0 0 0 0 0 0 0 0 0 
0 0 0 0 0 0 0 0 0 
0 0 0 0 0 0 0 0 0 
0 0 0 0 0 0 0 0 0 
0 0 0 0 0 0 0 0 0 
0 0 0 0 0 0 0 0 0 
0 0 0 0 0 0 0 0 0 
0 0 0 0 0 0 0 0 0 
0 0 0 0 0 0 0 0 0 
0 0 0 0 0 0 0 0 0 
0 0 0 0 0 0 0 0 0 
0 0 0 0 0 0 0 0 0 
0 0 0 0 0 0 0 0 0 
0 0 0 0 0 0 0 0 0 
0 0 0 0 0 0 0 0 0 
0 0 0 0 0 0 0 0 0 
0 0 0 0 0 0 0 0 0 
0 0 0 0 0 0 0 0 0 
0 0 0 0 0 0 0 0 0 
0 0 
stress 3 5744 double
0 0 0 0 0 0 0 0 0 
0 0 0 0 0 0 0 0 0 
0 0 0 0 0 0 0 0 0 
0 0 0 0 0 0 0 0 0 
0 0 0 0 0 0 0 0 0 
0 0 0 0 0 0 0 0 0 
0 0 0 0 0 0 0 0 0 
0 0 0 0 0 0 0 0 0 
0 0 0 0 0 0 0 0 0 
0 0 0 0 0 0 0 0 0 
0 0 0 0 0 0 0 0 0 
0 0 0 0 0 0 0 0 0 
0 0 0 0 0 0 0 0 0 
0 0 0 0 0 0 0 0 0 
0 0 0 0 0 0 0 0 0 
0 0 0 0 0 0 0 0 0 
0 0 0 0 0 0 0 0 0 
0 0 0 0 0 0 0 0 0 
0 0 0 0 0 0 0 0 0 
0 0 0 0 0 0 0 0 0 
0 0 0 0 0 0 0 0 0 
0 0 0 0 0 0 0 0 0 
0 0 0 0 0 0 0 0 0 
0 0 0 0 0 0 0 0 0 
0 0 0 0 0 0 0 0 0 
0 0 0 0 0 0 0 0 0 
0 0 0 0 0 0 0 0 0 
0 0 0 0 0 0 0 0 0 
0 0 0 0 0 0 0 0 0 
0 0 0 0 0 0 0 0 0 
0 0 0 0 0 0 0 0 0 
0 0 0 0 0 0 0 0 0 
0 0 0 0 0 0 0 0 0 
0 0 0 0 0 0 0 0 0 
0 0 0 0 0 0 0 0 0 
0 0 0 0 0 0 0 0 0 
0 0 0 0 0 0 0 0 0 
0 0 0 0 0 0 0 0 0 
0 0 0 0 0 0 0 0 0 
0 0 0 0 0 0 0 0 0 
0 0 0 0 0 0 0 0 0 
0 0 0 0 0 0 0 0 0 
0 0 0 0 0 0 0 0 0 
0 0 0 0 0 0 0 0 0 
0 0 0 0 0 0 0 0 0 
0 0 0 0 0 0 0 0 0 
0 0 0 0 0 0 0 0 0 
0 0 0 0 0 0 0 0 0 
0 0 0 0 0 0 0 0 0 
0 0 0 0 0 0 0 0 0 
0 0 0 0 0 0 0 0 0 
0 0 0 0 0 0 0 0 0 
0 0 0 0 0 0 0 0 0 
0 0 0 0 0 0 0 0 0 
0 0 0 0 0 0 0 0 0 
0 0 0 0 0 0 0 0 0 
0 0 0 0 0 0 0 0 0 
0 0 0 0 0 0 0 0 0 
0 0 0 0 0 0 0 0 0 
0 0 0 0 0 0 0 0 0 
0 0 0 0 0 0 0 0 0 
0 0 0 0 0 0 0 0 0 
0 0 0 0 0 0 0 0 0 
0 0 0 0 0 0 0 0 0 
0 0 0 0 0 0 0 0 0 
0 0 0 0 0 0 0 0 0 
0 0 0 0 0 0 0 0 0 
0 0 0 0 0 0 0 0 0 
0 0 0 0 0 0 0 0 0 
0 0 0 0 0 0 0 0 0 
0 0 0 0 0 0 0 0 0 
0 0 0 0 0 0 0 0 0 
0 0 0 0 0 0 0 0 0 
0 0 0 0 0 0 0 0 0 
0 0 0 0 0 0 0 0 0 
0 0 0 0 0 0 0 0 0 
0 0 0 0 0 0 0 0 0 
0 0 0 0 0 0 0 0 0 
0 0 0 0 0 0 0 0 0 
0 0 0 0 0 0 0 0 0 
0 0 0 0 0 0 0 0 0 
0 0 0 0 0 0 0 0 0 
0 0 0 0 0 0 0 0 0 
0 0 0 0 0 0 0 0 0 
0 0 0 0 0 0 0 0 0 
0 0 0 0 0 0 0 0 0 
0 0 0 0 0 0 0 0 0 
0 0 0 0 0 0 0 0 0 
0 0 0 0 0 0 0 0 0 
0 0 0 0 0 0 0 0 0 
0 0 0 0 0 0 0 0 0 
0 0 0 0 0 0 0 0 0 
0 0 0 0 0 0 0 0 0 
0 0 0 0 0 0 0 0 0 
0 0 0 0 0 0 0 0 0 
0 0 0 0 0 0 0 0 0 
0 0 0 0 0 0 0 0 0 
0 0 0 0 0 0 0 0 0 
0 0 0 0 0 0 0 0 0 
0 0 0 0 0 0 0 0 0 
0 0 0 0 0 0 0 0 0 
0 0 0 0 0 0 0 0 0 
0 0 0 0 0 0 0 0 0 
0 0 0 0 0 0 0 0 0 
0 0 0 0 0 0 0 0 0 
0 0 0 0 0 0 0 0 0 
0 0 0 0 0 0 0 0 0 
0 0 0 0 0 0 0 0 0 
0 0 0 0 0 0 0 0 0 
0 0 0 0 0 0 0 0 0 
0 0 0 0 0 0 0 0 0 
0 0 0 0 0 0 0 0 0 
0 0 0 0 0 0 0 0 0 
0 0 0 0 0 0 0 0 0 
0 0 0 0 0 0 0 0 0 
0 0 0 0 0 0 0 0 0 
0 0 0 0 0 0 0 0 0 
0 0 0 0 0 0 0 0 0 
0 0 0 0 0 0 0 0 0 
0 0 0 0 0 0 0 0 0 
0 0 0 0 0 0 0 0 0 
0 0 0 0 0 0 0 0 0 
0 0 0 0 0 0 0 0 0 
0 0 0 0 0 0 0 0 0 
0 0 0 0 0 0 0 0 0 
0 0 0 0 0 0 0 0 0 
0 0 0 0 0 0 0 0 0 
0 0 0 0 0 0 0 0 0 
0 0 0 0 0 0 0 0 0 
0 0 0 0 0 0 0 0 0 
0 0 0 0 0 0 0 0 0 
0 0 0 0 0 0 0 0 0 
0 0 0 0 0 0 0 0 0 
0 0 0 0 0 0 0 0 0 
0 0 0 0 0 0 0 0 0 
0 0 0 0 0 0 0 0 0 
0 0 0 0 0 0 0 0 0 
0 0 0 0 0 0 0 0 0 
0 0 0 0 0 0 0 0 0 
0 0 0 0 0 0 0 0 0 
0 0 0 0 0 0 0 0 0 
0 0 0 0 0 0 0 0 0 
0 0 0 0 0 0 0 0 0 
0 0 0 0 0 0 0 0 0 
0 0 0 0 0 0 0 0 0 
0 0 0 0 0 0 0 0 0 
0 0 0 0 0 0 0 0 0 
0 0 0 0 0 0 0 0 0 
0 0 0 0 0 0 0 0 0 
0 0 0 0 0 0 0 0 0 
0 0 0 0 0 0 0 0 0 
0 0 0 0 0 0 0 0 0 
0 0 0 0 0 0 0 0 0 
0 0 0 0 0 0 0 0 0 
0 0 0 0 0 0 0 0 0 
0 0 0 0 0 0 0 0 0 
0 0 0 0 0 0 0 0 0 
0 0 0 0 0 0 0 0 0 
0 0 0 0 0 0 0 0 0 
0 0 0 0 0 0 0 0 0 
0 0 0 0 0 0 0 0 0 
0 0 0 0 0 0 0 0 0 
0 0 0 0 0 0 0 0 0 
0 0 0 0 0 0 0 0 0 
0 0 0 0 0 0 0 0 0 
0 0 0 0 0 0 0 0 0 
0 0 0 0 0 0 0 0 0 
0 0 0 0 0 0 0 0 0 
0 0 0 0 0 0 0 0 0 
0 0 0 0 0 0 0 0 0 
0 0 0 0 0 0 0 0 0 
0 0 0 0 0 0 0 0 0 
0 0 0 0 0 0 0 0 0 
0 0 0 0 0 0 0 0 0 
0 0 0 0 0 0 0 0 0 
0 0 0 0 0 0 0 0 0 
0 0 0 0 0 0 0 0 0 
0 0 0 0 0 0 0 0 0 
0 0 0 0 0 0 0 0 0 
0 0 0 0 0 0 0 0 0 
0 0 0 0 0 0 0 0 0 
0 0 0 0 0 0 0 0 0 
0 0 0 0 0 0 0 0 0 
0 0 0 0 0 0 0 0 0 
0 0 0 0 0 0 0 0 0 
0 0 0 0 0 0 0 0 0 
0 0 0 0 0 0 0 0 0 
0 0 0 0 0 0 0 0 0 
0 0 0 0 0 0 0 0 0 
0 0 0 0 0 0 0 0 0 
0 0 0 0 0 0 0 0 0 
0 0 0 0 0 0 0 0 0 
0 0 0 0 0 0 0 0 0 
0 0 0 0 0 0 0 0 0 
0 0 0 0 0 0 0 0 0 
0 0 0 0 0 0 0 0 0 
0 0 0 0 0 0 0 0 0 
0 0 0 0 0 0 0 0 0 
0 0 0 0 0 0 0 0 0 
0 0 0 0 0 0 0 0 0 
0 0 0 0 0 0 0 0 0 
0 0 0 0 0 0 0 0 0 
0 0 0 0 0 0 0 0 0 
0 0 0 0 0 0 0 0 0 
0 0 0 0 0 0 0 0 0 
0 0 0 0 0 0 0 0 0 
0 0 0 0 0 0 0 0 0 
0 0 0 0 0 0 0 0 0 
0 0 0 0 0 0 0 0 0 
0 0 0 0 0 0 0 0 0 
0 0 0 0 0 0 0 0 0 
0 0 0 0 0 0 0 0 0 
0 0 0 0 0 0 0 0 0 
0 0 0 0 0 0 0 0 0 
0 0 0 0 0 0 0 0 0 
0 0 0 0 0 0 0 0 0 
0 0 0 0 0 0 0 0 0 
0 0 0 0 0 0 0 0 0 
0 0 0 0 0 0 0 0 0 
0 0 0 0 0 0 0 0 0 
0 0 0 0 0 0 0 0 0 
0 0 0 0 0 0 0 0 0 
0 0 0 0 0 0 0 0 0 
0 0 0 0 0 0 0 0 0 
0 0 0 0 0 0 0 0 0 
0 0 0 0 0 0 0 0 0 
0 0 0 0 0 0 0 0 0 
0 0 0 0 0 0 0 0 0 
0 0 0 0 0 0 0 0 0 
0 0 0 0 0 0 0 0 0 
0 0 0 0 0 0 0 0 0 
0 0 0 0 0 0 0 0 0 
0 0 0 0 0 0 0 0 0 
0 0 0 0 0 0 0 0 0 
0 0 0 0 0 0 0 0 0 
0 0 0 0 0 0 0 0 0 
0 0 0 0 0 0 0 0 0 
0 0 0 0 0 0 0 0 0 
0 0 0 0 0 0 0 0 0 
0 0 0 0 0 0 0 0 0 
0 0 0 0 0 0 0 0 0 
0 0 0 0 0 0 0 0 0 
0 0 0 0 0 0 0 0 0 
0 0 0 0 0 0 0 0 0 
0 0 0 0 0 0 0 0 0 
0 0 0 0 0 0 0 0 0 
0 0 0 0 0 0 0 0 0 
0 0 0 0 0 0 0 0 0 
0 0 0 0 0 0 0 0 0 
0 0 0 0 0 0 0 0 0 
0 0 0 0 0 0 0 0 0 
0 0 0 0 0 0 0 0 0 
0 0 0 0 0 0 0 0 0 
0 0 0 0 0 0 0 0 0 
0 0 0 0 0 0 0 0 0 
0 0 0 0 0 0 0 0 0 
0 0 0 0 0 0 0 0 0 
0 0 0 0 0 0 0 0 0 
0 0 0 0 0 0 0 0 0 
0 0 0 0 0 0 0 0 0 
0 0 0 0 0 0 0 0 0 
0 0 0 0 0 0 0 0 0 
0 0 0 0 0 0 0 0 0 
0 0 0 0 0 0 0 0 0 
0 0 0 0 0 0 0 0 0 
0 0 0 0 0 0 0 0 0 
0 0 0 0 0 0 0 0 0 
0 0 0 0 0 0 0 0 0 
0 0 0 0 0 0 0 0 0 
0 0 0 0 0 0 0 0 0 
0 0 0 0 0 0 0 0 0 
0 0 0 0 0 0 0 0 0 
0 0 0 0 0 0 0 0 0 
0 0 0 0 0 0 0 0 0 
0 0 0 0 0 0 0 0 0 
0 0 0 0 0 0 0 0 0 
0 0 0 0 0 0 0 0 0 
0 0 0 0 0 0 0 0 0 
0 0 0 0 0 0 0 0 0 
0 0 0 0 0 0 0 0 0 
0 0 0 0 0 0 0 0 0 
0 0 0 0 0 0 0 0 0 
0 0 0 0 0 0 0 0 0 
0 0 0 0 0 0 0 0 0 
0 0 0 0 0 0 0 0 0 
0 0 0 0 0 0 0 0 0 
0 0 0 0 0 0 0 0 0 
0 0 0 0 0 0 0 0 0 
0 0 0 0 0 0 0 0 0 
0 0 0 0 0 0 0 0 0 
0 0 0 0 0 0 0 0 0 
0 0 0 0 0 0 0 0 0 
0 0 0 0 0 0 0 0 0 
0 0 0 0 0 0 0 0 0 
0 0 0 0 0 0 0 0 0 
0 0 0 0 0 0 0 0 0 
0 0 0 0 0 0 0 0 0 
0 0 0 0 0 0 0 0 0 
0 0 0 0 0 0 0 0 0 
0 0 0 0 0 0 0 0 0 
0 0 0 0 0 0 0 0 0 
0 0 0 0 0 0 0 0 0 
0 0 0 0 0 0 0 0 0 
0 0 0 0 0 0 0 0 0 
0 0 0 0 0 0 0 0 0 
0 0 0 0 0 0 0 0 0 
0 0 0 0 0 0 0 0 0 
0 0 0 0 0 0 0 0 0 
0 0 0 0 0 0 0 0 0 
0 0 0 0 0 0 0 0 0 
0 0 0 0 0 0 0 0 0 
0 0 0 0 0 0 0 0 0 
0 0 0 0 0 0 0 0 0 
0 0 0 0 0 0 0 0 0 
0 0 0 0 0 0 0 0 0 
0 0 0 0 0 0 0 0 0 
0 0 0 0 0 0 0 0 0 
0 0 0 0 0 0 0 0 0 
0 0 0 0 0 0 0 0 0 
0 0 0 0 0 0 0 0 0 
0 0 0 0 0 0 0 0 0 
0 0 0 0 0 0 0 0 0 
0 0 0 0 0 0 0 0 0 
0 0 0 0 0 0 0 0 0 
0 0 0 0 0 0 0 0 0 
0 0 0 0 0 0 0 0 0 
0 0 0 0 0 0 0 0 0 
0 0 0 0 0 0 0 0 0 
0 0 0 0 0 0 0 0 0 
0 0 0 0 0 0 0 0 0 
0 0 0 0 0 0 0 0 0 
0 0 0 0 0 0 0 0 0 
0 0 0 0 0 0 0 0 0 
0 0 0 0 0 0 0 0 0 
0 0 0 0 0 0 0 0 0 
0 0 0 0 0 0 0 0 0 
0 0 0 0 0 0 0 0 0 
0 0 0 0 0 0 0 0 0 
0 0 0 0 0 0 0 0 0 
0 0 0 0 0 0 0 0 0 
0 0 0 0 0 0 0 0 0 
0 0 0 0 0 0 0 0 0 
0 0 0 0 0 0 0 0 0 
0 0 0 0 0 0 0 0 0 
0 0 0 0 0 0 0 0 0 
0 0 0 0 0 0 0 0 0 
0 0 0 0 0 0 0 0 0 
0 0 0 0 0 0 0 0 0 
0 0 0 0 0 0 0 0 0 
0 0 0 0 0 0 0 0 0 
0 0 0 0 0 0 0 0 0 
0 0 0 0 0 0 0 0 0 
0 0 0 0 0 0 0 0 0 
0 0 0 0 0 0 0 0 0 
0 0 0 0 0 0 0 0 0 
0 0 0 0 0 0 0 0 0 
0 0 0 0 0 0 0 0 0 
0 0 0 0 0 0 0 0 0 
0 0 0 0 0 0 0 0 0 
0 0 0 0 0 0 0 0 0 
0 0 0 0 0 0 0 0 0 
0 0 0 0 0 0 0 0 0 
0 0 0 0 0 0 0 0 0 
0 0 0 0 0 0 0 0 0 
0 0 0 0 0 0 0 0 0 
0 0 0 0 0 0 0 0 0 
0 0 0 0 0 0 0 0 0 
0 0 0 0 0 0 0 0 0 
0 0 0 0 0 0 0 0 0 
0 0 0 0 0 0 0 0 0 
0 0 0 0 0 0 0 0 0 
0 0 0 0 0 0 0 0 0 
0 0 0 0 0 0 0 0 0 
0 0 0 0 0 0 0 0 0 
0 0 0 0 0 0 0 0 0 
0 0 0 0 0 0 0 0 0 
0 0 0 0 0 0 0 0 0 
0 0 0 0 0 0 0 0 0 
0 0 0 0 0 0 0 0 0 
0 0 0 0 0 0 0 0 0 
0 0 0 0 0 0 0 0 0 
0 0 0 0 0 0 0 0 0 
0 0 0 0 0 0 0 0 0 
0 0 0 0 0 0 0 0 0 
0 0 0 0 0 0 0 0 0 
0 0 0 0 0 0 0 0 0 
0 0 0 0 0 0 0 0 0 
0 0 0 0 0 0 0 0 0 
0 0 0 0 0 0 0 0 0 
0 0 0 0 0 0 0 0 0 
0 0 0 0 0 0 0 0 0 
0 0 0 0 0 0 0 0 0 
0 0 0 0 0 0 0 0 0 
0 0 0 0 0 0 0 0 0 
0 0 0 0 0 0 0 0 0 
0 0 0 0 0 0 0 0 0 
0 0 0 0 0 0 0 0 0 
0 0 0 0 0 0 0 0 0 
0 0 0 0 0 0 0 0 0 
0 0 0 0 0 0 0 0 0 
0 0 0 0 0 0 0 0 0 
0 0 0 0 0 0 0 0 0 
0 0 0 0 0 0 0 0 0 
0 0 0 0 0 0 0 0 0 
0 0 0 0 0 0 0 0 0 
0 0 0 0 0 0 0 0 0 
0 0 0 0 0 0 0 0 0 
0 0 0 0 0 0 0 0 0 
0 0 0 0 0 0 0 0 0 
0 0 0 0 0 0 0 0 0 
0 0 0 0 0 0 0 0 0 
0 0 0 0 0 0 0 0 0 
0 0 0 0 0 0 0 0 0 
0 0 0 0 0 0 0 0 0 
0 0 0 0 0 0 0 0 0 
0 0 0 0 0 0 0 0 0 
0 0 0 0 0 0 0 0 0 
0 0 0 0 0 0 0 0 0 
0 0 0 0 0 0 0 0 0 
0 0 0 0 0 0 0 0 0 
0 0 0 0 0 0 0 0 0 
0 0 0 0 0 0 0 0 0 
0 0 0 0 0 0 0 0 0 
0 0 0 0 0 0 0 0 0 
0 0 0 0 0 0 0 0 0 
0 0 0 0 0 0 0 0 0 
0 0 0 0 0 0 0 0 0 
0 0 0 0 0 0 0 0 0 
0 0 0 0 0 0 0 0 0 
0 0 0 0 0 0 0 0 0 
0 0 0 0 0 0 0 0 0 
0 0 0 0 0 0 0 0 0 
0 0 0 0 0 0 0 0 0 
0 0 0 0 0 0 0 0 0 
0 0 0 0 0 0 0 0 0 
0 0 0 0 0 0 0 0 0 
0 0 0 0 0 0 0 0 0 
0 0 0 0 0 0 0 0 0 
0 0 0 0 0 0 0 0 0 
0 0 0 0 0 0 0 0 0 
0 0 0 0 0 0 0 0 0 
0 0 0 0 0 0 0 0 0 
0 0 0 0 0 0 0 0 0 
0 0 0 0 0 0 0 0 0 
0 0 0 0 0 0 0 0 0 
0 0 0 0 0 0 0 0 0 
0 0 0 0 0 0 0 0 0 
0 0 0 0 0 0 0 0 0 
0 0 0 0 0 0 0 0 0 
0 0 0 0 0 0 0 0 0 
0 0 0 0 0 0 0 0 0 
0 0 0 0 0 0 0 0 0 
0 0 0 0 0 0 0 0 0 
0 0 0 0 0 0 0 0 0 
0 0 0 0 0 0 0 0 0 
0 0 0 0 0 0 0 0 0 
0 0 0 0 0 0 0 0 0 
0 0 0 0 0 0 0 0 0 
0 0 0 0 0 0 0 0 0 
0 0 0 0 0 0 0 0 0 
0 0 0 0 0 0 0 0 0 
0 0 0 0 0 0 0 0 0 
0 0 0 0 0 0 0 0 0 
0 0 0 0 0 0 0 0 0 
0 0 0 0 0 0 0 0 0 
0 0 0 0 0 0 0 0 0 
0 0 0 0 0 0 0 0 0 
0 0 0 0 0 0 0 0 0 
0 0 0 0 0 0 0 0 0 
0 0 0 0 0 0 0 0 0 
0 0 0 0 0 0 0 0 0 
0 0 0 0 0 0 0 0 0 
0 0 0 0 0 0 0 0 0 
0 0 0 0 0 0 0 0 0 
0 0 0 0 0 0 0 0 0 
0 0 0 0 0 0 0 0 0 
0 0 0 0 0 0 0 0 0 
0 0 0 0 0 0 0 0 0 
0 0 0 0 0 0 0 0 0 
0 0 0 0 0 0 0 0 0 
0 0 0 0 0 0 0 0 0 
0 0 0 0 0 0 0 0 0 
0 0 0 0 0 0 0 0 0 
0 0 0 0 0 0 0 0 0 
0 0 0 0 0 0 0 0 0 
0 0 0 0 0 0 0 0 0 
0 0 0 0 0 0 0 0 0 
0 0 0 0 0 0 0 0 0 
0 0 0 0 0 0 0 0 0 
0 0 0 0 0 0 0 0 0 
0 0 0 0 0 0 0 0 0 
0 0 0 0 0 0 0 0 0 
0 0 0 0 0 0 0 0 0 
0 0 0 0 0 0 0 0 0 
0 0 0 0 0 0 0 0 0 
0 0 0 0 0 0 0 0 0 
0 0 0 0 0 0 0 0 0 
0 0 0 0 0 0 0 0 0 
0 0 0 0 0 0 0 0 0 
0 0 0 0 0 0 0 0 0 
0 0 0 0 0 0 0 0 0 
0 0 0 0 0 0 0 0 0 
0 0 0 0 0 0 0 0 0 
0 0 0 0 0 0 0 0 0 
0 0 0 0 0 0 0 0 0 
0 0 0 0 0 0 0 0 0 
0 0 0 0 0 0 0 0 0 
0 0 0 0 0 0 0 0 0 
0 0 0 0 0 0 0 0 0 
0 0 0 0 0 0 0 0 0 
0 0 0 0 0 0 0 0 0 
0 0 0 0 0 0 0 0 0 
0 0 0 0 0 0 0 0 0 
0 0 0 0 0 0 0 0 0 
0 0 0 0 0 0 0 0 0 
0 0 0 0 0 0 0 0 0 
0 0 0 0 0 0 0 0 0 
0 0 0 0 0 0 0 0 0 
0 0 0 0 0 0 0 0 0 
0 0 0 0 0 0 0 0 0 
0 0 0 0 0 0 0 0 0 
0 0 0 0 0 0 0 0 0 
0 0 0 0 0 0 0 0 0 
0 0 0 0 0 0 0 0 0 
0 0 0 0 0 0 0 0 0 
0 0 0 0 0 0 0 0 0 
0 0 0 0 0 0 0 0 0 
0 0 0 0 0 0 0 0 0 
0 0 0 0 0 0 0 0 0 
0 0 0 0 0 0 0 0 0 
0 0 0 0 0 0 0 0 0 
0 0 0 0 0 0 0 0 0 
0 0 0 0 0 0 0 0 0 
0 0 0 0 0 0 0 0 0 
0 0 0 0 0 0 0 0 0 
0 0 0 0 0 0 0 0 0 
0 0 0 0 0 0 0 0 0 
0 0 0 0 0 0 0 0 0 
0 0 0 0 0 0 0 0 0 
0 0 0 0 0 0 0 0 0 
0 0 0 0 0 0 0 0 0 
0 0 0 0 0 0 0 0 0 
0 0 0 0 0 0 0 0 0 
0 0 0 0 0 0 0 0 0 
0 0 0 0 0 0 0 0 0 
0 0 0 0 0 0 0 0 0 
0 0 0 0 0 0 0 0 0 
0 0 0 0 0 0 0 0 0 
0 0 0 0 0 0 0 0 0 
0 0 0 0 0 0 0 0 0 
0 0 0 0 0 0 0 0 0 
0 0 0 0 0 0 0 0 0 
0 0 0 0 0 0 0 0 0 
0 0 0 0 0 0 0 0 0 
0 0 0 0 0 0 0 0 0 
0 0 0 0 0 0 0 0 0 
0 0 0 0 0 0 0 0 0 
0 0 0 0 0 0 0 0 0 
0 0 0 0 0 0 0 0 0 
0 0 0 0 0 0 0 0 0 
0 0 0 0 0 0 0 0 0 
0 0 0 0 0 0 0 0 0 
0 0 0 0 0 0 0 0 0 
0 0 0 0 0 0 0 0 0 
0 0 0 0 0 0 0 0 0 
0 0 0 0 0 0 0 0 0 
0 0 0 0 0 0 0 0 0 
0 0 0 0 0 0 0 0 0 
0 0 0 0 0 0 0 0 0 
0 0 0 0 0 0 0 0 0 
0 0 0 0 0 0 0 0 0 
0 0 0 0 0 0 0 0 0 
0 0 0 0 0 0 0 0 0 
0 0 0 0 0 0 0 0 0 
0 0 0 0 0 0 0 0 0 
0 0 0 0 0 0 0 0 0 
0 0 0 0 0 0 0 0 0 
0 0 0 0 0 0 0 0 0 
0 0 0 0 0 0 0 0 0 
0 0 0 0 0 0 0 0 0 
0 0 0 0 0 0 0 0 0 
0 0 0 0 0 0 0 0 0 
0 0 0 0 0 0 0 0 0 
0 0 0 0 0 0 0 0 0 
0 0 0 0 0 0 0 0 0 
0 0 0 0 0 0 0 0 0 
0 0 0 0 0 0 0 0 0 
0 0 0 0 0 0 0 0 0 
0 0 0 0 0 0 0 0 0 
0 0 0 0 0 0 0 0 0 
0 0 0 0 0 0 0 0 0 
0 0 0 0 0 0 0 0 0 
0 0 0 0 0 0 0 0 0 
0 0 0 0 0 0 0 0 0 
0 0 0 0 0 0 0 0 0 
0 0 0 0 0 0 0 0 0 
0 0 0 0 0 0 0 0 0 
0 0 0 0 0 0 0 0 0 
0 0 0 0 0 0 0 0 0 
0 0 0 0 0 0 0 0 0 
0 0 0 0 0 0 0 0 0 
0 0 0 0 0 0 0 0 0 
0 0 0 0 0 0 0 0 0 
0 0 0 0 0 0 0 0 0 
0 0 0 0 0 0 0 0 0 
0 0 0 0 0 0 0 0 0 
0 0 0 0 0 0 0 0 0 
0 0 0 0 0 0 0 0 0 
0 0 0 0 0 0 0 0 0 
0 0 0 0 0 0 0 0 0 
0 0 0 0 0 0 0 0 0 
0 0 0 0 0 0 0 0 0 
0 0 0 0 0 0 0 0 0 
0 0 0 0 0 0 0 0 0 
0 0 0 0 0 0 0 0 0 
0 0 0 0 0 0 0 0 0 
0 0 0 0 0 0 0 0 0 
0 0 0 0 0 0 0 0 0 
0 0 0 0 0 0 0 0 0 
0 0 0 0 0 0 0 0 0 
0 0 0 0 0 0 0 0 0 
0 0 0 0 0 0 0 0 0 
0 0 0 0 0 0 0 0 0 
0 0 0 0 0 0 0 0 0 
0 0 0 0 0 0 0 0 0 
0 0 0 0 0 0 0 0 0 
0 0 0 0 0 0 0 0 0 
0 0 0 0 0 0 0 0 0 
0 0 0 0 0 0 0 0 0 
0 0 0 0 0 0 0 0 0 
0 0 0 0 0 0 0 0 0 
0 0 0 0 0 0 0 0 0 
0 0 0 0 0 0 0 0 0 
0 0 0 0 0 0 0 0 0 
0 0 0 0 0 0 0 0 0 
0 0 0 0 0 0 0 0 0 
0 0 0 0 0 0 0 0 0 
0 0 0 0 0 0 0 0 0 
0 0 0 0 0 0 0 0 0 
0 0 0 0 0 0 0 0 0 
0 0 0 0 0 0 0 0 0 
0 0 0 0 0 0 0 0 0 
0 0 0 0 0 0 0 0 0 
0 0 0 0 0 0 0 0 0 
0 0 0 0 0 0 0 0 0 
0 0 0 0 0 0 0 0 0 
0 0 0 0 0 0 0 0 0 
0 0 0 0 0 0 0 0 0 
0 0 0 0 0 0 0 0 0 
0 0 0 0 0 0 0 0 0 
0 0 0 0 0 0 0 0 0 
0 0 0 0 0 0 0 0 0 
0 0 0 0 0 0 0 0 0 
0 0 0 0 0 0 0 0 0 
0 0 0 0 0 0 0 0 0 
0 0 0 0 0 0 0 0 0 
0 0 0 0 0 0 0 0 0 
0 0 0 0 0 0 0 0 0 
0 0 0 0 0 0 0 0 0 
0 0 0 0 0 0 0 0 0 
0 0 0 0 0 0 0 0 0 
0 0 0 0 0 0 0 0 0 
0 0 0 0 0 0 0 0 0 
0 0 0 0 0 0 0 0 0 
0 0 0 0 0 0 0 0 0 
0 0 0 0 0 0 0 0 0 
0 0 0 0 0 0 0 0 0 
0 0 0 0 0 0 0 0 0 
0 0 0 0 0 0 0 0 0 
0 0 0 0 0 0 0 0 0 
0 0 0 0 0 0 0 0 0 
0 0 0 0 0 0 0 0 0 
0 0 0 0 0 0 0 0 0 
0 0 0 0 0 0 0 0 0 
0 0 0 0 0 0 0 0 0 
0 0 0 0 0 0 0 0 0 
0 0 0 0 0 0 0 0 0 
0 0 0 0 0 0 0 0 0 
0 0 0 0 0 0 0 0 0 
0 0 0 0 0 0 0 0 0 
0 0 0 0 0 0 0 0 0 
0 0 0 0 0 0 0 0 0 
0 0 0 0 0 0 0 0 0 
0 0 0 0 0 0 0 0 0 
0 0 0 0 0 0 0 0 0 
0 0 0 0 0 0 0 0 0 
0 0 0 0 0 0 0 0 0 
0 0 0 0 0 0 0 0 0 
0 0 0 0 0 0 0 0 0 
0 0 0 0 0 0 0 0 0 
0 0 0 0 0 0 0 0 0 
0 0 0 0 0 0 0 0 0 
0 0 0 0 0 0 0 0 0 
0 0 0 0 0 0 0 0 0 
0 0 0 0 0 0 0 0 0 
0 0 0 0 0 0 0 0 0 
0 0 0 0 0 0 0 0 0 
0 0 0 0 0 0 0 0 0 
0 0 0 0 0 0 0 0 0 
0 0 0 0 0 0 0 0 0 
0 0 0 0 0 0 0 0 0 
0 0 0 0 0 0 0 0 0 
0 0 0 0 0 0 0 0 0 
0 0 0 0 0 0 0 0 0 
0 0 0 0 0 0 0 0 0 
0 0 0 0 0 0 0 0 0 
0 0 0 0 0 0 0 0 0 
0 0 0 0 0 0 0 0 0 
0 0 0 0 0 0 0 0 0 
0 0 0 0 0 0 0 0 0 
0 0 0 0 0 0 0 0 0 
0 0 0 0 0 0 0 0 0 
0 0 0 0 0 0 0 0 0 
0 0 0 0 0 0 0 0 0 
0 0 0 0 0 0 0 0 0 
0 0 0 0 0 0 0 0 0 
0 0 0 0 0 0 0 0 0 
0 0 0 0 0 0 0 0 0 
0 0 0 0 0 0 0 0 0 
0 0 0 0 0 0 0 0 0 
0 0 0 0 0 0 0 0 0 
0 0 0 0 0 0 0 0 0 
0 0 0 0 0 0 0 0 0 
0 0 0 0 0 0 0 0 0 
0 0 0 0 0 0 0 0 0 
0 0 0 0 0 0 0 0 0 
0 0 0 0 0 0 0 0 0 
0 0 0 0 0 0 0 0 0 
0 0 0 0 0 0 0 0 0 
0 0 0 0 0 0 0 0 0 
0 0 0 0 0 0 0 0 0 
0 0 0 0 0 0 0 0 0 
0 0 0 0 0 0 0 0 0 
0 0 0 0 0 0 0 0 0 
0 0 0 0 0 0 0 0 0 
0 0 0 0 0 0 0 0 0 
0 0 0 0 0 0 0 0 0 
0 0 0 0 0 0 0 0 0 
0 0 0 0 0 0 0 0 0 
0 0 0 0 0 0 0 0 0 
0 0 0 0 0 0 0 0 0 
0 0 0 0 0 0 0 0 0 
0 0 0 0 0 0 0 0 0 
0 0 0 0 0 0 0 0 0 
0 0 0 0 0 0 0 0 0 
0 0 0 0 0 0 0 0 0 
0 0 0 0 0 0 0 0 0 
0 0 0 0 0 0 0 0 0 
0 0 0 0 0 0 0 0 0 
0 0 0 0 0 0 0 0 0 
0 0 0 0 0 0 0 0 0 
0 0 0 0 0 0 0 0 0 
0 0 0 0 0 0 0 0 0 
0 0 0 0 0 0 0 0 0 
0 0 0 0 0 0 0 0 0 
0 0 0 0 0 0 0 0 0 
0 0 0 0 0 0 0 0 0 
0 0 0 0 0 0 0 0 0 
0 0 0 0 0 0 0 0 0 
0 0 0 0 0 0 0 0 0 
0 0 0 0 0 0 0 0 0 
0 0 0 0 0 0 0 0 0 
0 0 0 0 0 0 0 0 0 
0 0 0 0 0 0 0 0 0 
0 0 0 0 0 0 0 0 0 
0 0 0 0 0 0 0 0 0 
0 0 0 0 0 0 0 0 0 
0 0 0 0 0 0 0 0 0 
0 0 0 0 0 0 0 0 0 
0 0 0 0 0 0 0 0 0 
0 0 0 0 0 0 0 0 0 
0 0 0 0 0 0 0 0 0 
0 0 0 0 0 0 0 0 0 
0 0 0 0 0 0 0 0 0 
0 0 0 0 0 0 0 0 0 
0 0 0 0 0 0 0 0 0 
0 0 0 0 0 0 0 0 0 
0 0 0 0 0 0 0 0 0 
0 0 0 0 0 0 0 0 0 
0 0 0 0 0 0 0 0 0 
0 0 0 0 0 0 0 0 0 
0 0 0 0 0 0 0 0 0 
0 0 0 0 0 0 0 0 0 
0 0 0 0 0 0 0 0 0 
0 0 0 0 0 0 0 0 0 
0 0 0 0 0 0 0 0 0 
0 0 0 0 0 0 0 0 0 
0 0 0 0 0 0 0 0 0 
0 0 0 0 0 0 0 0 0 
0 0 0 0 0 0 0 0 0 
0 0 0 0 0 0 0 0 0 
0 0 0 0 0 0 0 0 0 
0 0 0 0 0 0 0 0 0 
0 0 0 0 0 0 0 0 0 
0 0 0 0 0 0 0 0 0 
0 0 0 0 0 0 0 0 0 
0 0 0 0 0 0 0 0 0 
0 0 0 0 0 0 0 0 0 
0 0 0 0 0 0 0 0 0 
0 0 0 0 0 0 0 0 0 
0 0 0 0 0 0 0 0 0 
0 0 0 0 0 0 0 0 0 
0 0 0 0 0 0 0 0 0 
0 0 0 0 0 0 0 0 0 
0 0 0 0 0 0 0 0 0 
0 0 0 0 0 0 0 0 0 
0 0 0 0 0 0 0 0 0 
0 0 0 0 0 0 0 0 0 
0 0 0 0 0 0 0 0 0 
0 0 0 0 0 0 0 0 0 
0 0 0 0 0 0 0 0 0 
0 0 0 0 0 0 0 0 0 
0 0 0 0 0 0 0 0 0 
0 0 0 0 0 0 0 0 0 
0 0 0 0 0 0 0 0 0 
0 0 0 0 0 0 0 0 0 
0 0 0 0 0 0 0 0 0 
0 0 0 0 0 0 0 0 0 
0 0 0 0 0 0 0 0 0 
0 0 0 0 0 0 0 0 0 
0 0 0 0 0 0 0 0 0 
0 0 0 0 0 0 0 0 0 
0 0 0 0 0 0 0 0 0 
0 0 0 0 0 0 0 0 0 
0 0 0 0 0 0 0 0 0 
0 0 0 0 0 0 0 0 0 
0 0 0 0 0 0 0 0 0 
0 0 0 0 0 0 0 0 0 
0 0 0 0 0 0 0 0 0 
0 0 0 0 0 0 0 0 0 
0 0 0 0 0 0 0 0 0 
0 0 0 0 0 0 0 0 0 
0 0 0 0 0 0 0 0 0 
0 0 0 0 0 0 0 0 0 
0 0 0 0 0 0 0 0 0 
0 0 0 0 0 0 0 0 0 
0 0 0 0 0 0 0 0 0 
0 0 0 0 0 0 0 0 0 
0 0 0 0 0 0 0 0 0 
0 0 0 0 0 0 0 0 0 
0 0 0 0 0 0 0 0 0 
0 0 0 0 0 0 0 0 0 
0 0 0 0 0 0 0 0 0 
0 0 0 0 0 0 0 0 0 
0 0 0 0 0 0 0 0 0 
0 0 0 0 0 0 0 0 0 
0 0 0 0 0 0 0 0 0 
0 0 0 0 0 0 0 0 0 
0 0 0 0 0 0 0 0 0 
0 0 0 0 0 0 0 0 0 
0 0 0 0 0 0 0 0 0 
0 0 0 0 0 0 0 0 0 
0 0 0 0 0 0 0 0 0 
0 0 0 0 0 0 0 0 0 
0 0 0 0 0 0 0 0 0 
0 0 0 0 0 0 0 0 0 
0 0 0 0 0 0 0 0 0 
0 0 0 0 0 0 0 0 0 
0 0 0 0 0 0 0 0 0 
0 0 0 0 0 0 0 0 0 
0 0 0 0 0 0 0 0 0 
0 0 0 0 0 0 0 0 0 
0 0 0 0 0 0 0 0 0 
0 0 0 0 0 0 0 0 0 
0 0 0 0 0 0 0 0 0 
0 0 0 0 0 0 0 0 0 
0 0 0 0 0 0 0 0 0 
0 0 0 0 0 0 0 0 0 
0 0 0 0 0 0 0 0 0 
0 0 0 0 0 0 0 0 0 
0 0 0 0 0 0 0 0 0 
0 0 0 0 0 0 0 0 0 
0 0 0 0 0 0 0 0 0 
0 0 0 0 0 0 0 0 0 
0 0 0 0 0 0 0 0 0 
0 0 0 0 0 0 0 0 0 
0 0 0 0 0 0 0 0 0 
0 0 0 0 0 0 0 0 0 
0 0 0 0 0 0 0 0 0 
0 0 0 0 0 0 0 0 0 
0 0 0 0 0 0 0 0 0 
0 0 0 0 0 0 0 0 0 
0 0 0 0 0 0 0 0 0 
0 0 0 0 0 0 0 0 0 
0 0 0 0 0 0 0 0 0 
0 0 0 0 0 0 0 0 0 
0 0 0 0 0 0 0 0 0 
0 0 0 0 0 0 0 0 0 
0 0 0 0 0 0 0 0 0 
0 0 0 0 0 0 0 0 0 
0 0 0 0 0 0 0 0 0 
0 0 0 0 0 0 0 0 0 
0 0 0 0 0 0 0 0 0 
0 0 0 0 0 0 0 0 0 
0 0 0 0 0 0 0 0 0 
0 0 0 0 0 0 0 0 0 
0 0 0 0 0 0 0 0 0 
0 0 0 0 0 0 0 0 0 
0 0 0 0 0 0 0 0 0 
0 0 0 0 0 0 0 0 0 
0 0 0 0 0 0 0 0 0 
0 0 0 0 0 0 0 0 0 
0 0 0 0 0 0 0 0 0 
0 0 0 0 0 0 0 0 0 
0 0 0 0 0 0 0 0 0 
0 0 0 0 0 0 0 0 0 
0 0 0 0 0 0 0 0 0 
0 0 0 0 0 0 0 0 0 
0 0 0 0 0 0 0 0 0 
0 0 0 0 0 0 0 0 0 
0 0 0 0 0 0 0 0 0 
0 0 0 0 0 0 0 0 0 
0 0 0 0 0 0 0 0 0 
0 0 0 0 0 0 0 0 0 
0 0 0 0 0 0 0 0 0 
0 0 0 0 0 0 0 0 0 
0 0 0 0 0 0 0 0 0 
0 0 0 0 0 0 0 0 0 
0 0 0 0 0 0 0 0 0 
0 0 0 0 0 0 0 0 0 
0 0 0 0 0 0 0 0 0 
0 0 0 0 0 0 0 0 0 
0 0 0 0 0 0 0 0 0 
0 0 0 0 0 0 0 0 0 
0 0 0 0 0 0 0 0 0 
0 0 0 0 0 0 0 0 0 
0 0 0 0 0 0 0 0 0 
0 0 0 0 0 0 0 0 0 
0 0 0 0 0 0 0 0 0 
0 0 0 0 0 0 0 0 0 
0 0 0 0 0 0 0 0 0 
0 0 0 0 0 0 0 0 0 
0 0 0 0 0 0 0 0 0 
0 0 0 0 0 0 0 0 0 
0 0 0 0 0 0 0 0 0 
0 0 0 0 0 0 0 0 0 
0 0 0 0 0 0 0 0 0 
0 0 0 0 0 0 0 0 0 
0 0 0 0 0 0 0 0 0 
0 0 0 0 0 0 0 0 0 
0 0 0 0 0 0 0 0 0 
0 0 0 0 0 0 0 0 0 
0 0 0 0 0 0 0 0 0 
0 0 0 0 0 0 0 0 0 
0 0 0 0 0 0 0 0 0 
0 0 0 0 0 0 0 0 0 
0 0 0 0 0 0 0 0 0 
0 0 0 0 0 0 0 0 0 
0 0 0 0 0 0 0 0 0 
0 0 0 0 0 0 0 0 0 
0 0 0 0 0 0 0 0 0 
0 0 0 0 0 0 0 0 0 
0 0 0 0 0 0 0 0 0 
0 0 0 0 0 0 0 0 0 
0 0 0 0 0 0 0 0 0 
0 0 0 0 0 0 0 0 0 
0 0 0 0 0 0 0 0 0 
0 0 0 0 0 0 0 0 0 
0 0 0 0 0 0 0 0 0 
0 0 0 0 0 0 0 0 0 
0 0 0 0 0 0 0 0 0 
0 0 0 0 0 0 0 0 0 
0 0 0 0 0 0 0 0 0 
0 0 0 0 0 0 0 0 0 
0 0 0 0 0 0 0 0 0 
0 0 0 0 0 0 0 0 0 
0 0 0 0 0 0 0 0 0 
0 0 0 0 0 0 0 0 0 
0 0 0 0 0 0 0 0 0 
0 0 0 0 0 0 0 0 0 
0 0 0 0 0 0 0 0 0 
0 0 0 0 0 0 0 0 0 
0 0 0 0 0 0 0 0 0 
0 0 0 0 0 0 0 0 0 
0 0 0 0 0 0 0 0 0 
0 0 0 0 0 0 0 0 0 
0 0 0 0 0 0 0 0 0 
0 0 0 0 0 0 0 0 0 
0 0 0 0 0 0 0 0 0 
0 0 0 0 0 0 0 0 0 
0 0 0 0 0 0 0 0 0 
0 0 0 0 0 0 0 0 0 
0 0 0 0 0 0 0 0 0 
0 0 0 0 0 0 0 0 0 
0 0 0 0 0 0 0 0 0 
0 0 0 0 0 0 0 0 0 
0 0 0 0 0 0 0 0 0 
0 0 0 0 0 0 0 0 0 
0 0 0 0 0 0 0 0 0 
0 0 0 0 0 0 0 0 0 
0 0 0 0 0 0 0 0 0 
0 0 0 0 0 0 0 0 0 
0 0 0 0 0 0 0 0 0 
0 0 0 0 0 0 0 0 0 
0 0 0 0 0 0 0 0 0 
0 0 0 0 0 0 0 0 0 
0 0 0 0 0 0 0 0 0 
0 0 0 0 0 0 0 0 0 
0 0 0 0 0 0 0 0 0 
0 0 0 0 0 0 0 0 0 
0 0 0 0 0 0 0 0 0 
0 0 0 0 0 0 0 0 0 
0 0 0 0 0 0 0 0 0 
0 0 0 0 0 0 0 0 0 
0 0 0 0 0 0 0 0 0 
0 0 0 0 0 0 0 0 0 
0 0 0 0 0 0 0 0 0 
0 0 0 0 0 0 0 0 0 
0 0 0 0 0 0 0 0 0 
0 0 0 0 0 0 0 0 0 
0 0 0 0 0 0 0 0 0 
0 0 0 0 0 0 0 0 0 
0 0 0 0 0 0 0 0 0 
0 0 0 0 0 0 0 0 0 
0 0 0 0 0 0 0 0 0 
0 0 0 0 0 0 0 0 0 
0 0 0 0 0 0 0 0 0 
0 0 0 0 0 0 0 0 0 
0 0 0 0 0 0 0 0 0 
0 0 0 0 0 0 0 0 0 
0 0 0 0 0 0 0 0 0 
0 0 0 0 0 0 0 0 0 
0 0 0 0 0 0 0 0 0 
0 0 0 0 0 0 0 0 0 
0 0 0 0 0 0 0 0 0 
0 0 0 0 0 0 0 0 0 
0 0 0 0 0 0 0 0 0 
0 0 0 0 0 0 0 0 0 
0 0 0 0 0 0 0 0 0 
0 0 0 0 0 0 0 0 0 
0 0 0 0 0 0 0 0 0 
0 0 0 0 0 0 0 0 0 
0 0 0 0 0 0 0 0 0 
0 0 0 0 0 0 0 0 0 
0 0 0 0 0 0 0 0 0 
0 0 0 0 0 0 0 0 0 
0 0 0 0 0 0 0 0 0 
0 0 0 0 0 0 0 0 0 
0 0 0 0 0 0 0 0 0 
0 0 0 0 0 0 0 0 0 
0 0 0 0 0 0 0 0 0 
0 0 0 0 0 0 0 0 0 
0 0 0 0 0 0 0 0 0 
0 0 0 0 0 0 0 0 0 
0 0 0 0 0 0 0 0 0 
0 0 0 0 0 0 0 0 0 
0 0 0 0 0 0 0 0 0 
0 0 0 0 0 0 0 0 0 
0 0 0 0 0 0 0 0 0 
0 0 0 0 0 0 0 0 0 
0 0 0 0 0 0 0 0 0 
0 0 0 0 0 0 0 0 0 
0 0 0 0 0 0 0 0 0 
0 0 0 0 0 0 0 0 0 
0 0 0 0 0 0 0 0 0 
0 0 0 0 0 0 0 0 0 
0 0 0 0 0 0 0 0 0 
0 0 0 0 0 0 0 0 0 
0 0 0 0 0 0 0 0 0 
0 0 0 0 0 0 0 0 0 
0 0 0 0 0 0 0 0 0 
0 0 0 0 0 0 0 0 0 
0 0 0 0 0 0 0 0 0 
0 0 0 0 0 0 0 0 0 
0 0 0 0 0 0 0 0 0 
0 0 0 0 0 0 0 0 0 
0 0 0 0 0 0 0 0 0 
0 0 0 0 0 0 0 0 0 
0 0 0 0 0 0 0 0 0 
0 0 0 -1.1616077713e-05 -3.1126794879e-06 -894961.87307 0 0 0 
-2.1268538624e-05 -1.4892329506e-05 -1787672.139 -8.2368804629e-06 -8.2368804629e-06 -752538.742 -8.3908190362e-07 -1.1983058471e-06 -87096.294166 
-1.2106843792e-05 -2.5962679182e-05 -1541552.8894 -7.7455283733e-08 -2.890645108e-07 -14244.7415 0 0 0 
0 0 0 2.2299906612e-05 -8.3223702271e-05 -2409603.6698 0 0 0 
0 0 0 0 0 0 0 0 0 
0 0 0 0 0 0 0 0 0 
0 0 0 0 0 0 0 0 0 
0 0 0 0 0 0 2.2711542451e-05 8.4760796321e-05 -2454122.281 
4.4279054593e-06 5.0609412351e-05 -1751557.0102 0 0 0 -3.9450453979e-07 1.4723239469e-06 -72554.025295 
-6.1653744486e-06 1.3221814866e-05 -785046.20407 -9.0813803375e-06 1.2969319124e-05 -942639.64972 -5.9689802129e-06 5.9690478336e-06 -545334.78783 
0 0 0 -1.6154529062e-05 7.5327047387e-06 -1286156.7842 -5.3202107623e-06 1.4255683845e-06 -409895.09046 
-2.3020859522e-06 2.0140543405e-07 -174623.43924 -1.4896274431e-05 -1.303246972e-06 -1129946.0083 -321174.42399 -39894.837246 -1.8864679954 
-490511.03782 -12468.770435 14.463222283 -620480.60945 -51949.525644 -78.518121646 -586417.74133 -158543.31809 -49.13660635 
-427986.92786 -114678.85668 -40.424625276 -398796.10277 -142531.05154 8.3212025253 -467728.79698 -210266.87529 -67.533641898 
-727301.80579 -328577.02228 -100.82405588 -169942.92077 -103386.1373 20.779627359 -233199.86922 -177769.39281 -3.1517644043 
-389776.37265 -251953.90219 -96.20165071 -350865.19049 -239939.56679 -36.050336428 -241755.52066 -255654.87039 -6.8329144265 
-345971.78296 -313611.04901 0.30179648185 -623928.52295 -622438.16272 -111.66813273 -324851.67602 -460020.30384 -56.353714407 
-276173.83666 -394417.21154 -38.960097909 -115570.68919 -193191.05185 3.4413512037 -182964.20835 -371024.87009 -65.031758865 
-345002.95777 -725412.72914 -73.270880741 -216842.36934 -547238.45929 10.140114077 -68898.822948 -307132.88296 0.60091928155 
-73728.929042 -223509.93107 -63.841712479 -236481.25844 -862145.88768 -46.118154383 -34334.747278 -426211.22985 -28.165088008 
-54829.914089 -552910.45884 -83.021734697 21843.412781 -284512.08114 -34.525369108 8578.5277568 -550639.78688 8.0059766577 
71699.283642 -819852.68075 -71.206256468 57490.360183 -385264.9331 2.3510452996 80378.824385 -324056.09214 -43.27302059 
68774.718188 -266933.19763 -24.25091842 134516.00733 -265931.89684 -3.8286371529 219152.79975 -563564.97051 21.181665959 
310638.42835 -666203.48592 -93.956812971 224218.15516 -320796.64579 -35.351507205 331156.9483 -472941.25217 -49.84351267 
294924.71629 -350281.90847 16.04807608 432980.44201 -448648.19231 -89.840464444 597972.20523 -607372.31916 -84.386024725 
649600.61094 -555035.41386 43.617843595 246958.709 -156477.53917 2.7464703214 144720.73937 -110490.583 -40.62078522 
445003.54428 -313997.9169 -22.0047471 448947.5781 -203911.46247 -28.177343378 658327.99458 -311142.09456 -89.840842104 
204458.37185 -56186.184126 -23.080026559 534308.04205 -185185.74712 4.2019775695 952379.8168 -259061.90116 -99.193375624 
277746.07553 -48472.808054 13.691773544 344270.82431 -35344.45942 -41.260793403 413850.69901 -38171.873076 -29.18151654 
376066.80958 46713.321613 -2.2088869711 491336.47454 12489.751807 14.487757711 442519.38413 38212.454351 -53.943549532 
508507.35362 137479.54305 -42.60840677 476813.01434 127886.53609 -45.113277187 402307.01633 147189.27118 12.486516562 
319189.85496 143491.38616 -46.086650003 543243.31121 248789.6336 -60.969484437 544490.40776 296665.77919 8.5141429861 
370800.82146 282663.26693 -5.0114815013 235554.03787 150259.59465 -62.171637652 626381.42677 436370.19805 -38.742019502 
473755.68842 500993.51937 -13.390106122 318585.19324 291313.6575 0.53016728513 586618.61482 582148.16248 -109.30020133 
236344.75023 334686.23325 -40.999956411 354501.11305 507469.2981 -50.371701018 54124.032954 91505.144621 2.4308909224 
198297.00889 402117.56512 -70.481562394 265639.71273 557426.4878 -58.548952212 241907.59221 604563.44011 6.500806643 
61578.19081 274499.42483 0.53707045466 98484.910643 302507.70714 -82.855694808 180775.9857 658063.98777 -35.313232546 
41092.329261 510095.85274 -33.708390533 67129.128927 709071.62298 -91.528819187 -47519.936856 618950.72288 -75.109296169 
-7151.5809345 646736.8726 6.9510169341 -34491.513821 447172.96632 -56.486426854 -53822.276928 339639.9877 7.5969317896 
-97871.290381 394578.89732 -52.690324801 -124775.55251 489234.04352 -49.464365817 -114443.60783 226249.69558 -3.2573301687 
-137040.08719 353612.24397 12.721096481 -284352.06369 606000.86818 -83.488274224 -158401.91983 226631.08851 -24.974545911 
-359361.46445 513221.48563 -54.088666413 -312939.57349 387376.05587 3.3298622418 -88685.689008 91894.852969 -18.401670646 
-685949.37682 685161.65214 -68.156617747 -470508.01984 419703.86373 4.8634307217 -551625.02528 349519.67011 6.1347168749 
-394753.8103 305788.12183 -120.69674554 -360729.25528 256673.01391 -27.682893106 -487584.18425 221460.16359 -30.602296694 
-604029.54501 285488.59273 -86.862419118 -183716.15993 50486.12045 -20.738568014 -296012.27448 102068.90834 2.6731341817 
-319378.07773 85331.176129 -33.779864626 -753286.12697 151402.86213 4.8901038086 -393266.62462 40678.322189 -47.486403216 
-903543.88762 87888.363044 -85.853995736 34015.331056 882.58581412 -65931.066015 42865.575032 978.94048587 -82860.100096 
38142.25688 4263.0267024 -72854.835462 0 0 0 55043.956431 12014.42436 -111806.7715 
12860.98306 3453.1394851 -25613.187672 20581.737538 7161.4563351 -41606.156436 16763.592856 7273.837379 -36058.214957 
43189.912461 21106.028725 -99330.300442 21256.37457 11313.630409 -47886.808891 14026.544699 8428.6656615 -31522.485753 
15184.013083 13217.620035 -39939.404868 6687.6386686 5224.695012 -16192.266831 16701.919902 22795.488456 -58784.685736 
10312.553769 25854.565926 -55131.995933 8777.4695274 27622.323423 -55705.924651 2737.2029273 11538.505527 -23502.608929 
2544.9917628 15623.005131 -34093.622282 683.55091733 51151.470317 -119186.62509 6059.1679862 77968.313658 -152845.16875 
-2679.6708275 40925.014693 -78058.372013 -1271.0815242 8824.6596274 -17441.806641 -9338.3570874 57224.109262 -115339.57469 
-5352.2781253 25103.056917 -49761.251828 -983.6809078 3319.8071562 -6741.3479949 -7372.1138514 24514.977288 -49989.844787 
-14815.201514 36894.114455 -74881.354602 -13247.966227 24515.766638 -55094.939992 -32289.694288 40467.068427 -103188.62167 
-14281.420354 10883.438189 -34849.711116 -36325.764445 30629.676828 -94251.603828 -24220.345868 14383.525746 -57046.135558 
-43120.303257 28059.445773 -101046.58549 -41092.463467 22586.528634 -91594.249749 -47766.700293 21856.767442 -100807.86484 
-2023.7949703 745.37168941 -4326.6238577 -34338.804638 11497.698802 -75717.443412 -87093.790731 24821.326825 -179805.67416 
-15829.263783 2181.7421927 -29988.330074 -33440.946917 4186.8194104 -67890.627268 -13699.17802 -3336.8197598 -29145.074951 
-24826.44703 -7389.9866835 -55772.886594 -37078.415153 -30534.286948 -107638.90303 -12011.410558 -14273.47052 -43126.816023 
-23546.970454 -25557.542675 -72363.838597 -33916.422679 -47214.778384 -112860.73878 -14179.045934 -23226.751049 -53741.260639 
-12868.892587 -25180.686328 -60402.483122 -8711.592034 -34432.223343 -79962.060181 -10079.274127 -72047.69312 -155583.10146 
3989.3580571 -31840.913538 -65498.853194 5079.1663337 -30480.840246 -66451.43231 10974.234211 -34622.51158 -70123.037898 
20421.567099 -48752.309227 -107159.71371 0 0 0 2450.4658784 -5005.0997316 -10755.717998 
13898.141648 -23951.731428 -52163.651604 3790.9939366 -5436.2075046 -12680.012708 36547.761386 -47402.287151 -118540.74973 
32720.795756 -40733.248449 -101948.48764 25599.12622 -27640.944183 -72435.037693 20396.903329 -18480.0213 -54539.739366 
32789.492466 -28863.134308 -85275.713762 17437.30537 -10030.77414 -40304.596498 23710.694814 -5407.3762131 -49159.503495 
47362.709001 -9698.9698151 -100482.45504 51058.054879 -2168.5318526 -97677.949257 52849.719248 26128.366678 -83555.879216 
25659.683487 34781.597099 -71064.159598 13023.589023 29790.607281 -52627.051188 9704.1200574 43536.798889 -70517.232698 
-43845.568199 14602.761367 -76273.919557 -29209.6211 2347.7651884 -47669.999675 -25185.133123 -8408.3403503 -46934.006787 
-21114.21617 -12127.920042 -39101.504069 -34172.696949 -28195.115683 -72017.791916 -18994.44051 -22170.64323 -46303.010489 
-17324.407656 -30759.321019 -57001.672122 -23765.088225 -57548.929746 -104779.02561 -9975.4640775 -42647.826185 -72691.304684 
-4561.8001169 -48573.414338 -77578.853678 5435.5317681 -59717.618547 -104019.91372 8125.4907863 -37892.895699 -61938.490492 
28012.718361 -58898.509912 -102508.89187 40785.160761 -3564.5945888 -67404.764179 84127.494533 2268.898417 -120473.28056 
47083.39485 9733.7370064 -73117.182791 53874.442102 21346.68617 -88151.52999 32263.672076 31395.158885 -61272.41024 
-9974.7736156 64098.98878 -103753.1983 -13572.067584 39807.683523 -60006.54382 -37115.628025 71187.586332 -119083.10758 
-30149.834658 37200.151014 -68258.684272 -33150.354454 29232.155676 -69841.420344 -86755.437621 51799.532458 -154528.52543 
-46108.051841 -9244.9198005 -68548.798105 23392.190043 -30523.439621 -58769.898069 33532.537443 -30077.677702 -68367.356548 
39810.175497 -22562.431672 -65684.877573 30302.256245 -7749.0434155 -45848.678791 53023.259313 80287.485521 -121192.45316 
13890.01424 36082.128195 -47987.033347 4664.0718987 97840.409574 -128816.09515 -49722.076636 15074.597423 -65579.045066 
-58016.944683 1432.7885401 -67595.014997 -56630.769098 -20474.883285 -78416.516992 -47797.435098 -30435.695812 -72987.059553 
-26627.740406 -24667.117066 -45555.834347 -43916.731472 -65381.970224 -99142.625779 -37844.685265 -91337.670589 -123979.1453 
-12772.417715 -59739.875239 -74981.565913 2825.448936 -45598.144352 -56960.64191 7246.1290786 -25115.458011 -33108.151335 
19924.834643 -38431.632503 -59766.788242 17313.794484 -391.59693877 -19908.206019 96033.309506 14897.278268 -106939.33994 
93208.040975 34232.373732 -116311.0184 75137.261428 49471.696703 -101633.60055 49218.501011 57375.445093 -82060.984591 
3137.8535553 38134.291633 -42071.42585 -12463.406986 72030.172303 -79631.011891 -110284.51319 213081.94476 -265718.23868 
-48930.926012 51262.073683 -78457.996753 -32510.726166 19537.13014 -42986.188073 -27440.18801 -6715.0428708 -29387.437108 
-11769.92909 -13771.112396 -19690.51747 -1204.028415 -18480.318337 -19989.572205 6551.7260946 -37375.563051 -40118.202555 
43335.413654 -90755.436977 -112987.08665 52724.911284 -55757.19215 -83721.203868 80288.426397 -51229.097281 -102673.55293 
66244.002041 -15078.668791 -73452.667873 82140.180695 33305.474024 -81528.990023 46149.764197 80651.481741 -89694.465237 
28332.187779 87584.607929 -95241.392836 -8937.4005982 -3841.1166978 -9420.4254684 -34244.339783 -59967.846029 -69644.580492 
148039.88819 12073.339288 -130209.23731 86601.783121 58850.341903 -90926.549277 9757.333756 71652.892365 -60917.438612 
-1249.379323 20334.450067 -17543.855215 -18153.207453 72103.33308 -64781.674344 -18786.634167 33737.469934 -34327.840484 
-73119.824894 81686.453587 -95001.92858 -134509.22578 89726.601776 -143510.61227 -57728.004367 15921.463424 -51975.92435 
-52480.689516 -3630.4393415 -45946.338638 -77560.455485 -54232.343813 -83595.806636 -31126.48934 -185372.20653 -158698.78816 
1391.3007148 -17660.905332 -15032.441928 5762.9246837 -15745.032858 -14817.338827 23108.016712 -36952.667423 -40289.495729 
15645.169415 -14386.45306 -18610.938099 116647.19875 -57626.58837 -115267.27193 113042.00455 -27242.648338 -104913.3537 
3117.4145411 1825.8540469 -2623.8224196 -357.32887403 552.42371884 -504.71541076 -50777.674156 -15371.175554 -43643.570367 
-217300.93913 -127272.06917 -182894.85353 -40938.336151 -73522.40574 -64540.830977 154710.90355 -241641.21014 -220085.1006 
58220.301419 848.16304927 -39208.36369 112934.74196 36597.515679 -81537.518134 30817.630541 24240.864238 -25499.803622 
60446.800435 83985.417343 -66146.786493 57288.065025 147486.67777 -99907.961973 2894.8987979 155381.04377 -99022.089951 
-148515.34219 71089.948848 -108958.5654 -21564.021843 4104.222527 -14154.218222 -82501.643532 -5441.8293045 -53493.379877 
-184559.46164 -57767.194489 -128046.90425 -85334.216809 -67123.108694 -70609.119931 -88010.952153 -125207.61502 -97360.784309 
-24673.781723 -90466.754864 -61564.262749 683.21964772 -98640.540007 -63845.84341 164827.68762 -79826.935948 -120622.42459 
81284.717873 -15470.702665 -53353.759484 -18927.806159 134081.54138 -68458.770074 -168980.61783 318946.43377 -224365.9341 
-176142.63384 138208.29474 -130201.35024 19226.045502 -134726.72785 -68890.739138 42222.933098 -82395.739006 -54514.327833 
73481.651566 -57784.237707 -54248.705749 253921.1981 63315.974719 -134971.10814 133002.47571 209771.9153 -123533.62386 
17366.327569 83772.050777 -39769.836183 -58454.623099 24744.514149 -31276.784506 -197616.63123 10293.785777 -94863.181912 
-114070.7022 -28443.854829 -60633.965172 -39339.376078 -62046.185404 -36538.685928 -52144.332896 -247207.65976 -117714.52789 
34286.850872 -14514.018931 -18345.570289 438497.58957 -22841.195927 -210494.84097 -22680.974045 97114.751704 -38291.754241 
-141927.3394 216373.80646 -118392.22194 32897.115569 -140857.93687 -55539.425338 99592.142721 -151832.13541 -83077.264146 
43991.378105 6277.7177888 -14995.593542 268195.83798 140309.43367 -122733.31663 89310.646646 164019.76657 -59251.064498 
2067.7466038 44559.465977 -15083.408318 -204915.17287 -29242.05522 -69850.575113 -194199.03873 -101597.37253 -88870.424606 
-180615.24889 -331701.44965 -119824.97231 -4891.6051659 -105412.97157 -35682.359682 302773.56118 111212.61577 -78063.286124 
29972.904023 34798.101871 -10549.020558 -2787.0887534 59596.10753 -15355.880844 -37509.750276 77059.894592 -22841.438729 
-54117.098291 56354.673402 -22451.379428 -105238.56744 -38655.566141 -27133.404728 -47435.730462 -55072.187188 -16695.095526 
9607.1806907 -205429.61641 -52932.193763 3191.6114433 -6556.8349455 -1943.5212629 4728.315641 -4923.8117013 -1961.6183701 
125594.71128 -9853.9835706 -25914.297657 -33033.235201 21087.461888 -7651.2922805 -126274.19694 9907.3689593 -26054.476182 
10507.199739 -6707.5013165 -2433.7229732 89700.888634 202614.16345 -32945.515154 -6826.1812785 68357.699743 -14018.333039 
-144.98836827 -327.49616412 -53.251607165 4209.4779265 -56634.91013 -13046.731336 183614.5423 31522.549754 -22444.150875 
49074.029538 37317.729034 -6539.3899809 -79918.145529 70320.531036 -7590.9621374 -73220.63501 14388.005834 -5657.6735473 
0 0 0 -83442.638077 -63452.907197 -11119.195345 32512.072581 -28607.61257 -3088.1357816 
84022.836688 -16510.632046 -6492.3450484 1972.6971737 201.73751766 9.0432483522 0 0 0 
35591.179447 31915.669806 -396.6744434 5306.5992341 10384.558205 -264.54483933 12867.799291 292109.25365 -11004.483015 
0 0 0 -11491.316671 32507.14308 -1468.4587972 0 0 0 
-271903.59902 225230.3774 -19823.410509 -2690.3135923 1115.2728745 -32.713109744 0 0 0 
-209789.63746 -21454.058483 961.7364684 0 0 0 -8203.4173148 -7356.2502223 -91.429950417 
0 0 0 0 0 0 0 0 0 
67236.933434 -190202.69655 -8592.1011929 0 0 0 48657.128255 -40304.96668 -3547.3956372 
626924.89997 -259892.64451 -7623.1696677 0 0 0 0 0 0 
3932468.1038 -754670.09469 -207078.76936 0 0 0 0 0 0 
645731.31387 -452394.17555 -34143.004174 1078602.5747 -827917.91458 -57769.596839 0 0 0 
0 0 0 219365.82833 -272635.64407 -25403.627681 0 0 0 
164991.09819 -350882.78238 -23090.929445 0 0 0 72547.243317 -420675.85202 -24449.211091 
0 0 0 0 0 0 0 0 0 
-151117.78982 -473219.7411 -24976.047774 0 0 0 0 0 0 
0 0 0 -5427.1022191 -8359.2965524 -403.34233609 0 0 0 
0 0 0 0 0 0 0 0 0 
-1453698.315 -638552.35668 -119737.34748 -41433.751656 -12719.832177 -2847.7576668 0 0 0 
0 0 0 0 0 0 -201070.41374 31806.243218 -10513.510022 
0 0 0 0 0 0 0 0 0 
-1650957.314 1119343.9386 -57837.42167 -88658.254933 73784.906296 8795.3053751 0 0 0 
0 0 0 0 0 0 0 0 0 
-36489.13191 77600.605525 -5106.7536916 0 0 0 0 0 0 
-38685.518711 503881.76742 61974.634232 0 0 0 0 0 0 
0 0 0 124664.98561 302308.26747 30306.782612 0 0 0 
0 0 0 0 0 0 0 0 0 
779879.4895 594538.01546 -12265.822015 0 0 0 0 0 0 
0 0 0 0 0 0 331499.99976 115738.95414 -23936.065375 
348284.15149 41738.949658 -1528.9216103 0 0 0 14512.993093 -5958.137713 -2128.9413429 
-54257.77625 -138006.94752 -18506.153465 -298897.03072 -257171.32342 -53082.736294 -224641.66475 -27288.756676 -32270.149144 
-191398.73959 78576.447041 -28076.655373 44261.568201 112581.16978 -15096.663195 201472.21475 173346.86498 -35780.533417 
11646.374039 1414.7666401 -1673.0202871 116100.57731 -254019.65286 -55904.619135 0 0 0 
-139668.59511 305584.92433 -67253.086419 4242.2313747 121969.37453 -16421.311526 48284.11981 -8725.1851102 -11853.040391 
53742.369054 -43561.642591 -11429.924427 61502.362686 -103333.7853 -17924.522927 -93225.308284 -335231.91402 -97030.34468 
-287784.57365 -90722.262111 -78227.407689 -112974.37627 20415.084127 -27733.517135 -11905.588495 9095.3827325 -3473.8334151 
-46424.577668 78000.706263 -13530.179057 0 0 0 33454.555715 10546.325259 -9093.8153669 
564501.88078 -266290.89544 -229230.56211 104492.10816 -149172.46714 -59725.127259 -204376.43684 -139845.22574 -69799.771244 
-303236.33872 143044.38305 -123137.06728 -138228.53317 197334.43689 -79008.040704 118054.77296 79865.492979 -42816.998856 
280544.92224 -25542.215153 -117961.11091 175325.9737 -918706.22572 -370243.13129 -36410.418164 -106784.62302 -44773.907932 
-93630.590322 -101665.68295 -38852.069936 -51110.211928 4653.3601305 -21490.399094 -20862.578377 109319.68741 -44056.372152 
94337.431082 276673.20297 -116006.78231 80554.29718 74735.53429 -44096.497163 223356.47229 -87712.552298 -81827.679543 
125505.40341 -103749.69667 -74687.321057 172193.20095 -311176.39971 -147652.22906 -161840.74977 -171518.29596 -106078.3147 
-341602.88718 -151829.42259 -167066.75451 -406111.71016 159480.63353 -148781.2339 -236726.60722 206600.41182 -131716.66497 
-374274.78356 676365.14688 -320933.14816 144757.09257 153413.09208 -94880.853199 471023.47652 203608.05828 -232656.88777 
332089.4833 -97681.120843 -190224.72131 122638.70671 -105590.58713 -77987.168001 -2200.9233367 -359363.52998 -200114.9566 
-63107.892866 -115861.00961 -70493.747333 -220562.99831 -196489.20203 -146798.35118 -115689.04807 -70205.487674 -73343.518458 
-180922.00436 -21697.874888 -103990.66886 -322380.88136 94825.342816 -184663.38986 -351685.53792 317961.7531 -237731.24201 
915.42737463 142112.77298 -78892.574721 170592.44494 313193.99214 -190557.79181 173463.59755 165999.3138 -114764.23997 
194671.86328 118135.92839 -123416.34438 117845.78371 14133.19571 -67735.601889 80460.649335 -123786.15527 -72716.530375 
35154.520891 -80095.601774 -52700.405298 -92464.161546 147308.33186 -108816.19831 -11139.741131 26301.509145 -17285.525797 
204579.92863 -10091.241181 -144147.16881 139185.88941 -60161.989678 -104227.31408 242421.24761 -236237.01622 -233808.07017 
20134.96496 -76999.004787 -58548.479432 -83874.295538 -386876.13141 -275190.05928 -26527.304771 -44176.675652 -35757.490399 
-59359.628302 -54128.322198 -54772.94 -163679.65738 -77563.586229 -122314.2612 -130211.94309 6663.9330317 -72159.024344 
-142434.83818 61566.321849 -106660.24176 -87573.857987 84765.4138 -83576.932642 -17067.184897 65174.457965 -49533.247175 
61375.698512 287290.16976 -197261.32232 50054.138332 83261.20461 -67016.862734 140173.44252 127820.09385 -129342.31188 
9053.8942008 4290.4079516 -6765.7789481 21532.735764 -79508.301095 -59729.743668 -99708.985112 -130541.59699 -138914.77568 
-28365.232671 -6482.3395435 -22263.815832 -133128.5992 -904.00549841 -107779.00706 -24052.546158 88813.455195 -66720.032791 
3033.9970145 8850.2648691 -7492.9759058 75278.250022 97074.167246 -95417.315621 146330.63969 30462.94844 -114381.28036 
49369.719706 -9778.4636933 -45731.029728 125414.64298 -59766.50416 -124871.18219 72201.251737 -67343.257859 -87173.680527 
85758.153882 -150261.55832 -150974.65448 33226.61501 -101817.22316 -98534.614461 2621.0514538 -191693.88173 -171365.91556 
-7791.5668421 -35787.518639 -32457.985157 -26948.760046 -34210.652074 -37723.254212 -49900.357794 -38907.95511 -58040.967141 
-108495.70042 -41580.202564 -109674.58926 -117567.49761 23320.715093 -110108.86474 -107471.05822 51740.948821 -111923.39098 
-91406.266872 84540.25094 -115473.26737 -104629.84501 183442.91699 -189819.96946 -17133.395097 51935.029144 -50983.758212 
2818.9917638 297681.98662 -254469.13016 37420.612632 96053.872985 -91195.848641 58034.028249 75890.595005 -81924.721306 
240303.89251 187407.05293 -277603.07568 13846.15547 5612.5146762 -13740.8025 -64582.957276 -139261.48603 -165378.62839 
-65713.220599 -71250.734928 -98376.486655 -305988.43629 -67329.992079 -320734.78011 50859.908002 57289.900583 -80763.267127 
26363.927694 8233.6361133 -27310.349246 175581.25259 7321.6474348 -161808.90458 50397.484055 -25044.760096 -66699.031985 
94563.447166 -87150.276967 -146372.92365 43783.178587 -71485.675892 -98661.009153 78931.663431 -212776.97426 -217627.58676 
10047.778493 -111883.63997 -130303.9424 -16770.206573 -125804.75237 -145820.43763 -55255.679024 -150158.60262 -162105.98367 
-108225.14866 -66452.166305 -143084.70031 -107478.24697 2308.3636037 -125285.49917 -63085.185023 71329.63701 -106083.0072 
-41257.568389 74036.310343 -97389.525833 -11077.912849 42144.975216 -51028.551553 -6617.6358824 88707.33156 -102975.73145 
14343.15972 109339.76547 -126648.46831 26846.905207 75233.334629 -86393.994787 39753.413993 26961.877236 -55069.186102 
75732.065386 27086.62848 -93176.647769 104296.31497 7186.9028041 -126963.8683 39884.329147 -12749.072045 -52314.891957 
22420.229404 -128324.79136 -152896.28355 -2995.033141 -47386.933507 -65675.060543 -39229.702668 -126104.30766 -174711.87541 
-47560.450157 -80110.206545 -122313.17173 -50638.522458 -55353.575937 -101894.96777 -37111.086969 -24657.174494 -55374.315037 
-75208.463337 -28401.673557 -95446.483162 -92530.913321 -13890.686481 -122966.79803 -89792.811098 27323.704896 -118353.70992 
-61885.141965 43194.536038 -94919.643775 11265.419941 36862.754159 -51804.027542 17188.477755 29307.62031 -44610.784169 
26435.583645 27243.466803 -49878.893388 67797.658903 -8922.9384612 -100907.00869 59706.259352 -38401.408505 -106593.77026 
54969.346415 -57672.113693 -111394.05267 24960.078745 -55138.408559 -91656.968227 -73018.173803 8613.9600595 -108286.50659 
-28454.953768 29534.796316 -61163.035485 -20247.387508 38930.435568 -65008.065335 -7068.3375436 39881.486395 -61480.920407 
6080.3484164 66800.22589 -96807.482226 55754.205153 33621.646598 -99248.052982 59003.751669 9916.413468 -86598.701992 
87103.970124 -25996.790259 -145351.99469 10413.761295 -33472.270322 -60538.675016 4071.7928253 -56261.687808 -95882.213933 
-3549.2882537 -17042.904048 -29418.938394 -21762.797897 -52255.409703 -94998.987916 -44193.266575 -65065.869579 -135615.37526 
-39561.09494 -36558.710302 -90934.968697 -83281.736228 -52522.689476 -164554.94109 -50167.179586 -18481.07877 -88987.837411 
-61601.817199 -9265.4282237 -102700.95238 -53617.259624 16115.238402 -94054.687957 -63700.472079 41061.548326 -123090.2594 
737.80644907 30062.724094 -52105.948717 23073.186715 61985.938224 -101271.45525 30798.475444 45333.815219 -92114.93127 
44178.318658 38180.127414 -93859.563316 15790.207764 -1762.5264357 -30962.041821 24292.71501 -8405.9629973 -48795.964994 
37400.434767 -15963.074276 -76554.103471 13794.91706 -7391.6470363 -30526.37236 6333.7265244 -3890.6303034 -14542.22741 
44525.025205 -33106.9099 -105550.25942 10328.212472 -43533.515893 -89017.530541 0 0 0 
-2129.5614112 -32097.129536 -63291.430913 -31304.488174 -20038.23853 -80414.542492 -5998.1903444 -3304.1027755 -13715.554608 
-14729.746352 -6728.5270456 -31442.993012 -48589.969045 -17891.544041 -103568.18207 -31792.79927 -4148.1063138 -60494.697589 
-28632.164251 -1083.0415688 -52225.631594 -22913.943806 2224.5450996 -44511.104926 -9810.8319086 8659.9977928 -25515.291008 
-15368.682257 15771.719372 -42196.144008 -6380.9138725 7628.4895686 -19459.075367 -7228.4726417 10062.582078 -23981.404707 
-7892.6243824 12959.043368 -29260.39109 -24362.468151 48140.226144 -104128.03457 20471.217462 47018.966811 -105484.74642 
5520.0179436 11268.21354 -24618.34596 9411.6623406 16124.176469 -35903.795456 10827.399696 15637.642666 -38160.076197 
10532.669385 13110.570405 -33166.783074 0 0 0 14899.217901 13015.668075 -39128.158901 
3680.7972475 133.94269875 -7902.2904025 21.683830045 0.49368441338 -46.501126898 0 0 0 
9230.0872226 1024.1015655 -19918.059376 697.8705196 141.31318456 -1526.6566783 924.62844627 152.21759608 -2008.91507 
10189.357762 1905.1727535 -22239.65103 4507.7614835 1200.7444567 -10007.275487 1384.6398658 354.73819471 -3064.2730475 
0 0 0 1885.3761361 666.74554314 -4287.6580376 3628.2879396 1255.1115681 -8234.798499 
0 0 0 1181.1901971 536.75436378 -2781.4554629 7855.3274234 3386.8758394 -18352.063116 
8113.8005836 4281.509003 -19677.391207 77.444163463 40.073363223 -186.92935983 0 0 0 
0 0 0 9028.6321003 5556.0587873 -22742.324565 3478.5649319 2575.1070956 -9290.4064248 
668.84702222 475.56477372 -1758.9049182 444.17414476 370.59806899 -1239.4341492 0 0 0 
5760.4670594 6181.3830706 -18052.531901 0 0 0 1021.8480513 1272.3966005 -3500.0655434 
410.67941331 546.97273381 -1466.2548648 33.549400686 49.861526158 -128.83103737 4000.3435257 6849.0275351 -17016.676559 
0 0 0 1927.0526761 3944.7787286 -9414.8217321 0 0 0 
482.34254155 1262.178275 -2896.8536066 3563.687746 8921.4165303 -20238.178492 1819.948346 5742.0810359 -12923.06028 
219.31733252 664.6674782 -1500.6293086 0 0 0 1615.8109156 6799.1886378 -14990.64745 
1037.7478476 6482.6153516 -14085.591546 174.57919264 964.64144677 -2101.6290775 0 0 0 
462.17211863 5625.3434768 -12107.293055 116.57112132 1277.8016698 -2750.7424767 0 0 0 
1.5710871803 677.69455867 -1453.0217296 80.361523591 7491.0849373 -16069.727851 -517.0918632 8080.7158641 -17373.42454 
0 0 0 -489.62268612 3442.4708457 -7457.1760399 -83.846810211 609.97412005 -1320.0620117 
0 0 0 -215.31076841 956.58449922 -2102.3143014 -949.36167372 4482.7890198 -9830.1810236 
-1046.8504605 3516.006777 -7871.3604605 -52.1010455 186.01612302 -414.07018532 -2268.58339 5743.1989643 -13257.758482 
-338.95126263 787.93124705 -1837.88798 -2382.3663142 4654.7344867 -11219.593616 -345.91162465 631.9335443 -1544.1075545 
-3912.9010803 6361.2137393 -16017.105832 -341.12437495 514.51003808 -1323.3455115 -375.86220453 508.1874859 -1354.9186029 
-3323.892103 3960.9900958 -11092.976618 -437.74620987 495.71154698 -1417.7285085 -1406.4642186 1437.7221702 -4312.5997471 
-991.76793582 891.79403526 -2860.5225998 -5338.1429992 4721.2298062 -15271.673603 -4386.7297592 3336.0527239 -11823.195602 
-499.92870346 391.88285168 -1361.543742 -728.0015129 466.39775124 -1853.7790225 -3104.2783591 2021.2570203 -7946.7002798 
-3958.9549277 2176.8335767 -9693.3823911 0 0 0 -1110.723377 584.20239378 -2690.7975614 
-6513.5311877 2972.9127852 -15005.473105 -1232.0800136 568.94367616 -2909.7597914 -324.91817951 130.28554901 -750.45382468 
0 0 0 -5178.2210144 1916.2817526 -11844.458254 -4091.2782706 1176.2465425 -9133.2593308 
-357.02409844 108.57010018 -799.87922568 -607.04506244 151.26459197 -1341.0923855 0 0 0 
-10661.058966 2194.0808081 -23340.703568 -931.23399612 120.95757476 -2012.0149103 -5615.5521647 494.01589598 -12105.599572 
0 0 0 0 0 0 -3658.7553576 -496.73833556 -7921.4817825 
-1823.5102591 -291.61478068 -3958.2150348 -9211.5166149 -1969.1470972 -20203.651446 -2189.152346 -545.50545267 -4836.2529341 
-828.40605516 -251.92603995 -1855.9747258 -8697.1796428 -3218.4069427 -19893.495038 -913.85617569 -366.43664716 -2110.7048442 
-779.60791523 -360.06519291 -1841.2023715 -1182.6765189 -625.43818398 -2871.4755312 0 0 0 
-3299.6823763 -1814.0986609 -8069.7814679 -1152.891983 -736.77173567 -2934.7322553 -3220.3079131 -2095.4095289 -8235.4730446 
0 0 0 -245.06014236 -175.29817226 -645.99373934 -6701.6112654 -5109.595963 -18078.049353 
-2916.6808753 -2582.3624262 -8358.2394118 -265.99437126 -227.38263265 -750.22567287 -120.12141661 -110.72947201 -350.29474258 
-6367.5525663 -6567.2718881 -19618.434353 -837.19944721 -856.10235541 -2567.3658676 0 0 0 
0 0 0 -2864.5570016 -3413.5725805 -9559.9515349 -5821.536721 -8097.2291564 -20759.379338 
-629.71796946 -851.41451138 -2270.0234207 -800.58315613 -1207.4901189 -3105.7340914 -759.43354241 -1248.83447 -3133.6876293 
-3100.3133744 -5039.8715132 -12690.278783 -416.75956 -761.3630971 -1860.3624226 0 0 0 
-3708.3282024 -7202.2416632 -17380.570375 -432.24631979 -993.93282557 -2322.8911596 -83.351572639 -221.13817922 -506.79794002 
-443.01986543 -1320.1809095 -2984.8190702 -680.59175221 -2429.8772809 -5408.8902385 -2073.2026863 -9842.7742752 -21579.829828 
-100.31934162 -540.04098409 -1177.408708 -102.23644386 -747.23899851 -1616.910433 -125.30743151 -2752.3932662 -5905.7988243 
0 0 0 63.482182295 -5924.0253523 -12708.092019 0 0 0 
62.949328876 -689.9657249 -1485.4866609 23.119202851 -127.75314904 -278.33070828 0 0 0 
1237.7148795 -5208.1684736 -11482.804635 113.34950487 -343.52714096 -775.58352289 0 0 0 
1867.9308899 -5894.9200785 -13266.750835 2097.297356 -5246.3628018 -12122.234481 0 0 0 
0 0 0 290.85825221 -594.32792536 -1418.9039321 1690.7947152 -3461.8605612 -8262.1960281 
0 0 0 935.14450416 -1690.304541 -4141.2643015 5057.694044 -8678.1048477 -20772.829617 
2379.9262151 -3451.6495943 -8994.4443618 982.3750502 -1460.0103116 -3772.3480672 0 0 0 
485.34169742 -597.51518379 -1650.4573117 2696.6625684 -3357.8847218 -9236.7339319 634.54408872 -706.54368008 -2035.2732077 
930.94718198 -964.51368582 -2873.9068061 4160.7788736 -4464.963268 -13093.383253 5848.9712047 -5159.2607343 -16751.315372 
563.38790721 -523.21962047 -1648.0159543 188.40798052 -150.44035264 -516.8770294 599.39690131 -423.12656353 -1572.6569572 
4206.8481085 -2588.4170431 -10596.239713 0 0 0 668.03688605 -345.66446952 -1612.4514011 
5906.5329585 -2538.9976276 -13291.872671 838.26980809 -341.62456238 -1940.2451906 3981.8814955 -1377.1656055 -9037.1635455 
0 0 0 0 0 0 10804.382598 -1960.661313 -23555.50404 
0 0 0 2953.8257307 -327.77199032 -6374.2159632 2499.8075513 -56.914116276 -5360.8549745 
1386.5576448 -85.470924103 -2978.4919697 3841.1513449 -89.09501553 -8244.1105781 705.19161143 -80.383503741 -1521.9284674 
289.51830023 -47.665477888 -629.03013463 8337.195731 -2203.3075893 -18498.583382 109.51273048 -38.728940854 -249.05059375 
0 0 0 5895.2965889 -3110.7104663 -14297.038258 1494.8189661 -943.75142036 -3790.3921535 
6040.2624596 -4522.8957576 -16199.562801 217.50188043 -936.69652708 -2061.9008155 1082.9644977 -6589.7483727 -14326.215215 
337.06782446 -3962.3859738 -8530.0082045 0 0 0 -491.26425229 -7678.9853686 -16507.606839 
-579.66495594 -4215.9235269 -9123.8636826 0 0 0 -1182.0900125 -4201.4190689 -9361.5821951 
-2508.8823483 -6374.5548378 -14703.643214 -5781.5728701 -2636.9298326 -13629.353495 -1440.4703471 -516.91126247 -3281.3062509 
-7607.5839443 -2236.2452566 -17007.001895 0 0 0 -1238.4811645 -149.65628149 -2674.6745644 
-8077.7542416 -322.0054565 -17361.06791 -610.93125735 6.9098549919 -1308.7221866 0 0 0 
-2655.7029123 2728.4099049 -8165.6674694 -309.40751008 377.38197473 -1046.3254821 -3696.6260946 5139.5754424 -13582.218305 
-585.46914276 962.76238244 -2415.8529558 0 0 0 -46.437132855 134.45796307 -304.78899687 
-237.46797627 2437.284247 -5249.1299897 246.6126496 858.32415847 -1914.7265934 278.75681977 569.99702264 -1360.6257939 
642.84885378 1161.9580849 -2846.8180298 2015.3968737 2922.4590263 -7615.8917538 273.00657685 336.10395821 -928.38741953 
660.03967935 683.84062859 -2037.6001741 6429.8787236 5794.1693867 -18574.414446 0 0 0 
0 0 0 0 0 0 0 0 0 
0 0 0 0 0 0 0 0 0 
0 0 0 0 0 0 0 0 0 
0 0 0 0 0 0 0 0 0 
0 0 0 0 0 0 0 0 0 
0 0 0 0 0 0 0 0 0 
0 0 0 0 0 0 0 0 0 
0 0 0 0 0 0 0 0 0 
0 0 0 0 0 0 0 0 0 
0 0 0 0 0 0 0 0 0 
0 0 0 0 0 0 0 0 0 
0 0 0 0 0 0 0 0 0 
0 0 0 0 0 0 0 0 0 
0 0 0 0 0 0 0 0 0 
0 0 0 0 0 0 0 0 0 
0 0 0 0 0 0 0 0 0 
0 0 0 0 0 0 0 0 0 
0 0 0 0 0 0 0 0 0 
0 0 0 0 0 0 0 0 0 
0 0 0 0 0 0 0 0 0 
0 0 0 0 0 0 0 0 0 
0 0 0 0 0 0 0 0 0 
0 0 0 0 0 0 0 0 0 
0 0 0 0 0 0 0 0 0 
0 0 0 0 0 0 0 0 0 
0 0 0 0 0 0 0 0 0 
0 0 0 0 0 0 0 0 0 
0 0 0 0 0 0 0 0 0 
0 0 0 0 0 0 0 0 0 
0 0 0 0 0 0 0 0 0 
0 0 0 0 0 0 0 0 0 
0 0 0 0 0 0 0 0 0 
0 0 0 0 0 0 0 0 0 
0 0 0 0 0 0 0 0 0 
0 0 0 0 0 0 0 0 0 
0 0 0 0 0 0 0 0 0 
0 0 0 0 0 0 0 0 0 
0 0 0 0 0 0 0 0 0 
0 0 0 0 0 0 0 0 0 
0 0 0 0 0 0 0 0 0 
0 0 0 0 0 0 0 0 0 
0 0 0 0 0 0 0 0 0 
0 0 0 0 0 0 0 0 0 
0 0 0 0 0 0 0 0 0 
0 0 0 0 0 0 0 0 0 
0 0 0 0 0 0 0 0 0 
0 0 0 0 0 0 0 0 0 
0 0 0 0 0 0 0 0 0 
0 0 0 0 0 0 0 0 0 
0 0 0 0 0 0 0 0 0 
0 0 0 0 0 0 0 0 0 
0 0 0 0 0 0 0 0 0 
0 0 0 0 0 0 0 0 0 
0 0 0 0 0 0 0 0 0 
0 0 0 0 0 0 0 0 0 
0 0 0 0 0 0 0 0 0 
0 0 0 0 0 0 0 0 0 
0 0 0 0 0 0 0 0 0 
0 0 0 0 0 0 0 0 0 
0 0 0 0 0 0 0 0 0 
0 0 0 0 0 0 0 0 0 
0 0 0 0 0 0 0 0 0 
0 0 0 0 0 0 0 0 0 
0 0 0 0 0 0 0 0 0 
0 0 0 0 0 0 0 0 0 
0 0 0 0 0 0 0 0 0 
0 0 0 0 0 0 0 0 0 
0 0 0 0 0 0 0 0 0 
0 0 0 0 0 0 0 0 0 
0 0 0 0 0 0 0 0 0 
0 0 0 0 0 0 0 0 0 
0 0 0 0 0 0 0 0 0 
0 0 0 0 0 0 0 0 0 
0 0 0 0 0 0 0 0 0 
0 0 0 0 0 0 0 0 0 
0 0 0 0 0 0 0 0 0 
0 0 0 0 0 0 0 0 0 
0 0 0 0 0 0 0 0 0 
0 0 0 0 0 0 0 0 0 
0 0 0 0 0 0 0 0 0 
0 0 0 0 0 0 0 0 0 
0 0 0 0 0 0 0 0 0 
0 0 0 0 0 0 0 0 0 
0 0 0 0 0 0 0 0 0 
0 0 0 0 0 0 0 0 0 
0 0 0 0 0 0 0 0 0 
0 0 0 0 0 0 0 0 0 
0 0 0 0 0 0 0 0 0 
0 0 0 0 0 0 0 0 0 
0 0 0 0 0 0 0 0 0 
0 0 0 0 0 0 0 0 0 
0 0 0 0 0 0 0 0 0 
0 0 0 0 0 0 0 0 0 
0 0 0 0 0 0 0 0 0 
0 0 0 0 0 0 0 0 0 
0 0 0 0 0 0 0 0 0 
0 0 0 0 0 0 0 0 0 
0 0 0 0 0 0 0 0 0 
0 0 0 0 0 0 0 0 0 
0 0 0 0 0 0 0 0 0 
0 0 0 0 0 0 0 0 0 
0 0 0 0 0 0 0 0 0 
0 0 0 0 0 0 0 0 0 
0 0 0 0 0 0 0 0 0 
0 0 0 0 0 0 0 0 0 
0 0 0 0 0 0 0 0 0 
0 0 0 0 0 0 0 0 0 
0 0 0 0 0 0 0 0 0 
0 0 0 0 0 0 0 0 0 
0 0 0 0 0 0 0 0 0 
0 0 0 0 0 0 0 0 0 
0 0 0 0 0 0 0 0 0 
0 0 0 0 0 0 0 0 0 
0 0 0 0 0 0 0 0 0 
0 0 0 0 0 0 0 0 0 
0 0 0 0 0 0 0 0 0 
0 0 0 0 0 0 0 0 0 
0 0 0 0 0 0 0 0 0 
0 0 0 0 0 0 0 0 0 
0 0 0 0 0 0 0 0 0 
0 0 0 0 0 0 0 0 0 
0 0 0 0 0 0 0 0 0 
0 0 0 0 0 0 0 0 0 
0 0 0 0 0 0 0 0 0 
0 0 0 0 0 0 0 0 0 
0 0 0 0 0 0 0 0 0 
0 0 0 0 0 0 0 0 0 
0 0 0 0 0 0 0 0 0 
0 0 0 0 0 0 0 0 0 
0 0 0 0 0 0 0 0 0 
0 0 0 0 0 0 0 0 0 
0 0 0 0 0 0 0 0 0 
0 0 0 0 0 0 0 0 0 
0 0 0 0 0 0 0 0 0 
0 0 0 0 0 0 0 0 0 
0 0 0 0 0 0 0 0 0 
0 0 0 0 0 0 0 0 0 
0 0 0 0 0 0 0 0 0 
0 0 0 0 0 0 0 0 0 
0 0 0 0 0 0 0 0 0 
0 0 0 0 0 0 0 0 0 
0 0 0 0 0 0 0 0 0 
0 0 0 0 0 0 0 0 0 
0 0 0 0 0 0 0 0 0 
0 0 0 0 0 0 0 0 0 
0 0 0 0 0 0 0 0 0 
0 0 0 0 0 0 0 0 0 
0 0 0 0 0 0 0 0 0 
0 0 0 0 0 0 0 0 0 
0 0 0 0 0 0 0 0 0 
0 0 0 0 0 0 0 0 0 
0 0 0 0 0 0 0 0 0 
0 0 0 0 0 0 0 0 0 
0 0 0 0 0 0 0 0 0 
0 0 0 0 0 0 0 0 0 
0 0 0 0 0 0 0 0 0 
0 0 0 0 0 0 0 0 0 
0 0 0 0 0 0 0 0 0 
0 0 0 0 0 0 0 0 0 
0 0 0 0 0 0 0 0 0 
0 0 0 0 0 0 0 0 0 
0 0 0 0 0 0 0 0 0 
0 0 0 0 0 0 0 0 0 
0 0 0 0 0 0 0 0 0 
0 0 0 0 0 0 0 0 0 
0 0 0 0 0 0 0 0 0 
0 0 0 0 0 0 0 0 0 
0 0 0 0 0 0 0 0 0 
0 0 0 0 0 0 0 0 0 
0 0 0 0 0 0 0 0 0 
0 0 0 0 0 0 0 0 0 
0 0 0 0 0 0 0 0 0 
0 0 0 0 0 0 0 0 0 
0 0 0 0 0 0 0 0 0 
0 0 0 0 0 0 0 0 0 
0 0 0 0 0 0 0 0 0 
0 0 0 0 0 0 0 0 0 
0 0 0 0 0 0 0 0 0 
0 0 0 0 0 0 0 0 0 
0 0 0 0 0 0 0 0 0 
0 0 0 0 0 0 0 0 0 
0 0 0 0 0 0 0 0 0 
0 0 0 0 0 0 0 0 0 
0 0 0 0 0 0 0 0 0 
0 0 0 0 0 0 0 0 0 
0 0 0 0 0 0 0 0 0 
0 0 0 0 0 0 0 0 0 
0 0 0 0 0 0 0 0 0 
0 0 0 0 0 0 0 0 0 
0 0 0 0 0 0 0 0 0 
0 0 0 0 0 0 0 0 0 
0 0 0 0 0 0 0 0 0 
0 0 0 0 0 0 0 0 0 
0 0 0 0 0 0 0 0 0 
0 0 0 0 0 0 0 0 0 
0 0 0 0 0 0 0 0 0 
0 0 0 0 0 0 0 0 0 
0 0 0 0 0 0 0 0 0 
0 0 0 0 0 0 0 0 0 
0 0 0 0 0 0 0 0 0 
0 0 0 0 0 0 0 0 0 
0 0 0 0 0 0 0 0 0 
0 0 0 0 0 0 0 0 0 
0 0 0 0 0 0 0 0 0 
0 0 0 0 0 0 0 0 0 
0 0 0 0 0 0 0 0 0 
0 0 0 0 0 0 0 0 0 
0 0 0 0 0 0 0 0 0 
0 0 0 0 0 0 0 0 0 
0 0 0 0 0 0 0 0 0 
0 0 0 0 0 0 0 0 0 
0 0 0 0 0 0 0 0 0 
0 0 0 0 0 0 0 0 0 
0 0 0 0 0 0 0 0 0 
0 0 0 0 0 0 0 0 0 
0 0 0 0 0 0 0 0 0 
0 0 0 0 0 0 0 0 0 
0 0 0 0 0 0 0 0 0 
0 0 0 0 0 0 0 0 0 
0 0 0 0 0 0 0 0 0 
0 0 0 0 0 0 0 0 0 
0 0 0 0 0 0 0 0 0 
0 0 0 0 0 0 0 0 0 
0 0 0 0 0 0 0 0 0 
0 0 0 0 0 0 0 0 0 
0 0 0 0 0 0 0 0 0 
0 0 0 0 0 0 0 0 0 
0 0 0 0 0 0 0 0 0 
0 0 0 0 0 0 0 0 0 
0 0 0 0 0 0 0 0 0 
0 0 0 0 0 0 0 0 0 
0 0 0 0 0 0 0 0 0 
0 0 0 0 0 0 0 0 0 
0 0 0 0 0 0 0 0 0 
0 0 0 0 0 0 0 0 0 
0 0 0 0 0 0 0 0 0 
0 0 0 0 0 0 0 0 0 
0 0 0 0 0 0 0 0 0 
0 0 0 0 0 0 0 0 0 
0 0 0 0 0 0 0 0 0 
0 0 0 0 0 0 0 0 0 
0 0 0 0 0 0 0 0 0 
0 0 0 0 0 0 0 0 0 
0 0 0 0 0 0 0 0 0 
0 0 0 0 0 0 0 0 0 
0 0 0 0 0 0 0 0 0 
0 0 0 0 0 0 0 0 0 
0 0 0 0 0 0 0 0 0 
0 0 0 0 0 0 0 0 0 
0 0 0 0 0 0 0 0 0 
0 0 0 0 0 0 0 0 0 
0 0 0 0 0 0 0 0 0 
0 0 0 0 0 0 0 0 0 
0 0 0 0 0 0 0 0 0 
0 0 0 0 0 0 0 0 0 
0 0 0 0 0 0 0 0 0 
0 0 0 0 0 0 0 0 0 
0 0 0 0 0 0 0 0 0 
0 0 0 0 0 0 0 0 0 
0 0 0 0 0 0 0 0 0 
0 0 0 0 0 0 0 0 0 
0 0 0 0 0 0 0 0 0 
0 0 0 0 0 0 0 0 0 
0 0 0 0 0 0 0 0 0 
0 0 0 0 0 0 0 0 0 
0 0 0 0 0 0 0 0 0 
0 0 0 0 0 0 0 0 0 
0 0 0 0 0 0 0 0 0 
0 0 0 0 0 0 0 0 0 
0 0 0 0 0 0 0 0 0 
0 0 0 0 0 0 0 0 0 
0 0 0 0 0 0 0 0 0 
0 0 0 0 0 0 0 0 0 
0 0 0 0 0 0 0 0 0 
0 0 0 0 0 0 0 0 0 
0 0 0 0 0 0 0 0 0 
0 0 0 0 0 0 0 0 0 
0 0 0 0 0 0 0 0 0 
0 0 0 0 0 0 0 0 0 
0 0 0 0 0 0 0 0 0 
0 0 0 0 0 0 0 0 0 
0 0 0 0 0 0 0 0 0 
0 0 0 0 0 0 0 0 0 
0 0 0 0 0 0 0 0 0 
0 0 0 0 0 0 0 0 0 
0 0 0 0 0 0 0 0 0 
0 0 0 0 0 0 0 0 0 
0 0 0 0 0 0 0 0 0 
0 0 0 0 0 0 0 0 0 
0 0 0 0 0 0 0 0 0 
0 0 0 0 0 0 0 0 0 
0 0 0 0 0 0 0 0 0 
0 0 0 0 0 0 0 0 0 
0 0 0 0 0 0 0 0 0 
0 0 0 0 0 0 0 0 0 
0 0 0 0 0 0 0 0 0 
0 0 0 0 0 0 0 0 0 
0 0 0 0 0 0 0 0 0 
0 0 0 0 0 0 0 0 0 
0 0 0 0 0 0 0 0 0 
0 0 0 0 0 0 0 0 0 
0 0 0 0 0 0 0 0 0 
0 0 0 0 0 0 0 0 0 
0 0 0 0 0 0 0 0 0 
0 0 0 0 0 0 0 0 0 
0 0 0 0 0 0 0 0 0 
0 0 0 0 0 0 0 0 0 
0 0 0 0 0 0 0 0 0 
0 0 0 0 0 0 0 0 0 
0 0 0 0 0 0 0 0 0 
0 0 0 0 0 0 0 0 0 
0 0 0 0 0 0 0 0 0 
0 0 0 0 0 0 0 0 0 
0 0 0 0 0 0 0 0 0 
0 0 0 0 0 0 0 0 0 
0 0 0 0 0 0 0 0 0 
0 0 0 0 0 0 0 0 0 
0 0 0 0 0 0 0 0 0 
0 0 0 0 0 0 0 0 0 
0 0 0 0 0 0 0 0 0 
0 0 0 0 0 0 0 0 0 
0 0 0 0 0 0 0 0 0 
0 0 0 0 0 0 0 0 0 
0 0 0 0 0 0 0 0 0 
0 0 0 0 0 0 0 0 0 
0 0 0 0 0 0 0 0 0 
0 0 0 0 0 0 0 0 0 
0 0 0 0 0 0 0 0 0 
0 0 0 0 0 0 0 0 0 
0 0 0 0 0 0 0 0 0 
0 0 0 0 0 0 0 0 0 
0 0 0 0 0 0 0 0 0 
0 0 0 0 0 0 0 0 0 
0 0 0 0 0 0 0 0 0 
0 0 0 0 0 0 0 0 0 
0 0 0 0 0 0 0 0 0 
0 0 0 0 0 0 0 0 0 
0 0 0 0 0 0 0 0 0 
0 0 0 0 0 0 0 0 0 
0 0 0 0 0 0 0 0 0 
0 0 0 0 0 0 0 0 0 
0 0 0 0 0 0 0 0 0 
0 0 0 0 0 0 0 0 0 
0 0 0 0 0 0 0 0 0 
0 0 0 0 0 0 0 0 0 
0 0 0 0 0 0 0 0 0 
0 0 0 0 0 0 0 0 0 
0 0 0 0 0 0 0 0 0 
0 0 0 0 0 0 0 0 0 
0 0 0 0 0 0 0 0 0 
0 0 0 0 0 0 0 0 0 
0 0 0 0 0 0 0 0 0 
0 0 0 0 0 0 0 0 0 
0 0 0 0 0 0 0 0 0 
0 0 0 0 0 0 0 0 0 
0 0 0 0 0 0 0 0 0 
0 0 0 0 0 0 0 0 0 
0 0 0 0 0 0 0 0 0 
0 0 0 0 0 0 0 0 0 
0 0 0 0 0 0 0 0 0 
0 0 0 0 0 0 0 0 0 
0 0 0 0 0 0 0 0 0 
0 0 0 0 0 0 0 0 0 
0 0 0 0 0 0 0 0 0 
0 0 0 0 0 0 0 0 0 
0 0 0 0 0 0 0 0 0 
0 0 0 0 0 0 0 0 0 
0 0 0 0 0 0 0 0 0 
0 0 0 0 0 0 0 0 0 
0 0 0 0 0 0 0 0 0 
0 0 0 0 0 0 0 0 0 
0 0 0 0 0 0 0 0 0 
0 0 0 0 0 0 0 0 0 
0 0 0 0 0 0 0 0 0 
0 0 0 0 0 0 0 0 0 
0 0 0 0 0 0 0 0 0 
0 0 0 0 0 0 0 0 0 
0 0 0 0 0 0 0 0 0 
0 0 0 0 0 0 0 0 0 
0 0 0 0 0 0 0 0 0 
0 0 0 0 0 0 0 0 0 
0 0 0 0 0 0 0 0 0 
0 0 0 0 0 0 0 0 0 
0 0 0 0 0 0 0 0 0 
0 0 0 0 0 0 0 0 0 
0 0 0 0 0 0 0 0 0 
0 0 0 0 0 0 0 0 0 
0 0 0 0 0 0 0 0 0 
0 0 0 0 0 0 0 0 0 
0 0 0 0 0 0 0 0 0 
0 0 0 0 0 0 0 0 0 
0 0 0 0 0 0 0 0 0 
0 0 0 0 0 0 0 0 0 
0 0 0 0 0 0 0 0 0 
0 0 0 0 0 0 0 0 0 
0 0 0 0 0 0 0 0 0 
0 0 0 0 0 0 0 0 0 
0 0 0 0 0 0 0 0 0 
0 0 0 0 0 0 0 0 0 
0 0 0 0 0 0 0 0 0 
0 0 0 0 0 0 0 0 0 
0 0 0 0 0 0 0 0 0 
0 0 0 0 0 0 0 0 0 
0 0 0 0 0 0 0 0 0 
0 0 0 0 0 0 0 0 0 
0 0 0 0 0 0 0 0 0 
0 0 0 0 0 0 0 0 0 
0 0 0 0 0 0 0 0 0 
0 0 0 0 0 0 0 0 0 
0 0 0 0 0 0 0 0 0 
0 0 0 0 0 0 0 0 0 
0 0 0 0 0 0 0 0 0 
0 0 0 0 0 0 0 0 0 
0 0 0 0 0 0 0 0 0 
0 0 0 0 0 0 0 0 0 
0 0 0 0 0 0 0 0 0 
0 0 0 0 0 0 0 0 0 
0 0 0 0 0 0 0 0 0 
0 0 0 0 0 0 0 0 0 
0 0 0 0 0 0 0 0 0 
0 0 0 0 0 0 0 0 0 
0 0 0 0 0 0 0 0 0 
0 0 0 0 0 0 0 0 0 
0 0 0 0 0 0 0 0 0 
0 0 0 0 0 0 0 0 0 
0 0 0 0 0 0 0 0 0 
0 0 0 0 0 0 0 0 0 
0 0 0 0 0 0 0 0 0 
0 0 0 0 0 0 0 0 0 
0 0 0 0 0 0 0 0 0 
0 0 0 0 0 0 0 0 0 
0 0 0 0 0 0 0 0 0 
0 0 0 0 0 0 0 0 0 
0 0 0 0 0 0 0 0 0 
0 0 0 0 0 0 0 0 0 
0 0 0 0 0 0 0 0 0 
0 0 0 0 0 0 0 0 0 
0 0 0 0 0 0 0 0 0 
0 0 0 0 0 0 0 0 0 
0 0 0 0 0 0 0 0 0 
0 0 0 0 0 0 0 0 0 
0 0 0 0 0 0 0 0 0 
0 0 0 0 0 0 0 0 0 
0 0 0 0 0 0 0 0 0 
0 0 0 0 0 0 0 0 0 
0 0 0 0 0 0 0 0 0 
0 0 0 0 0 0 0 0 0 
0 0 0 0 0 0 0 0 0 
0 0 0 0 0 0 0 0 0 
0 0 0 0 0 0 0 0 0 
0 0 0 0 0 0 0 0 0 
0 0 0 0 0 0 0 0 0 
0 0 0 0 0 0 0 0 0 
0 0 0 0 0 0 0 0 0 
0 0 0 0 0 0 0 0 0 
0 0 0 0 0 0 0 0 0 
0 0 0 0 0 0 0 0 0 
0 0 0 0 0 0 0 0 0 
0 0 0 0 0 0 0 0 0 
0 0 0 0 0 0 0 0 0 
0 0 0 0 0 0 0 0 0 
0 0 0 0 0 0 0 0 0 
0 0 0 0 0 0 0 0 0 
0 0 0 0 0 0 0 0 0 
0 0 0 0 0 0 0 0 0 
0 0 0 0 0 0 0 0 0 
0 0 0 0 0 0 0 0 0 
0 0 0 0 0 0 0 0 0 
0 0 0 0 0 0 0 0 0 
0 0 0 0 0 0 0 0 0 
0 0 0 0 0 0 0 0 0 
0 0 0 0 0 0 0 0 0 
0 0 0 0 0 0 0 0 0 
0 0 0 0 0 0 0 0 0 
0 0 0 0 0 0 0 0 0 
0 0 0 0 0 0 0 0 0 
0 0 0 0 0 0 0 0 0 
0 0 0 0 0 0 0 0 0 
0 0 0 0 0 0 0 0 0 
0 0 0 0 0 0 0 0 0 
0 0 0 0 0 0 0 0 0 
0 0 0 0 0 0 0 0 0 
0 0 0 0 0 0 0 0 0 
0 0 0 0 0 0 0 0 0 
0 0 0 0 0 0 0 0 0 
0 0 0 0 0 0 0 0 0 
0 0 0 0 0 0 0 0 0 
0 0 0 0 0 0 0 0 0 
0 0 0 0 0 0 0 0 0 
0 0 0 0 0 0 0 0 0 
0 0 0 0 0 0 0 0 0 
0 0 0 0 0 0 0 0 0 
0 0 0 0 0 0 0 0 0 
0 0 0 0 0 0 0 0 0 
0 0 0 0 0 0 0 0 0 
0 0 0 0 0 0 0 0 0 
0 0 0 0 0 0 0 0 0 
0 0 0 0 0 0 0 0 0 
0 0 0 0 0 0 0 0 0 
0 0 0 0 0 0 0 0 0 
0 0 0 0 0 0 0 0 0 
0 0 0 0 0 0 0 0 0 
0 0 0 0 0 0 0 0 0 
0 0 0 0 0 0 0 0 0 
0 0 0 0 0 0 0 0 0 
0 0 0 0 0 0 0 0 0 
0 0 0 0 0 0 0 0 0 
0 0 0 0 0 0 0 0 0 
0 0 0 0 0 0 0 0 0 
0 0 0 0 0 0 0 0 0 
0 0 0 0 0 0 0 0 0 
0 0 0 0 0 0 0 0 0 
0 0 0 0 0 0 0 0 0 
0 0 0 0 0 0 0 0 0 
0 0 0 0 0 0 0 0 0 
0 0 0 0 0 0 0 0 0 
0 0 0 0 0 0 0 0 0 
0 0 0 0 0 0 0 0 0 
0 0 0 0 0 0 0 0 0 
0 0 0 0 0 0 0 0 0 
0 0 0 0 0 0 0 0 0 
0 0 0 0 0 0 0 0 0 
0 0 0 0 0 0 0 0 0 
0 0 0 0 0 0 0 0 0 
0 0 0 0 0 0 0 0 0 
0 0 0 0 0 0 0 0 0 
0 0 0 0 0 0 0 0 0 
0 0 0 0 0 0 0 0 0 
0 0 0 0 0 0 0 0 0 
0 0 0 0 0 0 0 0 0 
0 0 0 0 0 0 0 0 0 
0 0 0 0 0 0 0 0 0 
0 0 0 0 0 0 0 0 0 
0 0 0 0 0 0 0 0 0 
0 0 0 0 0 0 0 0 0 
0 0 0 0 0 0 0 0 0 
0 0 0 0 0 0 0 0 0 
0 0 0 0 0 0 0 0 0 
0 0 0 0 0 0 0 0 0 
0 0 0 0 0 0 0 0 0 
0 0 0 0 0 0 0 0 0 
0 0 0 0 0 0 0 0 0 
0 0 0 0 0 0 0 0 0 
0 0 0 0 0 0 0 0 0 
0 0 0 0 0 0 0 0 0 
0 0 0 0 0 0 0 0 0 
0 0 0 0 0 0 0 0 0 
0 0 0 0 0 0 0 0 0 
0 0 0 0 0 0 0 0 0 
0 0 0 0 0 0 0 0 0 
0 0 0 0 0 0 0 0 0 
0 0 0 0 0 0 0 0 0 
0 0 0 0 0 0 0 0 0 
0 0 0 0 0 0 0 0 0 
0 0 0 0 0 0 0 0 0 
0 0 0 0 0 0 0 0 0 
0 0 0 0 0 0 
meshid 1 5744 int
0 1 2 3 4 5 6 7 8 
9 10 11 12 13 14 15 16 17 
18 19 20 21 22 23 24 25 26 
27 28 29 30 31 32 33 34 35 
36 37 38 39 40 41 42 43 44 
45 46 47 48 49 50 51 52 53 
54 55 56 57 58 59 60 61 62 
63 64 65 66 67 68 69 70 71 
72 73 74 75 76 77 78 79 80 
81 82 83 84 85 86 87 88 89 
90 91 92 93 94 95 96 97 98 
99 100 101 102 103 104 105 106 107 
108 109 110 111 112 113 114 115 116 
117 118 119 120 121 122 123 124 125 
126 127 128 129 130 131 132 133 134 
135 136 137 138 139 140 141 142 143 
144 145 146 147 148 149 150 151 152 
153 154 155 156 157 158 159 160 161 
162 163 164 165 166 167 168 169 170 
171 172 173 174 175 176 177 178 179 
180 181 182 183 184 185 186 187 188 
189 190 191 192 193 194 195 196 197 
198 199 200 201 202 203 204 205 206 
207 208 209 210 211 212 213 214 215 
216 217 218 219 220 221 222 223 224 
225 226 227 228 229 230 231 232 233 
234 235 236 237 238 239 240 241 242 
243 244 245 246 247 248 249 250 251 
252 253 254 255 256 257 258 259 260 
261 262 263 264 265 266 267 268 269 
270 271 272 273 274 275 276 277 278 
279 280 281 282 283 284 285 286 287 
288 289 290 291 292 293 294 295 296 
297 298 299 300 301 302 303 304 305 
306 307 308 309 310 311 312 313 314 
315 316 317 318 319 320 321 322 323 
324 325 326 327 328 329 330 331 332 
333 334 335 336 337 338 339 340 341 
342 343 344 345 346 347 348 349 350 
351 352 353 354 355 356 357 358 359 
360 361 362 363 364 365 366 367 368 
369 370 371 372 373 374 375 376 377 
378 379 380 381 382 383 384 385 386 
387 388 389 390 391 392 393 394 395 
396 397 398 399 400 401 402 403 404 
405 406 407 408 409 410 411 412 413 
414 415 416 417 418 419 420 421 422 
423 424 425 426 427 428 429 430 431 
432 433 434 435 436 437 438 439 440 
441 442 443 444 445 446 447 448 449 
450 451 452 453 454 455 456 457 458 
459 460 461 462 463 464 465 466 467 
468 469 470 471 472 473 474 475 476 
477 478 479 480 481 482 483 484 485 
486 487 488 489 490 491 492 493 494 
495 496 497 498 499 500 501 502 503 
504 505 506 507 508 509 510 511 512 
513 514 515 516 517 518 519 520 521 
522 523 524 525 526 527 528 529 530 
531 532 533 534 535 536 537 538 539 
540 541 542 543 544 545 546 547 548 
549 550 551 552 553 554 555 556 557 
558 559 560 561 562 563 564 565 566 
567 568 569 570 571 572 573 574 575 
576 577 578 579 580 581 582 583 584 
585 586 587 588 589 590 591 592 593 
594 595 596 597 598 599 600 601 602 
603 604 605 606 607 608 609 610 611 
612 613 614 615 616 617 618 619 620 
621 622 623 624 625 626 627 628 629 
630 631 632 633 634 635 636 637 638 
639 640 641 642 643 644 645 646 647 
648 649 650 651 652 653 654 655 656 
657 658 659 660 661 662 663 664 665 
666 667 668 669 670 671 672 673 674 
675 676 677 678 679 680 681 682 683 
684 685 686 687 688 689 690 691 692 
693 694 695 696 697 698 699 700 701 
702 703 704 705 706 707 708 709 710 
711 712 713 714 715 716 717 718 719 
720 721 722 723 724 725 726 727 728 
729 730 731 732 733 734 735 736 737 
738 739 740 741 742 743 744 745 746 
747 748 749 750 751 752 753 754 755 
756 757 758 759 760 761 762 763 764 
765 766 767 768 769 770 771 772 773 
774 775 776 777 778 779 780 781 782 
783 784 785 786 787 788 789 790 791 
792 793 794 795 796 797 798 799 800 
801 802 803 804 805 806 807 808 809 
810 811 812 813 814 815 816 817 818 
819 820 821 822 823 824 825 826 827 
828 829 830 831 832 833 834 835 836 
837 838 839 840 841 842 843 844 845 
846 847 848 849 850 851 852 853 854 
855 856 857 858 859 860 861 862 863 
864 865 866 867 868 869 870 871 872 
873 874 875 876 877 878 879 880 881 
882 883 884 885 886 887 888 889 890 
891 892 893 894 895 896 897 898 899 
900 901 902 903 904 905 906 907 908 
909 910 911 912 913 914 915 916 917 
918 919 920 921 922 923 924 925 926 
927 928 929 930 931 932 933 934 935 
936 937 938 939 940 941 942 943 944 
945 946 947 948 949 950 951 952 953 
954 955 956 957 958 959 960 961 962 
963 964 965 966 967 968 969 970 971 
972 973 974 975 976 977 978 979 980 
981 982 983 984 985 986 987 988 989 
990 991 992 993 994 995 996 997 998 
999 1000 1001 1002 1003 1004 1005 1006 1007 
1008 1009 1010 1011 1012 1013 1014 1015 1016 
1017 1018 1019 1020 1021 1022 1023 1024 1025 
1026 1027 1028 1029 1030 1031 1032 1033 1034 
1035 1036 1037 1038 1039 1040 1041 1042 1043 
1044 1045 1046 1047 1048 1049 1050 1051 1052 
1053 1054 1055 1056 1057 1058 1059 1060 1061 
1062 1063 1064 1065 1066 1067 1068 1069 1070 
1071 1072 1073 1074 1075 1076 1077 1078 1079 
1080 1081 1082 1083 1084 1085 1086 1087 1088 
1089 1090 1091 1092 1093 1094 1095 1096 1097 
1098 1099 1100 1101 1102 1103 1104 1105 1106 
1107 1108 1109 1110 1111 1112 1113 1114 1115 
1116 1117 1118 1119 1120 1121 1122 1123 1124 
1125 1126 1127 1128 1129 1130 1131 1132 1133 
1134 1135 1136 1137 1138 1139 1140 1141 1142 
1143 1144 1145 1146 1147 1148 1149 1150 1151 
1152 1153 1154 1155 1156 1157 1158 1159 1160 
1161 1162 1163 1164 1165 1166 1167 1168 1169 
1170 1171 1172 1173 1174 1175 1176 1177 1178 
1179 1180 1181 1182 1183 1184 1185 1186 1187 
1188 1189 1190 1191 1192 1193 1194 1195 1196 
1197 1198 1199 1200 1201 1202 1203 1204 1205 
1206 1207 1208 1209 1210 1211 1212 1213 1214 
1215 1216 1217 1218 1219 1220 1221 1222 1223 
1224 1225 1226 1227 1228 1229 1230 1231 1232 
1233 1234 1235 1236 1237 1238 1239 1240 1241 
1242 1243 1244 1245 1246 1247 1248 1249 1250 
1251 1252 1253 1254 1255 1256 1257 1258 1259 
1260 1261 1262 1263 1264 1265 1266 1267 1268 
1269 1270 1271 1272 1273 1274 1275 1276 1277 
1278 1279 1280 1281 1282 1283 1284 1285 1286 
1287 1288 1289 1290 1291 1292 1293 1294 1295 
1296 1297 1298 1299 1300 1301 1302 1303 1304 
1305 1306 1307 1308 1309 1310 1311 1312 1313 
1314 1315 1316 1317 1318 1319 1320 1321 1322 
1323 1324 1325 1326 1327 1328 1329 1330 1331 
1332 1333 1334 1335 1336 1337 1338 1339 1340 
1341 1342 1343 1344 1345 1346 1347 1348 1349 
1350 1351 1352 1353 1354 1355 1356 1357 1358 
1359 1360 1361 1362 1363 1364 1365 1366 1367 
1368 1369 1370 1371 1372 1373 1374 1375 1376 
1377 1378 1379 1380 1381 1382 1383 1384 1385 
1386 1387 1388 1389 1390 1391 1392 1393 1394 
1395 1396 1397 1398 1399 1400 1401 1402 1403 
1404 1405 1406 1407 1408 1409 1410 1411 1412 
1413 1414 1415 1416 1417 1418 1419 1420 1421 
1422 1423 1424 1425 1426 1427 1428 1429 1430 
1431 1432 1433 1434 1435 1436 1437 1438 1439 
1440 1441 1442 1443 1444 1445 1446 1447 1448 
1449 1450 1451 1452 1453 1454 1455 1456 1457 
1458 1459 1460 1461 1462 1463 1464 1465 1466 
1467 1468 1469 1470 1471 1472 1473 1474 1475 
1476 1477 1478 1479 1480 1481 1482 1483 1484 
1485 1486 1487 1488 1489 1490 1491 1492 1493 
1494 1495 1496 1497 1498 1499 1500 1501 1502 
1503 1504 1505 1506 1507 1508 1509 1510 1511 
1512 1513 1514 1515 1516 1517 1518 1519 1520 
1521 1522 1523 1524 1525 1526 1527 1528 1529 
1530 1531 1532 1533 1534 1535 1536 1537 1538 
1539 1540 1541 1542 1543 1544 1545 1546 1547 
1548 1549 1550 1551 1552 1553 1554 1555 1556 
1557 1558 1559 1560 1561 1562 1563 1564 1565 
1566 1567 1568 1569 1570 1571 1572 1573 1574 
1575 1576 1577 1578 1579 1580 1581 1582 1583 
1584 1585 1586 1587 1588 1589 1590 1591 1592 
1593 1594 1595 1596 1597 1598 1599 1600 1601 
1602 1603 1604 1605 1606 1607 1608 1609 1610 
1611 1612 1613 1614 1615 1616 1617 1618 1619 
1620 1621 1622 1623 1624 1625 1626 1627 1628 
1629 1630 1631 1632 1633 1634 1635 1636 1637 
1638 1639 1640 1641 1642 1643 1644 1645 1646 
1647 1648 1649 1650 1651 1652 1653 1654 1655 
1656 1657 1658 1659 1660 1661 1662 1663 1664 
1665 1666 1667 1668 1669 1670 1671 1672 1673 
1674 1675 1676 1677 1678 1679 1680 1681 1682 
1683 1684 1685 1686 1687 1688 1689 1690 1691 
1692 1693 1694 1695 1696 1697 1698 1699 1700 
1701 1702 1703 1704 1705 1706 1707 1708 1709 
1710 1711 1712 1713 1714 1715 1716 1717 1718 
1719 1720 1721 1722 1723 1724 1725 1726 1727 
1728 1729 1730 1731 1732 1733 1734 1735 1736 
1737 1738 1739 1740 1741 1742 1743 1744 1745 
1746 1747 1748 1749 1750 1751 1752 1753 1754 
1755 1756 1757 1758 1759 1760 1761 1762 1763 
1764 1765 1766 1767 1768 1769 1770 1771 1772 
1773 1774 1775 1776 1777 1778 1779 1780 1781 
1782 1783 1784 1785 1786 1787 1788 1789 1790 
1791 1792 1793 1794 1795 1796 1797 1798 1799 
1800 1801 1802 1803 1804 1805 1806 1807 1808 
1809 1810 1811 1812 1813 1814 1815 1816 1817 
1818 1819 1820 1821 1822 1823 1824 1825 1826 
1827 1828 1829 1830 1831 1832 1833 1834 1835 
1836 1837 1838 1839 1840 1841 1842 1843 1844 
1845 1846 1847 1848 1849 1850 1851 1852 1853 
1854 1855 1856 1857 1858 1859 1860 1861 1862 
1863 1864 1865 1866 1867 1868 1869 1870 1871 
1872 1873 1874 1875 1876 1877 1878 1879 1880 
1881 1882 1883 1884 1885 1886 1887 1888 1889 
1890 1891 1892 1893 1894 1895 1896 1897 1898 
1899 1900 1901 1902 1903 1904 1905 1906 1907 
1908 1909 1910 1911 1912 1913 1914 1915 1916 
1917 1918 1919 1920 1921 1922 1923 1924 1925 
1926 1927 1928 1929 1930 1931 1932 1933 1934 
1935 1936 1937 1938 1939 1940 1941 1942 1943 
1944 1945 1946 1947 1948 1949 1950 1951 1952 
1953 1954 1955 1956 1957 1958 1959 1960 1961 
1962 1963 1964 1965 1966 1967 1968 1969 1970 
1971 1972 1973 1974 1975 1976 1977 1978 1979 
1980 1981 1982 1983 1984 1985 1986 1987 1988 
1989 1990 1991 1992 1993 1994 1995 1996 1997 
1998 1999 2000 2001 2002 2003 2004 2005 2006 
2007 2008 2009 2010 2011 2012 2013 2014 2015 
2016 2017 2018 2019 2020 2021 2022 2023 2024 
2025 2026 2027 2028 2029 2030 2031 2032 2033 
2034 2035 2036 2037 2038 2039 2040 2041 2042 
2043 2044 2045 2046 2047 2048 2049 2050 2051 
2052 2053 2054 2055 2056 2057 2058 2059 2060 
2061 2062 2063 2064 2065 2066 2067 2068 2069 
2070 2071 2072 2073 2074 2075 2076 2077 2078 
2079 2080 2081 2082 2083 2084 2085 2086 2087 
2088 2089 2090 2091 2092 2093 2094 2095 2096 
2097 2098 2099 2100 2101 2102 2103 2104 2105 
2106 2107 2108 2109 2110 2111 2112 2113 2114 
2115 2116 2117 2118 2119 2120 2121 2122 2123 
2124 2125 2126 2127 2128 2129 2130 2131 2132 
2133 2134 2135 2136 2137 2138 2139 2140 2141 
2142 2143 2144 2145 2146 2147 2148 2149 2150 
2151 2152 2153 2154 2155 2156 2157 2158 2159 
2160 2161 2162 2163 2164 2165 2166 2167 2168 
2169 2170 2171 2172 2173 2174 2175 2176 2177 
2178 2179 2180 2181 2182 2183 2184 2185 2186 
2187 2188 2189 2190 2191 2192 2193 2194 2195 
2196 2197 2198 2199 2200 2201 2202 2203 2204 
2205 2206 2207 2208 2209 2210 2211 2212 2213 
2214 2215 2216 2217 2218 2219 2220 2221 2222 
2223 2224 2225 2226 2227 2228 2229 2230 2231 
2232 2233 2234 2235 2236 2237 2238 2239 2240 
2241 2242 2243 2244 2245 2246 2247 2248 2249 
2250 2251 2252 2253 2254 2255 2256 2257 2258 
2259 2260 2261 2262 2263 2264 2265 2266 2267 
2268 2269 2270 2271 2272 2273 2274 2275 2276 
2277 2278 2279 2280 2281 2282 2283 2284 2285 
2286 2287 2288 2289 2290 2291 2292 2293 2294 
2295 2296 2297 2298 2299 2300 2301 2302 2303 
2304 2305 2306 2307 2308 2309 2310 2311 2312 
2313 2314 2315 2316 2317 2318 2319 2320 2321 
2322 2323 2324 2325 2326 2327 2328 2329 2330 
2331 2332 2333 2334 2335 2336 2337 2338 2339 
2340 2341 2342 2343 2344 2345 2346 2347 2348 
2349 2350 2351 2352 2353 2354 2355 2356 2357 
2358 2359 2360 2361 2362 2363 2364 2365 2366 
2367 2368 2369 2370 2371 2372 2373 2374 2375 
2376 2377 2378 2379 2380 2381 2382 2383 2384 
2385 2386 2387 2388 2389 2390 2391 2392 2393 
2394 2395 2396 2397 2398 2399 2400 2401 2402 
2403 2404 2405 2406 2407 2408 2409 2410 2411 
2412 2413 2414 2415 2416 2417 2418 2419 2420 
2421 2422 2423 2424 2425 2426 2427 2428 2429 
2430 2431 2432 2433 2434 2435 2436 2437 2438 
2439 2440 2441 2442 2443 2444 2445 2446 2447 
2448 2449 2450 2451 2452 2453 2454 2455 2456 
2457 2458 2459 2460 2461 2462 2463 2464 2465 
2466 2467 2468 2469 2470 2471 2472 2473 2474 
2475 2476 2477 2478 2479 2480 2481 2482 2483 
2484 2485 2486 2487 2488 2489 2490 2491 2492 
2493 2494 2495 2496 2497 2498 2499 2500 2501 
2502 2503 2504 2505 2506 2507 2508 2509 2510 
2511 2512 2513 2514 2515 2516 2517 2518 2519 
2520 2521 2522 2523 2524 2525 2526 2527 2528 
2529 2530 2531 2532 2533 2534 2535 2536 2537 
2538 2539 2540 2541 2542 2543 2544 2545 2546 
2547 2548 2549 2550 2551 2552 2553 2554 2555 
2556 2557 2558 2559 2560 2561 2562 2563 2564 
2565 2566 2567 2568 2569 2570 2571 2572 2573 
2574 2575 2576 2577 2578 2579 2580 2581 2582 
2583 2584 2585 2586 2587 2588 2589 2590 2591 
2592 2593 2594 2595 2596 2597 2598 2599 2600 
2601 2602 2603 2604 2605 2606 2607 2608 2609 
2610 2611 2612 2613 2614 2615 2616 2617 2618 
2619 2620 2621 2622 2623 2624 2625 2626 2627 
2628 2629 2630 2631 2632 2633 2634 2635 2636 
2637 2638 2639 2640 2641 2642 2643 2644 2645 
2646 2647 2648 2649 2650 2651 2652 2653 2654 
2655 2656 2657 2658 2659 2660 2661 2662 2663 
2664 2665 2666 2667 2668 2669 2670 2671 2672 
2673 2674 2675 2676 2677 2678 2679 2680 2681 
2682 2683 2684 2685 2686 2687 2688 2689 2690 
2691 2692 2693 2694 2695 2696 2697 2698 2699 
2700 2701 2702 2703 2704 2705 2706 2707 2708 
2709 2710 2711 2712 2713 2714 2715 2716 2717 
2718 2719 2720 2721 2722 2723 2724 2725 2726 
2727 2728 2729 2730 2731 2732 2733 2734 2735 
2736 2737 2738 2739 2740 2741 2742 2743 2744 
2745 2746 2747 2748 2749 2750 2751 2752 2753 
2754 2755 2756 2757 2758 2759 2760 2761 2762 
2763 2764 2765 2766 2767 2768 2769 2770 2771 
2772 2773 2774 2775 2776 2777 2778 2779 2780 
2781 2782 2783 2784 2785 2786 2787 2788 2789 
2790 2791 2792 2793 2794 2795 2796 2797 2798 
2799 2800 2801 2802 2803 2804 2805 2806 2807 
2808 2809 2810 2811 2812 2813 2814 2815 2816 
2817 2818 2819 2820 2821 2822 2823 2824 2825 
2826 2827 2828 2829 2830 2831 2832 2833 2834 
2835 2836 2837 2838 2839 2840 2841 2842 2843 
2844 2845 2846 2847 2848 2849 2850 2851 2852 
2853 2854 2855 2856 2857 2858 2859 2860 2861 
2862 2863 2864 2865 2866 2867 2868 2869 2870 
2871 2872 2873 2874 2875 2876 2877 2878 2879 
2880 2881 2882 2883 2884 2885 2886 2887 2888 
2889 2890 2891 2892 2893 2894 2895 2896 2897 
2898 2899 2900 2901 2902 2903 2904 2905 2906 
2907 2908 2909 2910 2911 2912 2913 2914 2915 
2916 2917 2918 2919 2920 2921 2922 2923 2924 
2925 2926 2927 2928 2929 2930 2931 2932 2933 
2934 2935 2936 2937 2938 2939 2940 2941 2942 
2943 2944 2945 2946 2947 2948 2949 2950 2951 
2952 2953 2954 2955 2956 2957 2958 2959 2960 
2961 2962 2963 2964 2965 2966 2967 2968 2969 
2970 2971 2972 2973 2974 2975 2976 2977 2978 
2979 2980 2981 2982 2983 2984 2985 2986 2987 
2988 2989 2990 2991 2992 2993 2994 2995 2996 
2997 2998 2999 3000 3001 3002 3003 3004 3005 
3006 3007 3008 3009 3010 3011 3012 3013 3014 
3015 3016 3017 3018 3019 3020 3021 3022 3023 
3024 3025 3026 3027 3028 3029 3030 3031 3032 
3033 3034 3035 3036 3037 3038 3039 3040 3041 
3042 3043 3044 3045 3046 3047 3048 3049 3050 
3051 3052 3053 3054 3055 3056 3057 3058 3059 
3060 3061 3062 3063 3064 3065 3066 3067 3068 
3069 3070 3071 3072 3073 3074 3075 3076 3077 
3078 3079 3080 3081 3082 3083 3084 3085 3086 
3087 3088 3089 3090 3091 3092 3093 3094 3095 
3096 3097 3098 3099 3100 3101 3102 3103 3104 
3105 3106 3107 3108 3109 3110 3111 3112 3113 
3114 3115 3116 3117 3118 3119 3120 3121 3122 
3123 3124 3125 3126 3127 3128 3129 3130 3131 
3132 3133 3134 3135 3136 3137 3138 3139 3140 
3141 3142 3143 3144 3145 3146 3147 3148 3149 
3150 3151 3152 3153 3154 3155 3156 3157 3158 
3159 3160 3161 3162 3163 3164 3165 3166 3167 
3168 3169 3170 3171 3172 3173 3174 3175 3176 
3177 3178 3179 3180 3181 3182 3183 3184 3185 
3186 3187 3188 3189 3190 3191 3192 3193 3194 
3195 3196 3197 3198 3199 3200 3201 3202 3203 
3204 3205 3206 3207 3208 3209 3210 3211 3212 
3213 3214 3215 3216 3217 3218 3219 3220 3221 
3222 3223 3224 3225 3226 3227 3228 3229 3230 
3231 3232 3233 3234 3235 3236 3237 3238 3239 
3240 3241 3242 3243 3244 3245 3246 3247 3248 
3249 3250 3251 3252 3253 3254 3255 3256 3257 
3258 3259 3260 3261 3262 3263 3264 3265 3266 
3267 3268 3269 3270 3271 3272 3273 3274 3275 
3276 3277 3278 3279 3280 3281 3282 3283 3284 
3285 3286 3287 3288 3289 3290 3291 3292 3293 
3294 3295 3296 3297 3298 3299 3300 3301 3302 
3303 3304 3305 3306 3307 3308 3309 3310 3311 
3312 3313 3314 3315 3316 3317 3318 3319 3320 
3321 3322 3323 3324 3325 3326 3327 3328 3329 
3330 3331 3332 3333 3334 3335 3336 3337 3338 
3339 3340 3341 3342 3343 3344 3345 3346 3347 
3348 3349 3350 3351 3352 3353 3354 3355 3356 
3357 3358 3359 3360 3361 3362 3363 3364 3365 
3366 3367 3368 3369 3370 3371 3372 3373 3374 
3375 3376 3377 3378 3379 3380 3381 3382 3383 
3384 3385 3386 3387 3388 3389 3390 3391 3392 
3393 3394 3395 3396 3397 3398 3399 3400 3401 
3402 3403 3404 3405 3406 3407 3408 3409 3410 
3411 3412 3413 3414 3415 3416 3417 3418 3419 
3420 3421 3422 3423 3424 3425 3426 3427 3428 
3429 3430 3431 3432 3433 3434 3435 3436 3437 
3438 3439 3440 3441 3442 3443 3444 3445 3446 
3447 3448 3449 3450 3451 3452 3453 3454 3455 
3456 3457 3458 3459 3460 3461 3462 3463 3464 
3465 3466 3467 3468 3469 3470 3471 3472 3473 
3474 3475 3476 3477 3478 3479 3480 3481 3482 
3483 3484 3485 3486 3487 3488 3489 3490 3491 
3492 3493 3494 3495 3496 3497 3498 3499 3500 
3501 3502 3503 3504 3505 3506 3507 3508 3509 
3510 3511 3512 3513 3514 3515 3516 3517 3518 
3519 3520 3521 3522 3523 3524 3525 3526 3527 
3528 3529 3530 3531 3532 3533 3534 3535 3536 
3537 3538 3539 3540 3541 3542 3543 3544 3545 
3546 3547 3548 3549 3550 3551 3552 3553 3554 
3555 3556 3557 3558 3559 3560 3561 3562 3563 
3564 3565 3566 3567 3568 3569 3570 3571 3572 
3573 3574 3575 3576 3577 3578 3579 3580 3581 
3582 3583 3584 3585 3586 3587 3588 3589 3590 
3591 3592 3593 3594 3595 3596 3597 3598 3599 
3600 3601 3602 3603 3604 3605 3606 3607 3608 
3609 3610 3611 3612 3613 3614 3615 3616 3617 
3618 3619 3620 3621 3622 3623 3624 3625 3626 
3627 3628 3629 3630 3631 3632 3633 3634 3635 
3636 3637 3638 3639 3640 3641 3642 3643 3644 
3645 3646 3647 3648 3649 3650 3651 3652 3653 
3654 3655 3656 3657 3658 3659 3660 3661 3662 
3663 3664 3665 3666 3667 3668 3669 3670 3671 
3672 3673 3674 3675 3676 3677 3678 3679 3680 
3681 3682 3683 3684 3685 3686 3687 3688 3689 
3690 3691 3692 3693 3694 3695 3696 3697 3698 
3699 3700 3701 3702 3703 3704 3705 3706 3707 
3708 3709 3710 3711 3712 3713 3714 3715 3716 
3717 3718 3719 3720 3721 3722 3723 3724 3725 
3726 3727 3728 3729 3730 3731 3732 3733 3734 
3735 3736 3737 3738 3739 3740 3741 3742 3743 
3744 3745 3746 3747 3748 3749 3750 3751 3752 
3753 3754 3755 3756 3757 3758 3759 3760 3761 
3762 3763 3764 3765 3766 3767 3768 3769 3770 
3771 3772 3773 3774 3775 3776 3777 3778 3779 
3780 3781 3782 3783 3784 3785 3786 3787 3788 
3789 3790 3791 3792 3793 3794 3795 3796 3797 
3798 3799 3800 3801 3802 3803 3804 3805 3806 
3807 3808 3809 3810 3811 3812 3813 3814 3815 
3816 3817 3818 3819 3820 3821 3822 3823 3824 
3825 3826 3827 3828 3829 3830 3831 3832 3833 
3834 3835 3836 3837 3838 3839 3840 3841 3842 
3843 3844 3845 3846 3847 3848 3849 3850 3851 
3852 3853 3854 3855 3856 3857 3858 3859 3860 
3861 3862 3863 3864 3865 3866 3867 3868 3869 
3870 3871 3872 3873 3874 3875 3876 3877 3878 
3879 3880 3881 3882 3883 3884 3885 3886 3887 
3888 3889 3890 3891 3892 3893 3894 3895 3896 
3897 3898 3899 3900 3901 3902 3903 3904 3905 
3906 3907 3908 3909 3910 3911 3912 3913 3914 
3915 3916 3917 3918 3919 3920 3921 3922 3923 
3924 3925 3926 3927 3928 3929 3930 3931 3932 
3933 3934 3935 3936 3937 3938 3939 3940 3941 
3942 3943 3944 3945 3946 3947 3948 3949 3950 
3951 3952 3953 3954 3955 3956 3957 3958 3959 
3960 3961 3962 3963 3964 3965 3966 3967 3968 
3969 3970 3971 3972 3973 3974 3975 3976 3977 
3978 3979 3980 3981 3982 3983 3984 3985 3986 
3987 3988 3989 3990 3991 3992 3993 3994 3995 
3996 3997 3998 3999 4000 4001 4002 4003 4004 
4005 4006 4007 4008 4009 4010 4011 4012 4013 
4014 4015 4016 4017 4018 4019 4020 4021 4022 
4023 4024 4025 4026 4027 4028 4029 4030 4031 
4032 4033 4034 4035 4036 4037 4038 4039 4040 
4041 4042 4043 4044 4045 4046 4047 4048 4049 
4050 4051 4052 4053 4054 4055 4056 4057 4058 
4059 4060 4061 4062 4063 4064 4065 4066 4067 
4068 4069 4070 4071 4072 4073 4074 4075 4076 
4077 4078 4079 4080 4081 4082 4083 4084 4085 
4086 4087 4088 4089 4090 4091 4092 4093 4094 
4095 4096 4097 4098 4099 4100 4101 4102 4103 
4104 4105 4106 4107 4108 4109 4110 4111 4112 
4113 4114 4115 4116 4117 4118 4119 4120 4121 
4122 4123 4124 4125 4126 4127 4128 4129 4130 
4131 4132 4133 4134 4135 4136 4137 4138 4139 
4140 4141 4142 4143 4144 4145 4146 4147 4148 
4149 4150 4151 4152 4153 4154 4155 4156 4157 
4158 4159 4160 4161 4162 4163 4164 4165 4166 
4167 4168 4169 4170 4171 4172 4173 4174 4175 
4176 4177 4178 4179 4180 4181 4182 4183 4184 
4185 4186 4187 4188 4189 4190 4191 4192 4193 
4194 4195 4196 4197 4198 4199 4200 4201 4202 
4203 4204 4205 4206 4207 4208 4209 4210 4211 
4212 4213 4214 4215 4216 4217 4218 4219 4220 
4221 4222 4223 4224 4225 4226 4227 4228 4229 
4230 4231 4232 4233 4234 4235 4236 4237 4238 
4239 4240 4241 4242 4243 4244 4245 4246 4247 
4248 4249 4250 4251 4252 4253 4254 4255 4256 
4257 4258 4259 4260 4261 4262 4263 4264 4265 
4266 4267 4268 4269 4270 4271 4272 4273 4274 
4275 4276 4277 4278 4279 4280 4281 4282 4283 
4284 4285 4286 4287 4288 4289 4290 4291 4292 
4293 4294 4295 4296 4297 4298 4299 4300 4301 
4302 4303 4304 4305 4306 4307 4308 4309 4310 
4311 4312 4313 4314 4315 4316 4317 4318 4319 
4320 4321 4322 4323 4324 4325 4326 4327 4328 
4329 4330 4331 4332 4333 4334 4335 4336 4337 
4338 4339 4340 4341 4342 4343 4344 4345 4346 
4347 4348 4349 4350 4351 4352 4353 4354 4355 
4356 4357 4358 4359 4360 4361 4362 4363 4364 
4365 4366 4367 4368 4369 4370 4371 4372 4373 
4374 4375 4376 4377 4378 4379 4380 4381 4382 
4383 4384 4385 4386 4387 4388 4389 4390 4391 
4392 4393 4394 4395 4396 4397 4398 4399 4400 
4401 4402 4403 4404 4405 4406 4407 4408 4409 
4410 4411 4412 4413 4414 4415 4416 4417 4418 
4419 4420 4421 4422 4423 4424 4425 4426 4427 
4428 4429 4430 4431 4432 4433 4434 4435 4436 
4437 4438 4439 4440 4441 4442 4443 4444 4445 
4446 4447 4448 4449 4450 4451 4452 4453 4454 
4455 4456 4457 4458 4459 4460 4461 4462 4463 
4464 4465 4466 4467 4468 4469 4470 4471 4472 
4473 4474 4475 4476 4477 4478 4479 4480 4481 
4482 4483 4484 4485 4486 4487 4488 4489 4490 
4491 4492 4493 4494 4495 4496 4497 4498 4499 
4500 4501 4502 4503 4504 4505 4506 4507 4508 
4509 4510 4511 4512 4513 4514 4515 4516 4517 
4518 4519 4520 4521 4522 4523 4524 4525 4526 
4527 4528 4529 4530 4531 4532 4533 4534 4535 
4536 4537 4538 4539 4540 4541 4542 4543 4544 
4545 4546 4547 4548 4549 4550 4551 4552 4553 
4554 4555 4556 4557 4558 4559 4560 4561 4562 
4563 4564 4565 4566 4567 4568 4569 4570 4571 
4572 4573 4574 4575 4576 4577 4578 4579 4580 
4581 4582 4583 4584 4585 4586 4587 4588 4589 
4590 4591 4592 4593 4594 4595 4596 4597 4598 
4599 4600 4601 4602 4603 4604 4605 4606 4607 
4608 4609 4610 4611 4612 4613 4614 4615 4616 
4617 4618 4619 4620 4621 4622 4623 4624 4625 
4626 4627 4628 4629 4630 4631 4632 4633 4634 
4635 4636 4637 4638 4639 4640 4641 4642 4643 
4644 4645 4646 4647 4648 4649 4650 4651 4652 
4653 4654 4655 4656 4657 4658 4659 4660 4661 
4662 4663 4664 4665 4666 4667 4668 4669 4670 
4671 4672 4673 4674 4675 4676 4677 4678 4679 
4680 4681 4682 4683 4684 4685 4686 4687 4688 
4689 4690 4691 4692 4693 4694 4695 4696 4697 
4698 4699 4700 4701 4702 4703 4704 4705 4706 
4707 4708 4709 4710 4711 4712 4713 4714 4715 
4716 4717 4718 4719 4720 4721 4722 4723 4724 
4725 4726 4727 4728 4729 4730 4731 4732 4733 
4734 4735 4736 4737 4738 4739 4740 4741 4742 
4743 4744 4745 4746 4747 4748 4749 4750 4751 
4752 4753 4754 4755 4756 4757 4758 4759 4760 
4761 4762 4763 4764 4765 4766 4767 4768 4769 
4770 4771 4772 4773 4774 4775 4776 4777 4778 
4779 4780 4781 4782 4783 4784 4785 4786 4787 
4788 4789 4790 4791 4792 4793 4794 4795 4796 
4797 4798 4799 4800 4801 4802 4803 4804 4805 
4806 4807 4808 4809 4810 4811 4812 4813 4814 
4815 4816 4817 4818 4819 4820 4821 4822 4823 
4824 4825 4826 4827 4828 4829 4830 4831 4832 
4833 4834 4835 4836 4837 4838 4839 4840 4841 
4842 4843 4844 4845 4846 4847 4848 4849 4850 
4851 4852 4853 4854 4855 4856 4857 4858 4859 
4860 4861 4862 4863 4864 4865 4866 4867 4868 
4869 4870 4871 4872 4873 4874 4875 4876 4877 
4878 4879 4880 4881 4882 4883 4884 4885 4886 
4887 4888 4889 4890 4891 4892 4893 4894 4895 
4896 4897 4898 4899 4900 4901 4902 4903 4904 
4905 4906 4907 4908 4909 4910 4911 4912 4913 
4914 4915 4916 4917 4918 4919 4920 4921 4922 
4923 4924 4925 4926 4927 4928 4929 4930 4931 
4932 4933 4934 4935 4936 4937 4938 4939 4940 
4941 4942 4943 4944 4945 4946 4947 4948 4949 
4950 4951 4952 4953 4954 4955 4956 4957 4958 
4959 4960 4961 4962 4963 4964 4965 4966 4967 
4968 4969 4970 4971 4972 4973 4974 4975 4976 
4977 4978 4979 4980 4981 4982 4983 4984 4985 
4986 4987 4988 4989 4990 4991 4992 4993 4994 
4995 4996 4997 4998 4999 5000 5001 5002 5003 
5004 5005 5006 5007 5008 5009 5010 5011 5012 
5013 5014 5015 5016 5017 5018 5019 5020 5021 
5022 5023 5024 5025 5026 5027 5028 5029 5030 
5031 5032 5033 5034 5035 5036 5037 5038 5039 
5040 5041 5042 5043 5044 5045 5046 5047 5048 
5049 5050 5051 5052 5053 5054 5055 5056 5057 
5058 5059 5060 5061 5062 5063 5064 5065 5066 
5067 5068 5069 5070 5071 5072 5073 5074 5075 
5076 5077 5078 5079 5080 5081 5082 5083 5084 
5085 5086 5087 5088 5089 5090 5091 5092 5093 
5094 5095 5096 5097 5098 5099 5100 5101 5102 
5103 5104 5105 5106 5107 5108 5109 5110 5111 
5112 5113 5114 5115 5116 5117 5118 5119 5120 
5121 5122 5123 5124 5125 5126 5127 5128 5129 
5130 5131 5132 5133 5134 5135 5136 5137 5138 
5139 5140 5141 5142 5143 5144 5145 5146 5147 
5148 5149 5150 5151 5152 5153 5154 5155 5156 
5157 5158 5159 5160 5161 5162 5163 5164 5165 
5166 5167 5168 5169 5170 5171 5172 5173 5174 
5175 5176 5177 5178 5179 5180 5181 5182 5183 
5184 5185 5186 5187 5188 5189 5190 5191 5192 
5193 5194 5195 5196 5197 5198 5199 5200 5201 
5202 5203 5204 5205 5206 5207 5208 5209 5210 
5211 5212 5213 5214 5215 5216 5217 5218 5219 
5220 5221 5222 5223 5224 5225 5226 5227 5228 
5229 5230 5231 5232 5233 5234 5235 5236 5237 
5238 5239 5240 5241 5242 5243 5244 5245 5246 
5247 5248 5249 5250 5251 5252 5253 5254 5255 
5256 5257 5258 5259 5260 5261 5262 5263 5264 
5265 5266 5267 5268 5269 5270 5271 5272 5273 
5274 5275 5276 5277 5278 5279 5280 5281 5282 
5283 5284 5285 5286 5287 5288 5289 5290 5291 
5292 5293 5294 5295 5296 5297 5298 5299 5300 
5301 5302 5303 5304 5305 5306 5307 5308 5309 
5310 5311 5312 5313 5314 5315 5316 5317 5318 
5319 5320 5321 5322 5323 5324 5325 5326 5327 
5328 5329 5330 5331 5332 5333 5334 5335 5336 
5337 5338 5339 5340 5341 5342 5343 5344 5345 
5346 5347 5348 5349 5350 5351 5352 5353 5354 
5355 5356 5357 5358 5359 5360 5361 5362 5363 
5364 5365 5366 5367 5368 5369 5370 5371 5372 
5373 5374 5375 5376 5377 5378 5379 5380 5381 
5382 5383 5384 5385 5386 5387 5388 5389 5390 
5391 5392 5393 5394 5395 5396 5397 5398 5399 
5400 5401 5402 5403 5404 5405 5406 5407 5408 
5409 5410 5411 5412 5413 5414 5415 5416 5417 
5418 5419 5420 5421 5422 5423 5424 5425 5426 
5427 5428 5429 5430 5431 5432 5433 5434 5435 
5436 5437 5438 5439 5440 5441 5442 5443 5444 
5445 5446 5447 5448 5449 5450 5451 5452 5453 
5454 5455 5456 5457 5458 5459 5460 5461 5462 
5463 5464 5465 5466 5467 5468 5469 5470 5471 
5472 5473 5474 5475 5476 5477 5478 5479 5480 
5481 5482 5483 5484 5485 5486 5487 5488 5489 
5490 5491 5492 5493 5494 5495 5496 5497 5498 
5499 5500 5501 5502 5503 5504 5505 5506 5507 
5508 5509 5510 5511 5512 5513 5514 5515 5516 
5517 5518 5519 5520 5521 5522 5523 5524 5525 
5526 5527 5528 5529 5530 5531 5532 5533 5534 
5535 5536 5537 5538 5539 5540 5541 5542 5543 
5544 5545 5546 5547 5548 5549 5550 5551 5552 
5553 5554 5555 5556 5557 5558 5559 5560 5561 
5562 5563 5564 5565 5566 5567 5568 5569 5570 
5571 5572 5573 5574 5575 5576 5577 5578 5579 
5580 5581 5582 5583 5584 5585 5586 5587 5588 
5589 5590 5591 5592 5593 5594 5595 5596 5597 
5598 5599 5600 5601 5602 5603 5604 5605 5606 
5607 5608 5609 5610 5611 5612 5613 5614 5615 
5616 5617 5618 5619 5620 5621 5622 5623 5624 
5625 5626 5627 5628 5629 5630 5631 5632 5633 
5634 5635 5636 5637 5638 5639 5640 5641 5642 
5643 5644 5645 5646 5647 5648 5649 5650 5651 
5652 5653 5654 5655 5656 5657 5658 5659 5660 
5661 5662 5663 5664 5665 5666 5667 5668 5669 
5670 5671 5672 5673 5674 5675 5676 5677 5678 
5679 5680 5681 5682 5683 5684 5685 5686 5687 
5688 5689 5690 5691 5692 5693 5694 5695 5696 
5697 5698 5699 5700 5701 5702 5703 5704 5705 
5706 5707 5708 5709 5710 5711 5712 5713 5714 
5715 5716 5717 5718 5719 5720 5721 5722 5723 
5724 5725 5726 5727 5728 5729 5730 5731 5732 
5733 5734 5735 5736 5737 5738 5739 5740 5741 
5742 5743 
v 3 5744 double
0 0 0 0 0 0 0 0 0 
0 0 0 0 0 0 0 0 0 
0 0 0 0 0 0 0 0 0 
0 0 0 0 0 0 0 0 0 
0 0 0 0 0 0 0 0 0 
0 0 0 0 0 0 0 0 0 
0 0 0 0 0 0 0 0 0 
0 0 0 0 0 0 0 0 0 
0 0 0 0 0 0 0 0 0 
0 0 0 0 0 0 0 0 0 
0 0 0 0 0 0 0 0 0 
0 0 0 0 0 0 0 0 0 
0 0 0 0 0 0 0 0 0 
0 0 0 0 0 0 0 0 0 
0 0 0 0 0 0 0 0 0 
0 0 0 0 0 0 0 0 0 
0 0 0 0 0 0 0 0 0 
0 0 0 0 0 0 0 0 0 
0 0 0 0 0 0 0 0 0 
0 0 0 0 0 0 0 0 0 
0 0 0 0 0 0 0 0 0 
0 0 0 0 0 0 0 0 0 
0 0 0 0 0 0 0 0 0 
0 0 0 0 0 0 0 0 0 
0 0 0 0 0 0 0 0 0 
0 0 0 0 0 0 0 0 0 
0 0 0 0 0 0 0 0 0 
0 0 0 0 0 0 0 0 0 
0 0 0 0 0 0 0 0 0 
0 0 0 0 0 0 0 0 0 
0 0 0 0 0 0 0 0 0 
0 0 0 0 0 0 0 0 0 
0 0 0 0 0 0 0 0 0 
0 0 0 0 0 0 0 0 0 
0 0 0 0 0 0 0 0 0 
0 0 0 0 0 0 0 0 0 
0 0 0 0 0 0 0 0 0 
0 0 0 0 0 0 0 0 0 
0 0 0 0 0 0 0 0 0 
0 0 0 0 0 0 0 0 0 
0 0 0 0 0 0 0 0 0 
0 0 0 0 0 0 0 0 0 
0 0 0 0 0 0 0 0 0 
0 0 0 0 0 0 0 0 0 
0 0 0 0 0 0 0 0 0 
0 0 0 0 0 0 0 0 0 
0 0 0 0 0 0 0 0 0 
0 0 0 0 0 0 0 0 0 
0 0 0 0 0 0 0 0 0 
0 0 0 0 0 0 0 0 0 
0 0 0 0 0 0 0 0 0 
0 0 0 0 0 0 0 0 0 
0 0 0 0 0 0 0 0 0 
0 0 0 0 0 0 0 0 0 
0 0 0 0 0 0 0 0 0 
0 0 0 0 0 0 0 0 0 
0 0 0 0 0 0 0 0 0 
0 0 0 0 0 0 0 0 0 
0 0 0 0 0 0 0 0 0 
0 0 0 0 0 0 0 0 0 
0 0 0 0 0 0 0 0 0 
0 0 0 0 0 0 0 0 0 
0 0 0 0 0 0 0 0 0 
0 0 0 0 0 0 0 0 0 
0 0 0 0 0 0 0 0 0 
0 0 0 0 0 0 0 0 0 
0 0 0 0 0 0 0 0 0 
0 0 0 0 0 0 0 0 0 
0 0 0 0 0 0 0 0 0 
0 0 0 0 0 0 0 0 0 
0 0 0 0 0 0 0 0 0 
0 0 0 0 0 0 0 0 0 
0 0 0 0 0 0 0 0 0 
0 0 0 0 0 0 0 0 0 
0 0 0 0 0 0 0 0 0 
0 0 0 0 0 0 0 0 0 
0 0 0 0 0 0 0 0 0 
0 0 0 0 0 0 0 0 0 
0 0 0 0 0 0 0 0 0 
0 0 0 0 0 0 0 0 0 
0 0 0 0 0 0 0 0 0 
0 0 0 0 0 0 0 0 0 
0 0 0 0 0 0 0 0 0 
0 0 0 0 0 0 0 0 0 
0 0 0 0 0 0 0 0 0 
0 0 0 0 0 0 0 0 0 
0 0 0 0 0 0 0 0 0 
0 0 0 0 0 0 0 0 0 
0 0 0 0 0 0 0 0 0 
0 0 0 0 0 0 0 0 0 
0 0 0 0 0 0 0 0 0 
0 0 0 0 0 0 0 0 0 
0 0 0 0 0 0 0 0 0 
0 0 0 0 0 0 0 0 0 
0 0 0 0 0 0 0 0 0 
0 0 0 0 0 0 0 0 0 
0 0 0 0 0 0 0 0 0 
0 0 0 0 0 0 0 0 0 
0 0 0 0 0 0 0 0 0 
0 0 0 0 0 0 0 0 0 
0 0 0 0 0 0 0 0 0 
0 0 0 0 0 0 0 0 0 
0 0 0 0 0 0 0 0 0 
0 0 0 0 0 0 0 0 0 
0 0 0 0 0 0 0 0 0 
0 0 0 0 0 0 0 0 0 
0 0 0 0 0 0 0 0 0 
0 0 0 0 0 0 0 0 0 
0 0 0 0 0 0 0 0 0 
0 0 0 0 0 0 0 0 0 
0 0 0 0 0 0 0 0 0 
0 0 0 0 0 0 0 0 0 
0 0 0 0 0 0 0 0 0 
0 0 0 0 0 0 0 0 0 
0 0 0 0 0 0 0 0 0 
0 0 0 0 0 0 0 0 0 
0 0 0 0 0 0 0 0 0 
0 0 0 0 0 0 0 0 0 
0 0 0 0 0 0 0 0 0 
0 0 0 0 0 0 0 0 0 
0 0 0 0 0 0 0 0 0 
0 0 0 0 0 0 0 0 0 
0 0 0 0 0 0 0 0 0 
0 0 0 0 0 0 0 0 0 
0 0 0 0 0 0 0 0 0 
0 0 0 0 0 0 0 0 0 
0 0 0 0 0 0 0 0 0 
0 0 0 0 0 0 0 0 0 
0 0 0 0 0 0 0 0 0 
0 0 0 0 0 0 0 0 0 
0 0 0 0 0 0 0 0 0 
0 0 0 0 0 0 0 0 0 
0 0 0 0 0 0 0 0 0 
0 0 0 0 0 0 0 0 0 
0 0 0 0 0 0 0 0 0 
0 0 0 0 0 0 0 0 0 
0 0 0 0 0 0 0 0 0 
0 0 0 0 0 0 0 0 0 
0 0 0 0 0 0 0 0 0 
0 0 0 0 0 0 0 0 0 
0 0 0 0 0 0 0 0 0 
0 0 0 0 0 0 0 0 0 
0 0 0 0 0 0 0 0 0 
0 0 0 0 0 0 0 0 0 
0 0 0 0 0 0 0 0 0 
0 0 0 0 0 0 0 0 0 
0 0 0 0 0 0 0 0 0 
0 0 0 0 0 0 0 0 0 
0 0 0 0 0 0 0 0 0 
0 0 0 0 0 0 0 0 0 
0 0 0 0 0 0 0 0 0 
0 0 0 0 0 0 0 0 0 
0 0 0 0 0 0 0 0 0 
0 0 0 0 0 0 0 0 0 
0 0 0 0 0 0 0 0 0 
0 0 0 0 0 0 0 0 0 
0 0 0 0 0 0 0 0 0 
0 0 0 0 0 0 0 0 0 
0 0 0 0 0 0 0 0 0 
0 0 0 0 0 0 0 0 0 
0 0 0 0 0 0 0 0 0 
0 0 0 0 0 0 0 0 0 
0 0 0 0 0 0 0 0 0 
0 0 0 0 0 0 0 0 0 
0 0 0 0 0 0 0 0 0 
0 0 0 0 0 0 0 0 0 
0 0 0 0 0 0 0 0 0 
0 0 0 0 0 0 0 0 0 
0 0 0 0 0 0 0 0 0 
0 0 0 0 0 0 0 0 0 
0 0 0 0 0 0 0 0 0 
0 0 0 0 0 0 0 0 0 
0 0 0 0 0 0 0 0 0 
0 0 0 0 0 0 0 0 0 
0 0 0 0 0 0 0 0 0 
0 0 0 0 0 0 0 0 0 
0 0 0 0 0 0 0 0 0 
0 0 0 0 0 0 0 0 0 
0 0 0 0 0 0 0 0 0 
0 0 0 0 0 0 0 0 0 
0 0 0 0 0 0 0 0 0 
0 0 0 0 0 0 0 0 0 
0 0 0 0 0 0 0 0 0 
0 0 0 0 0 0 0 0 0 
0 0 0 0 0 0 0 0 0 
0 0 0 0 0 0 0 0 0 
0 0 0 0 0 0 0 0 0 
0 0 0 0 0 0 0 0 0 
0 0 0 0 0 0 0 0 0 
0 0 0 0 0 0 0 0 0 
0 0 0 0 0 0 0 0 0 
0 0 0 0 0 0 0 0 0 
0 0 0 0 0 0 0 0 0 
0 0 0 0 0 0 0 0 0 
0 0 0 0 0 0 0 0 0 
0 0 0 0 0 0 0 0 0 
0 0 0 0 0 0 0 0 0 
0 0 0 0 0 0 0 0 0 
0 0 0 0 0 0 0 0 0 
0 0 0 0 0 0 0 0 0 
0 0 0 0 0 0 0 0 0 
0 0 0 0 0 0 0 0 0 
0 0 0 0 0 0 0 0 0 
0 0 0 0 0 0 0 0 0 
0 0 0 0 0 0 0 0 0 
0 0 0 0 0 0 0 0 0 
0 0 0 0 0 0 0 0 0 
0 0 0 0 0 0 0 0 0 
0 0 0 0 0 0 0 0 0 
0 0 0 0 0 0 0 0 0 
0 0 0 0 0 0 0 0 0 
0 0 0 0 0 0 0 0 0 
0 0 0 0 0 0 0 0 0 
0 0 0 0 0 0 0 0 0 
0 0 0 0 0 0 0 0 0 
0 0 0 0 0 0 0 0 0 
0 0 0 0 0 0 0 0 0 
0 0 0 0 0 0 0 0 0 
0 0 0 0 0 0 0 0 0 
0 0 0 0 0 0 0 0 0 
0 0 0 0 0 0 0 0 0 
0 0 0 0 0 0 0 0 0 
0 0 0 0 0 0 0 0 0 
0 0 0 0 0 0 0 0 0 
0 0 0 0 0 0 0 0 0 
0 0 0 0 0 0 0 0 0 
0 0 0 0 0 0 0 0 0 
0 0 0 0 0 0 0 0 0 
0 0 0 0 0 0 0 0 0 
0 0 0 0 0 0 0 0 0 
0 0 0 0 0 0 0 0 0 
0 0 0 0 0 0 0 0 0 
0 0 0 0 0 0 0 0 0 
0 0 0 0 0 0 0 0 0 
0 0 0 0 0 0 0 0 0 
0 0 0 0 0 0 0 0 0 
0 0 0 0 0 0 0 0 0 
0 0 0 0 0 0 0 0 0 
0 0 0 0 0 0 0 0 0 
0 0 0 0 0 0 0 0 0 
0 0 0 0 0 0 0 0 0 
0 0 0 0 0 0 0 0 0 
0 0 0 0 0 0 0 0 0 
0 0 0 0 0 0 0 0 0 
0 0 0 0 0 0 0 0 0 
0 0 0 0 0 0 0 0 0 
0 0 0 0 0 0 0 0 0 
0 0 0 0 0 0 0 0 0 
0 0 0 0 0 0 0 0 0 
0 0 0 0 0 0 0 0 0 
0 0 0 0 0 0 0 0 0 
0 0 0 0 0 0 0 0 0 
0 0 0 0 0 0 0 0 0 
0 0 0 0 0 0 0 0 0 
0 0 0 0 0 0 0 0 0 
0 0 0 0 0 0 0 0 0 
0 0 0 0 0 0 0 0 0 
0 0 0 0 0 0 0 0 0 
0 0 0 0 0 0 0 0 0 
0 0 0 0 0 0 0 0 0 
0 0 0 0 0 0 0 0 0 
0 0 0 0 0 0 0 0 0 
0 0 0 0 0 0 0 0 0 
0 0 0 0 0 0 0 0 0 
0 0 0 0 0 0 0 0 0 
0 0 0 0 0 0 0 0 0 
0 0 0 0 0 0 0 0 0 
0 0 0 0 0 0 0 0 0 
0 0 0 0 0 0 0 0 0 
0 0 0 0 0 0 0 0 0 
0 0 0 0 0 0 0 0 0 
0 0 0 0 0 0 0 0 0 
0 0 0 0 0 0 0 0 0 
0 0 0 0 0 0 0 0 0 
0 0 0 0 0 0 0 0 0 
0 0 0 0 0 0 0 0 0 
0 0 0 0 0 0 0 0 0 
0 0 0 0 0 0 0 0 0 
0 0 0 0 0 0 0 0 0 
0 0 0 0 0 0 0 0 0 
0 0 0 0 0 0 0 0 0 
0 0 0 0 0 0 0 0 0 
0 0 0 0 0 0 0 0 0 
0 0 0 0 0 0 0 0 0 
0 0 0 0 0 0 0 0 0 
0 0 0 0 0 0 0 0 0 
0 0 0 0 0 0 0 0 0 
0 0 0 0 0 0 0 0 0 
0 0 0 0 0 0 0 0 0 
0 0 0 0 0 0 0 0 0 
0 0 0 0 0 0 0 0 0 
0 0 0 0 0 0 0 0 0 
0 0 0 0 0 0 0 0 0 
0 0 0 0 0 0 0 0 0 
0 0 0 0 0 0 0 0 0 
0 0 0 0 0 0 0 0 0 
0 0 0 0 0 0 0 0 0 
0 0 0 0 0 0 0 0 0 
0 0 0 0 0 0 0 0 0 
0 0 0 0 0 0 0 0 0 
0 0 0 0 0 0 0 0 0 
0 0 0 0 0 0 0 0 0 
0 0 0 0 0 0 0 0 0 
0 0 0 0 0 0 0 0 0 
0 0 0 0 0 0 0 0 0 
0 0 0 0 0 0 0 0 0 
0 0 0 0 0 0 0 0 0 
0 0 0 0 0 0 0 0 0 
0 0 0 0 0 0 0 0 0 
0 0 0 0 0 0 0 0 0 
0 0 0 0 0 0 0 0 0 
0 0 0 0 0 0 0 0 0 
0 0 0 0 0 0 0 0 0 
0 0 0 0 0 0 0 0 0 
0 0 0 0 0 0 0 0 0 
0 0 0 0 0 0 0 0 0 
0 0 0 0 0 0 0 0 0 
0 0 0 0 0 0 0 0 0 
0 0 0 0 0 0 0 0 0 
0 0 0 0 0 0 0 0 0 
0 0 0 0 0 0 0 0 0 
0 0 0 0 0 0 0 0 0 
0 0 0 0 0 0 0 0 0 
0 0 0 0 0 0 0 0 0 
0 0 0 0 0 0 0 0 0 
0 0 0 0 0 0 0 0 0 
0 0 0 0 0 0 0 0 0 
0 0 0 0 0 0 0 0 0 
0 0 0 0 0 0 0 0 0 
0 0 0 0 0 0 0 0 0 
0 0 0 0 0 0 0 0 0 
0 0 0 0 0 0 0 0 0 
0 0 0 0 0 0 0 0 0 
0 0 0 0 0 0 0 0 0 
0 0 0 0 0 0 0 0 0 
0 0 0 0 0 0 0 0 0 
0 0 0 0 0 0 0 0 0 
0 0 0 0 0 0 0 0 0 
0 0 0 0 0 0 0 0 0 
0 0 0 0 0 0 0 0 0 
0 0 0 0 0 0 0 0 0 
0 0 0 0 0 0 0 0 0 
0 0 0 0 0 0 0 0 0 
0 0 0 0 0 0 0 0 0 
0 0 0 0 0 0 0 0 0 
0 0 0 0 0 0 0 0 0 
0 0 0 0 0 0 0 0 0 
0 0 0 0 0 0 0 0 0 
0 0 0 0 0 0 0 0 0 
0 0 0 0 0 0 0 0 0 
0 0 0 0 0 0 0 0 0 
0 0 0 0 0 0 0 0 0 
0 0 0 0 0 0 0 0 0 
0 0 0 0 0 0 0 0 0 
0 0 0 0 0 0 0 0 0 
0 0 0 0 0 0 0 0 0 
0 0 0 0 0 0 0 0 0 
0 0 0 0 0 0 0 0 0 
0 0 0 0 0 0 0 0 0 
0 0 0 0 0 0 0 0 0 
0 0 0 0 0 0 0 0 0 
0 0 0 0 0 0 0 0 0 
0 0 0 0 0 0 0 0 0 
0 0 0 0 0 0 0 0 0 
0 0 0 0 0 0 0 0 0 
0 0 0 0 0 0 0 0 0 
0 0 0 0 0 0 0 0 0 
0 0 0 0 0 0 0 0 0 
0 0 0 0 0 0 0 0 0 
0 0 0 0 0 0 0 0 0 
0 0 0 0 0 0 0 0 0 
0 0 0 0 0 0 0 0 0 
0 0 0 0 0 0 0 0 0 
0 0 0 0 0 0 0 0 0 
0 0 0 0 0 0 0 0 0 
0 0 0 0 0 0 0 0 0 
0 0 0 0 0 0 0 0 0 
0 0 0 0 0 0 0 0 0 
0 0 0 0 0 0 0 0 0 
0 0 0 0 0 0 0 0 0 
0 0 0 0 0 0 0 0 0 
0 0 0 0 0 0 0 0 0 
0 0 0 0 0 0 0 0 0 
0 0 0 0 0 0 0 0 0 
0 0 0 0 0 0 0 0 0 
0 0 0 0 0 0 0 0 0 
0 0 0 0 0 0 0 0 0 
0 0 0 0 0 0 0 0 0 
0 0 0 0 0 0 0 0 0 
0 0 0 0 0 0 0 0 0 
0 0 0 0 0 0 0 0 0 
0 0 0 0 0 0 0 0 0 
0 0 0 0 0 0 0 0 0 
0 0 0 0 0 0 0 0 0 
0 0 0 0 0 0 0 0 0 
0 0 0 0 0 0 0 0 0 
0 0 0 0 0 0 0 0 0 
0 0 0 0 0 0 0 0 0 
0 0 0 0 0 0 0 0 0 
0 0 0 0 0 0 0 0 0 
0 0 0 0 0 0 0 0 0 
0 0 0 0 0 0 0 0 0 
0 0 0 0 0 0 0 0 0 
0 0 0 0 0 0 0 0 0 
0 0 0 0 0 0 0 0 0 
0 0 0 0 0 0 0 0 0 
0 0 0 0 0 0 0 0 0 
0 0 0 0 0 0 0 0 0 
0 0 0 0 0 0 0 0 0 
0 0 0 0 0 0 0 0 0 
0 0 0 0 0 0 0 0 0 
0 0 0 0 0 0 0 0 0 
0 0 0 0 0 0 0 0 0 
0 0 0 0 0 0 0 0 0 
0 0 0 0 0 0 0 0 0 
0 0 0 0 0 0 0 0 0 
0 0 0 0 0 0 0 0 0 
0 0 0 0 0 0 0 0 0 
0 0 0 0 0 0 0 0 0 
0 0 0 0 0 0 0 0 0 
0 0 0 0 0 0 0 0 0 
0 0 0 0 0 0 0 0 0 
0 0 0 0 0 0 0 0 0 
0 0 0 0 0 0 0 0 0 
0 0 0 0 0 0 0 0 0 
0 0 0 0 0 0 0 0 0 
0 0 0 0 0 0 0 0 0 
0 0 0 0 0 0 0 0 0 
0 0 0 0 0 0 0 0 0 
0 0 0 0 0 0 0 0 0 
0 0 0 0 0 0 0 0 0 
0 0 0 0 0 0 0 0 0 
0 0 0 0 0 0 0 0 0 
0 0 0 0 0 0 0 0 0 
0 0 0 0 0 0 0 0 0 
0 0 0 0 0 0 0 0 0 
0 0 0 0 0 0 0 0 0 
0 0 0 0 0 0 0 0 0 
0 0 0 0 0 0 0 0 0 
0 0 0 0 0 0 0 0 0 
0 0 0 0 0 0 0 0 0 
0 0 0 0 0 0 0 0 0 
0 0 0 0 0 0 0 0 0 
0 0 0 0 0 0 0 0 0 
0 0 0 0 0 0 0 0 0 
0 0 0 0 0 0 0 0 0 
0 0 0 0 0 0 0 0 0 
0 0 0 0 0 0 0 0 0 
0 0 0 0 0 0 0 0 0 
0 0 0 0 0 0 0 0 0 
0 0 0 0 0 0 0 0 0 
0 0 0 0 0 0 0 0 0 
0 0 0 0 0 0 0 0 0 
0 0 0 0 0 0 0 0 0 
0 0 0 0 0 0 0 0 0 
0 0 0 0 0 0 0 0 0 
0 0 0 0 0 0 0 0 0 
0 0 0 0 0 0 0 0 0 
0 0 0 0 0 0 0 0 0 
0 0 0 0 0 0 0 0 0 
0 0 0 0 0 0 0 0 0 
0 0 0 0 0 0 0 0 0 
0 0 0 0 0 0 0 0 0 
0 0 0 0 0 0 0 0 0 
0 0 0 0 0 0 0 0 0 
0 0 0 0 0 0 0 0 0 
0 0 0 0 0 0 0 0 0 
0 0 0 0 0 0 0 0 0 
0 0 0 0 0 0 0 0 0 
0 0 0 0 0 0 0 0 0 
0 0 0 0 0 0 0 0 0 
0 0 0 0 0 0 0 0 0 
0 0 0 0 0 0 0 0 0 
0 0 0 0 0 0 0 0 0 
0 0 0 0 0 0 0 0 0 
0 0 0 0 0 0 0 0 0 
0 0 0 0 0 0 0 0 0 
0 0 0 0 0 0 0 0 0 
0 0 0 0 0 0 0 0 0 
0 0 0 0 0 0 0 0 0 
0 0 0 0 0 0 0 0 0 
0 0 0 0 0 0 0 0 0 
0 0 0 0 0 0 0 0 0 
0 0 0 0 0 0 0 0 0 
0 0 0 0 0 0 0 0 0 
0 0 0 0 0 0 0 0 0 
0 0 0 0 0 0 0 0 0 
0 0 0 0 0 0 0 0 0 
0 0 0 0 0 0 0 0 0 
0 0 0 0 0 0 0 0 0 
0 0 0 0 0 0 0 0 0 
0 0 0 0 0 0 0 0 0 
0 0 0 0 0 0 0 0 0 
0 0 0 0 0 0 0 0 0 
0 0 0 0 0 0 0 0 0 
0 0 0 0 0 0 0 0 0 
0 0 0 0 0 0 0 0 0 
0 0 0 0 0 0 0 0 0 
0 0 0 0 0 0 0 0 0 
0 0 0 0 0 0 0 0 0 
0 0 0 0 0 0 0 0 0 
0 0 0 0 0 0 0 0 0 
0 0 0 0 0 0 0 0 0 
0 0 0 0 0 0 0 0 0 
0 0 0 0 0 0 0 0 0 
0 0 0 0 0 0 0 0 0 
0 0 0 0 0 0 0 0 0 
0 0 0 0 0 0 0 0 0 
0 0 0 0 0 0 0 0 0 
0 0 0 0 0 0 0 0 0 
0 0 0 0 0 0 0 0 0 
0 0 0 0 0 0 0 0 0 
0 0 0 0 0 0 0 0 0 
0 0 0 0 0 0 0 0 0 
0 0 0 0 0 0 0 0 0 
0 0 0 0 0 0 0 0 0 
0 0 0 0 0 0 0 0 0 
0 0 0 0 0 0 0 0 0 
0 0 0 0 0 0 0 0 0 
0 0 0 0 0 0 0 0 0 
0 0 0 0 0 0 0 0 0 
0 0 0 0 0 0 0 0 0 
0 0 0 0 0 0 0 0 0 
0 0 0 0 0 0 0 0 0 
0 0 0 0 0 0 0 0 0 
0 0 0 0 0 0 0 0 0 
0 0 0 0 0 0 0 0 0 
0 0 0 0 0 0 0 0 0 
0 0 0 0 0 0 0 0 0 
0 0 0 0 0 0 0 0 0 
0 0 0 0 0 0 0 0 0 
0 0 0 0 0 0 0 0 0 
0 0 0 0 0 0 0 0 0 
0 0 0 0 0 0 0 0 0 
0 0 0 0 0 0 0 0 0 
0 0 0 0 0 0 0 0 0 
0 0 0 0 0 0 0 0 0 
0 0 0 0 0 0 0 0 0 
0 0 0 0 0 0 0 0 0 
0 0 0 0 0 0 0 0 0 
0 0 0 0 0 0 0 0 0 
0 0 0 0 0 0 0 0 0 
0 0 0 0 0 0 0 0 0 
0 0 0 0 0 0 0 0 0 
0 0 0 0 0 0 0 0 0 
0 0 0 0 0 0 0 0 0 
0 0 0 0 0 0 0 0 0 
0 0 0 0 0 0 0 0 0 
0 0 0 0 0 0 0 0 0 
0 0 0 0 0 0 0 0 0 
0 0 0 0 0 0 0 0 0 
0 0 0 0 0 0 0 0 0 
0 0 0 0 0 0 0 0 0 
0 0 0 0 0 0 0 0 0 
0 0 0 0 0 0 0 0 0 
0 0 0 0 0 0 0 0 0 
0 0 0 0 0 0 0 0 0 
0 0 0 0 0 0 0 0 0 
0 0 0 0 0 0 0 0 0 
0 0 0 0 0 0 0 0 0 
0 0 0 0 0 0 0 0 0 
0 0 0 0 0 0 0 0 0 
0 0 0 0 0 0 0 0 0 
0 0 0 0 0 0 0 0 0 
0 0 0 0 0 0 0 0 0 
0 0 0 0 0 0 0 0 0 
0 0 0 0 0 0 0 0 0 
0 0 0 0 0 0 0 0 0 
0 0 0 0 0 0 0 0 0 
0 0 0 0 0 0 0 0 0 
0 0 0 0 0 0 0 0 0 
0 0 0 0 0 0 0 0 0 
0 0 0 0 0 0 0 0 0 
0 0 0 0 0 0 0 0 0 
0 0 0 0 0 0 0 0 0 
0 0 0 0 0 0 0 0 0 
0 0 0 0 0 0 0 0 0 
0 0 0 0 0 0 0 0 0 
0 0 0 0 0 0 0 0 0 
0 0 0 0 0 0 0 0 0 
0 0 0 0 0 0 0 0 0 
0 0 0 0 0 0 0 0 0 
0 0 0 0 0 0 0 0 0 
0 0 0 0 0 0 0 0 0 
0 0 0 0 0 0 0 0 0 
0 0 0 0 0 0 0 0 0 
0 0 0 0 0 0 0 0 0 
0 0 0 0 0 0 0 0 0 
0 0 0 0 0 0 0 0 0 
0 0 0 0 0 0 0 0 0 
0 0 0 0 0 0 0 0 0 
0 0 0 0 0 0 0 0 0 
0 0 0 0 0 0 0 0 0 
0 0 0 0 0 0 0 0 0 
0 0 0 0 0 0 0 0 0 
0 0 0 0 0 0 0 0 0 
0 0 0 0 0 0 0 0 0 
0 0 0 0 0 0 0 0 0 
0 0 0 0 0 0 0 0 0 
0 0 0 0 0 0 0 0 0 
0 0 0 0 0 0 0 0 0 
0 0 0 0 0 0 0 0 0 
0 0 0 0 0 0 0 0 0 
0 0 0 0 0 0 0 0 0 
0 0 0 0 0 0 0 0 0 
0 0 0 0 0 0 0 0 0 
0 0 0 0 0 0 0 0 0 
0 0 0 0 0 0 0 0 0 
0 0 0 0 0 0 0 0 0 
0 0 0 0 0 0 0 0 0 
0 0 0 0 0 0 0 0 0 
0 0 0 0 0 0 0 0 0 
0 0 0 0 0 0 0 0 0 
0 0 0 0 0 0 0 0 0 
0 0 0 0 0 0 0 0 0 
0 0 0 0 0 0 0 0 0 
0 0 0 0 0 0 0 0 0 
0 0 0 0 0 0 0 0 0 
0 0 0 0 0 0 0 0 0 
0 0 0 0 0 0 0 0 0 
0 0 0 0 0 0 0 0 0 
0 0 0 0 0 0 0 0 0 
0 0 0 0 0 0 0 0 0 
0 0 0 0 0 0 0 0 0 
0 0 0 0 0 0 0 0 0 
0 0 0 0 0 0 0 0 0 
0 0 0 0 0 0 0 0 0 
0 0 0 0 0 0 0 0 0 
0 0 0 0 0 0 0 0 0 
0 0 0 0 0 0 0 0 0 
0 0 0 0 0 0 0 0 0 
0 0 0 0 0 0 0 0 0 
0 0 0 0 0 0 0 0 0 
0 0 0 0 0 0 0 0 0 
0 0 0 0 0 0 0 0 0 
0 0 0 0 0 0 0 0 0 
0 0 0 0 0 0 0 0 0 
0 0 0 0 0 0 0 0 0 
0 0 0 0 0 0 0 0 0 
0 0 0 0 0 0 0 0 0 
0 0 0 0 0 0 0 0 0 
0 0 0 0 0 0 0 0 0 
0 0 0 0 0 0 0 0 0 
0 0 0 0 0 0 0 0 0 
0 0 0 0 0 0 0 0 0 
0 0 0 0 0 0 0 0 0 
0 0 0 0 0 0 0 0 0 
0 0 0 0 0 0 0 0 0 
0 0 0 0 0 0 0 0 0 
0 0 0 0 0 0 0 0 0 
0 0 0 0 0 0 0 0 0 
0 0 0 0 0 0 0 0 0 
0 0 0 0 0 0 0 0 0 
0 0 0 0 0 0 0 0 0 
0 0 0 0 0 0 0 0 0 
0 0 0 0 0 0 0 0 0 
0 0 0 0 0 0 0 0 0 
0 0 0 0 0 0 0 0 0 
0 0 0 0 0 0 0 0 0 
0 0 0 0 0 0 0 0 0 
0 0 0 0 0 0 0 0 0 
0 0 0 0 0 0 0 0 0 
0 0 0 0 0 0 0 0 0 
0 0 0 0 0 0 0 0 0 
0 0 0 0 0 0 0 0 0 
0 0 0 0 0 0 0 0 0 
0 0 0 0 0 0 0 0 0 
0 0 0 0 0 0 0 0 0 
0 0 0 0 0 0 0 0 0 
0 0 0 0 0 0 0 0 0 
0 0 0 0 0 0 0 0 0 
0 0 0 0 0 0 0 0 0 
0 0 0 0 0 0 0 0 0 
0 0 0 0 0 0 0 0 0 
0 0 0 0 0 0 0 0 0 
0 0 0 0 0 0 0 0 0 
0 0 0 0 0 0 0 0 0 
0 0 0 0 0 0 0 0 0 
0 0 0 0 0 0 0 0 0 
0 0 0 0 0 0 0 0 0 
0 0 0 0 0 0 0 0 0 
0 0 0 0 0 0 0 0 0 
0 0 0 0 0 0 0 0 0 
0 0 0 0 0 0 0 0 0 
0 0 0 0 0 0 0 0 0 
0 0 0 0 0 0 0 0 0 
0 0 0 0 0 0 0 0 0 
0 0 0 0 0 0 0 0 0 
0 0 0 0 0 0 0 0 0 
0 0 0 0 0 0 0 0 0 
0 0 0 0 0 0 0 0 0 
0 0 0 0 0 0 0 0 0 
0 0 0 0 0 0 0 0 0 
0 0 0 0 0 0 0 0 0 
0 0 0 0 0 0 0 0 0 
0 0 0 0 0 0 0 0 0 
0 0 0 0 0 0 0 0 0 
0 0 0 0 0 0 0 0 0 
0 0 0 0 0 0 0 0 0 
0 0 0 0 0 0 0 0 0 
0 0 0 0 0 0 0 0 0 
0 0 0 0 0 0 0 0 0 
0 0 0 0 0 0 0 0 0 
0 0 0 0 0 0 0 0 0 
0 0 0 0 0 0 0 0 0 
0 0 0 0 0 0 0 0 0 
0 0 0 0 0 0 0 0 0 
0 0 0 0 0 0 0 0 0 
0 0 0 0 0 0 0 0 0 
0 0 0 0 0 0 0 0 0 
0 0 0 0 0 0 0 0 0 
0 0 0 0 0 0 0 0 0 
0 0 0 0 0 0 0 0 0 
0 0 0 0 0 0 0 0 0 
0 0 0 0 0 0 0 0 0 
0 0 0 0 0 0 0 0 0 
0 0 0 0 0 0 0 0 0 
0 0 0 0 0 0 0 0 0 
0 0 0 0 0 0 0 0 0 
0 0 0 0 0 0 0 0 0 
0 0 0 0 0 0 0 0 0 
0 0 0 0 0 0 0 0 0 
0 0 0 0 0 0 0 0 0 
0 0 0 0 0 0 0 0 0 
0 0 0 0 0 0 0 0 0 
0 0 0 0 0 0 0 0 0 
0 0 0 0 0 0 0 0 0 
0 0 0 0 0 0 0 0 0 
0 0 0 0 0 0 0 0 0 
0 0 0 0 0 0 0 0 0 
0 0 0 0 0 0 0 0 0 
0 0 0 0 0 0 0 0 0 
0 0 0 0 0 0 0 0 0 
0 0 0 0 0 0 0 0 0 
0 0 0 0 0 0 0 0 0 
0 0 0 0 0 0 0 0 0 
0 0 0 0 0 0 0 0 0 
0 0 0 0 0 0 0 0 0 
0 0 0 0 0 0 0 0 0 
0 0 0 0 0 0 0 0 0 
0 0 0 0 0 0 0 0 0 
0 0 0 0 0 0 0 0 0 
0 0 0 0 0 0 0 0 0 
0 0 0 0 0 0 0 0 0 
0 0 0 0 0 0 0 0 0 
0 0 0 0 0 0 0 0 0 
0 0 0 0 0 0 0 0 0 
0 0 0 0 0 0 0 0 0 
0 0 0 0 0 0 0 0 0 
0 0 0 0 0 0 0 0 0 
0 0 0 0 0 0 0 0 0 
0 0 0 0 0 0 0 0 0 
0 0 0 0 0 0 0 0 0 
0 0 0 0 0 0 0 0 0 
0 0 0 0 0 0 0 0 0 
0 0 0 0 0 0 0 0 0 
0 0 0 0 0 0 0 0 0 
0 0 0 0 0 0 0 0 0 
0 0 0 0 0 0 0 0 0 
0 0 0 0 0 0 0 0 0 
0 0 0 0 0 0 0 0 0 
0 0 0 0 0 0 0 0 0 
0 0 0 0 0 0 0 0 0 
0 0 0 0 0 0 0 0 0 
0 0 0 0 0 0 0 0 0 
0 0 0 0 0 0 0 0 0 
0 0 0 0 0 0 0 0 0 
0 0 0 0 0 0 0 0 0 
0 0 0 0 0 0 0 0 0 
0 0 0 0 0 0 0 0 0 
0 0 0 0 0 0 0 0 0 
0 0 0 0 0 0 0 0 0 
0 0 0 0 0 0 0 0 0 
0 0 0 0 0 0 0 0 0 
0 0 0 0 0 0 0 0 0 
0 0 0 0 0 0 0 0 0 
0 0 0 0 0 0 0 0 0 
0 0 0 0 0 0 0 0 0 
0 0 0 0 0 0 0 0 0 
0 0 0 0 0 0 0 0 0 
0 0 0 0 0 0 0 0 0 
0 0 0 0 0 0 0 0 0 
0 0 0 0 0 0 0 0 0 
0 0 0 0 0 0 0 0 0 
0 0 0 0 0 0 0 0 0 
0 0 0 0 0 0 0 0 0 
0 0 0 0 0 0 0 0 0 
0 0 0 0 0 0 0 0 0 
0 0 0 0 0 0 0 0 0 
0 0 0 0 0 0 0 0 0 
0 0 0 0 0 0 0 0 0 
0 0 0 0 0 0 0 0 0 
0 0 0 0 0 0 0 0 0 
0 0 0 0 0 0 0 0 0 
0 0 0 0 0 0 0 0 0 
0 0 0 0 0 0 0 0 0 
0 0 0 0 0 0 0 0 0 
0 0 0 0 0 0 0 0 0 
0 0 0 0 0 0 0 0 0 
0 0 0 0 0 0 0 0 0 
0 0 0 0 0 0 0 0 0 
0 0 0 0 0 0 0 0 0 
0 0 0 0 0 0 0 0 0 
0 0 0 0 0 0 0 0 0 
0 0 0 0 0 0 0 0 0 
0 0 0 0 0 0 0 0 0 
0 0 0 0 0 0 0 0 0 
0 0 0 0 0 0 0 0 0 
0 0 0 0 0 0 0 0 0 
0 0 0 0 0 0 0 0 0 
0 0 0 0 0 0 0 0 0 
0 0 0 0 0 0 0 0 0 
0 0 0 0 0 0 0 0 0 
0 0 0 0 0 0 0 0 0 
0 0 0 0 0 0 0 0 0 
0 0 0 0 0 0 0 0 0 
0 0 0 0 0 0 0 0 0 
0 0 0 0 0 0 0 0 0 
0 0 0 0 0 0 0 0 0 
0 0 0 0 0 0 0 0 0 
0 0 0 0 0 0 0 0 0 
0 0 0 0 0 0 0 0 0 
0 0 0 0 0 0 0 0 0 
0 0 0 0 0 0 0 0 0 
0 0 0 0 0 0 0 0 0 
0 0 0 0 0 0 0 0 0 
0 0 0 0 0 0 0 0 0 
0 0 0 0 0 0 0 0 0 
0 0 0 0 0 0 0 0 0 
0 0 0 0 0 0 0 0 0 
0 0 0 0 0 0 0 0 0 
0 0 0 0 0 0 0 0 0 
0 0 0 0 0 0 0 0 0 
0 0 0 0 0 0 0 0 0 
0 0 0 0 0 0 0 0 0 
0 0 0 0 0 0 0 0 0 
0 0 0 0 0 0 0 0 0 
0 0 0 0 0 0 0 0 0 
0 0 0 0 0 0 0 0 0 
0 0 0 0 0 0 0 0 0 
0 0 0 0 0 0 0 0 0 
0 0 0 0 0 0 0 0 0 
0 0 0 0 0 0 0 0 0 
0 0 0 0 0 0 0 0 0 
0 0 0 0 0 0 0 0 0 
0 0 0 0 0 0 0 0 0 
0 0 0 0 0 0 0 0 0 
0 0 0 0 0 0 0 0 0 
0 0 0 0 0 0 0 0 0 
0 0 0 0 0 0 0 0 0 
0 0 0 0 0 0 0 0 0 
0 0 0 0 0 0 0 0 0 
0 0 0 0 0 0 0 0 0 
0 0 0 0 0 0 0 0 0 
0 0 0 0 0 0 0 0 0 
0 0 0 0 0 0 0 0 0 
0 0 0 0 0 0 0 0 0 
0 0 0 0 0 0 0 0 0 
0 0 0 0 0 0 0 0 0 
0 0 0 0 0 0 0 0 0 
0 0 0 0 0 0 0 0 0 
0 0 0 0 0 0 0 0 0 
0 0 0 0 0 0 0 0 0 
0 0 0 0 0 0 0 0 0 
0 0 0 0 0 0 0 0 0 
0 0 0 0 0 0 0 0 0 
0 0 0 0 0 0 0 0 0 
0 0 0 0 0 0 0 0 0 
0 0 0 0 0 0 0 0 0 
0 0 0 0 0 0 0 0 0 
0 0 0 0 0 0 0 0 0 
0 0 0 0 0 0 0 0 0 
0 0 0 0 0 0 0 0 0 
0 0 0 0 0 0 0 0 0 
0 0 0 0 0 0 0 0 0 
0 0 0 0 0 0 0 0 0 
0 0 0 0 0 0 0 0 0 
0 0 0 0 0 0 0 0 0 
0 0 0 0 0 0 0 0 0 
0 0 0 0 0 0 0 0 0 
0 0 0 0 0 0 0 0 0 
0 0 0 0 0 0 0 0 0 
0 0 0 0 0 0 0 0 0 
0 0 0 0 0 0 0 0 0 
0 0 0 0 0 0 0 0 0 
0 0 0 0 0 0 0 0 0 
0 0 0 0 0 0 0 0 0 
0 0 0 0 0 0 0 0 0 
0 0 0 0 0 0 0 0 0 
0 0 0 0 0 0 0 0 0 
0 0 0 0 0 0 0 0 0 
0 0 0 0 0 0 0 0 0 
0 0 0 0 0 0 0 0 0 
0 0 0 0 0 0 0 0 0 
0 0 0 0 0 0 0 0 0 
0 0 0 0 0 0 0 0 0 
0 0 0 0 0 0 0 0 0 
0 0 0 0 0 0 0 0 0 
0 0 0 0 0 0 0 0 0 
0 0 0 0 0 0 0 0 0 
0 0 0 0 0 0 0 0 0 
0 0 0 0 0 0 0 0 0 
0 0 0 0 0 0 0 0 0 
0 0 0 0 0 0 0 0 0 
0 0 0 0 0 0 0 0 0 
0 0 0 0 0 0 0 0 0 
0 0 0 0 0 0 0 0 0 
0 0 0 0 0 0 0 0 0 
0 0 0 0 0 0 0 0 0 
0 0 0 0 0 0 0 0 0 
0 0 0 0 0 0 0 0 0 
0 0 0 0 0 0 0 0 0 
0 0 0 0 0 0 0 0 0 
0 0 0 0 0 0 0 0 0 
0 0 0 0 0 0 0 0 0 
0 0 0 0 0 0 0 0 0 
0 0 0 0 0 0 0 0 0 
0 0 0 0 0 0 0 0 0 
0 0 0 0 0 0 0 0 0 
0 0 0 0 0 0 0 0 0 
0 0 0 0 0 0 0 0 0 
0 0 0 0 0 0 0 0 0 
0 0 0 0 0 0 0 0 0 
0 0 0 0 0 0 0 0 0 
0 0 0 0 0 0 0 0 0 
0 0 0 0 0 0 0 0 0 
0 0 0 0 0 0 0 0 0 
0 0 0 0 0 0 0 0 0 
0 0 0 0 0 0 0 0 0 
0 0 0 0 0 0 0 0 0 
0 0 0 0 0 0 0 0 0 
0 0 0 0 0 0 0 0 0 
0 0 0 0 0 0 0 0 0 
0 0 0 0 0 0 0 0 0 
0 0 0 0 0 0 0 0 0 
0 0 0 0 0 0 0 0 0 
0 0 0 0 0 0 0 0 0 
0 0 0 0 0 0 0 0 0 
0 0 0 0 0 0 0 0 0 
0 0 0 0 0 0 0 0 0 
0 0 0 0 0 0 0 0 0 
0 0 0 0 0 0 0 0 0 
0 0 0 0 0 0 0 0 0 
0 0 0 0 0 0 0 0 0 
0 0 0 0 0 0 0 0 0 
0 0 0 0 0 0 0 0 0 
0 0 0 0 0 0 0 0 0 
0 0 0 0 0 0 0 0 0 
0 0 0 0 0 0 0 0 0 
0 0 0 0 0 0 0 0 0 
0 0 0 0 0 0 0 0 0 
0 0 0 0 0 0 0 0 0 
0 0 0 0 0 0 0 0 0 
0 0 0 0 0 0 0 0 0 
0 0 0 0 0 0 0 0 0 
0 0 0 0 0 0 0 0 0 
0 0 0 0 0 0 0 0 0 
0 0 0 0 0 0 0 0 0 
0 0 0 0 0 0 0 0 0 
0 0 0 0 0 0 0 0 0 
0 0 0 0 0 0 0 0 0 
0 0 0 0 0 0 0 0 0 
0 0 0 0 0 0 0 0 0 
0 0 0 0 0 0 0 0 0 
0 0 0 0 0 0 0 0 0 
0 0 0 0 0 0 0 0 0 
0 0 0 0 0 0 0 0 0 
0 0 0 0 0 0 0 0 0 
0 0 0 0 0 0 0 0 0 
0 0 0 0 0 0 0 0 0 
0 0 0 0 0 0 0 0 0 
0 0 0 0 0 0 0 0 0 
0 0 0 0 0 0 0 0 0 
0 0 0 0 0 0 0 0 0 
0 0 0 0 0 0 0 0 0 
0 0 0 0 0 0 0 0 0 
0 0 0 0 0 0 0 0 0 
0 0 0 0 0 0 0 0 0 
0 0 0 0 0 0 0 0 0 
0 0 0 0 0 0 0 0 0 
0 0 0 0 0 0 0 0 0 
0 0 0 0 0 0 0 0 0 
0 0 0 0 0 0 0 0 0 
0 0 0 0 0 0 0 0 0 
0 0 0 0 0 0 0 0 0 
0 0 0 0 0 0 0 0 0 
0 0 0 0 0 0 0 0 0 
0 0 0 0 0 0 0 0 0 
0 0 0 0 0 0 0 0 0 
0 0 0 0 0 0 0 0 0 
0 0 0 0 0 0 0 0 0 
0 0 0 0 0 0 0 0 0 
0 0 0 0 0 0 0 0 0 
0 0 0 0 0 0 0 0 0 
0 0 0 0 0 0 0 0 0 
0 0 0 0 0 0 0 0 0 
0 0 0 0 0 0 0 0 0 
0 0 0 0 0 0 0 0 0 
0 0 0 0 0 0 0 0 0 
0 0 0 0 0 0 0 0 0 
0 0 0 0 0 0 0 0 0 
0 0 0 0 0 0 0 0 0 
0 0 0 0 0 0 0 0 0 
0 0 0 0 0 0 0 0 0 
0 0 0 0 0 0 0 0 0 
0 0 0 0 0 0 0 0 0 
0 0 0 0 0 0 0 0 0 
0 0 0 0 0 0 0 0 0 
0 0 0 0 0 0 0 0 0 
0 0 0 0 0 0 0 0 0 
0 0 0 0 0 0 0 0 0 
0 0 0 0 0 0 0 0 0 
0 0 0 0 0 0 0 0 0 
0 0 0 0 0 0 0 0 0 
0 0 0 0 0 0 0 0 0 
0 0 0 0 0 0 0 0 0 
0 0 0 0 0 0 0 0 0 
0 0 0 0 0 0 0 0 0 
0 0 0 0 0 0 0 0 0 
0 0 0 0 0 0 0 0 0 
0 0 0 0 0 0 0 0 0 
0 0 0 0 0 0 0 0 0 
0 0 0 0 0 0 0 0 0 
0 0 0 0 0 0 0 0 0 
0 0 0 0 0 0 0 0 0 
0 0 0 0 0 0 0 0 0 
0 0 0 0 0 0 0 0 0 
0 0 0 0 0 0 0 0 0 
0 0 0 0 0 0 0 0 0 
0 0 0 0 0 0 0 0 0 
0 0 0 0 0 0 0 0 0 
0 0 0 0 0 0 0 0 0 
0 0 0 0 0 0 0 0 0 
0 0 0 0 0 0 0 0 0 
0 0 0 0 0 0 0 0 0 
0 0 0 0 0 0 0 0 0 
0 0 0 0 0 0 0 0 0 
0 0 0 0 0 0 0 0 0 
0 0 0 0 0 0 0 0 0 
0 0 0 0 0 0 0 0 0 
0 0 0 0 0 0 0 0 0 
0 0 0 0 0 0 0 0 0 
0 0 0 0 0 0 0 0 0 
0 0 0 0 0 0 0 0 0 
0 0 0 0 0 0 0 0 0 
0 0 0 0 0 0 0 0 0 
0 0 0 0 0 0 0 0 0 
0 0 0 0 0 0 0 0 0 
0 0 0 0 0 0 0 0 0 
0 0 0 0 0 0 0 0 0 
0 0 0 0 0 0 0 0 0 
0 0 0 0 0 0 0 0 0 
0 0 0 0 0 0 0 0 0 
0 0 0 0 0 0 0 0 0 
0 0 0 0 0 0 0 0 0 
0 0 0 0 0 0 0 0 0 
0 0 0 0 0 0 0 0 0 
0 0 0 0 0 0 0 0 0 
0 0 0 0 0 0 0 0 0 
0 0 0 0 0 0 0 0 0 
0 0 0 0 0 0 0 0 0 
0 0 0 0 0 0 0 0 0 
0 0 0 0 0 0 0 0 0 
0 0 0 0 0 0 0 0 0 
0 0 0 0 0 0 0 0 0 
0 0 0 0 0 0 0 0 0 
0 0 0 0 0 0 0 0 0 
0 0 0 0 0 0 0 0 0 
0 0 0 0 0 0 0 0 0 
0 0 0 0 0 0 0 0 0 
0 0 0 0 0 0 0 0 0 
0 0 0 0 0 0 0 0 0 
0 0 0 0 0 0 0 0 0 
0 0 0 0 0 0 0 0 0 
0 0 0 0 0 0 0 0 0 
0 0 0 0 0 0 0 0 0 
0 0 0 0 0 0 0 0 0 
0 0 0 0 0 0 0 0 0 
0 0 0 0 0 0 0 0 0 
0 0 0 0 0 0 0 0 0 
0 0 0 0 0 0 0 0 0 
0 0 0 0 0 0 0 0 0 
0 0 0 0 0 0 0 0 0 
0 0 0 0 0 0 0 0 0 
0 0 0 0 0 0 0 0 0 
0 0 0 0 0 0 0 0 0 
0 0 0 0 0 0 0 0 0 
0 0 0 0 0 0 0 0 0 
0 0 0 0 0 0 0 0 0 
0 0 0 0 0 0 0 0 0 
0 0 0 0 0 0 0 0 0 
0 0 0 0 0 0 0 0 0 
0 0 0 0 0 0 0 0 0 
0 0 0 0 0 0 0 0 0 
0 0 0 0 0 0 0 0 0 
0 0 0 0 0 0 0 0 0 
0 0 0 0 0 0 0 0 0 
0 0 0 0 0 0 0 0 0 
0 0 0 0 0 0 0 0 0 
0 0 0 0 0 0 0 0 0 
0 0 0 0 0 0 0 0 0 
0 0 0 0 0 0 0 0 0 
0 0 0 0 0 0 0 0 0 
0 0 0 0 0 0 0 0 0 
0 0 0 0 0 0 0 0 0 
0 0 0 0 0 0 0 0 0 
0 0 0 0 0 0 0 0 0 
0 0 0 0 0 0 0 0 0 
0 0 0 0 0 0 0 0 0 
0 0 0 0 0 0 0 0 0 
0 0 0 0 0 0 0 0 0 
0 0 0 0 0 0 0 0 0 
0 0 0 0 0 0 0 0 0 
0 0 0 0 0 0 0 0 0 
0 0 0 0 0 0 0 0 0 
0 0 0 0 0 0 0 0 0 
0 0 0 0 0 0 0 0 0 
0 0 0 0 0 0 0 0 0 
0 0 0 0 0 0 0 0 0 
0 0 0 0 0 0 0 0 0 
0 0 0 0 0 0 0 0 0 
0 0 0 0 0 0 0 0 0 
0 0 0 0 0 0 0 0 0 
0 0 0 0 0 0 0 0 0 
0 0 0 0 0 0 0 0 0 
0 0 0 0 0 0 0 0 0 
0 0 0 0 0 0 0 0 0 
0 0 0 0 0 0 0 0 0 
0 0 0 0 0 0 0 0 0 
0 0 0 0 0 0 0 0 0 
0 0 0 0 0 0 0 0 0 
0 0 0 0 0 0 0 0 0 
0 0 0 0 0 0 0 0 0 
0 0 0 0 0 0 0 0 0 
0 0 0 0 0 0 0 0 0 
0 0 0 0 0 0 0 0 0 
0 0 0 0 0 0 0 0 0 
0 0 0 0 0 0 0 0 0 
0 0 0 0 0 0 0 0 0 
0 0 0 0 0 0 0 0 0 
0 0 0 0 0 0 0 0 0 
0 0 0 0 0 0 0 0 0 
0 0 0 0 0 0 0 0 0 
0 0 0 0 0 0 0 0 0 
0 0 0 0 0 0 0 0 0 
0 0 0 0 0 0 0 0 0 
0 0 0 0 0 0 0 0 0 
0 0 0 0 0 0 0 0 0 
0 0 0 0 0 0 0 0 0 
0 0 0 0 0 0 0 0 0 
0 0 0 0 0 0 0 0 0 
0 0 0 0 0 0 0 0 0 
0 0 0 0 0 0 0 0 0 
0 0 0 0 0 0 0 0 0 
0 0 0 0 0 0 0 0 0 
0 0 0 0 0 0 0 0 0 
0 0 0 0 0 0 0 0 0 
0 0 0 0 0 0 0 0 0 
0 0 0 0 0 0 0 0 0 
0 0 0 0 0 0 0 0 0 
0 0 0 0 0 0 0 0 0 
0 0 0 0 0 0 0 0 0 
0 0 0 0 0 0 0 0 0 
0 0 0 0 0 0 0 0 0 
0 0 0 0 0 0 0 0 0 
0 0 0 0 0 0 0 0 0 
0 0 0 0 0 0 0 0 0 
0 0 0 0 0 0 0 0 0 
0 0 0 0 0 0 0 0 0 
0 0 0 0 0 0 0 0 0 
0 0 0 0 0 0 0 0 0 
0 0 0 0 0 0 0 0 0 
0 0 0 0 0 0 0 0 0 
0 0 0 0 0 0 0 0 0 
0 0 0 0 0 0 0 0 0 
0 0 0 0 0 0 0 0 0 
0 0 0 0 0 0 0 0 0 
0 0 0 0 0 0 0 0 0 
0 0 0 0 0 0 0 0 0 
0 0 0 0 0 0 0 0 0 
0 0 0 0 0 0 0 0 0 
0 0 0 0 0 0 0 0 0 
0 0 0 0 0 0 0 0 0 
0 0 0 0 0 0 0 0 0 
0 0 0 0 0 0 0 0 0 
0 0 0 0 0 0 0 0 0 
0 0 0 0 0 0 0 0 0 
0 0 0 0 0 0 0 0 0 
0 0 0 0 0 0 0 0 0 
0 0 0 0 0 0 0 0 0 
0 0 0 0 0 0 0 0 0 
0 0 0 0 0 0 0 0 0 
0 0 0 0 0 0 0 0 0 
0 0 0 0 0 0 0 0 0 
0 0 0 0 0 0 0 0 0 
0 0 0 0 0 0 0 0 0 
0 0 0 0 0 0 0 0 0 
0 0 0 0 0 0 0 0 0 
0 0 0 0 0 0 0 0 0 
0 0 0 0 0 0 0 0 0 
0 0 0 0 0 0 0 0 0 
0 0 0 0 0 0 0 0 0 
0 0 0 0 0 0 0 0 0 
0 0 0 0 0 0 0 0 0 
0 0 0 0 0 0 0 0 0 
0 0 0 0 0 0 0 0 0 
0 0 0 0 0 0 0 0 0 
0 0 0 0 0 0 0 0 0 
0 0 0 0 0 0 0 0 0 
0 0 0 0 0 0 0 0 0 
0 0 0 0 0 0 0 0 0 
0 0 0 0 0 0 0 0 0 
0 0 0 0 0 0 0 0 0 
0 0 0 0 0 0 0 0 0 
0 0 0 0 0 0 0 0 0 
0 0 0 0 0 0 0 0 0 
0 0 0 0 0 0 0 0 0 
0 0 0 0 0 0 0 0 0 
0 0 0 0 0 0 0 0 0 
0 0 0 0 0 0 0 0 0 
0 0 0 0 0 0 0 0 0 
0 0 0 0 0 0 0 0 0 
0 0 0 0 0 0 0 0 0 
0 0 0 0 0 0 0 0 0 
0 0 0 0 0 0 0 0 0 
0 0 0 0 0 0 0 0 0 
0 0 0 0 0 0 0 0 0 
0 0 0 0 0 0 0 0 0 
0 0 0 0 0 0 0 0 0 
0 0 0 0 0 0 0 0 0 
0 0 0 0 0 0 0 0 0 
0 0 0 0 0 0 0 0 0 
0 0 0 0 0 0 0 0 0 
0 0 0 0 0 0 0 0 0 
0 0 0 0 0 0 0 0 0 
0 0 0 0 0 0 0 0 0 
0 0 0 0 0 0 0 0 0 
0 0 0 0 0 0 0 0 0 
0 0 0 0 0 0 0 0 0 
0 0 0 0 0 0 0 0 0 
0 0 0 0 0 0 0 0 0 
0 0 0 0 0 0 0 0 0 
0 0 0 0 0 0 0 0 0 
0 0 0 0 0 0 0 0 0 
0 0 0 0 0 0 0 0 0 
0 0 0 0 0 0 0 0 0 
0 0 0 0 0 0 0 0 0 
0 0 0 0 0 0 0 0 0 
0 0 0 0 0 0 0 0 0 
0 0 0 0 0 0 0 0 0 
0 0 0 0 0 0 0 0 0 
0 0 0 0 0 0 0 0 0 
0 0 0 0 0 0 0 0 0 
0 0 0 0 0 0 0 0 0 
0 0 0 0 0 0 0 0 0 
0 0 0 0 0 0 0 0 0 
0 0 0 0 0 0 0 0 0 
0 0 0 0 0 0 0 0 0 
0 0 0 0 0 0 0 0 0 
0 0 0 0 0 0 0 0 0 
0 0 0 0 0 0 0 0 0 
0 0 0 0 0 0 0 0 0 
0 0 0 0 0 0 0 0 0 
0 0 0 0 0 0 0 0 0 
0 0 0 0 0 0 0 0 0 
0 0 0 0 0 0 0 0 0 
0 0 0 0 0 0 0 0 0 
0 0 0 0 0 0 0 0 0 
0 0 0 0 0 0 0 0 0 
0 0 0 0 0 0 0 0 0 
0 0 0 0 0 0 0 0 0 
0 0 0 0 0 0 0 0 0 
0 0 0 0 0 0 0 0 0 
0 0 0 0 0 0 0 0 0 
0 0 0 0 0 0 0 0 0 
0 0 0 0 0 0 0 0 0 
0 0 0 0 0 0 0 0 0 
0 0 0 0 0 0 0 0 0 
0 0 0 0 0 0 0 0 0 
0 0 0 0 0 0 0 0 0 
0 0 0 0 0 0 0 0 0 
0 0 0 0 0 0 0 0 0 
0 0 0 0 0 0 0 0 0 
0 0 0 0 0 0 0 0 0 
0 0 0 0 0 0 0 0 0 
0 0 0 0 0 0 0 0 0 
0 0 0 0 0 0 0 0 0 
0 0 0 0 0 0 0 0 0 
0 0 0 0 0 0 0 0 0 
0 0 0 0 0 0 0 0 0 
0 0 0 0 0 0 0 0 0 
0 0 0 0 0 0 0 0 0 
0 0 0 0 0 0 0 0 0 
0 0 0 0 0 0 0 0 0 
0 0 0 0 0 0 0 0 0 
0 0 0 0 0 0 0 0 0 
0 0 0 0 0 0 0 0 0 
0 0 0 0 0 0 0 0 0 
0 0 0 0 0 0 0 0 0 
0 0 0 0 0 0 0 0 0 
0 0 0 0 0 0 0 0 0 
0 0 0 0 0 0 0 0 0 
0 0 0 0 0 0 0 0 0 
0 0 0 0 0 0 0 0 0 
0 0 0 0 0 0 0 0 0 
0 0 0 0 0 0 0 0 0 
0 0 0 0 0 0 0 0 0 
0 0 0 0 0 0 0 0 0 
0 0 0 0 0 0 0 0 0 
0 0 0 0 0 0 0 0 0 
0 0 0 0 0 0 0 0 0 
0 0 0 0 0 0 0 0 0 
0 0 0 0 0 0 0 0 0 
0 0 0 0 0 0 0 0 0 
0 0 0 0 0 0 0 0 0 
0 0 0 0 0 0 0 0 0 
0 0 0 0 0 0 0 0 0 
0 0 0 0 0 0 0 0 0 
0 0 0 0 0 0 0 0 0 
0 0 0 0 0 0 0 0 0 
0 0 0 0 0 0 0 0 0 
0 0 0 0 0 0 0 0 0 
0 0 0 0 0 0 0 0 0 
0 0 0 0 0 0 0 0 0 
0 0 0 0 0 0 0 0 0 
0 0 0 0 0 0 0 0 0 
0 0 0 0 0 0 0 0 0 
0 0 0 0 0 0 0 0 0 
0 0 0 0 0 0 0 0 0 
0 0 0 0 0 0 0 0 0 
0 0 0 0 0 0 0 0 0 
0 0 0 0 0 0 0 0 0 
0 0 0 0 0 0 0 0 0 
0 0 0 0 0 0 0 0 0 
0 0 0 0 0 0 0 0 0 
0 0 0 0 0 0 0 0 0 
0 0 0 0 0 0 0 0 0 
0 0 0 0 0 0 0 0 0 
0 0 0 0 0 0 0 0 0 
0 0 0 0 0 0 0 0 0 
0 0 0 0 0 0 0 0 0 
0 0 0 0 0 0 0 0 0 
0 0 0 0 0 0 0 0 0 
0 0 0 0 0 0 0 0 0 
0 0 0 0 0 0 0 0 0 
0 0 0 0 0 0 0 0 0 
0 0 0 0 0 0 0 0 0 
0 0 0 0 0 0 0 0 0 
0 0 0 0 0 0 0 0 0 
0 0 0 0 0 0 0 0 0 
0 0 0 0 0 0 0 0 0 
0 0 0 0 0 0 0 0 0 
0 0 0 0 0 0 0 0 0 
0 0 0 0 0 0 0 0 0 
0 0 0 0 0 0 0 0 0 
0 0 0 0 0 0 0 0 0 
0 0 0 0 0 0 0 0 0 
0 0 0 0 0 0 0 0 0 
0 0 0 0 0 0 0 0 0 
0 0 0 0 0 0 0 0 0 
0 0 0 0 0 0 0 0 0 
0 0 0 0 0 0 0 0 0 
0 0 0 0 0 0 0 0 0 
0 0 0 0 0 0 0 0 0 
0 0 0 0 0 0 0 0 0 
0 0 0 0 0 0 0 0 0 
0 0 0 0 0 0 0 0 0 
0 0 0 0 0 0 0 0 0 
0 0 0 0 0 0 0 0 0 
0 0 0 0 0 0 0 0 0 
0 0 0 0 0 0 0 0 0 
0 0 0 0 0 0 0 0 0 
0 0 0 0 0 0 0 0 0 
0 0 0 0 0 0 0 0 0 
0 0 0 0 0 0 0 0 0 
0 0 0 0 0 0 0 0 0 
0 0 0 0 0 0 0 0 0 
0 0 0 0 0 0 0 0 0 
0 0 0 0 0 0 0 0 0 
0 0 0 0 0 0 0 0 0 
0 0 0 0 0 0 0 0 0 
0 0 0 0 0 0 0 0 0 
0 0 0 0 0 0 0 0 0 
0 0 0 0 0 0 0 0 0 
0 0 0 0 0 0 0 0 0 
0 0 0 0 0 0 0 0 0 
0 0 0 0 0 0 0 0 0 
0 0 0 0 0 0 0 0 0 
0 0 0 0 0 0 0 0 0 
0 0 0 0 0 0 0 0 0 
0 0 0 0 0 0 0 0 0 
0 0 0 0 0 0 0 0 0 
0 0 0 0 0 0 0 0 0 
0 0 0 0 0 0 0 0 0 
0 0 0 0 0 0 0 0 0 
0 0 0 0 0 0 0 0 0 
0 0 0 0 0 0 0 0 0 
0 0 0 0 0 0 0 0 0 
0 0 0 0 0 0 0 0 0 
0 0 0 0 0 0 0 0 0 
0 0 0 0 0 0 0 0 0 
0 0 0 0 0 0 0 0 0 
0 0 0 0 0 0 0 0 0 
0 0 0 0 0 0 0 0 0 
0 0 0 0 0 0 0 0 0 
0 0 0 0 0 0 0 0 0 
0 0 0 0 0 0 0 0 0 
0 0 0 0 0 0 0 0 0 
0 0 0 0 0 0 0 0 0 
0 0 0 0 0 0 0 0 0 
0 0 0 0 0 0 0 0 0 
0 0 0 0 0 0 0 0 0 
0 0 0 0 0 0 0 0 0 
0 0 0 0 0 0 0 0 0 
0 0 0 0 0 0 0 0 0 
0 0 0 0 0 0 0 0 0 
0 0 0 0 0 0 0 0 0 
0 0 0 0 0 0 0 0 0 
0 0 0 0 0 0 0 0 0 
0 0 0 0 0 0 0 0 0 
0 0 0 0 0 0 0 0 0 
0 0 0 0 0 0 0 0 0 
0 0 0 0 0 0 0 0 0 
0 0 0 0 0 0 0 0 0 
0 0 0 0 0 0 0 0 0 
0 0 0 0 0 0 0 0 0 
0 0 0 0 0 0 0 0 0 
0 0 0 0 0 0 0 0 0 
0 0 0 0 0 0 0 0 0 
0 0 0 0 0 0 0 0 0 
0 0 0 0 0 0 0 0 0 
0 0 0 0 0 0 0 0 0 
0 0 0 0 0 0 0 0 0 
0 0 0 0 0 0 0 0 0 
0 0 0 0 0 0 0 0 0 
0 0 0 0 0 0 0 0 0 
0 0 0 0 0 0 0 0 0 
0 0 0 0 0 0 0 0 0 
0 0 0 0 0 0 0 0 0 
0 0 0 0 0 0 0 0 0 
0 0 0 0 0 0 0 0 0 
0 0 0 0 0 0 0 0 0 
0 0 0 0 0 0 0 0 0 
0 0 0 0 0 0 0 0 0 
0 0 0 0 0 0 0 0 0 
0 0 0 0 0 0 0 0 0 
0 0 0 0 0 0 0 0 0 
0 0 0 0 0 0 0 0 0 
0 0 0 0 0 0 0 0 0 
0 0 0 0 0 0 0 0 0 
0 0 0 0 0 0 0 0 0 
0 0 0 0 0 0 0 0 0 
0 0 0 0 0 0 0 0 0 
0 0 0 0 0 0 0 0 0 
0 0 0 0 0 0 0 0 0 
0 0 0 0 0 0 0 0 0 
0 0 0 0 0 0 0 0 0 
0 0 0 0 0 0 0 0 0 
0 0 0 0 0 0 0 0 0 
0 0 0 0 0 0 0 0 0 
0 0 0 0 0 0 0 0 0 
0 0 0 0 0 0 0 0 0 
0 0 0 0 0 0 0 0 0 
0 0 0 0 0 0 0 0 0 
0 0 0 0 0 0 0 0 0 
0 0 0 0 0 0 0 0 0 
0 0 0 0 0 0 0 0 0 
0 0 0 0 0 0 0 0 0 
0 0 0 0 0 0 0 0 0 
0 0 0 0 0 0 0 0 0 
0 0 0 0 0 0 0 0 0 
0 0 0 0 0 0 0 0 0 
0 0 0 0 0 0 0 0 0 
0 0 0 0 0 0 0 0 0 
0 0 0 0 0 0 0 0 0 
0 0 0 0 0 0 0 0 0 
0 0 0 0 0 0 0 0 0 
0 0 0 0 0 0 0 0 0 
0 0 0 0 0 0 0 0 0 
0 0 0 0 0 0 0 0 0 
0 0 0 0 0 0 0 0 0 
0 0 0 0 0 0 0 0 0 
0 0 0 0 0 0 0 0 0 
0 0 0 0 0 0 0 0 0 
0 0 0 0 0 0 0 0 0 
0 0 0 0 0 0 0 0 0 
0 0 0 0 0 0 0 0 0 
0 0 0 0 0 0 0 0 0 
0 0 0 0 0 0 0 0 0 
0 0 0 0 0 0 0 0 0 
0 0 0 0 0 0 0 0 0 
0 0 0 0 0 0 0 0 0 
0 0 0 0 0 0 0 0 0 
0 0 0 0 0 0 0 0 0 
0 0 0 0 0 0 0 0 0 
0 0 0 0 0 0 0 0 0 
0 0 0 0 0 0 0 0 0 
0 0 0 0 0 0 0 0 0 
0 0 0 0 0 0 0 0 0 
0 0 0 0 0 0 0 0 0 
0 0 0 0 0 0 0 0 0 
0 0 0 0 0 0 0 0 0 
0 0 0 0 0 0 0 0 0 
0 0 0 0 0 0 0 0 0 
0 0 0 0 0 0 0 0 0 
0 0 0 0 0 0 0 0 0 
0 0 0 0 0 0 0 0 0 
0 0 0 0 0 0 0 0 0 
0 0 0 0 0 0 0 0 0 
0 0 0 0 0 0 0 0 0 
0 0 0 0 0 0 0 0 0 
0 0 0 0 0 0 0 0 0 
0 0 0 0 0 0 0 0 0 
0 0 0 0 0 0 0 0 0 
0 0 0 0 0 0 0 0 0 
0 0 0 0 0 0 0 0 0 
0 0 0 0 0 0 0 0 0 
0 0 0 0 0 0 0 0 0 
0 0 0 0 0 0 0 0 0 
0 0 0 0 0 0 0 0 0 
0 0 0 0 0 0 0 0 0 
0 0 0 0 0 0 0 0 0 
0 0 0 0 0 0 0 0 0 
0 0 0 0 0 0 0 0 0 
0 0 0 0 0 0 0 0 0 
0 0 0 0 0 0 0 0 0 
0 0 0 0 0 0 0 0 0 
0 0 0 0 0 0 0 0 0 
0 0 0 0 0 0 0 0 0 
0 0 0 0 0 0 0 0 0 
0 0 0 0 0 0 0 0 0 
0 0 0 0 0 0 0 0 0 
0 0 0 0 0 0 0 0 0 
0 0 0 0 0 0 0 0 0 
0 0 0 0 0 0 0 0 0 
0 0 0 0 0 0 0 0 0 
0 0 0 0 0 0 0 0 0 
0 0 0 0 0 0 0 0 0 
0 0 0 0 0 0 0 0 0 
0 0 0 0 0 0 0 0 0 
0 0 0 0 0 0 0 0 0 
0 0 0 0 0 0 0 0 0 
0 0 0 0 0 0 0 0 0 
0 0 0 0 0 0 0 0 0 
0 0 0 0 0 0 0 0 0 
0 0 0 0 0 0 0 0 0 
0 0 0 0 0 0 0 0 0 
0 0 0 0 0 0 0 0 0 
0 0 0 0 0 0 0 0 0 
0 0 0 0 0 0 0 0 0 
0 0 0 0 0 0 0 0 0 
0 0 0 0 0 0 0 0 0 
0 0 0 0 0 0 0 0 0 
0 0 0 0 0 0 0 0 0 
0 0 0 0 0 0 0 0 0 
0 0 0 0 0 0 0 0 0 
0 0 0 0 0 0 0 0 0 
0 0 0 0 0 0 0 0 0 
0 0 0 0 0 0 0 0 0 
0 0 0 0 0 0 0 0 0 
0 0 0 0 0 0 0 0 0 
0 0 0 0 0 0 0 0 0 
0 0 0 0 0 0 0 0 0 
0 0 0 0 0 0 0 0 0 
0 0 0 0 0 0 0 0 0 
0 0 0 0 0 0 0 0 0 
0 0 0 0 0 0 0 0 0 
0 0 0 0 0 0 0 0 0 
0 0 0 0 0 0 0 0 0 
0 0 0 0 0 0 0 0 0 
0 0 0 0 0 0 0 0 0 
0 0 0 0 0 0 0 0 0 
0 0 0 0 0 0 0 0 0 
0 0 0 0 0 0 0 0 0 
0 0 0 0 0 0 0 0 0 
0 0 0 0 0 0 0 0 0 
0 0 0 0 0 0 0 0 0 
0 0 0 0 0 0 0 0 0 
0 0 0 0 0 0 0 0 0 
0 0 0 0 0 0 0 0 0 
0 0 0 0 0 0 0 0 0 
0 0 0 0 0 0 0 0 0 
0 0 0 0 0 0 0 0 0 
0 0 0 0 0 0 0 0 0 
0 0 0 0 0 0 0 0 0 
0 0 0 0 0 0 0 0 0 
0 0 0 0 0 0 0 0 0 
0 0 0 0 0 0 0 0 0 
0 0 0 0 0 0 0 0 0 
0 0 0 0 0 0 0 0 0 
0 0 0 0 0 0 0 0 0 
0 0 0 0 0 0 0 0 0 
0 0 0 0 0 0 0 0 0 
0 0 0 0 0 0 0 0 0 
0 0 0 0 0 0 0 0 0 
0 0 0 0 0 0 0 0 0 
0 0 0 0 0 0 0 0 0 
0 0 0 0 0 0 0 0 0 
0 0 0 0 0 0 0 0 0 
0 0 0 0 0 0 0 0 0 
0 0 0 0 0 0 0 0 0 
0 0 0 0 0 0 0 0 0 
0 0 0 0 0 0 0 0 0 
0 0 0 0 0 0 0 0 0 
0 0 0 0 0 0 0 0 0 
0 0 0 0 0 0 0 0 0 
0 0 0 0 0 0 0 0 0 
0 0 0 0 0 0 0 0 0 
0 0 0 0 0 0 0 0 0 
0 0 0 0 0 0 0 0 0 
0 0 0 0 0 0 0 0 0 
0 0 0 0 0 0 0 0 0 
0 0 0 0 0 0 0 0 0 
0 0 0 0 0 0 0 0 0 
0 0 0 0 0 0 0 0 0 
0 0 0 0 0 0 0 0 0 
0 0 0 0 0 0 0 0 0 
0 0 0 0 0 0 0 0 0 
0 0 0 0 0 0 0 0 0 
0 0 0 0 0 0 0 0 0 
0 0 0 0 0 0 0 0 0 
0 0 0 0 0 0 0 0 0 
0 0 0 0 0 0 0 0 0 
0 0 0 0 0 0 0 0 0 
0 0 0 0 0 0 0 0 0 
0 0 0 0 0 0 0 0 0 
0 0 0 0 0 0 0 0 0 
0 0 0 0 0 0 0 0 0 
0 0 0 0 0 0 0 0 0 
0 0 0 0 0 0 0 0 0 
0 0 0 0 0 0 0 0 0 
0 0 0 0 0 0 0 0 0 
0 0 0 0 0 0 0 0 0 
0 0 0 0 0 0 0 0 0 
0 0 0 0 0 0 0 0 0 
0 0 0 0 0 0 0 0 0 
0 0 0 0 0 0 0 0 0 
0 0 0 0 0 0 0 0 0 
0 0 0 0 0 0 0 0 0 
0 0 0 0 0 0 0 0 0 
0 0 0 0 0 0 0 0 0 
0 0 0 0 0 0 0 0 0 
0 0 0 0 0 0 0 0 0 
0 0 0 0 0 0 0 0 0 
0 0 0 0 0 0 0 0 0 
0 0 0 0 0 0 0 0 0 
0 0 0 0 0 0 0 0 0 
0 0 0 0 0 0 0 0 0 
0 0 0 0 0 0 0 0 0 
0 0 0 0 0 0 0 0 0 
0 0 0 0 0 0 0 0 0 
0 0 0 0 0 0 0 0 0 
0 0 0 0 0 0 0 0 0 
0 0 0 0 0 0 0 0 0 
0 0 0 0 0 0 0 0 0 
0 0 0 0 0 0 0 0 0 
0 0 0 0 0 0 0 0 0 
0 0 0 0 0 0 0 0 0 
0 0 0 0 0 0 0 0 0 
0 0 0 0 0 0 0 0 0 
0 0 0 0 0 0 0 0 0 
0 0 0 0 0 0 0 0 0 
0 0 0 0 0 0 0 0 0 
0 0 0 0 0 0 0 0 0 
0 0 0 0 0 0 0 0 0 
0 0 0 0 0 0 0 0 0 
0 0 0 0 0 0 0 0 0 
0 0 0 0 0 0 0 0 0 
0 0 0 0 0 0 0 0 0 
0 0 0 0 0 0 0 0 0 
0 0 0 0 0 0 0 0 0 
0 0 0 0 0 0 0 0 0 
0 0 0 0 0 0 0 0 0 
0 0 0 0 0 0 0 0 0 
0 0 0 0 0 0 0 0 0 
0 0 0 0 0 0 0 0 0 
0 0 0 0 0 0 0 0 0 
0 0 0 0 0 0 0 0 0 
0 0 0 0 0 0 0 0 0 
0 0 0 0 0 0 0 0 0 
0 0 0 0 0 0 0 0 0 
0 0 0 0 0 0 0 0 0 
0 0 0 0 0 0 0 0 0 
0 0 0 0 0 0 0 0 0 
0 0 0 0 0 0 0 0 0 
0 0 0 0 0 0 0 0 0 
0 0 0 0 0 0 0 0 0 
0 0 0 0 0 0 0 0 0 
0 0 0 0 0 0 0 0 0 
0 0 0 0 0 0 0 0 0 
0 0 0 0 0 0 0 0 0 
0 0 0 0 0 0 0 0 0 
0 0 0 0 0 0 0 0 0 
0 0 0 0 0 0 0 0 0 
0 0 0 0 0 0 0 0 0 
0 0 0 0 0 0 0 0 0 
0 0 0 0 0 0 0 0 0 
0 0 0 0 0 0 0 0 0 
0 0 0 0 0 0 0 0 0 
0 0 0 0 0 0 0 0 0 
0 0 0 0 0 0 0 0 0 
0 0 0 0 0 0 0 0 0 
0 0 0 0 0 0 0 0 0 
0 0 0 0 0 0 0 0 0 
0 0 0 0 0 0 0 0 0 
0 0 0 0 0 0 0 0 0 
0 0 0 0 0 0 0 0 0 
0 0 0 0 0 0 0 0 0 
0 0 0 0 0 0 0 0 0 
0 0 0 0 0 0 0 0 0 
0 0 0 0 0 0 0 0 0 
0 0 0 0 0 0 0 0 0 
0 0 0 0 0 0 0 0 0 
0 0 0 0 0 0 0 0 0 
0 0 0 0 0 0 0 0 0 
0 0 0 0 0 0 0 0 0 
0 0 0 0 0 0 0 0 0 
0 0 0 0 0 0 0 0 0 
0 0 0 0 0 0 0 0 0 
0 0 0 0 0 0 0 0 0 
0 0 0 0 0 0 0 0 0 
0 0 0 0 0 0 0 0 0 
0 0 0 0 0 0 0 0 0 
0 0 0 0 0 0 0 0 0 
0 0 0 0 0 0 0 0 0 
0 0 0 0 0 0 0 0 0 
0 0 0 0 0 0 0 0 0 
0 0 0 0 0 0 0 0 0 
0 0 0 0 0 0 0 0 0 
0 0 0 0 0 0 0 0 0 
0 0 0 0 0 0 0 0 0 
0 0 0 0 0 0 0 0 0 
0 0 0 0 0 0 0 0 0 
0 0 0 0 0 0 0 0 0 
0 0 0 0 0 0 0 0 0 
0 0 0 0 0 0 0 0 0 
0 0 0 0 0 0 0 0 0 
0 0 0 0 0 0 0 0 0 
0 0 0 0 0 0 0 0 0 
0 0 0 0 0 0 0 0 0 
0 0 0 0 0 0 0 0 0 
0 0 0 0 0 0 0 0 0 
0 0 0 0 0 0 0 0 0 
0 0 0 0 0 0 0 0 0 
0 0 0 0 0 0 0 0 0 
0 0 0 0 0 0 0 0 0 
0 0 0 0 0 0 0 0 0 
0 0 0 0 0 0 0 0 0 
0 0 0 0 0 0 0 0 0 
0 0 0 0 0 0 0 0 0 
0 0 0 0 0 0 0 0 0 
0 0 0 0 0 0 0 0 0 
0 0 0 0 0 0 0 0 0 
0 0 0 0 0 0 0 0 0 
0 0 0 0 0 0 0 0 0 
0 0 0 0 0 0 0 0 0 
0 0 0 0 0 0 0 0 0 
0 0 0 0 0 0 0 0 0 
0 0 0 0 0 0 0 0 0 
0 0 0 0 0 0 0 0 0 
0 0 0 0 0 0 0 0 0 
0 0 0 0 0 0 0 0 0 
0 0 0 0 0 0 0 0 0 
0 0 0 0 0 0 0 0 0 
0 0 0 0 0 0 0 0 0 
0 0 0 0 0 0 0 0 0 
0 0 0 0 0 0 0 0 0 
0 0 0 0 0 0 0 0 0 
0 0 0 0 0 0 0 0 0 
0 0 0 0 0 0 0 0 0 
0 0 0 0 0 0 0 0 0 
0 0 0 0 0 0 0 0 0 
0 0 0 0 0 0 0 0 0 
0 0 0 0 0 0 0 0 0 
0 0 0 0 0 0 0 0 0 
0 0 0 0 0 0 0 0 0 
0 0 0 0 0 0 0 0 0 
0 0 0 0 0 0 0 0 0 
0 0 0 0 0 0 0 0 0 
0 0 0 0 0 0 0 0 0 
0 0 0 0 0 0 0 0 0 
0 0 0 0 0 0 0 0 0 
0 0 0 0 0 0 0 0 0 
0 0 0 0 0 0 0 0 0 
0 0 0 0 0 0 0 0 0 
0 0 0 0 0 0 0 0 0 
0 0 0 0 0 0 0 0 0 
0 0 0 0 0 0 0 0 0 
0 0 0 0 0 0 0 0 0 
0 0 0 0 0 0 0 0 0 
0 0 0 0 0 0 0 0 0 
0 0 0 0 0 0 0 0 0 
0 0 0 0 0 0 0 0 0 
0 0 0 0 0 0 0 0 0 
0 0 0 0 0 0 0 0 0 
0 0 0 0 0 0 0 0 0 
0 0 0 0 0 0 0 0 0 
0 0 0 0 0 0 0 0 0 
0 0 0 0 0 0 0 0 0 
0 0 0 0 0 0 0 0 0 
0 0 0 0 0 0 0 0 0 
0 0 0 0 0 0 0 0 0 
0 0 0 0 0 0 0 0 0 
0 0 0 0 0 0 0 0 0 
0 0 0 0 0 0 0 0 0 
0 0 0 0 0 0 0 0 0 
0 0 0 0 0 0 0 0 0 
0 0 0 0 0 0 0 0 0 
0 0 0 0 0 0 0 0 0 
0 0 0 0 0 0 0 0 0 
0 0 0 0 0 0 0 0 0 
0 0 0 0 0 0 0 0 0 
0 0 0 0 0 0 0 0 0 
0 0 0 0 0 0 0 0 0 
0 0 0 0 0 0 0 0 0 
0 0 0 0 0 0 0 0 0 
0 0 0 0 0 0 0 0 0 
0 0 0 0 0 0 0 0 0 
0 0 0 0 0 0 0 0 0 
0 0 0 0 0 0 0 0 0 
0 0 0 0 0 0 0 0 0 
0 0 0 0 0 0 0 0 0 
0 0 0 0 0 0 0 0 0 
0 0 0 0 0 0 0 0 0 
0 0 0 0 0 0 0 0 0 
0 0 0 0 0 0 0 0 0 
0 0 0 0 0 0 0 0 0 
0 0 0 0 0 0 0 0 0 
0 0 0 0 0 0 0 0 0 
0 0 0 0 0 0 0 0 0 
0 0 0 0 0 0 0 0 0 
0 0 0 0 0 0 0 0 0 
0 0 0 0 0 0 0 0 0 
0 0 0 0 0 0 0 0 0 
0 0 0 0 0 0 0 0 0 
0 0 0 0 0 0 0 0 0 
0 0 0 0 0 0 0 0 0 
0 0 0 0 0 0 0 0 0 
0 0 0 0 0 0 0 0 0 
0 0 0 0 0 0 0 0 0 
0 0 0 0 0 0 0 0 0 
0 0 0 0 0 0 0 0 0 
0 0 0 0 0 0 0 0 0 
0 0 0 0 0 0 0 0 0 
0 0 0 0 0 0 0 0 0 
0 0 0 0 0 0 0 0 0 
0 0 0 0 0 0 0 0 0 
0 0 0 0 0 0 0 0 0 
0 0 0 0 0 0 0 0 0 
0 0 0 0 0 0 0 0 0 
0 0 0 0 0 0 0 0 0 
0 0 0 0 0 0 0 0 0 
0 0 0 0 0 0 0 0 0 
0 0 0 0 0 0 0 0 0 
0 0 0 0 0 0 0 0 0 
0 0 0 0 0 0 0 0 0 
0 0 0 0 0 0 0 0 0 
0 0 0 0 0 0 0 0 0 
0 0 0 0 0 0 0 0 0 
0 0 0 0 0 0 0 0 0 
0 0 0 0 0 0 0 0 0 
0 0 0 0 0 0 0 0 0 
0 0 0 0 0 0 0 0 0 
0 0 0 0 0 0 0 0 0 
0 0 0 0 0 0 0 0 0 
0 0 0 0 0 0 0 0 0 
0 0 0 0 0 0 0 0 0 
0 0 0 0 0 0 0 0 0 
0 0 0 0 0 0 0 0 0 
0 0 0 0 0 0 0 0 0 
0 0 0 0 0 0 0 0 0 
0 0 0 0 0 0 0 0 0 
0 0 0 0 0 0 0 0 0 
0 0 0 0 0 0 0 0 0 
0 0 0 0 0 0 0 0 0 
0 0 0 0 0 0 0 0 0 
0 0 0 0 0 0 0 0 0 
0 0 0 0 0 0 0 0 0 
0 0 0 0 0 0 0 0 0 
0 0 0 0 0 0 0 0 0 
0 0 0 0 0 0 0 0 0 
0 0 0 0 0 0 0 0 0 
0 0 0 0 0 0 0 0 0 
0 0 0 0 0 0 0 0 0 
0 0 0 0 0 0 0 0 0 
0 0 0 0 0 0 0 0 0 
0 0 0 0 0 0 0 0 0 
0 0 0 0 0 0 0 0 0 
0 0 0 0 0 0 0 0 0 
0 0 0 0 0 0 0 0 0 
0 0 0 0 0 0 0 0 0 
0 0 0 0 0 0 0 0 0 
0 0 0 0 0 0 0 0 0 
0 0 0 0 0 0 0 0 0 
0 0 0 0 0 0 0 0 0 
0 0 0 0 0 0 0 0 0 
0 0 0 0 0 0 0 0 0 
0 0 0 0 0 0 0 0 0 
0 0 0 0 0 0 0 0 0 
0 0 0 0 0 0 0 0 0 
0 0 0 0 0 0 0 0 0 
0 0 0 0 0 0 0 0 0 
0 0 0 0 0 0 0 0 0 
0 0 0 0 0 0 0 0 0 
0 0 0 0 0 0 0 0 0 
0 0 0 0 0 0 0 0 0 
0 0 0 0 0 0 0 0 0 
0 0 0 0 0 0 0 0 0 
0 0 0 0 0 0 0 0 0 
0 0 0 0 0 0 0 0 0 
0 0 0 0 0 0 0 0 0 
0 0 0 0 0 0 0 0 0 
0 0 0 0 0 0 0 0 0 
0 0 0 0 0 0 0 0 0 
0 0 0 0 0 0 
