# vtk DataFile Version 4.2
Generated by LIGGGHTS
ASCII
DATASET POLYDATA
POINTS 17232 float
-5.88785 -1.62504 19.0125 5.88488 -1.44054 19.0417 5.86119 -1.07226 19.1 
5.86119 -1.07226 19.1 5.81389 -0.706213 19.158 -5.88785 -1.62504 19.0125 
5.81389 -0.706213 19.158 5.74318 -0.343863 19.2154 -5.88785 -1.62504 19.0125 
5.74318 -0.343863 19.2154 5.64935 0.0133275 19.272 -5.88785 -1.62504 19.0125 
5.64935 0.0133275 19.272 5.53277 0.363921 19.3275 -5.88785 -1.62504 19.0125 
5.53277 0.363921 19.3275 5.39391 0.706506 19.3818 -5.88785 -1.62504 19.0125 
5.39391 0.706506 19.3818 5.23333 1.0397 19.4345 -5.88785 -1.62504 19.0125 
5.23333 1.0397 19.4345 5.05167 1.36217 19.4856 -5.88785 -1.62504 19.0125 
5.05167 1.36217 19.4856 4.84968 1.67261 19.5348 -5.88785 -1.62504 19.0125 
4.84968 1.67261 19.5348 4.62816 1.96977 19.5818 -5.88785 -1.62504 19.0125 
4.62816 1.96977 19.5818 4.388 2.25245 19.6266 -5.88785 -1.62504 19.0125 
4.388 2.25245 19.6266 4.13018 2.51952 19.6689 -5.88785 -1.62504 19.0125 
4.13018 2.51952 19.6689 3.85572 2.76991 19.7086 -5.88785 -1.62504 19.0125 
3.85572 2.76991 19.7086 3.56574 3.00259 19.7454 -5.88785 -1.62504 19.0125 
3.56574 3.00259 19.7454 3.2614 3.21664 19.7793 -5.88785 -1.62504 19.0125 
3.2614 3.21664 19.7793 2.94392 3.4112 19.8101 -5.88785 -1.62504 19.0125 
2.94392 3.4112 19.8101 2.6146 3.58548 19.8377 -5.88785 -1.62504 19.0125 
2.6146 3.58548 19.8377 2.27474 3.73877 19.862 -5.88785 -1.62504 19.0125 
2.27474 3.73877 19.862 1.92573 3.87047 19.8829 -5.88785 -1.62504 19.0125 
1.92573 3.87047 19.8829 1.56896 3.98004 19.9002 -5.88785 -1.62504 19.0125 
1.56896 3.98004 19.9002 1.20587 4.06704 19.914 -5.88785 -1.62504 19.0125 
1.20587 4.06704 19.914 0.837928 4.13112 19.9242 -5.88785 -1.62504 19.0125 
0.837928 4.13112 19.9242 0.466612 4.17202 19.9306 -5.88785 -1.62504 19.0125 
0.466612 4.17202 19.9306 0.0934164 4.18958 19.9334 -5.88785 -1.62504 19.0125 
0.0934164 4.18958 19.9334 -0.280155 4.18372 19.9325 -5.88785 -1.62504 19.0125 
-0.280155 4.18372 19.9325 -0.652598 4.15448 19.9279 -5.88785 -1.62504 19.0125 
-0.652598 4.15448 19.9279 -1.02241 4.10196 19.9196 -5.88785 -1.62504 19.0125 
-1.02241 4.10196 19.9196 -1.38811 4.02638 19.9076 -5.88785 -1.62504 19.0125 
-1.38811 4.02638 19.9076 -1.74822 3.92805 19.892 -5.88785 -1.62504 19.0125 
-1.74822 3.92805 19.892 -2.10129 3.80736 19.8729 -5.88785 -1.62504 19.0125 
-2.10129 3.80736 19.8729 -2.4459 3.66479 19.8503 -5.88785 -1.62504 19.0125 
-2.4459 3.66479 19.8503 -2.78066 3.50092 19.8244 -5.88785 -1.62504 19.0125 
-2.78066 3.50092 19.8244 -3.10422 3.31641 19.7951 -5.88785 -1.62504 19.0125 
-3.10422 3.31641 19.7951 -3.41529 3.112 19.7628 -5.88785 -1.62504 19.0125 
-3.41529 3.112 19.7628 -3.7126 2.88852 19.7274 -5.88785 -1.62504 19.0125 
-3.7126 2.88852 19.7274 -3.99496 2.64687 19.6891 -5.88785 -1.62504 19.0125 
-3.99496 2.64687 19.6891 -4.26124 2.38801 19.6481 -5.88785 -1.62504 19.0125 
-4.26124 2.38801 19.6481 -4.51035 2.11299 19.6045 -5.88785 -1.62504 19.0125 
-4.51035 2.11299 19.6045 -4.74131 1.82292 19.5586 -5.88785 -1.62504 19.0125 
-4.74131 1.82292 19.5586 -4.95317 1.51897 19.5104 -5.88785 -1.62504 19.0125 
-4.95317 1.51897 19.5104 -5.14509 1.20236 19.4603 -5.88785 -1.62504 19.0125 
-5.14509 1.20236 19.4603 -5.31629 0.874363 19.4084 -5.88785 -1.62504 19.0125 
-5.31629 0.874363 19.4084 -5.46609 0.536302 19.3548 -5.88785 -1.62504 19.0125 
-5.46609 0.536302 19.3548 -5.59387 0.189538 19.2999 -5.88785 -1.62504 19.0125 
-5.59387 0.189538 19.2999 -5.69913 -0.164533 19.2438 -5.88785 -1.62504 19.0125 
-5.69913 -0.164533 19.2438 -5.78145 -0.524484 19.1868 -5.88785 -1.62504 19.0125 
-5.78145 -0.524484 19.1868 -5.84048 -0.888868 19.1291 -5.88785 -1.62504 19.0125 
-5.84048 -0.888868 19.1291 -5.87599 -1.25622 19.0709 -5.88785 -1.62504 19.0125 
-5.87599 -1.99388 18.9541 -5.84048 -2.36123 18.8959 -5.88785 -1.62504 19.0125 
-5.84048 -2.36123 18.8959 -5.78145 -2.72561 18.8382 -5.88785 -1.62504 19.0125 
-5.78145 -2.72561 18.8382 -5.69913 -3.08556 18.7812 -5.88785 -1.62504 19.0125 
-5.69913 -3.08556 18.7812 -5.59387 -3.43963 18.7251 -5.88785 -1.62504 19.0125 
-5.59387 -3.43963 18.7251 -5.46609 -3.7864 18.6702 -5.88785 -1.62504 19.0125 
-5.46609 -3.7864 18.6702 -5.31629 -4.12446 18.6166 -5.88785 -1.62504 19.0125 
-5.31629 -4.12446 18.6166 -5.14509 -4.45246 18.5647 -5.88785 -1.62504 19.0125 
-5.14509 -4.45246 18.5647 -4.95317 -4.76907 18.5145 -5.88785 -1.62504 19.0125 
-4.95317 -4.76907 18.5145 -4.74131 -5.07302 18.4664 -5.88785 -1.62504 19.0125 
-4.74131 -5.07302 18.4664 -4.51035 -5.36309 18.4204 -5.88785 -1.62504 19.0125 
-4.51035 -5.36309 18.4204 -4.26124 -5.6381 18.3769 -5.88785 -1.62504 19.0125 
-4.26124 -5.6381 18.3769 -3.99496 -5.89696 18.3359 -5.88785 -1.62504 19.0125 
-3.99496 -5.89696 18.3359 -3.7126 -6.13862 18.2976 -5.88785 -1.62504 19.0125 
-3.7126 -6.13862 18.2976 -3.41529 -6.3621 18.2622 -5.88785 -1.62504 19.0125 
-3.41529 -6.3621 18.2622 -3.10422 -6.56651 18.2298 -5.88785 -1.62504 19.0125 
-3.10422 -6.56651 18.2298 -2.78066 -6.75101 18.2006 -5.88785 -1.62504 19.0125 
-2.78066 -6.75101 18.2006 -2.4459 -6.91488 18.1747 -5.88785 -1.62504 19.0125 
-2.4459 -6.91488 18.1747 -2.10129 -7.05745 18.1521 -5.88785 -1.62504 19.0125 
-2.10129 -7.05745 18.1521 -1.74822 -7.17815 18.133 -5.88785 -1.62504 19.0125 
-1.74822 -7.17815 18.133 -1.38811 -7.27648 18.1174 -5.88785 -1.62504 19.0125 
-1.38811 -7.27648 18.1174 -1.02241 -7.35206 18.1054 -5.88785 -1.62504 19.0125 
-1.02241 -7.35206 18.1054 -0.652598 -7.40457 18.0971 -5.88785 -1.62504 19.0125 
-0.652598 -7.40457 18.0971 -0.280155 -7.43382 18.0925 -5.88785 -1.62504 19.0125 
-0.280155 -7.43382 18.0925 0.0934164 -7.43967 18.0915 -5.88785 -1.62504 19.0125 
0.0934164 -7.43967 18.0915 0.466612 -7.42211 18.0943 -5.88785 -1.62504 19.0125 
0.466612 -7.42211 18.0943 0.837928 -7.38121 18.1008 -5.88785 -1.62504 19.0125 
0.837928 -7.38121 18.1008 1.20587 -7.31713 18.1109 -5.88785 -1.62504 19.0125 
1.20587 -7.31713 18.1109 1.56896 -7.23013 18.1247 -5.88785 -1.62504 19.0125 
1.56896 -7.23013 18.1247 1.92573 -7.12057 18.1421 -5.88785 -1.62504 19.0125 
1.92573 -7.12057 18.1421 2.27474 -6.98887 18.1629 -5.88785 -1.62504 19.0125 
2.27474 -6.98887 18.1629 2.6146 -6.83557 18.1872 -5.88785 -1.62504 19.0125 
2.6146 -6.83557 18.1872 2.94392 -6.6613 18.2148 -5.88785 -1.62504 19.0125 
2.94392 -6.6613 18.2148 3.2614 -6.46674 18.2456 -5.88785 -1.62504 19.0125 
3.2614 -6.46674 18.2456 3.56574 -6.25269 18.2795 -5.88785 -1.62504 19.0125 
3.56574 -6.25269 18.2795 3.85572 -6.02 18.3164 -5.88785 -1.62504 19.0125 
3.85572 -6.02 18.3164 4.13018 -5.76962 18.356 -5.88785 -1.62504 19.0125 
4.13018 -5.76962 18.356 4.388 -5.50255 18.3983 -5.88785 -1.62504 19.0125 
4.388 -5.50255 18.3983 4.62816 -5.21986 18.4431 -5.88785 -1.62504 19.0125 
4.62816 -5.21986 18.4431 4.84968 -4.9227 18.4902 -5.88785 -1.62504 19.0125 
4.84968 -4.9227 18.4902 5.05167 -4.61227 18.5394 -5.88785 -1.62504 19.0125 
5.05167 -4.61227 18.5394 5.23333 -4.2898 18.5904 -5.88785 -1.62504 19.0125 
5.23333 -4.2898 18.5904 5.39391 -3.9566 18.6432 -5.88785 -1.62504 19.0125 
5.39391 -3.9566 18.6432 5.53277 -3.61402 18.6975 -5.88785 -1.62504 19.0125 
5.53277 -3.61402 18.6975 5.64935 -3.26342 18.753 -5.88785 -1.62504 19.0125 
5.64935 -3.26342 18.753 5.74318 -2.90623 18.8096 -5.88785 -1.62504 19.0125 
5.74318 -2.90623 18.8096 5.81389 -2.54388 18.867 -5.88785 -1.62504 19.0125 
5.81389 -2.54388 18.867 5.86119 -2.17783 18.9249 -5.88785 -1.62504 19.0125 
5.86119 -2.17783 18.9249 5.88488 -1.80956 18.9833 -5.88785 -1.62504 19.0125 
5.88488 -1.80956 18.9833 5.88785 -1.62505 19.0125 -5.88785 -1.62504 19.0125 
5.88785 -1.62505 19.0125 5.88488 -1.44054 19.0417 -5.88785 -1.62504 19.0125 
-5.88785 -1.62504 19.0125 -5.87599 -1.25622 19.0709 -5.88192 -0.589496 14.1629 
-5.87599 -1.25622 19.0709 -5.87599 -0.481568 14.18 -5.88192 -0.589496 14.1629 
-5.84048 -0.888868 19.1291 -5.84048 -0.11422 14.2382 -5.86414 -0.329116 14.2041 
-5.86414 -0.329116 14.2041 -5.87599 -1.25622 19.0709 -5.84048 -0.888868 19.1291 
-5.84048 -0.888868 19.1291 -5.78145 -0.524484 19.1868 -5.78884 0.214466 14.2941 
-5.78884 0.214466 14.2941 -5.83456 -0.0697863 14.2452 -5.84048 -0.888868 19.1291 
-5.78145 -0.524484 19.1868 -5.69913 -0.164533 19.2438 -5.74023 0.443638 14.3265 
-5.69913 -0.164533 19.2438 -5.68561 0.663315 14.3635 -5.74023 0.443638 14.3265 
-5.69913 -0.164533 19.2438 -5.59737 0.954699 14.4052 -5.68561 0.663315 14.3635 
-5.59737 0.954699 14.4052 -5.69913 -0.164533 19.2438 -5.59387 0.189538 19.2999 
-5.59387 0.189538 19.2999 -5.46609 0.536302 19.3548 -5.51241 1.19297 14.4452 
-5.46609 0.536302 19.3548 -5.46609 1.31095 14.4639 -5.51241 1.19297 14.4452 
-5.31629 0.874363 19.4084 -5.31011 1.67715 14.4267 -5.41404 1.43518 14.4836 
-5.41404 1.43518 14.4836 -5.46609 0.536302 19.3548 -5.31629 0.874363 19.4084 
-5.31629 0.874363 19.4084 -5.14509 1.20236 19.4603 -5.16928 1.93413 14.5691 
-5.16928 1.93413 14.5691 -5.31011 1.67715 14.4267 -5.31629 0.874363 19.4084 
-4.95317 1.51897 19.5104 -4.93126 2.32864 14.6228 -5.05441 2.13229 14.594 
-5.05441 2.13229 14.594 -5.14509 1.20236 19.4603 -4.95317 1.51897 19.5104 
-4.74131 1.82292 19.5586 -4.76337 2.56778 14.6629 -4.93126 2.32864 14.6228 
-4.93126 2.32864 14.6228 -4.95317 1.51897 19.5104 -4.74131 1.82292 19.5586 
-4.74131 1.82292 19.5586 -4.74131 2.59757 14.6677 -4.76337 2.56778 14.6629 
-4.74131 1.82292 19.5586 -4.51035 2.11299 19.6045 -4.6033 2.77542 14.6958 
-4.51035 2.11299 19.6045 -4.51035 2.88764 14.7136 -4.6033 2.77542 14.6958 
-4.26124 2.38801 19.6481 -4.25814 3.181 14.6619 -4.43397 2.97575 14.7276 
-4.43397 2.97575 14.7276 -4.51035 2.11299 19.6045 -4.26124 2.38801 19.6481 
-4.26124 2.38801 19.6481 -3.99496 2.64687 19.6891 -4.06887 3.35291 14.7873 
-4.06887 3.35291 14.7873 -4.25814 3.181 14.6619 -4.26124 2.38801 19.6481 
-3.99496 2.64687 19.6891 -3.99496 3.42151 14.7982 -4.06887 3.35291 14.7873 
-3.7126 2.88852 19.7274 -3.68989 3.68239 14.837 -3.87384 3.52898 14.8152 
-3.87384 3.52898 14.8152 -3.99496 2.64687 19.6891 -3.7126 2.88852 19.7274 
-3.7126 2.88852 19.7274 -3.41529 3.112 19.7628 -3.44125 3.86876 14.8706 
-3.44125 3.86876 14.8706 -3.68989 3.68239 14.837 -3.7126 2.88852 19.7274 
-3.41529 3.112 19.7628 -3.10422 3.31641 19.7951 -3.2436 4.00294 14.8902 
-3.10422 3.31641 19.7951 -3.10422 4.09106 14.9042 -3.2436 4.00294 14.8902 
-3.10422 3.31641 19.7951 -2.78606 4.27317 14.931 -3.01987 4.14179 14.9122 
-2.78606 4.27317 14.931 -3.10422 3.31641 19.7951 -2.78066 3.50092 19.8244 
-3.01987 4.14179 14.9122 -3.10422 4.09106 14.9042 -3.10422 3.31641 19.7951 
-2.78066 3.50092 19.8244 -2.4459 3.66479 19.8503 -2.55464 4.38906 14.9514 
-2.4459 3.66479 19.8503 -2.4459 4.43943 14.9594 -2.55464 4.38906 14.9514 
-2.10129 3.80736 19.8729 -2.08415 4.58873 14.9837 -2.31407 4.49698 14.9685 
-2.31407 4.49698 14.9685 -2.4459 3.66479 19.8503 -2.10129 3.80736 19.8729 
-2.10129 3.80736 19.8729 -1.74822 3.92805 19.892 -1.78965 4.68984 15.0036 
-1.78965 4.68984 15.0036 -2.08415 4.58873 14.9837 -2.10129 3.80736 19.8729 
-1.74822 3.92805 19.892 -1.38811 4.02638 19.9076 -1.56638 4.75539 15.0094 
-1.38811 4.02638 19.9076 -1.34266 4.81203 15.0213 -1.56638 4.75539 15.0094 
-1.02241 4.10196 19.9196 -1.03773 4.8742 15.0286 -1.34266 4.81203 15.0213 
-1.34266 4.81203 15.0213 -1.38811 4.02638 19.9076 -1.02241 4.10196 19.9196 
-1.02241 4.10196 19.9196 -0.652598 4.15448 19.9279 -0.790345 4.91233 15.0343 
-0.652598 4.15448 19.9279 -0.652598 4.92913 15.0369 -0.790345 4.91233 15.0343 
-0.280155 4.18372 19.9325 -0.271477 4.97485 14.94 -0.527782 4.94155 15.0389 
-0.527782 4.94155 15.0389 -0.652598 4.15448 19.9279 -0.280155 4.18372 19.9325 
-0.280155 4.18372 19.9325 0.0934164 4.18958 19.9334 -1.77636e-10 4.96496 15.0426 
-1.77636e-10 4.96496 15.0426 -0.271477 4.97485 14.94 -0.280155 4.18372 19.9325 
0.0934164 4.18958 19.9334 0.0934164 4.96422 15.0425 -1.77636e-10 4.96496 15.0426 
0.466612 4.17202 19.9306 0.501291 4.94469 15.038 0.264157 4.9591 15.0417 
0.264157 4.9591 15.0417 0.0934164 4.18958 19.9334 0.466612 4.17202 19.9306 
0.837928 4.13112 19.9242 0.811957 4.91009 15.0327 0.501291 4.94469 15.038 
0.501291 4.94469 15.038 0.466612 4.17202 19.9306 0.837928 4.13112 19.9242 
0.837928 4.13112 19.9242 1.20587 4.06704 19.914 1.05132 4.8715 15.0278 
1.20587 4.06704 19.914 1.20587 4.84169 15.0231 1.05132 4.8715 15.0278 
1.20587 4.06704 19.914 1.56767 4.75504 15.0094 1.31017 4.81915 15.0195 
1.56767 4.75504 15.0094 1.20587 4.06704 19.914 1.56896 3.98004 19.9002 
1.31017 4.81915 15.0195 1.20587 4.84169 15.0231 1.20587 4.06704 19.914 
1.56896 3.98004 19.9002 1.92573 3.87047 19.8829 1.81944 4.68033 14.9975 
1.92573 3.87047 19.8829 1.92573 4.64512 14.992 1.81944 4.68033 14.9975 
2.27474 3.73877 19.862 2.27474 4.51342 14.9711 2.06884 4.59414 14.9839 
2.06884 4.59414 14.9839 1.92573 3.87047 19.8829 2.27474 3.73877 19.862 
2.27474 3.73877 19.862 2.6146 3.58548 19.8377 2.58085 4.37659 14.9536 
2.58085 4.37659 14.9536 2.31407 4.49698 14.9685 2.27474 3.73877 19.862 
2.6146 3.58548 19.8377 2.94392 3.4112 19.8101 2.79007 4.27058 14.9326 
2.94392 3.4112 19.8101 2.99072 4.16007 14.9132 2.79007 4.27058 14.9326 
2.94392 3.4112 19.8101 3.2525 3.99712 14.8893 2.99072 4.16007 14.9132 
3.2525 3.99712 14.8893 2.94392 3.4112 19.8101 3.2614 3.21664 19.7793 
3.2614 3.21664 19.7793 3.56574 3.00259 19.7454 3.46079 3.85432 14.8667 
3.56574 3.00259 19.7454 3.56574 3.77724 14.8545 3.46079 3.85432 14.8667 
3.85572 2.76991 19.7086 3.86585 3.55154 14.7195 3.67101 3.69623 14.8417 
3.67101 3.69623 14.8417 3.56574 3.00259 19.7454 3.85572 2.76991 19.7086 
3.85572 2.76991 19.7086 4.13018 2.51952 19.6689 4.09436 3.32866 14.7902 
4.09436 3.32866 14.7902 3.86585 3.55154 14.7195 3.85572 2.76991 19.7086 
4.388 2.25245 19.6266 4.41491 2.99805 14.7321 4.25571 3.16838 14.7581 
4.25571 3.16838 14.7581 4.13018 2.51952 19.6689 4.388 2.25245 19.6266 
4.62816 1.96977 19.5818 4.61515 2.76128 14.6943 4.41491 2.99805 14.7321 
4.41491 2.99805 14.7321 4.388 2.25245 19.6266 4.62816 1.96977 19.5818 
4.62816 1.96977 19.5818 4.84968 1.67261 19.5348 4.76337 2.56778 14.6629 
4.84968 1.67261 19.5348 4.84968 2.44726 14.6439 4.76337 2.56778 14.6629 
5.05167 1.36217 19.4856 5.05311 2.13457 14.5943 4.91384 2.35326 14.629 
4.91384 2.35326 14.629 4.84968 1.67261 19.5348 5.05167 1.36217 19.4856 
5.05167 1.36217 19.4856 5.23333 1.0397 19.4345 5.18481 1.90531 14.558 
5.18481 1.90531 14.558 5.05311 2.13457 14.5943 5.05167 1.36217 19.4856 
5.23333 1.0397 19.4345 5.23333 1.81435 14.5436 5.18481 1.90531 14.558 
5.39391 0.706506 19.3818 5.40553 1.45625 14.4858 5.30477 1.67279 14.5212 
5.30477 1.67279 14.5212 5.23333 1.0397 19.4345 5.39391 0.706506 19.3818 
5.39391 0.706506 19.3818 5.53277 0.363921 19.3275 5.51241 1.19297 14.4452 
5.51241 1.19297 14.4452 5.40553 1.45625 14.4858 5.39391 0.706506 19.3818 
5.53277 0.363921 19.3275 5.53277 1.13857 14.4366 5.51241 1.19297 14.4452 
5.53277 0.363921 19.3275 5.64935 0.0133275 19.272 5.59968 0.946644 14.4062 
5.64935 0.0133275 19.272 5.64935 0.787975 14.381 5.59968 0.946644 14.4062 
5.64935 0.0133275 19.272 5.7417 0.437211 14.3255 5.67567 0.696699 14.3666 
5.7417 0.437211 14.3255 5.64935 0.0133275 19.272 5.74318 -0.343863 19.2154 
5.67567 0.696699 14.3666 5.64935 0.787975 14.381 5.64935 0.0133275 19.272 
5.74318 -0.343863 19.2154 5.81389 -0.706213 19.158 5.79323 0.187972 14.286 
5.81389 -0.706213 19.158 5.81389 0.0684339 14.2671 5.79323 0.187972 14.286 
5.86119 -1.07226 19.1 5.86322 -0.300555 14.1125 5.83456 -0.0697863 14.2452 
5.83456 -0.0697863 14.2452 5.81389 -0.706213 19.158 5.86119 -1.07226 19.1 
5.86119 -1.07226 19.1 5.88488 -1.44054 19.0417 5.88411 -0.623579 14.1601 
5.88411 -0.623579 14.1601 5.86322 -0.300555 14.1125 5.86119 -1.07226 19.1 
5.88488 -1.80956 18.9833 5.884 -1.07875 14.0819 5.88785 -0.850401 14.1216 
5.88411 -0.623579 14.1601 5.88488 -1.44054 19.0417 5.88785 -1.62505 19.0125 
5.88785 -1.62505 19.0125 5.88785 -0.850401 14.1216 5.88411 -0.623579 14.1601 
5.86119 -2.17783 18.9249 5.86267 -1.38744 14.0365 5.884 -1.07875 14.0819 
5.884 -1.07875 14.0819 5.88488 -1.80956 18.9833 5.86119 -2.17783 18.9249 
5.86119 -2.17783 18.9249 5.81389 -2.54388 18.867 5.83456 -1.63102 13.9979 
5.81389 -2.54388 18.867 5.81389 -1.76924 13.976 5.83456 -1.63102 13.9979 
5.74318 -2.90623 18.8096 5.7417 -2.13801 13.9176 5.79323 -1.88877 13.9571 
5.79323 -1.88877 13.9571 5.81389 -2.54388 18.867 5.74318 -2.90623 18.8096 
5.74318 -2.90623 18.8096 5.64935 -3.26342 18.753 5.66654 -2.43154 13.8647 
5.66654 -2.43154 13.8647 5.7417 -2.13801 13.9176 5.74318 -2.90623 18.8096 
5.53277 -3.61402 18.6975 5.53277 -2.83937 13.8065 5.59968 -2.64744 13.8369 
5.59968 -2.64744 13.8369 5.64935 -3.26342 18.753 5.53277 -3.61402 18.6975 
5.39391 -3.9566 18.6432 5.40553 -3.15668 13.7551 5.51241 -2.89377 13.7979 
5.51241 -2.89377 13.7979 5.53277 -3.61402 18.6975 5.39391 -3.9566 18.6432 
5.39391 -3.9566 18.6432 5.23333 -4.2898 18.5904 5.30477 -3.37359 13.7219 
5.23333 -4.2898 18.5904 5.23333 -3.51515 13.6995 5.30477 -3.37359 13.7219 
5.23333 -4.2898 18.5904 5.0533 -3.83486 13.6475 5.18481 -3.60612 13.6851 
5.0533 -3.83486 13.6475 5.23333 -4.2898 18.5904 5.05167 -4.61227 18.5394 
5.18481 -3.60612 13.6851 5.23333 -3.51515 13.6995 5.23333 -4.2898 18.5904 
5.05167 -4.61227 18.5394 4.84968 -4.9227 18.4902 4.91384 -4.05406 13.6141 
4.84968 -4.9227 18.4902 4.84968 -4.14806 13.5993 4.91384 -4.05406 13.6141 
4.62816 -5.21986 18.4431 4.61515 -4.46236 13.5505 4.76337 -4.26858 13.5802 
4.76337 -4.26858 13.5802 4.84968 -4.9227 18.4902 4.62816 -5.21986 18.4431 
4.62816 -5.21986 18.4431 4.388 -5.50255 18.3983 4.41491 -4.69901 13.512 
4.41491 -4.69901 13.512 4.61515 -4.46236 13.5505 4.62816 -5.21986 18.4431 
4.388 -5.50255 18.3983 4.13018 -5.76962 18.356 4.25571 -4.86918 13.485 
4.13018 -5.76962 18.356 4.09375 -5.03085 13.4576 4.25571 -4.86918 13.485 
4.13018 -5.76962 18.356 3.87384 -5.22978 13.4279 4.09375 -5.03085 13.4576 
3.85572 -6.02 18.3164 3.85572 -5.24535 13.4255 3.87384 -5.22978 13.4279 
3.87384 -5.22978 13.4279 4.13018 -5.76962 18.356 3.85572 -6.02 18.3164 
3.85572 -6.02 18.3164 3.56574 -6.25269 18.2795 3.67101 -5.39703 13.4014 
3.56574 -6.25269 18.2795 3.56574 -5.47804 13.3886 3.67101 -5.39703 13.4014 
3.2614 -6.46674 18.2456 3.25197 -5.68284 13.2565 3.46079 -5.55512 13.3764 
3.46079 -5.55512 13.3764 3.56574 -6.25269 18.2795 3.2614 -6.46674 18.2456 
3.2614 -6.46674 18.2456 2.94392 -6.6613 18.2148 3.01987 -5.84259 13.3309 
3.01987 -5.84259 13.3309 3.25197 -5.68284 13.2565 3.2614 -6.46674 18.2456 
2.94392 -6.6613 18.2148 2.94392 -5.88665 13.3239 3.01987 -5.84259 13.3309 
2.6146 -6.83557 18.1872 2.58081 -6.07778 13.2918 2.79007 -5.97138 13.3105 
2.79007 -5.97138 13.3105 2.94392 -6.6613 18.2148 2.6146 -6.83557 18.1872 
2.27474 -6.98887 18.1629 2.31407 -6.19778 13.2746 2.58081 -6.07778 13.2918 
2.58081 -6.07778 13.2918 2.6146 -6.83557 18.1872 2.27474 -6.98887 18.1629 
2.27474 -6.98887 18.1629 2.27474 -6.21422 13.272 2.31407 -6.19778 13.2746 
2.27474 -6.98887 18.1629 1.92573 -7.12057 18.1421 2.06884 -6.29494 13.2592 
1.92573 -7.12057 18.1421 1.92573 -6.34592 13.2511 2.06884 -6.29494 13.2592 
1.56896 -7.23013 18.1247 1.56767 -6.45584 13.2337 1.81944 -6.38113 13.2456 
1.81944 -6.38113 13.2456 1.92573 -7.12057 18.1421 1.56896 -7.23013 18.1247 
1.56896 -7.23013 18.1247 1.20587 -7.31713 18.1109 1.31017 -6.51996 13.2236 
1.31017 -6.51996 13.2236 1.56767 -6.45584 13.2337 1.56896 -7.23013 18.1247 
1.20587 -7.31713 18.1109 1.20587 -6.54249 13.22 1.31017 -6.51996 13.2236 
0.837928 -7.38121 18.1008 0.811959 -6.61054 13.2082 1.05132 -6.5723 13.2153 
1.05132 -6.5723 13.2153 1.20587 -7.31713 18.1109 0.837928 -7.38121 18.1008 
0.837928 -7.38121 18.1008 0.466612 -7.42211 18.0943 0.501267 -6.64585 13.2074 
0.501267 -6.64585 13.2074 0.811959 -6.61054 13.2082 0.837928 -7.38121 18.1008 
0.466612 -7.42211 18.0943 0.0934164 -7.43967 18.0915 0.264157 -6.6599 13.2014 
0.0934164 -7.43967 18.0915 0.0346292 -6.66598 13.1974 0.264157 -6.6599 13.2014 
0.0934164 -7.43967 18.0915 -0.272156 -6.65954 13.2015 0.0346292 -6.66598 13.1974 
-0.272156 -6.65954 13.2015 0.0934164 -7.43967 18.0915 -0.280155 -7.43382 18.0925 
-0.280155 -7.43382 18.0925 -0.652598 -7.40457 18.0971 -0.527782 -6.64235 13.2042 
-0.652598 -7.40457 18.0971 -0.652598 -6.62993 13.2062 -0.527782 -6.64235 13.2042 
-1.02241 -7.35206 18.1054 -1.03772 -6.57512 13.2153 -0.790345 -6.61313 13.2088 
-0.790345 -6.61313 13.2088 -0.652598 -7.40457 18.0971 -1.02241 -7.35206 18.1054 
-1.02241 -7.35206 18.1054 -1.38811 -7.27648 18.1174 -1.34268 -6.5137 13.2274 
-1.34268 -6.5137 13.2274 -1.03772 -6.57512 13.2153 -1.02241 -7.35206 18.1054 
-1.74822 -7.17815 18.133 -1.78967 -6.39145 13.2447 -1.56638 -6.45619 13.2337 
-1.56638 -6.45619 13.2337 -1.38811 -7.27648 18.1174 -1.74822 -7.17815 18.133 
-2.10129 -7.05745 18.1521 -2.08414 -6.28972 13.2605 -1.78967 -6.39145 13.2447 
-1.78967 -6.39145 13.2447 -1.74822 -7.17815 18.133 -2.10129 -7.05745 18.1521 
-2.10129 -7.05745 18.1521 -2.4459 -6.91488 18.1747 -2.31407 -6.19778 13.2746 
-2.4459 -6.91488 18.1747 -2.4459 -6.14024 13.2837 -2.31407 -6.19778 13.2746 
-2.78066 -6.75101 18.2006 -2.78551 -5.97394 13.3101 -2.55464 -6.08986 13.2917 
-2.55464 -6.08986 13.2917 -2.4459 -6.91488 18.1747 -2.78066 -6.75101 18.2006 
-2.78066 -6.75101 18.2006 -3.10422 -6.56651 18.2298 -3.05236 -5.82425 13.3345 
-3.05236 -5.82425 13.3345 -2.78551 -5.97394 13.3101 -2.78066 -6.75101 18.2006 
-3.41529 -6.3621 18.2622 -3.44211 -5.5548 13.2833 -3.2436 -5.70374 13.3529 
-3.2436 -5.70374 13.3529 -3.10422 -6.56651 18.2298 -3.41529 -6.3621 18.2622 
-3.7126 -6.13862 18.2976 -3.68998 -5.38323 13.4069 -3.44211 -5.5548 13.2833 
-3.44211 -5.5548 13.2833 -3.41529 -6.3621 18.2622 -3.7126 -6.13862 18.2976 
-3.7126 -6.13862 18.2976 -3.99496 -5.89696 18.3359 -3.87384 -5.22978 13.4279 
-3.99496 -5.89696 18.3359 -3.99496 -5.12231 13.4449 -3.87384 -5.22978 13.4279 
-3.99496 -5.89696 18.3359 -4.25847 -4.86632 13.4855 -4.06887 -5.05371 13.4558 
-4.25847 -4.86632 13.4855 -3.99496 -5.89696 18.3359 -4.26124 -5.6381 18.3769 
-4.06887 -5.05371 13.4558 -3.99496 -5.12231 13.4449 -3.99496 -5.89696 18.3359 
-4.26124 -5.6381 18.3769 -4.51035 -5.36309 18.4204 -4.43397 -4.67655 13.5156 
-4.51035 -5.36309 18.4204 -4.51035 -4.58844 13.5295 -4.43397 -4.67655 13.5156 
-4.74131 -5.07302 18.4664 -4.74131 -4.29837 13.5754 -4.6033 -4.47622 13.5473 
-4.6033 -4.47622 13.5473 -4.51035 -5.36309 18.4204 -4.74131 -5.07302 18.4664 
-4.74131 -5.07302 18.4664 -4.95317 -4.76907 18.5145 -4.93127 -4.02913 13.6184 
-4.93127 -4.02913 13.6184 -4.76337 -4.26858 13.5802 -4.74131 -5.07302 18.4664 
-4.95317 -4.76907 18.5145 -5.14509 -4.45246 18.5647 -5.05441 -3.83309 13.6491 
-5.14509 -4.45246 18.5647 -5.16959 -3.63471 13.6762 -5.05441 -3.83309 13.6491 
-5.31629 -4.12446 18.6166 -5.31053 -3.3617 13.7238 -5.16959 -3.63471 13.6762 
-5.16959 -3.63471 13.6762 -5.14509 -4.45246 18.5647 -5.31629 -4.12446 18.6166 
-5.31629 -4.12446 18.6166 -5.46609 -3.7864 18.6702 -5.41404 -3.13598 13.7596 
-5.46609 -3.7864 18.6702 -5.46609 -3.01175 13.7792 -5.41404 -3.13598 13.7596 
-5.59387 -3.43963 18.7251 -5.59709 -2.65598 13.8357 -5.51241 -2.89377 13.7979 
-5.51241 -2.89377 13.7979 -5.46609 -3.7864 18.6702 -5.59387 -3.43963 18.7251 
-5.59387 -3.43963 18.7251 -5.69913 -3.08556 18.7812 -5.68585 -2.36362 13.8833 
-5.68585 -2.36362 13.8833 -5.59709 -2.65598 13.8357 -5.59387 -3.43963 18.7251 
-5.78145 -2.72561 18.8382 -5.78884 -1.91566 13.9516 -5.74023 -2.14444 13.9166 
-5.74023 -2.14444 13.9166 -5.69913 -3.08556 18.7812 -5.78145 -2.72561 18.8382 
-5.84048 -2.36123 18.8959 -5.83456 -1.63102 13.9979 -5.78884 -1.91566 13.9516 
-5.78884 -1.91566 13.9516 -5.78145 -2.72561 18.8382 -5.84048 -2.36123 18.8959 
-5.84048 -2.36123 18.8959 -5.84048 -1.58658 14.005 -5.83456 -1.63102 13.9979 
-5.84048 -2.36123 18.8959 -5.87599 -1.99388 18.9541 -5.86414 -1.37169 14.039 
-5.87599 -1.99388 18.9541 -5.87599 -1.21923 14.0631 -5.86414 -1.37169 14.039 
-5.88785 -1.62504 19.0125 -5.88785 -0.850401 14.1216 -5.88192 -1.11131 14.0802 
-5.88192 -1.11131 14.0802 -5.87599 -1.99388 18.9541 -5.88785 -1.62504 19.0125 
-5.88192 -1.11131 14.0802 -5.87599 -1.21923 14.0631 -5.87599 -1.99388 18.9541 
-5.86414 -1.37169 14.039 -5.84048 -1.58658 14.005 -5.84048 -2.36123 18.8959 
-5.74023 -2.14444 13.9166 -5.68585 -2.36362 13.8833 -5.69913 -3.08556 18.7812 
-5.51241 -2.89377 13.7979 -5.46609 -3.01175 13.7792 -5.46609 -3.7864 18.6702 
-5.41404 -3.13598 13.7596 -5.31053 -3.3617 13.7238 -5.31629 -4.12446 18.6166 
-5.05441 -3.83309 13.6491 -4.93127 -4.02913 13.6184 -4.95317 -4.76907 18.5145 
-4.76337 -4.26858 13.5802 -4.74131 -4.29837 13.5754 -4.74131 -5.07302 18.4664 
-4.6033 -4.47622 13.5473 -4.51035 -4.58844 13.5295 -4.51035 -5.36309 18.4204 
-4.43397 -4.67655 13.5156 -4.25847 -4.86632 13.4855 -4.26124 -5.6381 18.3769 
-3.87384 -5.22978 13.4279 -3.68998 -5.38323 13.4069 -3.7126 -6.13862 18.2976 
-3.2436 -5.70374 13.3529 -3.05236 -5.82425 13.3345 -3.10422 -6.56651 18.2298 
-2.55464 -6.08986 13.2917 -2.4459 -6.14024 13.2837 -2.4459 -6.91488 18.1747 
-2.31407 -6.19778 13.2746 -2.08414 -6.28972 13.2605 -2.10129 -7.05745 18.1521 
-1.56638 -6.45619 13.2337 -1.34268 -6.5137 13.2274 -1.38811 -7.27648 18.1174 
-0.790345 -6.61313 13.2088 -0.652598 -6.62993 13.2062 -0.652598 -7.40457 18.0971 
-0.527782 -6.64235 13.2042 -0.272156 -6.65954 13.2015 -0.280155 -7.43382 18.0925 
0.264157 -6.6599 13.2014 0.501267 -6.64585 13.2074 0.466612 -7.42211 18.0943 
1.05132 -6.5723 13.2153 1.20587 -6.54249 13.22 1.20587 -7.31713 18.1109 
1.81944 -6.38113 13.2456 1.92573 -6.34592 13.2511 1.92573 -7.12057 18.1421 
2.06884 -6.29494 13.2592 2.27474 -6.21422 13.272 2.27474 -6.98887 18.1629 
2.79007 -5.97138 13.3105 2.94392 -5.88665 13.3239 2.94392 -6.6613 18.2148 
3.46079 -5.55512 13.3764 3.56574 -5.47804 13.3886 3.56574 -6.25269 18.2795 
3.67101 -5.39703 13.4014 3.85572 -5.24535 13.4255 3.85572 -6.02 18.3164 
4.25571 -4.86918 13.485 4.41491 -4.69901 13.512 4.388 -5.50255 18.3983 
4.76337 -4.26858 13.5802 4.84968 -4.14806 13.5993 4.84968 -4.9227 18.4902 
4.91384 -4.05406 13.6141 5.0533 -3.83486 13.6475 5.05167 -4.61227 18.5394 
5.30477 -3.37359 13.7219 5.40553 -3.15668 13.7551 5.39391 -3.9566 18.6432 
5.51241 -2.89377 13.7979 5.53277 -2.83937 13.8065 5.53277 -3.61402 18.6975 
5.59968 -2.64744 13.8369 5.66654 -2.43154 13.8647 5.64935 -3.26342 18.753 
5.79323 -1.88877 13.9571 5.81389 -1.76924 13.976 5.81389 -2.54388 18.867 
5.83456 -1.63102 13.9979 5.86267 -1.38744 14.0365 5.86119 -2.17783 18.9249 
5.88785 -0.850401 14.1216 5.88785 -1.62505 19.0125 5.88488 -1.80956 18.9833 
5.83456 -0.0697863 14.2452 5.81389 0.0684339 14.2671 5.81389 -0.706213 19.158 
5.79323 0.187972 14.286 5.7417 0.437211 14.3255 5.74318 -0.343863 19.2154 
5.59968 0.946644 14.4062 5.53277 1.13857 14.4366 5.53277 0.363921 19.3275 
5.30477 1.67279 14.5212 5.23333 1.81435 14.5436 5.23333 1.0397 19.4345 
4.91384 2.35326 14.629 4.84968 2.44726 14.6439 4.84968 1.67261 19.5348 
4.76337 2.56778 14.6629 4.61515 2.76128 14.6943 4.62816 1.96977 19.5818 
4.25571 3.16838 14.7581 4.09436 3.32866 14.7902 4.13018 2.51952 19.6689 
3.67101 3.69623 14.8417 3.56574 3.77724 14.8545 3.56574 3.00259 19.7454 
3.46079 3.85432 14.8667 3.2525 3.99712 14.8893 3.2614 3.21664 19.7793 
2.79007 4.27058 14.9326 2.58085 4.37659 14.9536 2.6146 3.58548 19.8377 
2.31407 4.49698 14.9685 2.27474 4.51342 14.9711 2.27474 3.73877 19.862 
2.06884 4.59414 14.9839 1.92573 4.64512 14.992 1.92573 3.87047 19.8829 
1.81944 4.68033 14.9975 1.56767 4.75504 15.0094 1.56896 3.98004 19.9002 
1.05132 4.8715 15.0278 0.811957 4.91009 15.0327 0.837928 4.13112 19.9242 
0.264157 4.9591 15.0417 0.0934164 4.96422 15.0425 0.0934164 4.18958 19.9334 
-0.527782 4.94155 15.0389 -0.652598 4.92913 15.0369 -0.652598 4.15448 19.9279 
-0.790345 4.91233 15.0343 -1.03773 4.8742 15.0286 -1.02241 4.10196 19.9196 
-1.56638 4.75539 15.0094 -1.78965 4.68984 15.0036 -1.74822 3.92805 19.892 
-2.31407 4.49698 14.9685 -2.4459 4.43943 14.9594 -2.4459 3.66479 19.8503 
-2.55464 4.38906 14.9514 -2.78606 4.27317 14.931 -2.78066 3.50092 19.8244 
-3.2436 4.00294 14.8902 -3.44125 3.86876 14.8706 -3.41529 3.112 19.7628 
-3.87384 3.52898 14.8152 -3.99496 3.42151 14.7982 -3.99496 2.64687 19.6891 
-4.43397 2.97575 14.7276 -4.51035 2.88764 14.7136 -4.51035 2.11299 19.6045 
-4.6033 2.77542 14.6958 -4.74131 2.59757 14.6677 -4.74131 1.82292 19.5586 
-5.05441 2.13229 14.594 -5.16928 1.93413 14.5691 -5.14509 1.20236 19.4603 
-5.41404 1.43518 14.4836 -5.46609 1.31095 14.4639 -5.46609 0.536302 19.3548 
-5.51241 1.19297 14.4452 -5.59737 0.954699 14.4052 -5.59387 0.189538 19.2999 
-5.74023 0.443638 14.3265 -5.78884 0.214466 14.2941 -5.78145 -0.524484 19.1868 
-5.83456 -0.0697863 14.2452 -5.84048 -0.11422 14.2382 -5.84048 -0.888868 19.1291 
-5.86414 -0.329116 14.2041 -5.87599 -0.481568 14.18 -5.87599 -1.25622 19.0709 
-5.88192 -0.589496 14.1629 -5.88785 -0.850401 14.1216 -5.88785 -1.62504 19.0125 
-5.87596 -0.721333 13.9014 -5.88785 -0.850401 14.1216 -5.88192 -0.589496 14.1629 
-5.84901 -0.205783 14.0172 -5.87596 -0.721333 13.9014 -5.87599 -0.481568 14.18 
-5.87596 -0.721333 13.9014 -5.88192 -0.589496 14.1629 -5.87599 -0.481568 14.18 
-5.84901 -0.205783 14.0172 -5.86414 -0.329116 14.2041 -5.84048 -0.11422 14.2382 
-5.84901 -0.205783 14.0172 -5.83456 -0.0697863 14.2452 -5.78884 0.214466 14.2941 
-5.75417 0.36669 14.0726 -5.74023 0.443638 14.3265 -5.68561 0.663315 14.3635 
-5.68561 0.663315 14.3635 -5.63943 0.818675 14.146 -5.75417 0.36669 14.0726 
-5.63943 0.818675 14.146 -5.68561 0.663315 14.3635 -5.59737 0.954699 14.4052 
-5.47411 1.30325 14.2355 -5.63943 0.818675 14.146 -5.59737 0.954699 14.4052 
-5.47411 1.30325 14.2355 -5.51241 1.19297 14.4452 -5.46609 1.31095 14.4639 
-5.47411 1.30325 14.2355 -5.41404 1.43518 14.4836 -5.31011 1.67715 14.4267 
-5.12041 2.03611 14.3457 -5.05441 2.13229 14.594 -4.93126 2.32864 14.6228 
-4.93126 2.32864 14.6228 -4.8554 2.45816 14.4297 -5.12041 2.03611 14.3457 
-4.8554 2.45816 14.4297 -4.93126 2.32864 14.6228 -4.76337 2.56778 14.6629 
-4.51379 2.90461 14.4908 -4.8554 2.45816 14.4297 -4.74131 2.59757 14.6677 
-4.8554 2.45816 14.4297 -4.76337 2.56778 14.6629 -4.74131 2.59757 14.6677 
-4.51379 2.90461 14.4908 -4.6033 2.77542 14.6958 -4.51035 2.88764 14.7136 
-4.51379 2.90461 14.4908 -4.43397 2.97575 14.7276 -4.25814 3.181 14.6619 
-3.98861 3.44921 14.4551 -4.06887 3.35291 14.7873 -3.99496 3.42151 14.7982 
-3.98861 3.44921 14.4551 -3.87384 3.52898 14.8152 -3.68989 3.68239 14.837 
-3.68989 3.68239 14.837 -3.66589 3.72246 14.5143 -3.98861 3.44921 14.4551 
-3.66589 3.72246 14.5143 -3.68989 3.68239 14.837 -3.44125 3.86876 14.8706 
-3.35872 3.9523 14.5561 -3.2436 4.00294 14.8902 -3.10422 4.09106 14.9042 
-3.10422 4.09106 14.9042 -2.93448 4.21572 14.6804 -3.35872 3.9523 14.5561 
-2.93448 4.21572 14.6804 -3.01987 4.14179 14.9122 -2.78606 4.27317 14.931 
-2.45199 4.46398 14.7282 -2.93448 4.21572 14.6804 -2.78606 4.27317 14.931 
-2.45199 4.46398 14.7282 -2.55464 4.38906 14.9514 -2.4459 4.43943 14.9594 
-2.45199 4.46398 14.7282 -2.31407 4.49698 14.9685 -2.08415 4.58873 14.9837 
-2.08415 4.58873 14.9837 -1.94885 4.66609 14.6567 -2.45199 4.46398 14.7282 
-1.94885 4.66609 14.6567 -2.08415 4.58873 14.9837 -1.78965 4.68984 15.0036 
-1.56227 4.7844 14.6616 -1.94885 4.66609 14.6567 -1.78965 4.68984 15.0036 
-1.56227 4.7844 14.6616 -1.56638 4.75539 15.0094 -1.34266 4.81203 15.0213 
-1.34266 4.81203 15.0213 -1.21855 4.86882 14.6819 -1.56227 4.7844 14.6616 
-1.21855 4.86882 14.6819 -1.34266 4.81203 15.0213 -1.03773 4.8742 15.0286 
-0.707878 4.94998 14.8079 -1.21855 4.86882 14.6819 -1.03773 4.8742 15.0286 
-0.707878 4.94998 14.8079 -0.790345 4.91233 15.0343 -0.652598 4.92913 15.0369 
-0.707878 4.94998 14.8079 -0.527782 4.94155 15.0389 -0.271477 4.97485 14.94 
0.116053 4.98984 14.8143 -1.77636e-10 4.96496 15.0426 0.0934164 4.96422 15.0425 
0.116053 4.98984 14.8143 0.264157 4.9591 15.0417 0.501291 4.94469 15.038 
0.501291 4.94469 15.038 0.529736 4.96561 14.8098 0.116053 4.98984 14.8143 
0.529736 4.96561 14.8098 0.501291 4.94469 15.038 0.811957 4.91009 15.0327 
0.910234 4.9258 14.6923 1.05132 4.8715 15.0278 1.20587 4.84169 15.0231 
1.20587 4.84169 15.0231 1.39703 4.82441 14.7817 0.910234 4.9258 14.6923 
1.39703 4.82441 14.7817 1.31017 4.81915 15.0195 1.56767 4.75504 15.0094 
1.90943 4.67823 14.7515 1.39703 4.82441 14.7817 1.56767 4.75504 15.0094 
1.90943 4.67823 14.7515 1.81944 4.68033 14.9975 1.92573 4.64512 14.992 
1.90943 4.67823 14.7515 2.06884 4.59414 14.9839 2.27474 4.51342 14.9711 
2.27474 4.51342 14.9711 2.31178 4.51555 14.817 1.90943 4.67823 14.7515 
2.31178 4.51555 14.817 2.31407 4.49698 14.9685 2.58085 4.37659 14.9536 
2.66123 4.36112 14.7155 2.79007 4.27058 14.9326 2.99072 4.16007 14.9132 
2.99072 4.16007 14.9132 3.09713 4.11937 14.6951 2.66123 4.36112 14.7155 
3.09713 4.11937 14.6951 2.99072 4.16007 14.9132 3.2525 3.99712 14.8893 
3.55895 3.80547 14.6301 3.09713 4.11937 14.6951 3.2525 3.99712 14.8893 
3.55895 3.80547 14.6301 3.46079 3.85432 14.8667 3.56574 3.77724 14.8545 
3.55895 3.80547 14.6301 3.67101 3.69623 14.8417 3.86585 3.55154 14.7195 
4.15765 3.28972 14.5437 4.25571 3.16838 14.7581 4.41491 2.99805 14.7321 
4.41491 2.99805 14.7321 4.48552 2.93657 14.4817 4.15765 3.28972 14.5437 
4.48552 2.93657 14.4817 4.41491 2.99805 14.7321 4.61515 2.76128 14.6943 
4.815 2.51753 14.4213 4.48552 2.93657 14.4817 4.61515 2.76128 14.6943 
4.815 2.51753 14.4213 4.76337 2.56778 14.6629 4.84968 2.44726 14.6439 
4.815 2.51753 14.4213 4.91384 2.35326 14.629 5.05311 2.13457 14.5943 
5.05311 2.13457 14.5943 5.09177 2.08479 14.3457 4.815 2.51753 14.4213 
5.09177 2.08479 14.3457 5.05311 2.13457 14.5943 5.18481 1.90531 14.558 
5.28072 1.73137 14.2971 5.09177 2.08479 14.3457 5.23333 1.81435 14.5436 
5.09177 2.08479 14.3457 5.18481 1.90531 14.558 5.23333 1.81435 14.5436 
5.28072 1.73137 14.2971 5.30477 1.67279 14.5212 5.40553 1.45625 14.4858 
5.40553 1.45625 14.4858 5.45171 1.35386 14.2203 5.28072 1.73137 14.2971 
5.45171 1.35386 14.2203 5.40553 1.45625 14.4858 5.51241 1.19297 14.4452 
5.53185 1.12944 14.1084 5.45171 1.35386 14.2203 5.53277 1.13857 14.4366 
5.45171 1.35386 14.2203 5.51241 1.19297 14.4452 5.53277 1.13857 14.4366 
5.53185 1.12944 14.1084 5.59968 0.946644 14.4062 5.64935 0.787975 14.381 
5.64935 0.787975 14.381 5.69548 0.61669 14.103 5.53185 1.12944 14.1084 
5.69548 0.61669 14.103 5.67567 0.696699 14.3666 5.7417 0.437211 14.3255 
5.80055 0.132688 14.0644 5.69548 0.61669 14.103 5.7417 0.437211 14.3255 
5.80055 0.132688 14.0644 5.79323 0.187972 14.286 5.81389 0.0684339 14.2671 
5.80055 0.132688 14.0644 5.83456 -0.0697863 14.2452 5.86322 -0.300555 14.1125 
5.87572 -0.647796 13.9232 5.88785 -0.850401 14.1216 5.884 -1.07875 14.0819 
5.884 -1.07875 14.0819 5.85653 -1.20049 13.7582 5.87572 -0.647796 13.9232 
5.85653 -1.20049 13.7582 5.884 -1.07875 14.0819 5.86267 -1.38744 14.0365 
5.80558 -1.72339 13.7538 5.85653 -1.20049 13.7582 5.86267 -1.38744 14.0365 
5.80558 -1.72339 13.7538 5.83456 -1.63102 13.9979 5.81389 -1.76924 13.976 
5.80558 -1.72339 13.7538 5.79323 -1.88877 13.9571 5.7417 -2.13801 13.9176 
5.7417 -2.13801 13.9176 5.72914 -2.05353 13.6276 5.80558 -1.72339 13.7538 
5.72914 -2.05353 13.6276 5.7417 -2.13801 13.9176 5.66654 -2.43154 13.8647 
5.63484 -2.46873 13.6381 5.59968 -2.64744 13.8369 5.53277 -2.83937 13.8065 
5.53277 -2.83937 13.8065 5.50028 -2.85642 13.5709 5.63484 -2.46873 13.6381 
5.50028 -2.85642 13.5709 5.51241 -2.89377 13.7979 5.40553 -3.15668 13.7551 
5.36743 -3.14591 13.4383 5.30477 -3.37359 13.7219 5.23333 -3.51515 13.6995 
5.23333 -3.51515 13.6995 5.13086 -3.64329 13.4401 5.36743 -3.14591 13.4383 
5.13086 -3.64329 13.4401 5.18481 -3.60612 13.6851 5.0533 -3.83486 13.6475 
4.92809 -3.97512 13.3925 5.13086 -3.64329 13.4401 5.0533 -3.83486 13.6475 
4.68334 -4.33008 13.3599 4.92809 -3.97512 13.3925 4.84968 -4.14806 13.5993 
4.92809 -3.97512 13.3925 4.91384 -4.05406 13.6141 4.84968 -4.14806 13.5993 
4.68334 -4.33008 13.3599 4.76337 -4.26858 13.5802 4.61515 -4.46236 13.5505 
4.68334 -4.33008 13.3599 4.61515 -4.46236 13.5505 4.41491 -4.69901 13.512 
4.3433 -4.72553 13.2765 4.25571 -4.86918 13.485 4.09375 -5.03085 13.4576 
4.09375 -5.03085 13.4576 3.99401 -5.07911 13.2365 4.3433 -4.72553 13.2765 
3.99401 -5.07911 13.2365 4.09375 -5.03085 13.4576 3.87384 -5.22978 13.4279 
3.56214 -5.43314 13.1668 3.99401 -5.07911 13.2365 3.85572 -5.24535 13.4255 
3.99401 -5.07911 13.2365 3.87384 -5.22978 13.4279 3.85572 -5.24535 13.4255 
3.56214 -5.43314 13.1668 3.67101 -5.39703 13.4014 3.56574 -5.47804 13.3886 
3.56214 -5.43314 13.1668 3.46079 -5.55512 13.3764 3.25197 -5.68284 13.2565 
2.91496 -5.85567 13.0961 3.01987 -5.84259 13.3309 2.94392 -5.88665 13.3239 
2.91496 -5.85567 13.0961 2.79007 -5.97138 13.3105 2.58081 -6.07778 13.2918 
2.58081 -6.07778 13.2918 2.46141 -6.09145 13.0766 2.91496 -5.85567 13.0961 
2.46141 -6.09145 13.0766 2.58081 -6.07778 13.2918 2.31407 -6.19778 13.2746 
1.92496 -6.29985 13.0249 2.46141 -6.09145 13.0766 2.27474 -6.21422 13.272 
2.46141 -6.09145 13.0766 2.31407 -6.19778 13.2746 2.27474 -6.21422 13.272 
1.92496 -6.29985 13.0249 2.06884 -6.29494 13.2592 1.92573 -6.34592 13.2511 
1.92496 -6.29985 13.0249 1.81944 -6.38113 13.2456 1.56767 -6.45584 13.2337 
1.56767 -6.45584 13.2337 1.4737 -6.4321 12.9969 1.92496 -6.29985 13.0249 
1.4737 -6.4321 12.9969 1.56767 -6.45584 13.2337 1.31017 -6.51996 13.2236 
0.963209 -6.55067 13.0184 1.4737 -6.4321 12.9969 1.20587 -6.54249 13.22 
1.4737 -6.4321 12.9969 1.31017 -6.51996 13.2236 1.20587 -6.54249 13.22 
0.963209 -6.55067 13.0184 1.05132 -6.5723 13.2153 0.811959 -6.61054 13.2082 
0.963209 -6.55067 13.0184 0.811959 -6.61054 13.2082 0.501267 -6.64585 13.2074 
0.401376 -6.60527 12.9756 0.264157 -6.6599 13.2014 0.0346292 -6.66598 13.1974 
0.0346292 -6.66598 13.1974 -0.0708477 -6.624 12.9923 0.401376 -6.60527 12.9756 
-0.0708477 -6.624 12.9923 0.0346292 -6.66598 13.1974 -0.272156 -6.65954 13.2015 
-0.638131 -6.58456 12.9746 -0.0708477 -6.624 12.9923 -0.272156 -6.65954 13.2015 
-0.638131 -6.58456 12.9746 -0.527782 -6.64235 13.2042 -0.652598 -6.62993 13.2062 
-0.638131 -6.58456 12.9746 -0.790345 -6.61313 13.2088 -1.03772 -6.57512 13.2153 
-1.03772 -6.57512 13.2153 -1.08546 -6.51751 12.9867 -0.638131 -6.58456 12.9746 
-1.08546 -6.51751 12.9867 -1.03772 -6.57512 13.2153 -1.34268 -6.5137 13.2274 
-1.47502 -6.4094 12.9182 -1.56638 -6.45619 13.2337 -1.78967 -6.39145 13.2447 
-1.78967 -6.39145 13.2447 -1.90292 -6.30494 13.0181 -1.47502 -6.4094 12.9182 
-1.90292 -6.30494 13.0181 -1.78967 -6.39145 13.2447 -2.08414 -6.28972 13.2605 
-2.38926 -6.1193 13.0525 -1.90292 -6.30494 13.0181 -2.08414 -6.28972 13.2605 
-2.38926 -6.1193 13.0525 -2.31407 -6.19778 13.2746 -2.4459 -6.14024 13.2837 
-2.38926 -6.1193 13.0525 -2.55464 -6.08986 13.2917 -2.78551 -5.97394 13.3101 
-2.78551 -5.97394 13.3101 -2.78558 -5.89762 12.9931 -2.38926 -6.1193 13.0525 
-2.78558 -5.89762 12.9931 -2.78551 -5.97394 13.3101 -3.05236 -5.82425 13.3345 
-3.11383 -5.70299 13.0043 -3.2436 -5.70374 13.3529 -3.44211 -5.5548 13.2833 
-3.75968 -5.27629 13.1885 -3.87384 -5.22978 13.4279 -3.99496 -5.12231 13.4449 
-3.99496 -5.12231 13.4449 -4.15512 -4.89305 13.1582 -3.75968 -5.27629 13.1885 
-4.15512 -4.89305 13.1582 -4.06887 -5.05371 13.4558 -4.25847 -4.86632 13.4855 
-4.46715 -4.59517 13.3126 -4.43397 -4.67655 13.5156 -4.51035 -4.58844 13.5295 
-4.46715 -4.59517 13.3126 -4.6033 -4.47622 13.5473 -4.74131 -4.29837 13.5754 
-4.74131 -4.29837 13.5754 -4.81968 -4.1359 13.3601 -4.46715 -4.59517 13.3126 
-4.81968 -4.1359 13.3601 -4.76337 -4.26858 13.5802 -4.93127 -4.02913 13.6184 
-5.11452 -3.6791 13.4508 -4.81968 -4.1359 13.3601 -4.93127 -4.02913 13.6184 
-5.11452 -3.6791 13.4508 -5.05441 -3.83309 13.6491 -5.16959 -3.63471 13.6762 
-5.11452 -3.6791 13.4508 -5.16959 -3.63471 13.6762 -5.31053 -3.3617 13.7238 
-5.45306 -2.97938 13.5448 -5.29569 -3.32339 13.4791 -5.31053 -3.3617 13.7238 
-5.45306 -2.97938 13.5448 -5.41404 -3.13598 13.7596 -5.46609 -3.01175 13.7792 
-5.45306 -2.97938 13.5448 -5.51241 -2.89377 13.7979 -5.59709 -2.65598 13.8357 
-5.59709 -2.65598 13.8357 -5.59948 -2.57324 13.6116 -5.45306 -2.97938 13.5448 
-5.59948 -2.57324 13.6116 -5.59709 -2.65598 13.8357 -5.68585 -2.36362 13.8833 
-5.70083 -2.22488 13.6683 -5.74023 -2.14444 13.9166 -5.78884 -1.91566 13.9516 
-5.78884 -1.91566 13.9516 -5.80299 -1.7536 13.7641 -5.70083 -2.22488 13.6683 
-5.80299 -1.7536 13.7641 -5.78884 -1.91566 13.9516 -5.83456 -1.63102 13.9979 
-5.86589 -1.18725 13.8346 -5.80299 -1.7536 13.7641 -5.84048 -1.58658 14.005 
-5.80299 -1.7536 13.7641 -5.83456 -1.63102 13.9979 -5.84048 -1.58658 14.005 
-5.86589 -1.18725 13.8346 -5.86414 -1.37169 14.039 -5.87599 -1.21923 14.0631 
-5.86589 -1.18725 13.8346 -5.88192 -1.11131 14.0802 -5.88785 -0.850401 14.1216 
-5.8 -0.0146841 13.8699 -5.84901 -0.205783 14.0172 -5.75417 0.36669 14.0726 
-5.233 1.7721 14.033 -5.31011 1.67715 14.4267 -5.12041 2.03611 14.3457 
-4.59479 2.78239 14.2437 -4.8554 2.45816 14.4297 -4.51379 2.90461 14.4908 
-4.25353 3.17791 14.3646 -4.25814 3.181 14.6619 -3.98861 3.44921 14.4551 
-0.159803 4.98713 14.6073 -0.271477 4.97485 14.94 0.116053 4.98984 14.8143 
2.42853 4.46845 14.5498 2.31178 4.51555 14.817 2.66123 4.36112 14.7155 
3.40411 3.91073 14.44 3.09713 4.11937 14.6951 3.55895 3.80547 14.6301 
3.9178 3.50172 14.3891 3.86585 3.55154 14.7195 4.15765 3.28972 14.5437 
5.80135 -0.16363 13.7369 5.86322 -0.300555 14.1125 5.87572 -0.647796 13.9232 
4.49337 -4.48397 13.1307 4.68334 -4.33008 13.3599 4.3433 -4.72553 13.2765 
3.85065 -5.14479 13.0574 3.99401 -5.07911 13.2365 3.56214 -5.43314 13.1668 
3.13867 -5.66123 12.9462 3.25197 -5.68284 13.2565 2.91496 -5.85567 13.0961 
2.30004 -6.10697 12.905 2.46141 -6.09145 13.0766 1.92496 -6.29985 13.0249 
0.698706 -6.5279 12.8257 0.963209 -6.55067 13.0184 0.401376 -6.60527 12.9756 
-0.15458 -6.55715 12.7944 -0.0708477 -6.624 12.9923 -0.638131 -6.58456 12.9746 
-3.5325 -5.39318 12.9933 -3.44211 -5.5548 13.2833 -3.75968 -5.27629 13.1885 
-5.80011 -1.56668 13.6241 -5.80299 -1.7536 13.7641 -5.86589 -1.18725 13.8346 
-5.79664 -0.41388 13.5954 -5.87596 -0.721333 13.9014 -5.84901 -0.205783 14.0172 
-5.79664 -0.41388 13.5954 -5.84901 -0.205783 14.0172 -5.8 -0.0146841 13.8699 
-5.71507 0.385058 13.8452 -5.75417 0.36669 14.0726 -5.63943 0.818675 14.146 
-5.50511 1.13499 13.9701 -5.63943 0.818675 14.146 -5.47411 1.30325 14.2355 
-5.28031 1.62262 13.911 -5.47411 1.30325 14.2355 -5.233 1.7721 14.033 
-4.94196 2.28856 14.1587 -5.12041 2.03611 14.3457 -4.8554 2.45816 14.4297 
-4.94196 2.28856 14.1587 -4.8554 2.45816 14.4297 -4.59479 2.78239 14.2437 
-4.59479 2.78239 14.2437 -4.51379 2.90461 14.4908 -4.25353 3.17791 14.3646 
-2.86322 4.24218 14.421 -2.93448 4.21572 14.6804 -2.45199 4.46398 14.7282 
-2.42953 4.45394 14.3925 -2.45199 4.46398 14.7282 -1.94885 4.66609 14.6567 
-0.675848 4.9462 14.5733 -0.707878 4.94998 14.8079 -0.159803 4.98713 14.6073 
0.393396 4.97273 14.5839 0.116053 4.98984 14.8143 0.529736 4.96561 14.8098 
0.393396 4.97273 14.5839 0.529736 4.96561 14.8098 0.910234 4.9258 14.6923 
1.41487 4.81505 14.5706 1.39703 4.82441 14.7817 1.90943 4.67823 14.7515 
1.89147 4.67473 14.5391 1.90943 4.67823 14.7515 2.42853 4.46845 14.5498 
2.88128 4.23451 14.467 2.66123 4.36112 14.7155 3.09713 4.11937 14.6951 
2.88128 4.23451 14.467 3.09713 4.11937 14.6951 3.40411 3.91073 14.44 
3.40411 3.91073 14.44 3.55895 3.80547 14.6301 3.9178 3.50172 14.3891 
4.2862 3.13068 14.2758 4.15765 3.28972 14.5437 4.48552 2.93657 14.4817 
4.56249 2.81428 14.2424 4.48552 2.93657 14.4817 4.815 2.51753 14.4213 
4.79848 2.50323 14.1928 4.815 2.51753 14.4213 5.09177 2.08479 14.3457 
5.06335 2.095 14.1422 5.09177 2.08479 14.3457 5.28072 1.73137 14.2971 
5.30406 1.60957 13.9958 5.28072 1.73137 14.2971 5.45171 1.35386 14.2203 
5.71431 0.361469 13.8133 5.69548 0.61669 14.103 5.80055 0.132688 14.0644 
5.8109 -0.799198 13.5535 5.87572 -0.647796 13.9232 5.85653 -1.20049 13.7582 
5.72753 -1.72452 13.4082 5.80558 -1.72339 13.7538 5.72914 -2.05353 13.6276 
5.49219 -2.64353 13.2705 5.63484 -2.46873 13.6381 5.50028 -2.85642 13.5709 
5.49219 -2.64353 13.2705 5.50028 -2.85642 13.5709 5.36743 -3.14591 13.4383 
5.12347 -3.55245 13.2443 5.36743 -3.14591 13.4383 5.13086 -3.64329 13.4401 
5.12347 -3.55245 13.2443 5.13086 -3.64329 13.4401 4.92809 -3.97512 13.3925 
4.79837 -4.0541 13.1409 4.92809 -3.97512 13.3925 4.68334 -4.33008 13.3599 
4.79837 -4.0541 13.1409 4.68334 -4.33008 13.3599 4.49337 -4.48397 13.1307 
4.12687 -4.85645 13.0271 4.3433 -4.72553 13.2765 3.99401 -5.07911 13.2365 
4.12687 -4.85645 13.0271 3.99401 -5.07911 13.2365 3.85065 -5.14479 13.0574 
3.56018 -5.33983 12.9335 3.56214 -5.43314 13.1668 3.13867 -5.66123 12.9462 
2.64928 -5.91647 12.8592 2.91496 -5.85567 13.0961 2.46141 -6.09145 13.0766 
2.64928 -5.91647 12.8592 2.46141 -6.09145 13.0766 2.30004 -6.10697 12.905 
1.85699 -6.18814 12.6732 1.92496 -6.29985 13.0249 1.4737 -6.4321 12.9969 
1.17322 -6.42208 12.7674 1.4737 -6.4321 12.9969 0.963209 -6.55067 13.0184 
1.17322 -6.42208 12.7674 0.963209 -6.55067 13.0184 0.698706 -6.5279 12.8257 
0.261815 -6.53739 12.7612 0.401376 -6.60527 12.9756 -0.0708477 -6.624 12.9923 
-0.661928 -6.5081 12.7665 -0.638131 -6.58456 12.9746 -1.08546 -6.51751 12.9867 
-1.0503 -6.42354 12.7116 -1.08546 -6.51751 12.9867 -1.47502 -6.4094 12.9182 
-1.92156 -6.22437 12.8091 -1.90292 -6.30494 13.0181 -2.38926 -6.1193 13.0525 
-2.41464 -6.02808 12.8415 -2.38926 -6.1193 13.0525 -2.78558 -5.89762 12.9931 
-3.93863 -5.03421 12.9989 -3.75968 -5.27629 13.1885 -4.15512 -4.89305 13.1582 
-4.47669 -4.47969 13.0875 -4.46715 -4.59517 13.3126 -4.81968 -4.1359 13.3601 
-4.94276 -3.84597 13.1871 -4.81968 -4.1359 13.3601 -5.11452 -3.6791 13.4508 
-5.15489 -3.42595 13.1536 -5.11452 -3.6791 13.4508 -5.29569 -3.32339 13.4791 
-5.15489 -3.42595 13.1536 -5.29569 -3.32339 13.4791 -5.45306 -2.97938 13.5448 
-5.41772 -2.92498 13.333 -5.45306 -2.97938 13.5448 -5.59948 -2.57324 13.6116 
-5.59037 -2.44053 13.4116 -5.59948 -2.57324 13.6116 -5.70083 -2.22488 13.6683 
-5.71855 -1.93504 13.4898 -5.70083 -2.22488 13.6683 -5.80299 -1.7536 13.7641 
-5.71855 -1.93504 13.4898 -5.80299 -1.7536 13.7641 -5.80011 -1.56668 13.6241 
-5.82386 -1.1664 13.6115 -5.86589 -1.18725 13.8346 -5.87596 -0.721333 13.9014 
-5.72023 0.0210177 13.5777 -5.8 -0.0146841 13.8699 -5.71507 0.385058 13.8452 
-5.65323 0.406123 13.6319 -5.71507 0.385058 13.8452 -5.59803 0.734008 13.759 
-5.44438 1.14425 13.7435 -5.50511 1.13499 13.9701 -5.28031 1.62262 13.911 
-4.89286 2.29179 13.9528 -4.94196 2.28856 14.1587 -4.59479 2.78239 14.2437 
-4.25032 3.11071 14.0549 -4.59479 2.78239 14.2437 -4.25353 3.17791 14.3646 
-4.25032 3.11071 14.0549 -4.25353 3.17791 14.3646 -3.98861 3.44921 14.4551 
-3.9088 3.45252 14.1202 -3.98861 3.44921 14.4551 -3.66589 3.72246 14.5143 
-3.59857 3.71303 14.1624 -3.66589 3.72246 14.5143 -3.35872 3.9523 14.5561 
-3.18819 4.00523 14.181 -3.35872 3.9523 14.5561 -2.86322 4.24218 14.421 
-1.87157 4.65277 14.3231 -1.94885 4.66609 14.6567 -1.56227 4.7844 14.6616 
-1.46822 4.75741 14.2621 -1.56227 4.7844 14.6616 -1.21855 4.86882 14.6819 
-1.03001 4.86497 14.3449 -1.21855 4.86882 14.6819 -0.675848 4.9462 14.5733 
-0.662069 4.92241 14.3602 -0.675848 4.9462 14.5733 -0.159803 4.98713 14.6073 
-0.105026 4.96231 14.3804 -0.159803 4.98713 14.6073 0.393396 4.97273 14.5839 
0.561419 4.93165 14.3423 0.393396 4.97273 14.5839 0.910234 4.9258 14.6923 
1.20468 4.83365 14.3466 0.910234 4.9258 14.6923 1.41487 4.81505 14.5706 
1.66648 4.71408 14.3143 1.41487 4.81505 14.5706 1.89147 4.67473 14.5391 
2.1428 4.54983 14.2858 1.89147 4.67473 14.5391 2.42853 4.46845 14.5498 
2.61884 4.33591 14.2605 2.42853 4.46845 14.5498 2.88128 4.23451 14.467 
2.96138 4.14904 14.2315 2.88128 4.23451 14.467 3.40411 3.91073 14.44 
3.40751 3.86813 14.2014 3.40411 3.91073 14.44 3.9178 3.50172 14.3891 
3.89594 3.4635 14.1193 3.9178 3.50172 14.3891 4.2862 3.13068 14.2758 
4.23973 3.12808 14.0716 4.2862 3.13068 14.2758 4.56249 2.81428 14.2424 
4.59147 2.71046 14.0031 4.56249 2.81428 14.2424 4.79848 2.50323 14.1928 
4.89359 2.27815 13.9221 4.79848 2.50323 14.1928 5.06335 2.095 14.1422 
5.11585 1.84624 13.7792 5.06335 2.095 14.1422 5.30406 1.60957 13.9958 
5.4561 1.13281 13.7651 5.53185 1.12944 14.1084 5.60888 0.76052 13.8422 
5.74441 -1.32617 13.361 5.8109 -0.799198 13.5535 5.85653 -1.20049 13.7582 
5.74441 -1.32617 13.361 5.85653 -1.20049 13.7582 5.72753 -1.72452 13.4082 
5.72753 -1.72452 13.4082 5.72914 -2.05353 13.6276 5.6163 -2.28943 13.3747 
5.25675 -3.1027 13.0802 5.36743 -3.14591 13.4383 5.12347 -3.55245 13.2443 
4.88955 -3.7798 12.9776 5.12347 -3.55245 13.2443 4.79837 -4.0541 13.1409 
4.58702 -4.20679 12.9049 4.79837 -4.0541 13.1409 4.49337 -4.48397 13.1307 
4.26429 -4.57887 12.8335 4.49337 -4.48397 13.1307 4.12687 -4.85645 13.0271 
3.98868 -4.86656 12.8036 4.12687 -4.85645 13.0271 3.85065 -5.14479 13.0574 
3.70027 -5.12192 12.7604 3.85065 -5.14479 13.0574 3.56018 -5.33983 12.9335 
3.28436 -5.42924 12.7014 3.56018 -5.33983 12.9335 3.13867 -5.66123 12.9462 
2.85539 -5.69258 12.6571 3.13867 -5.66123 12.9462 2.64928 -5.91647 12.8592 
2.38397 -5.93632 12.6262 2.64928 -5.91647 12.8592 2.30004 -6.10697 12.905 
2.38397 -5.93632 12.6262 2.30004 -6.10697 12.905 1.85699 -6.18814 12.6732 
1.13729 -6.33468 12.5667 1.17322 -6.42208 12.7674 0.698706 -6.5279 12.8257 
0.652971 -6.41606 12.5645 0.698706 -6.5279 12.8257 0.261815 -6.53739 12.7612 
0.0730592 -6.4537 12.5661 0.261815 -6.53739 12.7612 -0.15458 -6.55715 12.7944 
-0.400177 -6.43891 12.5649 -0.15458 -6.55715 12.7944 -0.661928 -6.5081 12.7665 
-0.919874 -6.33799 12.4986 -0.661928 -6.5081 12.7665 -1.0503 -6.42354 12.7116 
-1.39156 -6.28002 12.5791 -1.47502 -6.4094 12.9182 -1.92156 -6.22437 12.8091 
-1.90429 -6.1309 12.6034 -1.92156 -6.22437 12.8091 -2.41464 -6.02808 12.8415 
-2.39075 -5.93728 12.6348 -2.41464 -6.02808 12.8415 -2.78558 -5.89762 12.9931 
-2.73609 -5.76542 12.6612 -2.78558 -5.89762 12.9931 -3.11383 -5.70299 13.0043 
-3.08533 -5.56867 12.6975 -3.11383 -5.70299 13.0043 -3.5325 -5.39318 12.9933 
-3.51016 -5.28091 12.7487 -3.5325 -5.39318 12.9933 -3.93863 -5.03421 12.9989 
-3.90581 -4.94904 12.7946 -3.93863 -5.03421 12.9989 -4.15512 -4.89305 13.1582 
-4.24585 -4.60593 12.8375 -4.15512 -4.89305 13.1582 -4.47669 -4.47969 13.0875 
-5.44551 -2.62615 13.1446 -5.41772 -2.92498 13.333 -5.59037 -2.44053 13.4116 
-5.56474 -2.26115 13.2162 -5.59037 -2.44053 13.4116 -5.71855 -1.93504 13.4898 
-5.66134 -1.87876 13.2809 -5.71855 -1.93504 13.4898 -5.80011 -1.56668 13.6241 
-5.73582 -1.39738 13.3501 -5.80011 -1.56668 13.6241 -5.82386 -1.1664 13.6115 
-4.97371 2.03899 13.7216 -5.233 1.7721 14.033 -4.89286 2.29179 13.9528 
-2.64529 4.27774 14.0927 -2.86322 4.24218 14.421 -2.42953 4.45394 14.3925 
-2.22512 4.47864 14.146 -2.42953 4.45394 14.3925 -1.87157 4.65277 14.3231 
5.26726 1.47396 13.6701 5.30406 1.60957 13.9958 5.4561 1.13281 13.7651 
5.67468 0.152664 13.5258 5.71431 0.361469 13.8133 5.80135 -0.16363 13.7369 
5.70511 -0.371314 13.3687 5.80135 -0.16363 13.7369 5.81672 -0.500926 13.6579 
5.70511 -0.371314 13.3687 5.81672 -0.500926 13.6579 5.8109 -0.799198 13.5535 
5.57077 -2.1215 13.1656 5.72753 -1.72452 13.4082 5.6163 -2.28943 13.3747 
5.57077 -2.1215 13.1656 5.6163 -2.28943 13.3747 5.49219 -2.64353 13.2705 
-0.919874 -6.33799 12.4986 -1.0503 -6.42354 12.7116 -1.39156 -6.28002 12.5791 
-5.67427 -0.576638 13.2539 -5.79872 -0.824186 13.5133 -5.79664 -0.41388 13.5954 
-5.61924 -0.0602771 13.2894 -5.79664 -0.41388 13.5954 -5.72023 0.0210177 13.5777 
-5.61924 -0.0602771 13.2894 -5.72023 0.0210177 13.5777 -5.65323 0.406123 13.6319 
-5.5298 0.423919 13.3476 -5.65323 0.406123 13.6319 -5.59803 0.734008 13.759 
-5.47702 0.780871 13.4847 -5.59803 0.734008 13.759 -5.44438 1.14425 13.7435 
-5.31959 1.16783 13.4689 -5.44438 1.14425 13.7435 -5.20935 1.587 13.6634 
-5.20935 1.587 13.6634 -5.28031 1.62262 13.911 -4.97371 2.03899 13.7216 
-4.5961 2.52773 13.6628 -4.89286 2.29179 13.9528 -4.59125 2.71587 14.0081 
-4.40379 2.79755 13.7403 -4.59125 2.71587 14.0081 -4.25032 3.11071 14.0549 
-4.05611 3.1805 13.7835 -4.25032 3.11071 14.0549 -3.9088 3.45252 14.1202 
-3.63238 3.5987 13.917 -3.9088 3.45252 14.1202 -3.59857 3.71303 14.1624 
-3.63238 3.5987 13.917 -3.59857 3.71303 14.1624 -3.18819 4.00523 14.181 
-3.1739 3.94453 13.9787 -3.18819 4.00523 14.181 -2.64529 4.27774 14.0927 
-2.64529 4.27774 14.0927 -2.42953 4.45394 14.3925 -2.22512 4.47864 14.146 
-1.79591 4.57843 13.9856 -1.87157 4.65277 14.3231 -1.46822 4.75741 14.2621 
-1.03244 4.79156 14.0596 -1.46822 4.75741 14.2621 -1.03001 4.86497 14.3449 
-1.03244 4.79156 14.0596 -1.03001 4.86497 14.3449 -0.662069 4.92241 14.3602 
0.131403 4.87933 14.0659 -0.105026 4.96231 14.3804 0.561419 4.93165 14.3423 
0.798733 4.83307 14.0778 0.561419 4.93165 14.3423 1.20468 4.83365 14.3466 
1.27794 4.74099 14.0635 1.20468 4.83365 14.3466 1.66648 4.71408 14.3143 
1.75997 4.59964 14.0069 1.66648 4.71408 14.3143 2.1428 4.54983 14.2858 
2.35427 4.39189 14.0426 2.1428 4.54983 14.2858 2.61884 4.33591 14.2605 
2.82963 4.14327 13.9791 2.61884 4.33591 14.2605 2.96138 4.14904 14.2315 
2.82963 4.14327 13.9791 2.96138 4.14904 14.2315 3.40751 3.86813 14.2014 
3.54253 3.67542 13.9431 3.40751 3.86813 14.2014 3.89594 3.4635 14.1193 
3.92192 3.31018 13.7972 3.89594 3.4635 14.1193 4.23973 3.12808 14.0716 
4.36232 2.87774 13.8028 4.23973 3.12808 14.0716 4.59147 2.71046 14.0031 
4.72706 2.39693 13.7222 4.59147 2.71046 14.0031 4.89359 2.27815 13.9221 
4.72706 2.39693 13.7222 4.89359 2.27815 13.9221 5.11585 1.84624 13.7792 
5.34253 1.06388 13.4227 5.4561 1.13281 13.7651 5.55874 0.677703 13.5862 
5.53723 0.413825 13.3579 5.55874 0.677703 13.5862 5.67468 0.152664 13.5258 
5.60386 -0.056422 13.265 5.67468 0.152664 13.5258 5.70511 -0.371314 13.3687 
5.67427 -0.842652 13.2118 5.8109 -0.799198 13.5535 5.74441 -1.32617 13.361 
5.47571 -2.04874 12.9569 5.57077 -2.1215 13.1656 5.40149 -2.54176 13.0048 
5.40149 -2.54176 13.0048 5.49219 -2.64353 13.2705 5.25675 -3.1027 13.0802 
5.13105 -3.02323 12.7993 5.25675 -3.1027 13.0802 5.08296 -3.44745 13.0283 
4.92026 -3.45304 12.747 5.08296 -3.44745 13.0283 4.88955 -3.7798 12.9776 
4.63413 -3.89387 12.6723 4.88955 -3.7798 12.9776 4.58702 -4.20679 12.9049 
4.25782 -4.39313 12.6172 4.58702 -4.20679 12.9049 4.26429 -4.57887 12.8335 
4.25782 -4.39313 12.6172 4.26429 -4.57887 12.8335 3.98868 -4.86656 12.8036 
3.91269 -4.74087 12.5581 3.98868 -4.86656 12.8036 3.70027 -5.12192 12.7604 
3.63238 -5.01852 12.5521 3.70027 -5.12192 12.7604 3.28436 -5.42924 12.7014 
3.22939 -5.32684 12.5085 3.28436 -5.42924 12.7014 2.85539 -5.69258 12.6571 
2.69949 -5.63034 12.4346 2.85539 -5.69258 12.6571 2.38397 -5.93632 12.6262 
2.1063 -5.91533 12.4084 2.38397 -5.93632 12.6262 1.85699 -6.18814 12.6732 
1.59734 -6.07645 12.3604 1.85699 -6.18814 12.6732 1.55302 -6.27524 12.6549 
1.59734 -6.07645 12.3604 1.55302 -6.27524 12.6549 1.13729 -6.33468 12.5667 
1.11597 -6.17893 12.322 1.13729 -6.33468 12.5667 0.652971 -6.41606 12.5645 
-0.150259 -6.28096 12.297 0.0730592 -6.4537 12.5661 -0.400177 -6.43891 12.5649 
-0.740927 -6.24134 12.3097 -0.400177 -6.43891 12.5649 -0.919874 -6.33799 12.4986 
-1.39703 -6.10952 12.324 -1.39156 -6.28002 12.5791 -1.90429 -6.1309 12.6034 
-1.90191 -5.93576 12.3167 -1.90429 -6.1309 12.6034 -2.39075 -5.93728 12.6348 
-2.3518 -5.77736 12.3783 -2.39075 -5.93728 12.6348 -2.73609 -5.76542 12.6612 
-2.75859 -5.55577 12.3868 -2.73609 -5.76542 12.6612 -3.08533 -5.56867 12.6975 
-3.22362 -5.28838 12.4569 -3.08533 -5.56867 12.6975 -3.51016 -5.28091 12.7487 
-3.51934 -5.0706 12.4931 -3.51016 -5.28091 12.7487 -3.90581 -4.94904 12.7946 
-3.94001 -4.74169 12.5885 -3.90581 -4.94904 12.7946 -4.24585 -4.60593 12.8375 
-4.36232 -4.29757 12.6663 -4.24585 -4.60593 12.8375 -4.64185 -4.18816 12.9755 
-4.63013 -3.88695 12.6602 -4.64185 -4.18816 12.9755 -4.81804 -3.88538 12.959 
-4.63013 -3.88695 12.6602 -4.81804 -3.88538 12.959 -4.95031 -3.49765 12.8295 
-5.33991 -2.52665 12.8908 -5.44551 -2.62615 13.1446 -5.56474 -2.26115 13.2162 
-5.4526 -2.16437 12.9488 -5.56474 -2.26115 13.2162 -5.66134 -1.87876 13.2809 
-5.542 -1.82028 13.0139 -5.66134 -1.87876 13.2809 -5.73582 -1.39738 13.3501 
-5.54923 -0.638502 13.0178 -5.67427 -0.576638 13.2539 -5.61924 -0.0602771 13.2894 
-5.27724 0.882686 13.1957 -5.47702 0.780871 13.4847 -5.31959 1.16783 13.4689 
-5.06842 1.6103 13.417 -5.20935 1.587 13.6634 -4.97371 2.03899 13.7216 
-4.83574 2.05751 13.4857 -4.97371 2.03899 13.7216 -4.5961 2.52773 13.6628 
-3.56187 3.54961 13.7185 -3.63238 3.5987 13.917 -3.1739 3.94453 13.9787 
-2.72932 4.15634 13.8952 -3.1739 3.94453 13.9787 -2.64529 4.27774 14.0927 
-2.31856 4.3548 13.9143 -2.64529 4.27774 14.0927 -2.22512 4.47864 14.146 
-2.31856 4.3548 13.9143 -2.22512 4.47864 14.146 -1.79591 4.57843 13.9856 
-1.79591 4.57843 13.9856 -1.46822 4.75741 14.2621 -1.03244 4.79156 14.0596 
-0.643026 4.73337 13.8 -1.03244 4.79156 14.0596 -0.314371 4.88128 14.0901 
2.30693 4.32723 13.8412 2.35427 4.39189 14.0426 2.82963 4.14327 13.9791 
3.53434 3.56728 13.7154 3.54253 3.67542 13.9431 3.92192 3.31018 13.7972 
4.28279 2.83757 13.6057 4.36232 2.87774 13.8028 4.72706 2.39693 13.7222 
4.90969 2.00282 13.5541 4.72706 2.39693 13.7222 5.11585 1.84624 13.7792 
5.10869 1.59902 13.4778 5.11585 1.84624 13.7792 5.26726 1.47396 13.6701 
5.10869 1.59902 13.4778 5.26726 1.47396 13.6701 5.34253 1.06388 13.4227 
5.34253 1.06388 13.4227 5.55874 0.677703 13.5862 5.53723 0.413825 13.3579 
5.57498 -0.668987 13.0511 5.70511 -0.371314 13.3687 5.67427 -0.842652 13.2118 
5.57498 -0.668987 13.0511 5.67427 -0.842652 13.2118 5.63214 -1.22079 13.1121 
5.2957 -2.52246 12.8234 5.40149 -2.54176 13.0048 5.13105 -3.02323 12.7993 
3.56866 -4.89414 12.3695 3.63238 -5.01852 12.5521 3.22939 -5.32684 12.5085 
3.15071 -5.16976 12.2815 3.22939 -5.32684 12.5085 2.69949 -5.63034 12.4346 
2.58615 -5.57437 12.2932 2.69949 -5.63034 12.4346 2.1063 -5.91533 12.4084 
1.86643 -5.80861 12.167 2.1063 -5.91533 12.4084 1.59734 -6.07645 12.3604 
-0.740927 -6.24134 12.3097 -0.919874 -6.33799 12.4986 -1.39703 -6.10952 12.324 
-3.89787 -4.63251 12.4405 -3.94001 -4.74169 12.5885 -4.36232 -4.29757 12.6663 
-4.27933 -4.19547 12.4853 -4.36232 -4.29757 12.6663 -4.63013 -3.88695 12.6602 
-4.85621 -3.3712 12.6183 -4.95031 -3.49765 12.8295 -5.20368 -3.12888 12.9865 
-5.091 -2.94997 12.7085 -5.20368 -3.12888 12.9865 -5.33991 -2.52665 12.8908 
-5.45245 -0.0150906 13.0397 -5.61924 -0.0602771 13.2894 -5.5298 0.423919 13.3476 
-5.3649 0.446553 13.0976 -5.5298 0.423919 13.3476 -5.27724 0.882686 13.1957 
-5.08408 1.33768 13.2274 -5.31959 1.16783 13.4689 -5.06842 1.6103 13.417 
-4.1951 2.82274 13.4735 -4.40379 2.79755 13.7403 -4.05611 3.1805 13.7835 
-3.82094 3.22029 13.5352 -4.05611 3.1805 13.7835 -3.56187 3.54961 13.7185 
-2.60458 4.10882 13.6822 -2.72932 4.15634 13.8952 -2.31856 4.3548 13.9143 
-1.9516 4.41082 13.7406 -2.31856 4.3548 13.9143 -1.79591 4.57843 13.9856 
-1.22216 4.61762 13.756 -1.79591 4.57843 13.9856 -1.03244 4.79156 14.0596 
-1.22216 4.61762 13.756 -1.03244 4.79156 14.0596 -0.643026 4.73337 13.8 
-0.104961 4.75234 13.7801 -0.314371 4.88128 14.0901 0.131403 4.87933 14.0659 
1.10435 4.64569 13.7637 0.798733 4.83307 14.0778 1.27794 4.74099 14.0635 
1.10435 4.64569 13.7637 1.27794 4.74099 14.0635 1.75997 4.59964 14.0069 
1.69437 4.47179 13.7003 1.75997 4.59964 14.0069 2.30693 4.32723 13.8412 
2.91986 3.91915 13.6456 2.82963 4.14327 13.9791 3.24173 3.85149 13.8613 
4.03703 2.98932 13.4903 3.92192 3.31018 13.7972 4.28279 2.83757 13.6057 
4.82555 1.9213 13.3384 4.90969 2.00282 13.5541 5.10869 1.59902 13.4778 
5.13784 1.22851 13.2161 5.10869 1.59902 13.4778 5.34253 1.06388 13.4227 
5.36662 0.503024 13.1215 5.34253 1.06388 13.4227 5.53723 0.413825 13.3579 
5.36662 0.503024 13.1215 5.53723 0.413825 13.3579 5.60386 -0.056422 13.265 
5.45208 -0.0476264 13.0261 5.60386 -0.056422 13.265 5.57498 -0.668987 13.0511 
5.49248 -1.28415 12.8913 5.63214 -1.22079 13.1121 5.59089 -1.65344 13.069 
5.3516 -1.88333 12.7401 5.59089 -1.65344 13.069 5.47571 -2.04874 12.9569 
5.3516 -1.88333 12.7401 5.47571 -2.04874 12.9569 5.2957 -2.52246 12.8234 
5.15875 -2.48438 12.6313 5.2957 -2.52246 12.8234 5.13105 -3.02323 12.7993 
4.97515 -2.92706 12.561 5.13105 -3.02323 12.7993 4.92026 -3.45304 12.747 
4.70421 -3.46323 12.491 4.92026 -3.45304 12.747 4.63413 -3.89387 12.6723 
4.35983 -3.94899 12.4054 4.63413 -3.89387 12.6723 4.25782 -4.39313 12.6172 
4.06935 -4.35254 12.3937 4.25782 -4.39313 12.6172 3.91269 -4.74087 12.5581 
3.80033 -4.55884 12.3048 3.91269 -4.74087 12.5581 3.56866 -4.89414 12.3695 
1.34259 -5.91289 12.0929 1.59734 -6.07645 12.3604 1.11597 -6.17893 12.322 
0.703234 -6.04839 12.0877 1.11597 -6.17893 12.322 0.742671 -6.24194 12.3169 
0.703234 -6.04839 12.0877 0.742671 -6.24194 12.3169 0.324856 -6.29748 12.3287 
0.107494 -6.08733 12.078 0.324856 -6.29748 12.3287 -0.150259 -6.28096 12.297 
-0.506187 -6.06599 12.0811 -0.150259 -6.28096 12.297 -0.740927 -6.24134 12.3097 
-0.972136 -5.99912 12.0891 -0.740927 -6.24134 12.3097 -1.39703 -6.10952 12.324 
-1.34879 -5.91253 12.0962 -1.39703 -6.10952 12.324 -1.90191 -5.93576 12.3167 
-2.41686 -5.52211 12.1533 -2.3518 -5.77736 12.3783 -2.75859 -5.55577 12.3868 
-2.97069 -5.18421 12.1781 -2.75859 -5.55577 12.3868 -3.22362 -5.28838 12.4569 
-3.43899 -4.88041 12.2554 -3.22362 -5.28838 12.4569 -3.51934 -5.0706 12.4931 
-3.43899 -4.88041 12.2554 -3.51934 -5.0706 12.4931 -3.89787 -4.63251 12.4405 
-4.63285 -3.53357 12.4563 -4.63013 -3.88695 12.6602 -4.85621 -3.3712 12.6183 
-5.17825 -2.44831 12.645 -5.33991 -2.52665 12.8908 -5.4526 -2.16437 12.9488 
-5.33846 -1.86715 12.7216 -5.4526 -2.16437 12.9488 -5.542 -1.82028 13.0139 
-5.33846 -1.86715 12.7216 -5.542 -1.82028 13.0139 -5.60303 -1.44069 13.0692 
-5.49226 -1.28132 12.889 -5.60303 -1.44069 13.0692 -5.65778 -1.02831 13.1593 
-5.39383 -0.304863 12.8835 -5.54923 -0.638502 13.0178 -5.45245 -0.0150906 13.0397 
-4.78508 1.8943 13.2687 -5.06842 1.6103 13.417 -4.83574 2.05751 13.4857 
-4.47447 2.41534 13.3688 -4.83574 2.05751 13.4857 -4.5961 2.52773 13.6628 
-4.47447 2.41534 13.3688 -4.5961 2.52773 13.6628 -4.1951 2.82274 13.4735 
-3.21834 3.673 13.544 -3.56187 3.54961 13.7185 -3.15812 3.85255 13.765 
-3.21834 3.673 13.544 -3.15812 3.85255 13.765 -2.60458 4.10882 13.6822 
2.37361 4.17215 13.6225 2.30693 4.32723 13.8412 2.63933 4.16092 13.812 
2.37361 4.17215 13.6225 2.63933 4.16092 13.812 2.91986 3.91915 13.6456 
3.29438 3.61787 13.5446 3.24173 3.85149 13.8613 3.53434 3.56728 13.7154 
3.677 3.31436 13.5094 3.53434 3.56728 13.7154 3.92192 3.31018 13.7972 
3.677 3.31436 13.5094 3.92192 3.31018 13.7972 4.03703 2.98932 13.4903 
4.37125 2.46634 13.2951 4.28279 2.83757 13.6057 4.58666 2.44509 13.5449 
4.37125 2.46634 13.2951 4.58666 2.44509 13.5449 4.82555 1.9213 13.3384 
5.43924 -0.65602 12.8679 5.57498 -0.668987 13.0511 5.49248 -1.28415 12.8913 
5.35113 -1.26932 12.7121 5.49248 -1.28415 12.8913 5.3516 -1.88333 12.7401 
3.96514 -4.24271 12.2394 4.06935 -4.35254 12.3937 3.80033 -4.55884 12.3048 
3.4261 -4.75535 12.1644 3.56866 -4.89414 12.3695 3.15071 -5.16976 12.2815 
2.75022 -5.28917 12.1376 3.15071 -5.16976 12.2815 2.58615 -5.57437 12.2932 
2.24572 -5.54052 12.094 2.58615 -5.57437 12.2932 1.86643 -5.80861 12.167 
-1.87711 -5.71064 12.0854 -1.90191 -5.93576 12.3167 -2.41686 -5.52211 12.1533 
-2.41686 -5.52211 12.1533 -2.75859 -5.55577 12.3868 -2.97069 -5.18421 12.1781 
-3.93305 -4.36231 12.282 -3.89787 -4.63251 12.4405 -4.27933 -4.19547 12.4853 
-4.33531 -3.90794 12.3643 -4.27933 -4.19547 12.4853 -4.63013 -3.88695 12.6602 
-4.33531 -3.90794 12.3643 -4.63013 -3.88695 12.6602 -4.63285 -3.53357 12.4563 
-4.86261 -2.95115 12.45 -4.85621 -3.3712 12.6183 -5.091 -2.94997 12.7085 
-4.86261 -2.95115 12.45 -5.091 -2.94997 12.7085 -5.17825 -2.44831 12.645 
-5.35602 -1.22225 12.7179 -5.49226 -1.28132 12.889 -5.54923 -0.638502 13.0178 
-5.23268 0.111346 12.8213 -5.45245 -0.0150906 13.0397 -5.3649 0.446553 13.0976 
-5.14295 0.566634 12.8877 -5.3649 0.446553 13.0976 -5.27724 0.882686 13.1957 
-4.98178 1.10582 12.9741 -5.27724 0.882686 13.1957 -5.08408 1.33768 13.2274 
-4.76898 1.618 13.0534 -5.08408 1.33768 13.2274 -4.78508 1.8943 13.2687 
-4.47445 2.1429 13.1358 -4.78508 1.8943 13.2687 -4.47447 2.41534 13.3688 
-4.20987 2.535 13.2077 -4.47447 2.41534 13.3688 -4.1951 2.82274 13.4735 
-3.86834 2.92999 13.2632 -4.1951 2.82274 13.4735 -3.82094 3.22029 13.5352 
-3.55105 3.24248 13.3181 -3.82094 3.22029 13.5352 -3.21834 3.673 13.544 
-2.70924 3.85044 13.4037 -3.21834 3.673 13.544 -2.60458 4.10882 13.6822 
-2.18248 4.13453 13.4619 -2.60458 4.10882 13.6822 -1.9516 4.41082 13.7406 
-1.58913 4.36097 13.4975 -1.9516 4.41082 13.7406 -1.22216 4.61762 13.756 
-0.940558 4.49703 13.4974 -1.22216 4.61762 13.756 -0.643026 4.73337 13.8 
-0.364724 4.5834 13.5301 -0.643026 4.73337 13.8 -0.104961 4.75234 13.7801 
0.138879 4.59725 13.5347 -0.104961 4.75234 13.7801 0.518785 4.74981 13.8079 
0.618792 4.55137 13.5153 0.518785 4.74981 13.8079 1.10435 4.64569 13.7637 
1.19689 4.46 13.5095 1.10435 4.64569 13.7637 1.69437 4.47179 13.7003 
1.86217 4.23677 13.4463 1.69437 4.47179 13.7003 2.37361 4.17215 13.6225 
2.50345 3.96952 13.4254 2.37361 4.17215 13.6225 2.91986 3.91915 13.6456 
2.99708 3.67204 13.3827 2.91986 3.91915 13.6456 3.29438 3.61787 13.5446 
3.38593 3.3759 13.3313 3.29438 3.61787 13.5446 3.677 3.31436 13.5094 
3.82955 2.96287 13.2609 3.677 3.31436 13.5094 4.03703 2.98932 13.4903 
3.82955 2.96287 13.2609 4.03703 2.98932 13.4903 4.37125 2.46634 13.2951 
4.85396 1.44014 13.0278 4.82555 1.9213 13.3384 5.13784 1.22851 13.2161 
5.06618 0.869708 12.9414 5.13784 1.22851 13.2161 5.36662 0.503024 13.1215 
5.17229 0.411975 12.8612 5.36662 0.503024 13.1215 5.45208 -0.0476264 13.0261 
5.25145 -0.0698785 12.7869 5.45208 -0.0476264 13.0261 5.43924 -0.65602 12.8679 
5.27881 -0.651836 12.6911 5.43924 -0.65602 12.8679 5.35113 -1.26932 12.7121 
5.06872 -2.12591 12.4707 5.3516 -1.88333 12.7401 5.15875 -2.48438 12.6313 
4.90621 -2.57269 12.3972 5.15875 -2.48438 12.6313 4.97515 -2.92706 12.561 
4.70623 -3.01647 12.3302 4.97515 -2.92706 12.561 4.70421 -3.46323 12.491 
4.47973 -3.41375 12.2709 4.70421 -3.46323 12.491 4.35983 -3.94899 12.4054 
4.19176 -3.81435 12.202 4.35983 -3.94899 12.4054 3.96514 -4.24271 12.2394 
3.50821 -4.50678 12.0733 3.80033 -4.55884 12.3048 3.4261 -4.75535 12.1644 
3.01229 -4.91515 12.0245 3.15071 -5.16976 12.2815 2.75022 -5.28917 12.1376 
2.51547 -5.19743 11.962 2.75022 -5.28917 12.1376 2.24572 -5.54052 12.094 
1.85859 -5.51226 11.9257 2.24572 -5.54052 12.094 1.86643 -5.80861 12.167 
1.85859 -5.51226 11.9257 1.86643 -5.80861 12.167 1.34259 -5.91289 12.0929 
1.29565 -5.6743 11.894 1.34259 -5.91289 12.0929 0.848537 -5.81416 11.9105 
0.360513 -5.84549 11.8872 0.703234 -6.04839 12.0877 0.107494 -6.08733 12.078 
-0.12626 -5.90164 11.9209 0.107494 -6.08733 12.078 -0.506187 -6.06599 12.0811 
-0.60269 -5.81844 11.8867 -0.506187 -6.06599 12.0811 -0.972136 -5.99912 12.0891 
-1.0737 -5.73842 11.8942 -0.972136 -5.99912 12.0891 -1.34879 -5.91253 12.0962 
-1.63436 -5.59666 11.9198 -1.34879 -5.91253 12.0962 -1.87711 -5.71064 12.0854 
-2.20355 -5.36518 11.9474 -1.87711 -5.71064 12.0854 -2.41686 -5.52211 12.1533 
-2.66714 -5.09953 11.9701 -2.41686 -5.52211 12.1533 -2.97069 -5.18421 12.1781 
-3.63538 -4.41128 12.0994 -3.43899 -4.88041 12.2554 -3.93305 -4.36231 12.282 
-4.04898 -3.97532 12.1692 -3.93305 -4.36231 12.282 -4.33531 -3.90794 12.3643 
-4.42828 -3.47702 12.2491 -4.33531 -3.90794 12.3643 -4.63285 -3.53357 12.4563 
-4.42828 -3.47702 12.2491 -4.63285 -3.53357 12.4563 -4.86261 -2.95115 12.45 
-4.99486 -2.34365 12.435 -5.17825 -2.44831 12.645 -5.33846 -1.86715 12.7216 
-5.15448 -1.78541 12.5177 -5.33846 -1.86715 12.7216 -5.35602 -1.22225 12.7179 
-5.22048 -0.463015 12.6721 -5.39129 -0.744921 12.8005 -5.39383 -0.304863 12.8835 
-5.22048 -0.463015 12.6721 -5.39383 -0.304863 12.8835 -5.23268 0.111346 12.8213 
4.23098 2.39007 13.1133 4.37125 2.46634 13.2951 4.60827 1.93603 13.1122 
5.18806 -1.22338 12.5542 5.35113 -1.26932 12.7121 5.17667 -1.6878 12.5374 
3.7314 -4.08652 12.0197 3.96514 -4.24271 12.2394 3.50821 -4.50678 12.0733 
3.50821 -4.50678 12.0733 3.4261 -4.75535 12.1644 3.01229 -4.91515 12.0245 
-0.380146 -5.65597 11.7665 -0.12626 -5.90164 11.9209 -0.60269 -5.81844 11.8867 
-2.66714 -5.09953 11.9701 -2.97069 -5.18421 12.1781 -3.21835 -4.76911 12.0485 
-4.72393 -2.89829 12.3154 -4.86261 -2.95115 12.45 -4.99486 -2.34365 12.435 
-5.20091 -1.11245 12.5704 -5.35602 -1.22225 12.7179 -5.39129 -0.744921 12.8005 
-5.07011 -0.243876 12.5908 -5.22048 -0.463015 12.6721 -5.23268 0.111346 12.8213 
-5.00644 0.206611 12.6557 -5.23268 0.111346 12.8213 -5.14295 0.566634 12.8877 
-4.90754 0.702171 12.7399 -5.14295 0.566634 12.8877 -4.98178 1.10582 12.9741 
-4.75859 1.15564 12.8118 -4.98178 1.10582 12.9741 -4.76898 1.618 13.0534 
-4.56993 1.60412 12.8843 -4.76898 1.618 13.0534 -4.47445 2.1429 13.1358 
-4.2912 2.09405 12.963 -4.47445 2.1429 13.1358 -4.20987 2.535 13.2077 
-4.03289 2.46193 13.0222 -4.20987 2.535 13.2077 -3.86834 2.92999 13.2632 
-3.37643 3.15891 13.1334 -3.86834 2.92999 13.2632 -3.55105 3.24248 13.3181 
-3.37643 3.15891 13.1334 -3.55105 3.24248 13.3181 -3.19726 3.5216 13.3529 
-2.99251 3.45477 13.176 -3.19726 3.5216 13.3529 -2.70924 3.85044 13.4037 
-2.58313 3.73091 13.2235 -2.70924 3.85044 13.4037 -2.18248 4.13453 13.4619 
-2.07712 3.98432 13.2625 -2.18248 4.13453 13.4619 -1.58913 4.36097 13.4975 
-1.11133 4.29146 13.3015 -1.58913 4.36097 13.4975 -0.940558 4.49703 13.4974 
-0.464176 4.40408 13.3287 -0.940558 4.49703 13.4974 -0.364724 4.5834 13.5301 
-0.464176 4.40408 13.3287 -0.364724 4.5834 13.5301 0.138879 4.59725 13.5347 
0.109471 4.42618 13.3362 0.138879 4.59725 13.5347 0.618792 4.55137 13.5153 
0.676179 4.38189 13.326 0.618792 4.55137 13.5153 1.19689 4.46 13.5095 
1.25959 4.26549 13.3055 1.19689 4.46 13.5095 1.86217 4.23677 13.4463 
2.19707 3.9189 13.2433 1.86217 4.23677 13.4463 2.50345 3.96952 13.4254 
2.66658 3.66588 13.2048 2.50345 3.96952 13.4254 2.99708 3.67204 13.3827 
2.98466 3.46026 13.1768 2.99708 3.67204 13.3827 3.38593 3.3759 13.3313 
3.27718 3.24 13.1445 3.38593 3.3759 13.3313 3.82955 2.96287 13.2609 
3.90776 2.59597 13.0342 3.82955 2.96287 13.2609 4.23098 2.39007 13.1133 
4.2344 2.18581 12.9792 4.23098 2.39007 13.1133 4.60827 1.93603 13.1122 
4.52382 1.65915 12.8806 4.60827 1.93603 13.1122 4.85396 1.44014 13.0278 
4.75521 1.1643 12.8132 4.85396 1.44014 13.0278 5.06618 0.869708 12.9414 
4.90705 0.698382 12.7376 5.06618 0.869708 12.9414 5.17229 0.411975 12.8612 
5.01926 0.163116 12.6529 5.17229 0.411975 12.8612 5.25145 -0.0698785 12.7869 
5.07815 -0.382165 12.5684 5.25145 -0.0698785 12.7869 5.27881 -0.651836 12.6911 
5.06311 -0.921128 12.4773 5.27881 -0.651836 12.6911 5.18806 -1.22338 12.5542 
5.01032 -1.36735 12.4052 5.18806 -1.22338 12.5542 5.17667 -1.6878 12.5374 
4.95198 -1.71527 12.3571 5.17667 -1.6878 12.5374 5.06872 -2.12591 12.4707 
4.8113 -2.19471 12.275 5.06872 -2.12591 12.4707 4.90621 -2.57269 12.3972 
4.56699 -2.82028 12.1875 4.90621 -2.57269 12.3972 4.70623 -3.01647 12.3302 
4.56699 -2.82028 12.1875 4.70623 -3.01647 12.3302 4.47973 -3.41375 12.2709 
4.3071 -3.27487 12.1156 4.47973 -3.41375 12.2709 4.19176 -3.81435 12.202 
3.99799 -3.69227 12.0409 4.19176 -3.81435 12.202 3.7314 -4.08652 12.0197 
3.33206 -4.40204 11.9373 3.50821 -4.50678 12.0733 3.01229 -4.91515 12.0245 
2.89046 -4.7294 11.8814 3.01229 -4.91515 12.0245 2.51547 -5.19743 11.962 
1.98794 -5.22689 11.8056 2.51547 -5.19743 11.962 1.85859 -5.51226 11.9257 
1.47545 -5.3913 11.7691 1.85859 -5.51226 11.9257 1.29565 -5.6743 11.894 
1.07158 -5.49807 11.7543 1.29565 -5.6743 11.894 0.848537 -5.81416 11.9105 
0.683954 -5.57006 11.7465 0.848537 -5.81416 11.9105 0.360513 -5.84549 11.8872 
-0.801506 -5.54862 11.7469 -0.60269 -5.81844 11.8867 -1.0737 -5.73842 11.8942 
-1.23366 -5.46819 11.7626 -1.0737 -5.73842 11.8942 -1.63436 -5.59666 11.9198 
-1.70456 -5.32858 11.7858 -1.63436 -5.59666 11.9198 -2.20355 -5.36518 11.9474 
-2.21625 -5.10275 11.8117 -2.20355 -5.36518 11.9474 -2.66714 -5.09953 11.9701 
-2.72802 -4.83275 11.8636 -2.66714 -5.09953 11.9701 -3.21835 -4.76911 12.0485 
-3.10336 -4.57489 11.9048 -3.21835 -4.76911 12.0485 -3.63538 -4.41128 12.0994 
-3.53525 -4.21844 11.9667 -3.63538 -4.41128 12.0994 -4.04898 -3.97532 12.1692 
-3.90401 -3.82574 12.0293 -4.04898 -3.97532 12.1692 -4.42828 -3.47702 12.2491 
-4.2465 -3.36505 12.0975 -4.42828 -3.47702 12.2491 -4.72393 -2.89829 12.3154 
-4.78335 -2.30333 12.2646 -4.72393 -2.89829 12.3154 -4.99486 -2.34365 12.435 
-4.78335 -2.30333 12.2646 -4.99486 -2.34365 12.435 -5.15448 -1.78541 12.5177 
-4.96602 -1.67608 12.3642 -5.15448 -1.78541 12.5177 -5.20091 -1.11245 12.5704 
-5.0821 -0.686756 12.5215 -5.20091 -1.11245 12.5704 -5.22048 -0.463015 12.6721 
-5.20091 -1.11245 12.5704 -5.0821 -0.686756 12.5215 -5.04388 -1.13275 12.4435 
-5.20091 -1.11245 12.5704 -5.04388 -1.13275 12.4435 -4.96602 -1.67608 12.3642 
-5.15448 -1.78541 12.5177 -4.96602 -1.67608 12.3642 -4.78335 -2.30333 12.2646 
-4.72393 -2.89829 12.3154 -4.78335 -2.30333 12.2646 -4.52524 -2.8886 12.1734 
-4.72393 -2.89829 12.3154 -4.52524 -2.8886 12.1734 -4.2465 -3.36505 12.0975 
-4.42828 -3.47702 12.2491 -4.2465 -3.36505 12.0975 -3.90401 -3.82574 12.0293 
-4.04898 -3.97532 12.1692 -3.90401 -3.82574 12.0293 -3.53525 -4.21844 11.9667 
-3.63538 -4.41128 12.0994 -3.53525 -4.21844 11.9667 -3.10336 -4.57489 11.9048 
-3.21835 -4.76911 12.0485 -3.10336 -4.57489 11.9048 -2.72802 -4.83275 11.8636 
-2.66714 -5.09953 11.9701 -2.72802 -4.83275 11.8636 -2.21625 -5.10275 11.8117 
-2.20355 -5.36518 11.9474 -2.21625 -5.10275 11.8117 -1.70456 -5.32858 11.7858 
-1.63436 -5.59666 11.9198 -1.70456 -5.32858 11.7858 -1.23366 -5.46819 11.7626 
-1.0737 -5.73842 11.8942 -1.23366 -5.46819 11.7626 -0.801506 -5.54862 11.7469 
-0.60269 -5.81844 11.8867 -0.801506 -5.54862 11.7469 -0.380146 -5.65597 11.7665 
0.360513 -5.84549 11.8872 0.171139 -5.64594 11.7539 0.683954 -5.57006 11.7465 
0.848537 -5.81416 11.9105 0.683954 -5.57006 11.7465 1.07158 -5.49807 11.7543 
1.29565 -5.6743 11.894 1.07158 -5.49807 11.7543 1.47545 -5.3913 11.7691 
1.85859 -5.51226 11.9257 1.47545 -5.3913 11.7691 1.98794 -5.22689 11.8056 
2.51547 -5.19743 11.962 1.98794 -5.22689 11.8056 2.48846 -4.96637 11.8372 
2.51547 -5.19743 11.962 2.48846 -4.96637 11.8372 2.89046 -4.7294 11.8814 
3.01229 -4.91515 12.0245 2.89046 -4.7294 11.8814 3.33206 -4.40204 11.9373 
3.50821 -4.50678 12.0733 3.33206 -4.40204 11.9373 3.7314 -4.08652 12.0197 
4.19176 -3.81435 12.202 3.99799 -3.69227 12.0409 4.3071 -3.27487 12.1156 
4.47973 -3.41375 12.2709 4.3071 -3.27487 12.1156 4.56699 -2.82028 12.1875 
4.90621 -2.57269 12.3972 4.56699 -2.82028 12.1875 4.8113 -2.19471 12.275 
5.06872 -2.12591 12.4707 4.8113 -2.19471 12.275 4.95198 -1.71527 12.3571 
5.17667 -1.6878 12.5374 4.95198 -1.71527 12.3571 5.01032 -1.36735 12.4052 
5.18806 -1.22338 12.5542 5.01032 -1.36735 12.4052 5.06311 -0.921128 12.4773 
5.27881 -0.651836 12.6911 5.06311 -0.921128 12.4773 5.07815 -0.382165 12.5684 
5.25145 -0.0698785 12.7869 5.07815 -0.382165 12.5684 5.01926 0.163116 12.6529 
5.17229 0.411975 12.8612 5.01926 0.163116 12.6529 4.90705 0.698382 12.7376 
5.06618 0.869708 12.9414 4.90705 0.698382 12.7376 4.75521 1.1643 12.8132 
4.85396 1.44014 13.0278 4.75521 1.1643 12.8132 4.52382 1.65915 12.8806 
4.60827 1.93603 13.1122 4.52382 1.65915 12.8806 4.2344 2.18581 12.9792 
4.23098 2.39007 13.1133 4.2344 2.18581 12.9792 3.90776 2.59597 13.0342 
3.82955 2.96287 13.2609 3.90776 2.59597 13.0342 3.6082 2.93718 13.0948 
3.82955 2.96287 13.2609 3.6082 2.93718 13.0948 3.27718 3.24 13.1445 
3.38593 3.3759 13.3313 3.27718 3.24 13.1445 2.98466 3.46026 13.1768 
2.99708 3.67204 13.3827 2.98466 3.46026 13.1768 2.66658 3.66588 13.2048 
2.50345 3.96952 13.4254 2.66658 3.66588 13.2048 2.19707 3.9189 13.2433 
1.86217 4.23677 13.4463 2.19707 3.9189 13.2433 1.69894 4.1224 13.2759 
1.86217 4.23677 13.4463 1.69894 4.1224 13.2759 1.25959 4.26549 13.3055 
1.19689 4.46 13.5095 1.25959 4.26549 13.3055 0.676179 4.38189 13.326 
0.618792 4.55137 13.5153 0.676179 4.38189 13.326 0.109471 4.42618 13.3362 
0.138879 4.59725 13.5347 0.109471 4.42618 13.3362 -0.464176 4.40408 13.3287 
-0.940558 4.49703 13.4974 -0.464176 4.40408 13.3287 -1.11133 4.29146 13.3015 
-1.58913 4.36097 13.4975 -1.11133 4.29146 13.3015 -1.68421 4.13877 13.2864 
-1.58913 4.36097 13.4975 -1.68421 4.13877 13.2864 -2.07712 3.98432 13.2625 
-2.18248 4.13453 13.4619 -2.07712 3.98432 13.2625 -2.58313 3.73091 13.2235 
-2.70924 3.85044 13.4037 -2.58313 3.73091 13.2235 -2.99251 3.45477 13.176 
-3.19726 3.5216 13.3529 -2.99251 3.45477 13.176 -3.37643 3.15891 13.1334 
-3.86834 2.92999 13.2632 -3.37643 3.15891 13.1334 -3.7286 2.79852 13.0663 
-3.86834 2.92999 13.2632 -3.7286 2.79852 13.0663 -4.03289 2.46193 13.0222 
-4.20987 2.535 13.2077 -4.03289 2.46193 13.0222 -4.2912 2.09405 12.963 
-4.47445 2.1429 13.1358 -4.2912 2.09405 12.963 -4.56993 1.60412 12.8843 
-4.76898 1.618 13.0534 -4.56993 1.60412 12.8843 -4.75859 1.15564 12.8118 
-4.98178 1.10582 12.9741 -4.75859 1.15564 12.8118 -4.90754 0.702171 12.7399 
-5.14295 0.566634 12.8877 -4.90754 0.702171 12.7399 -5.00644 0.206611 12.6557 
-5.23268 0.111346 12.8213 -5.00644 0.206611 12.6557 -5.07011 -0.243876 12.5908 
-5.22048 -0.463015 12.6721 -5.07011 -0.243876 12.5908 -5.0821 -0.686756 12.5215 
-5.39129 -0.744921 12.8005 -5.22048 -0.463015 12.6721 -5.20091 -1.11245 12.5704 
-5.35602 -1.22225 12.7179 -5.20091 -1.11245 12.5704 -5.15448 -1.78541 12.5177 
-0.12626 -5.90164 11.9209 -0.380146 -5.65597 11.7665 0.171139 -5.64594 11.7539 
-0.12626 -5.90164 11.9209 0.171139 -5.64594 11.7539 0.360513 -5.84549 11.8872 
3.96514 -4.24271 12.2394 3.7314 -4.08652 12.0197 4.19176 -3.81435 12.202 
5.35113 -1.26932 12.7121 5.18806 -1.22338 12.5542 5.27881 -0.651836 12.6911 
4.37125 2.46634 13.2951 4.23098 2.39007 13.1133 3.82955 2.96287 13.2609 
1.69437 4.47179 13.7003 1.86217 4.23677 13.4463 1.19689 4.46 13.5095 
-5.33846 -1.86715 12.7216 -5.15448 -1.78541 12.5177 -4.99486 -2.34365 12.435 
-5.17825 -2.44831 12.645 -4.99486 -2.34365 12.435 -4.86261 -2.95115 12.45 
-4.86261 -2.95115 12.45 -4.72393 -2.89829 12.3154 -4.42828 -3.47702 12.2491 
-4.33531 -3.90794 12.3643 -4.42828 -3.47702 12.2491 -4.04898 -3.97532 12.1692 
-3.93305 -4.36231 12.282 -4.04898 -3.97532 12.1692 -3.63538 -4.41128 12.0994 
-3.43899 -4.88041 12.2554 -3.63538 -4.41128 12.0994 -3.21835 -4.76911 12.0485 
-3.43899 -4.88041 12.2554 -3.21835 -4.76911 12.0485 -2.97069 -5.18421 12.1781 
-2.41686 -5.52211 12.1533 -2.66714 -5.09953 11.9701 -2.20355 -5.36518 11.9474 
-1.87711 -5.71064 12.0854 -2.20355 -5.36518 11.9474 -1.63436 -5.59666 11.9198 
-1.34879 -5.91253 12.0962 -1.63436 -5.59666 11.9198 -1.0737 -5.73842 11.8942 
-0.972136 -5.99912 12.0891 -1.0737 -5.73842 11.8942 -0.60269 -5.81844 11.8867 
-0.506187 -6.06599 12.0811 -0.60269 -5.81844 11.8867 -0.12626 -5.90164 11.9209 
0.107494 -6.08733 12.078 -0.12626 -5.90164 11.9209 0.360513 -5.84549 11.8872 
0.703234 -6.04839 12.0877 0.360513 -5.84549 11.8872 0.848537 -5.81416 11.9105 
1.34259 -5.91289 12.0929 1.29565 -5.6743 11.894 1.85859 -5.51226 11.9257 
2.24572 -5.54052 12.094 1.85859 -5.51226 11.9257 2.51547 -5.19743 11.962 
2.75022 -5.28917 12.1376 2.51547 -5.19743 11.962 3.01229 -4.91515 12.0245 
3.15071 -5.16976 12.2815 3.01229 -4.91515 12.0245 3.4261 -4.75535 12.1644 
3.80033 -4.55884 12.3048 3.50821 -4.50678 12.0733 3.96514 -4.24271 12.2394 
4.35983 -3.94899 12.4054 4.19176 -3.81435 12.202 4.47973 -3.41375 12.2709 
4.70421 -3.46323 12.491 4.47973 -3.41375 12.2709 4.70623 -3.01647 12.3302 
4.97515 -2.92706 12.561 4.70623 -3.01647 12.3302 4.90621 -2.57269 12.3972 
5.15875 -2.48438 12.6313 4.90621 -2.57269 12.3972 5.06872 -2.12591 12.4707 
5.3516 -1.88333 12.7401 5.06872 -2.12591 12.4707 5.17667 -1.6878 12.5374 
5.3516 -1.88333 12.7401 5.17667 -1.6878 12.5374 5.35113 -1.26932 12.7121 
5.43924 -0.65602 12.8679 5.27881 -0.651836 12.6911 5.25145 -0.0698785 12.7869 
5.45208 -0.0476264 13.0261 5.25145 -0.0698785 12.7869 5.17229 0.411975 12.8612 
5.36662 0.503024 13.1215 5.17229 0.411975 12.8612 5.06618 0.869708 12.9414 
5.13784 1.22851 13.2161 5.06618 0.869708 12.9414 4.85396 1.44014 13.0278 
4.82555 1.9213 13.3384 4.85396 1.44014 13.0278 4.60827 1.93603 13.1122 
4.82555 1.9213 13.3384 4.60827 1.93603 13.1122 4.37125 2.46634 13.2951 
3.677 3.31436 13.5094 3.82955 2.96287 13.2609 3.38593 3.3759 13.3313 
3.29438 3.61787 13.5446 3.38593 3.3759 13.3313 2.99708 3.67204 13.3827 
2.91986 3.91915 13.6456 2.99708 3.67204 13.3827 2.50345 3.96952 13.4254 
2.37361 4.17215 13.6225 2.50345 3.96952 13.4254 1.86217 4.23677 13.4463 
1.10435 4.64569 13.7637 1.19689 4.46 13.5095 0.618792 4.55137 13.5153 
0.518785 4.74981 13.8079 0.618792 4.55137 13.5153 0.138879 4.59725 13.5347 
-0.104961 4.75234 13.7801 0.138879 4.59725 13.5347 -0.364724 4.5834 13.5301 
-0.643026 4.73337 13.8 -0.364724 4.5834 13.5301 -0.940558 4.49703 13.4974 
-1.22216 4.61762 13.756 -0.940558 4.49703 13.4974 -1.58913 4.36097 13.4975 
-1.9516 4.41082 13.7406 -1.58913 4.36097 13.4975 -2.18248 4.13453 13.4619 
-2.60458 4.10882 13.6822 -2.18248 4.13453 13.4619 -2.70924 3.85044 13.4037 
-3.21834 3.673 13.544 -2.70924 3.85044 13.4037 -3.19726 3.5216 13.3529 
-3.21834 3.673 13.544 -3.19726 3.5216 13.3529 -3.55105 3.24248 13.3181 
-3.82094 3.22029 13.5352 -3.55105 3.24248 13.3181 -3.86834 2.92999 13.2632 
-4.1951 2.82274 13.4735 -3.86834 2.92999 13.2632 -4.20987 2.535 13.2077 
-4.47447 2.41534 13.3688 -4.20987 2.535 13.2077 -4.47445 2.1429 13.1358 
-4.78508 1.8943 13.2687 -4.47445 2.1429 13.1358 -4.76898 1.618 13.0534 
-5.08408 1.33768 13.2274 -4.76898 1.618 13.0534 -4.98178 1.10582 12.9741 
-5.27724 0.882686 13.1957 -4.98178 1.10582 12.9741 -5.14295 0.566634 12.8877 
-5.3649 0.446553 13.0976 -5.14295 0.566634 12.8877 -5.23268 0.111346 12.8213 
-5.45245 -0.0150906 13.0397 -5.23268 0.111346 12.8213 -5.39383 -0.304863 12.8835 
-5.54923 -0.638502 13.0178 -5.39129 -0.744921 12.8005 -5.35602 -1.22225 12.7179 
-5.49226 -1.28132 12.889 -5.35602 -1.22225 12.7179 -5.33846 -1.86715 12.7216 
-4.85621 -3.3712 12.6183 -4.86261 -2.95115 12.45 -4.63285 -3.53357 12.4563 
-4.27933 -4.19547 12.4853 -4.33531 -3.90794 12.3643 -3.93305 -4.36231 12.282 
-3.89787 -4.63251 12.4405 -3.93305 -4.36231 12.282 -3.43899 -4.88041 12.2554 
0.703234 -6.04839 12.0877 0.848537 -5.81416 11.9105 1.34259 -5.91289 12.0929 
2.58615 -5.57437 12.2932 2.24572 -5.54052 12.094 2.75022 -5.28917 12.1376 
3.56866 -4.89414 12.3695 3.4261 -4.75535 12.1644 3.80033 -4.55884 12.3048 
4.06935 -4.35254 12.3937 3.96514 -4.24271 12.2394 4.35983 -3.94899 12.4054 
5.49248 -1.28415 12.8913 5.35113 -1.26932 12.7121 5.43924 -0.65602 12.8679 
5.57498 -0.668987 13.0511 5.43924 -0.65602 12.8679 5.45208 -0.0476264 13.0261 
4.28279 2.83757 13.6057 4.37125 2.46634 13.2951 4.03703 2.98932 13.4903 
3.53434 3.56728 13.7154 3.677 3.31436 13.5094 3.29438 3.61787 13.5446 
3.24173 3.85149 13.8613 3.29438 3.61787 13.5446 2.91986 3.91915 13.6456 
2.30693 4.32723 13.8412 2.37361 4.17215 13.6225 1.69437 4.47179 13.7003 
-3.56187 3.54961 13.7185 -3.21834 3.673 13.544 -3.82094 3.22029 13.5352 
-4.83574 2.05751 13.4857 -4.47447 2.41534 13.3688 -4.78508 1.8943 13.2687 
-5.06842 1.6103 13.417 -4.78508 1.8943 13.2687 -5.08408 1.33768 13.2274 
-5.54923 -0.638502 13.0178 -5.39383 -0.304863 12.8835 -5.39129 -0.744921 12.8005 
-5.65778 -1.02831 13.1593 -5.54923 -0.638502 13.0178 -5.49226 -1.28132 12.889 
-5.60303 -1.44069 13.0692 -5.49226 -1.28132 12.889 -5.33846 -1.86715 12.7216 
-5.4526 -2.16437 12.9488 -5.33846 -1.86715 12.7216 -5.17825 -2.44831 12.645 
-5.33991 -2.52665 12.8908 -5.17825 -2.44831 12.645 -5.091 -2.94997 12.7085 
-3.22362 -5.28838 12.4569 -3.43899 -4.88041 12.2554 -2.97069 -5.18421 12.1781 
-2.3518 -5.77736 12.3783 -2.41686 -5.52211 12.1533 -1.90191 -5.93576 12.3167 
-1.90191 -5.93576 12.3167 -1.87711 -5.71064 12.0854 -1.34879 -5.91253 12.0962 
-1.39703 -6.10952 12.324 -1.34879 -5.91253 12.0962 -0.972136 -5.99912 12.0891 
-0.740927 -6.24134 12.3097 -0.972136 -5.99912 12.0891 -0.506187 -6.06599 12.0811 
-0.150259 -6.28096 12.297 -0.506187 -6.06599 12.0811 0.107494 -6.08733 12.078 
0.324856 -6.29748 12.3287 0.107494 -6.08733 12.078 0.703234 -6.04839 12.0877 
1.11597 -6.17893 12.322 0.703234 -6.04839 12.0877 1.34259 -5.91289 12.0929 
1.59734 -6.07645 12.3604 1.34259 -5.91289 12.0929 1.86643 -5.80861 12.167 
3.91269 -4.74087 12.5581 3.80033 -4.55884 12.3048 4.06935 -4.35254 12.3937 
4.25782 -4.39313 12.6172 4.06935 -4.35254 12.3937 4.35983 -3.94899 12.4054 
4.63413 -3.89387 12.6723 4.35983 -3.94899 12.4054 4.70421 -3.46323 12.491 
4.92026 -3.45304 12.747 4.70421 -3.46323 12.491 4.97515 -2.92706 12.561 
5.13105 -3.02323 12.7993 4.97515 -2.92706 12.561 5.15875 -2.48438 12.6313 
5.2957 -2.52246 12.8234 5.15875 -2.48438 12.6313 5.3516 -1.88333 12.7401 
5.59089 -1.65344 13.069 5.3516 -1.88333 12.7401 5.49248 -1.28415 12.8913 
5.63214 -1.22079 13.1121 5.49248 -1.28415 12.8913 5.57498 -0.668987 13.0511 
5.60386 -0.056422 13.265 5.45208 -0.0476264 13.0261 5.36662 0.503024 13.1215 
5.34253 1.06388 13.4227 5.36662 0.503024 13.1215 5.13784 1.22851 13.2161 
5.10869 1.59902 13.4778 5.13784 1.22851 13.2161 4.82555 1.9213 13.3384 
4.90969 2.00282 13.5541 4.82555 1.9213 13.3384 4.58666 2.44509 13.5449 
2.82963 4.14327 13.9791 2.91986 3.91915 13.6456 2.63933 4.16092 13.812 
1.75997 4.59964 14.0069 1.69437 4.47179 13.7003 1.10435 4.64569 13.7637 
0.798733 4.83307 14.0778 1.10435 4.64569 13.7637 0.518785 4.74981 13.8079 
0.131403 4.87933 14.0659 0.518785 4.74981 13.8079 -0.104961 4.75234 13.7801 
-0.314371 4.88128 14.0901 -0.104961 4.75234 13.7801 -0.643026 4.73337 13.8 
-1.79591 4.57843 13.9856 -1.22216 4.61762 13.756 -1.9516 4.41082 13.7406 
-2.31856 4.3548 13.9143 -1.9516 4.41082 13.7406 -2.60458 4.10882 13.6822 
-2.72932 4.15634 13.8952 -2.60458 4.10882 13.6822 -3.15812 3.85255 13.765 
-4.05611 3.1805 13.7835 -3.82094 3.22029 13.5352 -4.1951 2.82274 13.4735 
-4.40379 2.79755 13.7403 -4.1951 2.82274 13.4735 -4.5961 2.52773 13.6628 
-5.31959 1.16783 13.4689 -5.08408 1.33768 13.2274 -5.27724 0.882686 13.1957 
-5.5298 0.423919 13.3476 -5.3649 0.446553 13.0976 -5.45245 -0.0150906 13.0397 
-5.61924 -0.0602771 13.2894 -5.45245 -0.0150906 13.0397 -5.54923 -0.638502 13.0178 
-5.67427 -0.576638 13.2539 -5.54923 -0.638502 13.0178 -5.65778 -1.02831 13.1593 
-5.20368 -3.12888 12.9865 -5.091 -2.94997 12.7085 -4.85621 -3.3712 12.6183 
-4.95031 -3.49765 12.8295 -4.85621 -3.3712 12.6183 -4.63013 -3.88695 12.6602 
-4.36232 -4.29757 12.6663 -4.27933 -4.19547 12.4853 -3.89787 -4.63251 12.4405 
-3.94001 -4.74169 12.5885 -3.89787 -4.63251 12.4405 -3.51934 -5.0706 12.4931 
2.1063 -5.91533 12.4084 1.86643 -5.80861 12.167 2.58615 -5.57437 12.2932 
2.69949 -5.63034 12.4346 2.58615 -5.57437 12.2932 3.15071 -5.16976 12.2815 
3.22939 -5.32684 12.5085 3.15071 -5.16976 12.2815 3.56866 -4.89414 12.3695 
3.63238 -5.01852 12.5521 3.56866 -4.89414 12.3695 3.91269 -4.74087 12.5581 
5.40149 -2.54176 13.0048 5.2957 -2.52246 12.8234 5.47571 -2.04874 12.9569 
5.70511 -0.371314 13.3687 5.57498 -0.668987 13.0511 5.60386 -0.056422 13.265 
5.11585 1.84624 13.7792 5.10869 1.59902 13.4778 4.90969 2.00282 13.5541 
4.72706 2.39693 13.7222 4.90969 2.00282 13.5541 4.58666 2.44509 13.5449 
4.72706 2.39693 13.7222 4.58666 2.44509 13.5449 4.28279 2.83757 13.6057 
4.36232 2.87774 13.8028 4.28279 2.83757 13.6057 3.92192 3.31018 13.7972 
3.54253 3.67542 13.9431 3.53434 3.56728 13.7154 3.24173 3.85149 13.8613 
2.82963 4.14327 13.9791 2.63933 4.16092 13.812 2.30693 4.32723 13.8412 
2.35427 4.39189 14.0426 2.30693 4.32723 13.8412 1.75997 4.59964 14.0069 
0.798733 4.83307 14.0778 0.518785 4.74981 13.8079 0.131403 4.87933 14.0659 
-2.64529 4.27774 14.0927 -2.31856 4.3548 13.9143 -2.72932 4.15634 13.8952 
-3.1739 3.94453 13.9787 -2.72932 4.15634 13.8952 -3.15812 3.85255 13.765 
-3.1739 3.94453 13.9787 -3.15812 3.85255 13.765 -3.56187 3.54961 13.7185 
-3.63238 3.5987 13.917 -3.56187 3.54961 13.7185 -4.05611 3.1805 13.7835 
-4.97371 2.03899 13.7216 -4.83574 2.05751 13.4857 -5.06842 1.6103 13.417 
-5.20935 1.587 13.6634 -5.06842 1.6103 13.417 -5.31959 1.16783 13.4689 
-5.47702 0.780871 13.4847 -5.27724 0.882686 13.1957 -5.5298 0.423919 13.3476 
-5.79872 -0.824186 13.5133 -5.67427 -0.576638 13.2539 -5.65778 -1.02831 13.1593 
-5.73582 -1.39738 13.3501 -5.65778 -1.02831 13.1593 -5.60303 -1.44069 13.0692 
-5.73582 -1.39738 13.3501 -5.60303 -1.44069 13.0692 -5.542 -1.82028 13.0139 
-5.66134 -1.87876 13.2809 -5.542 -1.82028 13.0139 -5.4526 -2.16437 12.9488 
-5.56474 -2.26115 13.2162 -5.4526 -2.16437 12.9488 -5.33991 -2.52665 12.8908 
-5.44551 -2.62615 13.1446 -5.33991 -2.52665 12.8908 -5.20368 -3.12888 12.9865 
-4.64185 -4.18816 12.9755 -4.63013 -3.88695 12.6602 -4.36232 -4.29757 12.6663 
-4.24585 -4.60593 12.8375 -4.36232 -4.29757 12.6663 -3.94001 -4.74169 12.5885 
-3.90581 -4.94904 12.7946 -3.94001 -4.74169 12.5885 -3.51934 -5.0706 12.4931 
-3.51016 -5.28091 12.7487 -3.51934 -5.0706 12.4931 -3.22362 -5.28838 12.4569 
-3.08533 -5.56867 12.6975 -3.22362 -5.28838 12.4569 -2.75859 -5.55577 12.3868 
-2.73609 -5.76542 12.6612 -2.75859 -5.55577 12.3868 -2.3518 -5.77736 12.3783 
-2.39075 -5.93728 12.6348 -2.3518 -5.77736 12.3783 -1.90191 -5.93576 12.3167 
-1.90429 -6.1309 12.6034 -1.90191 -5.93576 12.3167 -1.39703 -6.10952 12.324 
-1.39156 -6.28002 12.5791 -1.39703 -6.10952 12.324 -0.919874 -6.33799 12.4986 
-0.400177 -6.43891 12.5649 -0.740927 -6.24134 12.3097 -0.150259 -6.28096 12.297 
0.0730592 -6.4537 12.5661 -0.150259 -6.28096 12.297 0.324856 -6.29748 12.3287 
0.652971 -6.41606 12.5645 0.324856 -6.29748 12.3287 0.742671 -6.24194 12.3169 
0.652971 -6.41606 12.5645 0.742671 -6.24194 12.3169 1.11597 -6.17893 12.322 
1.13729 -6.33468 12.5667 1.11597 -6.17893 12.322 1.59734 -6.07645 12.3604 
1.85699 -6.18814 12.6732 1.59734 -6.07645 12.3604 2.1063 -5.91533 12.4084 
2.38397 -5.93632 12.6262 2.1063 -5.91533 12.4084 2.69949 -5.63034 12.4346 
2.85539 -5.69258 12.6571 2.69949 -5.63034 12.4346 3.22939 -5.32684 12.5085 
3.28436 -5.42924 12.7014 3.22939 -5.32684 12.5085 3.63238 -5.01852 12.5521 
3.70027 -5.12192 12.7604 3.63238 -5.01852 12.5521 3.91269 -4.74087 12.5581 
3.98868 -4.86656 12.8036 3.91269 -4.74087 12.5581 4.25782 -4.39313 12.6172 
4.58702 -4.20679 12.9049 4.25782 -4.39313 12.6172 4.63413 -3.89387 12.6723 
4.88955 -3.7798 12.9776 4.63413 -3.89387 12.6723 4.92026 -3.45304 12.747 
5.08296 -3.44745 13.0283 4.92026 -3.45304 12.747 5.13105 -3.02323 12.7993 
5.25675 -3.1027 13.0802 5.13105 -3.02323 12.7993 5.40149 -2.54176 13.0048 
5.57077 -2.1215 13.1656 5.47571 -2.04874 12.9569 5.59089 -1.65344 13.069 
5.74441 -1.32617 13.361 5.59089 -1.65344 13.069 5.63214 -1.22079 13.1121 
5.74441 -1.32617 13.361 5.63214 -1.22079 13.1121 5.67427 -0.842652 13.2118 
5.8109 -0.799198 13.5535 5.67427 -0.842652 13.2118 5.70511 -0.371314 13.3687 
5.67468 0.152664 13.5258 5.60386 -0.056422 13.265 5.53723 0.413825 13.3579 
5.4561 1.13281 13.7651 5.34253 1.06388 13.4227 5.26726 1.47396 13.6701 
4.59147 2.71046 14.0031 4.72706 2.39693 13.7222 4.36232 2.87774 13.8028 
4.23973 3.12808 14.0716 4.36232 2.87774 13.8028 3.92192 3.31018 13.7972 
3.89594 3.4635 14.1193 3.92192 3.31018 13.7972 3.54253 3.67542 13.9431 
3.40751 3.86813 14.2014 3.54253 3.67542 13.9431 3.24173 3.85149 13.8613 
3.40751 3.86813 14.2014 3.24173 3.85149 13.8613 2.82963 4.14327 13.9791 
2.61884 4.33591 14.2605 2.82963 4.14327 13.9791 2.35427 4.39189 14.0426 
2.1428 4.54983 14.2858 2.35427 4.39189 14.0426 1.75997 4.59964 14.0069 
1.66648 4.71408 14.3143 1.75997 4.59964 14.0069 1.27794 4.74099 14.0635 
1.20468 4.83365 14.3466 1.27794 4.74099 14.0635 0.798733 4.83307 14.0778 
0.561419 4.93165 14.3423 0.798733 4.83307 14.0778 0.131403 4.87933 14.0659 
-0.105026 4.96231 14.3804 0.131403 4.87933 14.0659 -0.314371 4.88128 14.0901 
-0.662069 4.92241 14.3602 -0.314371 4.88128 14.0901 -1.03244 4.79156 14.0596 
-1.87157 4.65277 14.3231 -1.79591 4.57843 13.9856 -2.22512 4.47864 14.146 
-3.18819 4.00523 14.181 -3.1739 3.94453 13.9787 -3.63238 3.5987 13.917 
-3.9088 3.45252 14.1202 -3.63238 3.5987 13.917 -4.05611 3.1805 13.7835 
-4.25032 3.11071 14.0549 -4.05611 3.1805 13.7835 -4.40379 2.79755 13.7403 
-4.59125 2.71587 14.0081 -4.40379 2.79755 13.7403 -4.5961 2.52773 13.6628 
-4.89286 2.29179 13.9528 -4.5961 2.52773 13.6628 -4.97371 2.03899 13.7216 
-5.44438 1.14425 13.7435 -5.31959 1.16783 13.4689 -5.47702 0.780871 13.4847 
-5.59803 0.734008 13.759 -5.47702 0.780871 13.4847 -5.5298 0.423919 13.3476 
-5.65323 0.406123 13.6319 -5.5298 0.423919 13.3476 -5.61924 -0.0602771 13.2894 
-5.79664 -0.41388 13.5954 -5.61924 -0.0602771 13.2894 -5.67427 -0.576638 13.2539 
-5.79872 -0.824186 13.5133 -5.65778 -1.02831 13.1593 -5.73582 -1.39738 13.3501 
-5.15489 -3.42595 13.1536 -5.20368 -3.12888 12.9865 -4.95031 -3.49765 12.8295 
-5.15489 -3.42595 13.1536 -4.95031 -3.49765 12.8295 -4.81804 -3.88538 12.959 
0.0730592 -6.4537 12.5661 0.324856 -6.29748 12.3287 0.652971 -6.41606 12.5645 
5.49219 -2.64353 13.2705 5.40149 -2.54176 13.0048 5.57077 -2.1215 13.1656 
5.72753 -1.72452 13.4082 5.57077 -2.1215 13.1656 5.59089 -1.65344 13.069 
5.72753 -1.72452 13.4082 5.59089 -1.65344 13.069 5.74441 -1.32617 13.361 
5.80135 -0.16363 13.7369 5.70511 -0.371314 13.3687 5.67468 0.152664 13.5258 
5.71431 0.361469 13.8133 5.67468 0.152664 13.5258 5.55874 0.677703 13.5862 
5.60888 0.76052 13.8422 5.55874 0.677703 13.5862 5.4561 1.13281 13.7651 
5.30406 1.60957 13.9958 5.26726 1.47396 13.6701 5.11585 1.84624 13.7792 
-0.105026 4.96231 14.3804 -0.314371 4.88128 14.0901 -0.662069 4.92241 14.3602 
-2.86322 4.24218 14.421 -2.64529 4.27774 14.0927 -3.18819 4.00523 14.181 
-5.233 1.7721 14.033 -4.97371 2.03899 13.7216 -5.28031 1.62262 13.911 
-5.28031 1.62262 13.911 -5.20935 1.587 13.6634 -5.44438 1.14425 13.7435 
-5.82386 -1.1664 13.6115 -5.79872 -0.824186 13.5133 -5.73582 -1.39738 13.3501 
-5.80011 -1.56668 13.6241 -5.73582 -1.39738 13.3501 -5.66134 -1.87876 13.2809 
-5.71855 -1.93504 13.4898 -5.66134 -1.87876 13.2809 -5.56474 -2.26115 13.2162 
-5.59037 -2.44053 13.4116 -5.56474 -2.26115 13.2162 -5.44551 -2.62615 13.1446 
-5.41772 -2.92498 13.333 -5.44551 -2.62615 13.1446 -5.20368 -3.12888 12.9865 
-5.41772 -2.92498 13.333 -5.20368 -3.12888 12.9865 -5.15489 -3.42595 13.1536 
-4.94276 -3.84597 13.1871 -5.15489 -3.42595 13.1536 -4.81804 -3.88538 12.959 
-4.94276 -3.84597 13.1871 -4.81804 -3.88538 12.959 -4.64185 -4.18816 12.9755 
-4.47669 -4.47969 13.0875 -4.64185 -4.18816 12.9755 -4.24585 -4.60593 12.8375 
-4.15512 -4.89305 13.1582 -4.24585 -4.60593 12.8375 -3.90581 -4.94904 12.7946 
-3.93863 -5.03421 12.9989 -3.90581 -4.94904 12.7946 -3.51016 -5.28091 12.7487 
-3.5325 -5.39318 12.9933 -3.51016 -5.28091 12.7487 -3.08533 -5.56867 12.6975 
-3.11383 -5.70299 13.0043 -3.08533 -5.56867 12.6975 -2.73609 -5.76542 12.6612 
-2.78558 -5.89762 12.9931 -2.73609 -5.76542 12.6612 -2.39075 -5.93728 12.6348 
-2.41464 -6.02808 12.8415 -2.39075 -5.93728 12.6348 -1.90429 -6.1309 12.6034 
-1.92156 -6.22437 12.8091 -1.90429 -6.1309 12.6034 -1.39156 -6.28002 12.5791 
-1.47502 -6.4094 12.9182 -1.39156 -6.28002 12.5791 -1.0503 -6.42354 12.7116 
-0.661928 -6.5081 12.7665 -0.919874 -6.33799 12.4986 -0.400177 -6.43891 12.5649 
-0.15458 -6.55715 12.7944 -0.400177 -6.43891 12.5649 0.0730592 -6.4537 12.5661 
0.261815 -6.53739 12.7612 0.0730592 -6.4537 12.5661 0.652971 -6.41606 12.5645 
0.698706 -6.5279 12.8257 0.652971 -6.41606 12.5645 1.13729 -6.33468 12.5667 
1.17322 -6.42208 12.7674 1.13729 -6.33468 12.5667 1.55302 -6.27524 12.6549 
2.64928 -5.91647 12.8592 2.38397 -5.93632 12.6262 2.85539 -5.69258 12.6571 
3.13867 -5.66123 12.9462 2.85539 -5.69258 12.6571 3.28436 -5.42924 12.7014 
3.56018 -5.33983 12.9335 3.28436 -5.42924 12.7014 3.70027 -5.12192 12.7604 
3.85065 -5.14479 13.0574 3.70027 -5.12192 12.7604 3.98868 -4.86656 12.8036 
4.12687 -4.85645 13.0271 3.98868 -4.86656 12.8036 4.26429 -4.57887 12.8335 
4.49337 -4.48397 13.1307 4.26429 -4.57887 12.8335 4.58702 -4.20679 12.9049 
4.79837 -4.0541 13.1409 4.58702 -4.20679 12.9049 4.88955 -3.7798 12.9776 
5.12347 -3.55245 13.2443 4.88955 -3.7798 12.9776 5.08296 -3.44745 13.0283 
5.12347 -3.55245 13.2443 5.08296 -3.44745 13.0283 5.25675 -3.1027 13.0802 
5.36743 -3.14591 13.4383 5.25675 -3.1027 13.0802 5.49219 -2.64353 13.2705 
5.71431 0.361469 13.8133 5.55874 0.677703 13.5862 5.60888 0.76052 13.8422 
5.53185 1.12944 14.1084 5.4561 1.13281 13.7651 5.30406 1.60957 13.9958 
5.06335 2.095 14.1422 5.11585 1.84624 13.7792 4.89359 2.27815 13.9221 
4.79848 2.50323 14.1928 4.89359 2.27815 13.9221 4.59147 2.71046 14.0031 
4.56249 2.81428 14.2424 4.59147 2.71046 14.0031 4.23973 3.12808 14.0716 
4.2862 3.13068 14.2758 4.23973 3.12808 14.0716 3.89594 3.4635 14.1193 
3.9178 3.50172 14.3891 3.89594 3.4635 14.1193 3.40751 3.86813 14.2014 
3.40411 3.91073 14.44 3.40751 3.86813 14.2014 2.96138 4.14904 14.2315 
2.88128 4.23451 14.467 2.96138 4.14904 14.2315 2.61884 4.33591 14.2605 
2.42853 4.46845 14.5498 2.61884 4.33591 14.2605 2.1428 4.54983 14.2858 
1.89147 4.67473 14.5391 2.1428 4.54983 14.2858 1.66648 4.71408 14.3143 
1.41487 4.81505 14.5706 1.66648 4.71408 14.3143 1.20468 4.83365 14.3466 
0.910234 4.9258 14.6923 1.20468 4.83365 14.3466 0.561419 4.93165 14.3423 
0.393396 4.97273 14.5839 0.561419 4.93165 14.3423 -0.105026 4.96231 14.3804 
-0.159803 4.98713 14.6073 -0.105026 4.96231 14.3804 -0.662069 4.92241 14.3602 
-0.675848 4.9462 14.5733 -0.662069 4.92241 14.3602 -1.03001 4.86497 14.3449 
-1.21855 4.86882 14.6819 -1.03001 4.86497 14.3449 -1.46822 4.75741 14.2621 
-1.56227 4.7844 14.6616 -1.46822 4.75741 14.2621 -1.87157 4.65277 14.3231 
-1.94885 4.66609 14.6567 -1.87157 4.65277 14.3231 -2.42953 4.45394 14.3925 
-3.35872 3.9523 14.5561 -3.18819 4.00523 14.181 -3.59857 3.71303 14.1624 
-3.66589 3.72246 14.5143 -3.59857 3.71303 14.1624 -3.9088 3.45252 14.1202 
-3.98861 3.44921 14.4551 -3.9088 3.45252 14.1202 -4.25032 3.11071 14.0549 
-4.59479 2.78239 14.2437 -4.25032 3.11071 14.0549 -4.59125 2.71587 14.0081 
-4.59479 2.78239 14.2437 -4.59125 2.71587 14.0081 -4.89286 2.29179 13.9528 
-4.94196 2.28856 14.1587 -4.89286 2.29179 13.9528 -5.233 1.7721 14.033 
-5.50511 1.13499 13.9701 -5.44438 1.14425 13.7435 -5.59803 0.734008 13.759 
-5.71507 0.385058 13.8452 -5.65323 0.406123 13.6319 -5.72023 0.0210177 13.5777 
-5.8 -0.0146841 13.8699 -5.72023 0.0210177 13.5777 -5.79664 -0.41388 13.5954 
-5.87596 -0.721333 13.9014 -5.79872 -0.824186 13.5133 -5.82386 -1.1664 13.6115 
-5.86589 -1.18725 13.8346 -5.82386 -1.1664 13.6115 -5.80011 -1.56668 13.6241 
-5.70083 -2.22488 13.6683 -5.71855 -1.93504 13.4898 -5.59037 -2.44053 13.4116 
-5.59948 -2.57324 13.6116 -5.59037 -2.44053 13.4116 -5.41772 -2.92498 13.333 
-5.45306 -2.97938 13.5448 -5.41772 -2.92498 13.333 -5.15489 -3.42595 13.1536 
-5.11452 -3.6791 13.4508 -5.15489 -3.42595 13.1536 -4.94276 -3.84597 13.1871 
-4.81968 -4.1359 13.3601 -4.94276 -3.84597 13.1871 -4.64185 -4.18816 12.9755 
-4.81968 -4.1359 13.3601 -4.64185 -4.18816 12.9755 -4.47669 -4.47969 13.0875 
-4.46715 -4.59517 13.3126 -4.47669 -4.47969 13.0875 -4.15512 -4.89305 13.1582 
-3.75968 -5.27629 13.1885 -3.93863 -5.03421 12.9989 -3.5325 -5.39318 12.9933 
-2.38926 -6.1193 13.0525 -2.41464 -6.02808 12.8415 -1.92156 -6.22437 12.8091 
-1.90292 -6.30494 13.0181 -1.92156 -6.22437 12.8091 -1.47502 -6.4094 12.9182 
-1.08546 -6.51751 12.9867 -1.0503 -6.42354 12.7116 -0.661928 -6.5081 12.7665 
-0.638131 -6.58456 12.9746 -0.661928 -6.5081 12.7665 -0.15458 -6.55715 12.7944 
-0.0708477 -6.624 12.9923 -0.15458 -6.55715 12.7944 0.261815 -6.53739 12.7612 
0.401376 -6.60527 12.9756 0.261815 -6.53739 12.7612 0.698706 -6.5279 12.8257 
1.4737 -6.4321 12.9969 1.17322 -6.42208 12.7674 1.55302 -6.27524 12.6549 
1.4737 -6.4321 12.9969 1.55302 -6.27524 12.6549 1.85699 -6.18814 12.6732 
1.92496 -6.29985 13.0249 1.85699 -6.18814 12.6732 2.30004 -6.10697 12.905 
2.91496 -5.85567 13.0961 2.64928 -5.91647 12.8592 3.13867 -5.66123 12.9462 
3.56214 -5.43314 13.1668 3.56018 -5.33983 12.9335 3.85065 -5.14479 13.0574 
4.3433 -4.72553 13.2765 4.12687 -4.85645 13.0271 4.49337 -4.48397 13.1307 
4.92809 -3.97512 13.3925 4.79837 -4.0541 13.1409 5.12347 -3.55245 13.2443 
5.63484 -2.46873 13.6381 5.49219 -2.64353 13.2705 5.6163 -2.28943 13.3747 
5.63484 -2.46873 13.6381 5.6163 -2.28943 13.3747 5.72914 -2.05353 13.6276 
5.80558 -1.72339 13.7538 5.72753 -1.72452 13.4082 5.85653 -1.20049 13.7582 
5.87572 -0.647796 13.9232 5.8109 -0.799198 13.5535 5.81672 -0.500926 13.6579 
5.87572 -0.647796 13.9232 5.81672 -0.500926 13.6579 5.80135 -0.16363 13.7369 
5.80055 0.132688 14.0644 5.80135 -0.16363 13.7369 5.71431 0.361469 13.8133 
5.69548 0.61669 14.103 5.71431 0.361469 13.8133 5.60888 0.76052 13.8422 
5.69548 0.61669 14.103 5.60888 0.76052 13.8422 5.53185 1.12944 14.1084 
5.45171 1.35386 14.2203 5.53185 1.12944 14.1084 5.30406 1.60957 13.9958 
5.28072 1.73137 14.2971 5.30406 1.60957 13.9958 5.06335 2.095 14.1422 
5.09177 2.08479 14.3457 5.06335 2.095 14.1422 4.79848 2.50323 14.1928 
4.815 2.51753 14.4213 4.79848 2.50323 14.1928 4.56249 2.81428 14.2424 
4.48552 2.93657 14.4817 4.56249 2.81428 14.2424 4.2862 3.13068 14.2758 
4.15765 3.28972 14.5437 4.2862 3.13068 14.2758 3.9178 3.50172 14.3891 
2.66123 4.36112 14.7155 2.88128 4.23451 14.467 2.42853 4.46845 14.5498 
1.90943 4.67823 14.7515 1.89147 4.67473 14.5391 1.41487 4.81505 14.5706 
1.39703 4.82441 14.7817 1.41487 4.81505 14.5706 0.910234 4.9258 14.6923 
0.116053 4.98984 14.8143 0.393396 4.97273 14.5839 -0.159803 4.98713 14.6073 
-0.707878 4.94998 14.8079 -0.675848 4.9462 14.5733 -1.21855 4.86882 14.6819 
-2.45199 4.46398 14.7282 -2.42953 4.45394 14.3925 -2.86322 4.24218 14.421 
-2.93448 4.21572 14.6804 -2.86322 4.24218 14.421 -3.35872 3.9523 14.5561 
-5.12041 2.03611 14.3457 -4.94196 2.28856 14.1587 -5.233 1.7721 14.033 
-5.47411 1.30325 14.2355 -5.28031 1.62262 13.911 -5.50511 1.13499 13.9701 
-5.63943 0.818675 14.146 -5.50511 1.13499 13.9701 -5.59803 0.734008 13.759 
-5.63943 0.818675 14.146 -5.59803 0.734008 13.759 -5.71507 0.385058 13.8452 
-5.75417 0.36669 14.0726 -5.71507 0.385058 13.8452 -5.8 -0.0146841 13.8699 
-5.87596 -0.721333 13.9014 -5.79664 -0.41388 13.5954 -5.79872 -0.824186 13.5133 
-3.44211 -5.5548 13.2833 -3.5325 -5.39318 12.9933 -3.11383 -5.70299 13.0043 
3.25197 -5.68284 13.2565 3.13867 -5.66123 12.9462 3.56214 -5.43314 13.1668 
5.86322 -0.300555 14.1125 5.80135 -0.16363 13.7369 5.80055 0.132688 14.0644 
3.86585 3.55154 14.7195 3.9178 3.50172 14.3891 3.55895 3.80547 14.6301 
2.31178 4.51555 14.817 2.42853 4.46845 14.5498 1.90943 4.67823 14.7515 
-0.271477 4.97485 14.94 -0.159803 4.98713 14.6073 -0.707878 4.94998 14.8079 
-4.25814 3.181 14.6619 -4.25353 3.17791 14.3646 -4.51379 2.90461 14.4908 
-5.31011 1.67715 14.4267 -5.233 1.7721 14.033 -5.47411 1.30325 14.2355 
-5.88785 -0.850401 14.1216 -5.87596 -0.721333 13.9014 -5.86589 -1.18725 13.8346 
-5.87599 -1.21923 14.0631 -5.88192 -1.11131 14.0802 -5.86589 -1.18725 13.8346 
-5.84048 -1.58658 14.005 -5.86414 -1.37169 14.039 -5.86589 -1.18725 13.8346 
-5.68585 -2.36362 13.8833 -5.74023 -2.14444 13.9166 -5.70083 -2.22488 13.6683 
-5.68585 -2.36362 13.8833 -5.70083 -2.22488 13.6683 -5.59948 -2.57324 13.6116 
-5.46609 -3.01175 13.7792 -5.51241 -2.89377 13.7979 -5.45306 -2.97938 13.5448 
-5.31053 -3.3617 13.7238 -5.41404 -3.13598 13.7596 -5.45306 -2.97938 13.5448 
-5.31053 -3.3617 13.7238 -5.29569 -3.32339 13.4791 -5.11452 -3.6791 13.4508 
-4.93127 -4.02913 13.6184 -5.05441 -3.83309 13.6491 -5.11452 -3.6791 13.4508 
-4.74131 -4.29837 13.5754 -4.76337 -4.26858 13.5802 -4.81968 -4.1359 13.3601 
-4.51035 -4.58844 13.5295 -4.6033 -4.47622 13.5473 -4.46715 -4.59517 13.3126 
-4.25847 -4.86632 13.4855 -4.43397 -4.67655 13.5156 -4.46715 -4.59517 13.3126 
-4.25847 -4.86632 13.4855 -4.46715 -4.59517 13.3126 -4.15512 -4.89305 13.1582 
-3.99496 -5.12231 13.4449 -4.06887 -5.05371 13.4558 -4.15512 -4.89305 13.1582 
-3.68998 -5.38323 13.4069 -3.87384 -5.22978 13.4279 -3.75968 -5.27629 13.1885 
-3.68998 -5.38323 13.4069 -3.75968 -5.27629 13.1885 -3.44211 -5.5548 13.2833 
-3.05236 -5.82425 13.3345 -3.2436 -5.70374 13.3529 -3.11383 -5.70299 13.0043 
-3.05236 -5.82425 13.3345 -3.11383 -5.70299 13.0043 -2.78558 -5.89762 12.9931 
-2.4459 -6.14024 13.2837 -2.55464 -6.08986 13.2917 -2.38926 -6.1193 13.0525 
-2.08414 -6.28972 13.2605 -2.31407 -6.19778 13.2746 -2.38926 -6.1193 13.0525 
-1.34268 -6.5137 13.2274 -1.56638 -6.45619 13.2337 -1.47502 -6.4094 12.9182 
-1.34268 -6.5137 13.2274 -1.47502 -6.4094 12.9182 -1.08546 -6.51751 12.9867 
-0.652598 -6.62993 13.2062 -0.790345 -6.61313 13.2088 -0.638131 -6.58456 12.9746 
-0.272156 -6.65954 13.2015 -0.527782 -6.64235 13.2042 -0.638131 -6.58456 12.9746 
0.501267 -6.64585 13.2074 0.264157 -6.6599 13.2014 0.401376 -6.60527 12.9756 
0.501267 -6.64585 13.2074 0.401376 -6.60527 12.9756 0.963209 -6.55067 13.0184 
1.20587 -6.54249 13.22 1.05132 -6.5723 13.2153 0.963209 -6.55067 13.0184 
1.92573 -6.34592 13.2511 1.81944 -6.38113 13.2456 1.92496 -6.29985 13.0249 
2.27474 -6.21422 13.272 2.06884 -6.29494 13.2592 1.92496 -6.29985 13.0249 
2.94392 -5.88665 13.3239 2.79007 -5.97138 13.3105 2.91496 -5.85567 13.0961 
3.01987 -5.84259 13.3309 2.91496 -5.85567 13.0961 3.25197 -5.68284 13.2565 
3.56574 -5.47804 13.3886 3.46079 -5.55512 13.3764 3.56214 -5.43314 13.1668 
3.85572 -5.24535 13.4255 3.67101 -5.39703 13.4014 3.56214 -5.43314 13.1668 
4.41491 -4.69901 13.512 4.25571 -4.86918 13.485 4.3433 -4.72553 13.2765 
4.41491 -4.69901 13.512 4.3433 -4.72553 13.2765 4.68334 -4.33008 13.3599 
4.84968 -4.14806 13.5993 4.76337 -4.26858 13.5802 4.68334 -4.33008 13.3599 
5.0533 -3.83486 13.6475 4.91384 -4.05406 13.6141 4.92809 -3.97512 13.3925 
5.23333 -3.51515 13.6995 5.18481 -3.60612 13.6851 5.13086 -3.64329 13.4401 
5.40553 -3.15668 13.7551 5.30477 -3.37359 13.7219 5.36743 -3.14591 13.4383 
5.40553 -3.15668 13.7551 5.36743 -3.14591 13.4383 5.50028 -2.85642 13.5709 
5.53277 -2.83937 13.8065 5.51241 -2.89377 13.7979 5.50028 -2.85642 13.5709 
5.66654 -2.43154 13.8647 5.59968 -2.64744 13.8369 5.63484 -2.46873 13.6381 
5.66654 -2.43154 13.8647 5.63484 -2.46873 13.6381 5.72914 -2.05353 13.6276 
5.81389 -1.76924 13.976 5.79323 -1.88877 13.9571 5.80558 -1.72339 13.7538 
5.86267 -1.38744 14.0365 5.83456 -1.63102 13.9979 5.80558 -1.72339 13.7538 
5.88411 -0.623579 14.1601 5.88785 -0.850401 14.1216 5.87572 -0.647796 13.9232 
5.88411 -0.623579 14.1601 5.87572 -0.647796 13.9232 5.86322 -0.300555 14.1125 
5.81389 0.0684339 14.2671 5.83456 -0.0697863 14.2452 5.80055 0.132688 14.0644 
5.7417 0.437211 14.3255 5.79323 0.187972 14.286 5.80055 0.132688 14.0644 
5.64935 0.787975 14.381 5.67567 0.696699 14.3666 5.69548 0.61669 14.103 
5.53277 1.13857 14.4366 5.59968 0.946644 14.4062 5.53185 1.12944 14.1084 
5.23333 1.81435 14.5436 5.30477 1.67279 14.5212 5.28072 1.73137 14.2971 
4.84968 2.44726 14.6439 4.91384 2.35326 14.629 4.815 2.51753 14.4213 
4.61515 2.76128 14.6943 4.76337 2.56778 14.6629 4.815 2.51753 14.4213 
4.09436 3.32866 14.7902 4.25571 3.16838 14.7581 4.15765 3.28972 14.5437 
4.09436 3.32866 14.7902 4.15765 3.28972 14.5437 3.86585 3.55154 14.7195 
3.56574 3.77724 14.8545 3.67101 3.69623 14.8417 3.55895 3.80547 14.6301 
3.2525 3.99712 14.8893 3.46079 3.85432 14.8667 3.55895 3.80547 14.6301 
2.58085 4.37659 14.9536 2.79007 4.27058 14.9326 2.66123 4.36112 14.7155 
2.58085 4.37659 14.9536 2.66123 4.36112 14.7155 2.31178 4.51555 14.817 
2.27474 4.51342 14.9711 2.31407 4.49698 14.9685 2.31178 4.51555 14.817 
1.92573 4.64512 14.992 2.06884 4.59414 14.9839 1.90943 4.67823 14.7515 
1.56767 4.75504 15.0094 1.81944 4.68033 14.9975 1.90943 4.67823 14.7515 
1.20587 4.84169 15.0231 1.31017 4.81915 15.0195 1.39703 4.82441 14.7817 
0.811957 4.91009 15.0327 1.05132 4.8715 15.0278 0.910234 4.9258 14.6923 
0.811957 4.91009 15.0327 0.910234 4.9258 14.6923 0.529736 4.96561 14.8098 
0.0934164 4.96422 15.0425 0.264157 4.9591 15.0417 0.116053 4.98984 14.8143 
-1.77636e-10 4.96496 15.0426 0.116053 4.98984 14.8143 -0.271477 4.97485 14.94 
-0.652598 4.92913 15.0369 -0.527782 4.94155 15.0389 -0.707878 4.94998 14.8079 
-1.03773 4.8742 15.0286 -0.790345 4.91233 15.0343 -0.707878 4.94998 14.8079 
-1.78965 4.68984 15.0036 -1.56638 4.75539 15.0094 -1.56227 4.7844 14.6616 
-2.4459 4.43943 14.9594 -2.31407 4.49698 14.9685 -2.45199 4.46398 14.7282 
-2.78606 4.27317 14.931 -2.55464 4.38906 14.9514 -2.45199 4.46398 14.7282 
-3.10422 4.09106 14.9042 -3.01987 4.14179 14.9122 -2.93448 4.21572 14.6804 
-3.44125 3.86876 14.8706 -3.2436 4.00294 14.8902 -3.35872 3.9523 14.5561 
-3.44125 3.86876 14.8706 -3.35872 3.9523 14.5561 -3.66589 3.72246 14.5143 
-3.99496 3.42151 14.7982 -3.87384 3.52898 14.8152 -3.98861 3.44921 14.4551 
-4.06887 3.35291 14.7873 -3.98861 3.44921 14.4551 -4.25814 3.181 14.6619 
-4.51035 2.88764 14.7136 -4.43397 2.97575 14.7276 -4.51379 2.90461 14.4908 
-4.74131 2.59757 14.6677 -4.6033 2.77542 14.6958 -4.51379 2.90461 14.4908 
-5.16928 1.93413 14.5691 -5.05441 2.13229 14.594 -5.12041 2.03611 14.3457 
-5.16928 1.93413 14.5691 -5.12041 2.03611 14.3457 -5.31011 1.67715 14.4267 
-5.46609 1.31095 14.4639 -5.41404 1.43518 14.4836 -5.47411 1.30325 14.2355 
-5.59737 0.954699 14.4052 -5.51241 1.19297 14.4452 -5.47411 1.30325 14.2355 
-5.78884 0.214466 14.2941 -5.74023 0.443638 14.3265 -5.75417 0.36669 14.0726 
-5.78884 0.214466 14.2941 -5.75417 0.36669 14.0726 -5.84901 -0.205783 14.0172 
-5.84048 -0.11422 14.2382 -5.83456 -0.0697863 14.2452 -5.84901 -0.205783 14.0172 
-5.87599 -0.481568 14.18 -5.86414 -0.329116 14.2041 -5.84901 -0.205783 14.0172 
0.450188 0.713098 4.16616 0.448935 0.756055 4.18831 0.458681 0.70278 4.54588 
0.448935 0.756055 4.18831 0.444512 0.792184 4.21669 0.458681 0.70278 4.54588 
0.444512 0.792184 4.21669 0.434324 0.838802 4.21262 0.458681 0.70278 4.54588 
0.434324 0.838802 4.21262 0.423936 0.86968 4.2271 0.408232 0.878398 4.56153 
0.411846 0.903418 4.20944 0.394232 0.935651 4.23768 0.408232 0.878398 4.56153 
0.394232 0.935651 4.23768 0.369665 0.981272 4.19872 0.408232 0.878398 4.56153 
0.369665 0.981272 4.19872 0.348775 1.00227 4.24268 0.309442 1.00064 4.5988 
0.327087 1.02782 4.23959 0.30432 1.04878 4.2497 0.309442 1.00064 4.5988 
0.272103 1.08306 4.20752 0.228648 1.10217 4.27453 0.207917 1.06926 4.59837 
0.228648 1.10217 4.27453 0.186867 1.12794 4.24866 0.207917 1.06926 4.59837 
0.186867 1.12794 4.24866 0.155624 1.1383 4.2645 0.0964883 1.10852 4.62153 
0.0964883 1.10852 4.62153 0.155624 1.1383 4.2645 0.124493 1.15012 4.25597 
0.124493 1.15012 4.25597 0.0850226 1.15444 4.29116 0.0964883 1.10852 4.62153 
0.0850226 1.15444 4.29116 0.0391996 1.16754 4.2474 0.0964883 1.10852 4.62153 
0.0391996 1.16754 4.2474 0.00461801 1.16555 4.27022 -0.0281912 1.11687 4.6135 
-0.0282704 1.16657 4.25856 -0.0683429 1.15959 4.27695 -0.0281912 1.11687 4.6135 
-0.0683429 1.15959 4.27695 -0.156045 1.09607 4.59315 -0.0281912 1.11687 4.6135 
-0.0683429 1.15959 4.27695 -0.113422 1.15308 4.25673 -0.156045 1.09607 4.59315 
-0.113422 1.15308 4.25673 -0.150125 1.13735 4.28543 -0.156045 1.09607 4.59315 
-0.150125 1.13735 4.28543 -0.18603 1.12597 4.26255 -0.156045 1.09607 4.59315 
-0.18603 1.12597 4.26255 -0.213624 1.10895 4.28527 -0.156045 1.09607 4.59315 
-0.213624 1.10895 4.28527 -0.252882 1.09052 4.24749 -0.301733 0.984081 4.83131 
-0.252882 1.09052 4.24749 -0.28538 1.0631 4.26809 -0.301733 0.984081 4.83131 
-0.28538 1.0631 4.26809 -0.374568 0.931884 4.5579 -0.301733 0.984081 4.83131 
-0.28538 1.0631 4.26809 -0.319585 1.03632 4.23574 -0.374568 0.931884 4.5579 
-0.319585 1.03632 4.23574 -0.342795 1.00899 4.24591 -0.374568 0.931884 4.5579 
-0.363218 0.985884 4.22719 -0.385806 0.950613 4.23649 -0.374568 0.931884 4.5579 
-0.385806 0.950613 4.23649 -0.407292 0.912028 4.21935 -0.374568 0.931884 4.5579 
-0.407292 0.912028 4.21935 -0.420749 0.87739 4.23426 -0.437801 0.797684 4.55554 
-0.431333 0.849878 4.20885 -0.4414 0.809636 4.21324 -0.437801 0.797684 4.55554 
-0.4414 0.809636 4.21324 -0.457593 0.677547 4.53976 -0.437801 0.797684 4.55554 
-0.4414 0.809636 4.21324 -0.447975 0.766557 4.1941 -0.457593 0.677547 4.53976 
-0.447975 0.766557 4.1941 -0.450435 0.72281 4.21373 -0.457593 0.677547 4.53976 
-0.450435 0.72281 4.21373 -0.448091 0.678415 4.19402 -0.457593 0.677547 4.53976 
-0.448091 0.678415 4.19402 -0.443477 0.645862 4.18651 -0.432701 0.518221 4.47719 
-0.432701 0.518221 4.47719 -0.443477 0.645862 4.18651 -0.436864 0.615638 4.17192 
-0.436864 0.615638 4.17192 -0.425595 0.572794 4.19267 -0.432701 0.518221 4.47719 
-0.425595 0.572794 4.19267 -0.407939 0.534792 4.15924 -0.432701 0.518221 4.47719 
-0.407939 0.534792 4.15924 -0.392055 0.502748 4.16524 -0.432701 0.518221 4.47719 
-0.332979 0.360342 4.46507 -0.432701 0.518221 4.47719 -0.392055 0.502748 4.16524 
-0.374915 0.477333 4.14633 -0.351738 0.445781 4.13967 -0.332979 0.360342 4.46507 
-0.351738 0.445781 4.13967 -0.320872 0.411903 4.13351 -0.332979 0.360342 4.46507 
-0.320872 0.411903 4.13351 -0.295412 0.384491 4.15416 -0.332979 0.360342 4.46507 
-0.269796 0.362255 4.16197 -0.243707 0.347628 4.13927 -0.225185 0.274473 4.4731 
-0.243707 0.347628 4.13927 -0.206917 0.34472 4.01939 -0.225185 0.274473 4.4731 
-0.206917 0.34472 4.01939 -0.159167 0.304073 4.13873 -0.0859126 0.218689 4.48379 
-0.159167 0.304073 4.13873 -0.114739 0.29302 4.11978 -0.0859126 0.218689 4.48379 
-0.114739 0.29302 4.11978 -0.0811423 0.283749 4.13105 -0.0859126 0.218689 4.48379 
-0.0486067 0.280682 4.11963 -0.00844419 0.274913 4.13773 -0.0859126 0.218689 4.48379 
-0.00844419 0.274913 4.13773 0.0782662 0.226365 4.43519 -0.0859126 0.218689 4.48379 
-0.00844419 0.274913 4.13773 0.0376113 0.281683 4.10641 0.0782662 0.226365 4.43519 
0.0376113 0.281683 4.10641 0.0719892 0.27974 4.14608 0.0782662 0.226365 4.43519 
0.104252 0.290484 4.11921 0.143095 0.298195 4.1396 0.0782662 0.226365 4.43519 
0.143095 0.298195 4.1396 0.203563 0.262163 4.48119 0.0782662 0.226365 4.43519 
0.143095 0.298195 4.1396 0.185843 0.317962 4.12402 0.203563 0.262163 4.48119 
0.185843 0.317962 4.12402 0.221852 0.335249 4.12962 0.203563 0.262163 4.48119 
0.221852 0.335249 4.12962 0.261238 0.361118 4.12893 0.299871 0.324468 4.48922 
0.261238 0.361118 4.12893 0.287853 0.379632 4.14434 0.299871 0.324468 4.48922 
0.299871 0.324468 4.48922 0.287853 0.379632 4.14434 0.312379 0.402527 4.13912 
0.312379 0.402527 4.13912 0.340562 0.425126 4.18357 0.299871 0.324468 4.48922 
0.340562 0.425126 4.18357 0.391337 0.433308 4.48647 0.299871 0.324468 4.48922 
0.340562 0.425126 4.18357 0.36878 0.467916 4.14792 0.391337 0.433308 4.48647 
0.36878 0.467916 4.14792 0.387438 0.494848 4.16399 0.391337 0.433308 4.48647 
0.403173 0.525447 4.15543 0.419453 0.557426 4.18438 0.391337 0.433308 4.48647 
0.419453 0.557426 4.18438 0.443771 0.55838 4.51927 0.391337 0.433308 4.48647 
0.419453 0.557426 4.18438 0.433861 0.60452 4.16851 0.443771 0.55838 4.51927 
0.433861 0.60452 4.16851 0.441773 0.633894 4.20003 0.443771 0.55838 4.51927 
0.44692 0.667883 4.19336 0.450188 0.713098 4.16616 0.458681 0.70278 4.54588 
0.458681 0.70278 4.54588 0.408232 0.878398 4.56153 0.487509 0.659114 5.0936 
0.408232 0.878398 4.56153 0.309442 1.00064 4.5988 0.415963 0.839469 5.08522 
0.309442 1.00064 4.5988 0.207917 1.06926 4.59837 0.31933 0.950715 5.11668 
0.207917 1.06926 4.59837 0.0964883 1.10852 4.62153 0.217973 1.01544 5.14897 
0.0964883 1.10852 4.62153 -0.0281912 1.11687 4.6135 0.0250206 1.06832 5.17428 
-0.0281912 1.11687 4.6135 -0.156045 1.09607 4.59315 0.0250206 1.06832 5.17428 
-0.374568 0.931884 4.5579 -0.437801 0.797684 4.55554 -0.417497 0.841635 4.91223 
-0.437801 0.797684 4.55554 -0.457593 0.677547 4.53976 -0.476987 0.679228 5.05123 
-0.457593 0.677547 4.53976 -0.432701 0.518221 4.47719 -0.485013 0.558656 5.02376 
-0.432701 0.518221 4.47719 -0.332979 0.360342 4.46507 -0.38033 0.308461 4.90366 
-0.332979 0.360342 4.46507 -0.225185 0.274473 4.4731 -0.243622 0.158257 5.02742 
-0.225185 0.274473 4.4731 -0.0859126 0.218689 4.48379 -0.0860385 0.101669 5.00539 
-0.0859126 0.218689 4.48379 0.0782662 0.226365 4.43519 -0.0860385 0.101669 5.00539 
0.0782662 0.226365 4.43519 0.203563 0.262163 4.48119 0.24378 0.170725 4.97186 
0.203563 0.262163 4.48119 0.299871 0.324468 4.48922 0.24378 0.170725 4.97186 
0.299871 0.324468 4.48922 0.391337 0.433308 4.48647 0.353442 0.257222 4.99461 
0.391337 0.433308 4.48647 0.443771 0.55838 4.51927 0.422185 0.399143 4.83159 
0.443771 0.55838 4.51927 0.458681 0.70278 4.54588 0.47708 0.49145 5.02964 
-0.165442 1.04214 5.09204 -0.301733 0.984081 4.83131 -0.272712 0.972627 5.50999 
-0.301733 0.984081 4.83131 -0.417497 0.841635 4.91223 -0.383017 0.884014 5.44312 
-0.417497 0.841635 4.91223 -0.476987 0.679228 5.05123 -0.472552 0.76228 5.45245 
-0.485013 0.558656 5.02376 -0.453901 0.479146 4.85216 -0.503965 0.37942 5.39476 
-0.453901 0.479146 4.85216 -0.38033 0.308461 4.90366 -0.455745 0.269731 5.367 
0.353442 0.257222 4.99461 0.422185 0.399143 4.83159 0.475046 0.281968 5.41985 
0.487509 0.659114 5.0936 0.415963 0.839469 5.08522 0.509545 0.723316 5.7108 
0.415963 0.839469 5.08522 0.31933 0.950715 5.11668 0.433964 0.840605 5.76483 
0.31933 0.950715 5.11668 0.217973 1.01544 5.14897 0.341043 0.928499 5.80458 
0.217973 1.01544 5.14897 0.0250206 1.06832 5.17428 0.175023 1.01784 5.75349 
0.0250206 1.06832 5.17428 -0.165442 1.04214 5.09204 -0.139864 1.02973 5.64205 
-0.165442 1.04214 5.09204 -0.272712 0.972627 5.50999 -0.139864 1.02973 5.64205 
-0.472552 0.76228 5.45245 -0.476987 0.679228 5.05123 -0.540249 0.554081 5.49083 
-0.476987 0.679228 5.05123 -0.485013 0.558656 5.02376 -0.540249 0.554081 5.49083 
-0.38033 0.308461 4.90366 -0.243622 0.158257 5.02742 -0.350515 0.096001 5.46786 
-0.243622 0.158257 5.02742 -0.0860385 0.101669 5.00539 -0.173773 -0.00206721 5.45498 
-0.0860385 0.101669 5.00539 0.102498 0.121653 4.94688 -0.012359 -0.0283869 5.45326 
0.102498 0.121653 4.94688 0.24378 0.170725 4.97186 0.30154 0.0188938 5.59431 
0.24378 0.170725 4.97186 0.353442 0.257222 4.99461 0.399908 0.138706 5.48848 
0.353442 0.257222 4.99461 0.475046 0.281968 5.41985 0.399908 0.138706 5.48848 
0.475046 0.281968 5.41985 0.47708 0.49145 5.02964 0.534463 0.395235 5.53736 
0.47708 0.49145 5.02964 0.487509 0.659114 5.0936 0.544091 0.560537 5.54721 
0.544091 0.560537 5.54721 0.509545 0.723316 5.7108 0.599627 0.615683 6.08288 
0.0190862 1.04247 5.77056 -0.139864 1.02973 5.64205 -0.114835 1.03835 6.15699 
-0.139864 1.02973 5.64205 -0.272712 0.972627 5.50999 -0.244959 0.997589 6.12334 
-0.272712 0.972627 5.50999 -0.383017 0.884014 5.44312 -0.364201 0.931275 6.10434 
-0.383017 0.884014 5.44312 -0.472552 0.76228 5.45245 -0.469538 0.818695 5.92446 
-0.472552 0.76228 5.45245 -0.540249 0.554081 5.49083 -0.558115 0.668232 5.90567 
-0.540249 0.554081 5.49083 -0.503965 0.37942 5.39476 -0.582466 0.308937 5.86006 
-0.503965 0.37942 5.39476 -0.455745 0.269731 5.367 -0.582466 0.308937 5.86006 
-0.455745 0.269731 5.367 -0.350515 0.096001 5.46786 -0.490402 0.115061 5.83029 
-0.350515 0.096001 5.46786 -0.173773 -0.00206721 5.45498 -0.351057 -0.0264781 5.80185 
-0.173773 -0.00206721 5.45498 -0.012359 -0.0283869 5.45326 -0.0224644 -0.193996 5.959 
-0.012359 -0.0283869 5.45326 0.137208 -0.013017 5.45929 0.125063 -0.192128 5.98844 
0.137208 -0.013017 5.45929 0.30154 0.0188938 5.59431 0.277912 -0.135757 5.98263 
0.399908 0.138706 5.48848 0.475046 0.281968 5.41985 0.502934 0.0762805 5.95015 
0.475046 0.281968 5.41985 0.534463 0.395235 5.53736 0.583651 0.231552 5.97346 
0.534463 0.395235 5.53736 0.544091 0.560537 5.54721 0.600646 0.427021 5.88623 
0.600646 0.427021 5.88623 0.599627 0.615683 6.08288 0.708732 0.385552 6.41791 
0.509545 0.723316 5.7108 0.433964 0.840605 5.76483 0.578532 0.753947 6.41653 
0.433964 0.840605 5.76483 0.341043 0.928499 5.80458 0.493094 0.858695 6.43781 
0.341043 0.928499 5.80458 0.175023 1.01784 5.75349 0.394459 0.945859 6.4921 
0.175023 1.01784 5.75349 0.0190862 1.04247 5.77056 0.0230119 1.05568 6.32117 
-0.364201 0.931275 6.10434 -0.469538 0.818695 5.92446 -0.467865 0.899182 6.52782 
-0.469538 0.818695 5.92446 -0.558115 0.668232 5.90567 -0.620094 0.693032 6.39885 
-0.558115 0.668232 5.90567 -0.595126 0.50159 5.88305 -0.693165 0.46078 6.39302 
-0.595126 0.50159 5.88305 -0.582466 0.308937 5.86006 -0.690286 0.277826 6.36413 
-0.582466 0.308937 5.86006 -0.490402 0.115061 5.83029 -0.637889 0.100446 6.32935 
-0.490402 0.115061 5.83029 -0.351057 -0.0264781 5.80185 -0.520861 -0.0752193 6.29203 
-0.351057 -0.0264781 5.80185 -0.172699 -0.16614 5.95015 -0.336734 -0.261205 6.35051 
0.277912 -0.135757 5.98263 0.30154 0.0188938 5.59431 0.4617 -0.146828 6.30395 
0.30154 0.0188938 5.59431 0.502934 0.0762805 5.95015 0.4617 -0.146828 6.30395 
0.583651 0.231552 5.97346 0.600646 0.427021 5.88623 0.705883 0.165049 6.48709 
0.708732 0.385552 6.41791 0.599627 0.615683 6.08288 0.747127 0.567618 6.77965 
0.394459 0.945859 6.4921 0.192405 1.02782 6.27964 0.265326 1.0499 6.82489 
0.192405 1.02782 6.27964 0.0230119 1.05568 6.32117 0.0771368 1.08653 6.81 
0.0230119 1.05568 6.32117 -0.114835 1.03835 6.15699 -0.083308 1.08311 6.78062 
-0.114835 1.03835 6.15699 -0.244959 0.997589 6.12334 -0.282085 1.02426 6.64185 
-0.244959 0.997589 6.12334 -0.364201 0.931275 6.10434 -0.282085 1.02426 6.64185 
-0.172699 -0.16614 5.95015 -0.0224644 -0.193996 5.959 -0.132792 -0.364769 6.42154 
-0.0224644 -0.193996 5.959 0.125063 -0.192128 5.98844 0.125173 -0.357685 6.39319 
0.125063 -0.192128 5.98844 0.277912 -0.135757 5.98263 0.125173 -0.357685 6.39319 
0.277912 -0.135757 5.98263 0.4617 -0.146828 6.30395 0.364909 -0.374686 6.64239 
0.4617 -0.146828 6.30395 0.502934 0.0762805 5.95015 0.632253 -0.0379559 6.49636 
0.502934 0.0762805 5.95015 0.583651 0.231552 5.97346 0.632253 -0.0379559 6.49636 
0.708732 0.385552 6.41791 0.747127 0.567618 6.77965 0.826592 0.346257 6.87939 
0.747127 0.567618 6.77965 0.578532 0.753947 6.41653 0.686795 0.74489 6.91783 
0.578532 0.753947 6.41653 0.493094 0.858695 6.43781 0.555316 0.900522 6.96098 
0.493094 0.858695 6.43781 0.394459 0.945859 6.4921 0.555316 0.900522 6.96098 
0.394459 0.945859 6.4921 0.265326 1.0499 6.82489 0.420073 0.997979 6.9791 
-0.083308 1.08311 6.78062 -0.282085 1.02426 6.64185 -0.257075 1.07254 6.98281 
-0.282085 1.02426 6.64185 -0.467865 0.899182 6.52782 -0.42877 0.992069 6.97226 
-0.467865 0.899182 6.52782 -0.620094 0.693032 6.39885 -0.590969 0.866978 6.95346 
-0.620094 0.693032 6.39885 -0.693165 0.46078 6.39302 -0.818493 0.391933 6.86878 
-0.693165 0.46078 6.39302 -0.690286 0.277826 6.36413 -0.818493 0.391933 6.86878 
-0.690286 0.277826 6.36413 -0.637889 0.100446 6.32935 -0.811325 0.154221 6.84526 
-0.637889 0.100446 6.32935 -0.520861 -0.0752193 6.29203 -0.731708 -0.205031 6.97205 
-0.520861 -0.0752193 6.29203 -0.336734 -0.261205 6.35051 -0.571574 -0.348884 6.87617 
-0.336734 -0.261205 6.35051 -0.132792 -0.364769 6.42154 -0.238795 -0.540883 6.87477 
-0.132792 -0.364769 6.42154 0.125173 -0.357685 6.39319 -0.005185 -0.59629 6.91386 
0.364909 -0.374686 6.64239 0.4617 -0.146828 6.30395 0.568017 -0.399857 6.96513 
0.4617 -0.146828 6.30395 0.632253 -0.0379559 6.49636 0.700307 -0.235861 6.95127 
0.632253 -0.0379559 6.49636 0.705883 0.165049 6.48709 0.805032 -0.0846432 7.00961 
0.705883 0.165049 6.48709 0.708732 0.385552 6.41791 0.835844 0.0874596 6.9578 
0.826592 0.346257 6.87939 0.747127 0.567618 6.77965 0.940192 0.443074 7.36285 
0.747127 0.567618 6.77965 0.686795 0.74489 6.91783 0.863738 0.671348 7.43515 
0.686795 0.74489 6.91783 0.555316 0.900522 6.96098 0.750428 0.841221 7.47041 
0.555316 0.900522 6.96098 0.420073 0.997979 6.9791 0.491717 1.06619 7.5499 
0.420073 0.997979 6.9791 0.265326 1.0499 6.82489 0.272608 1.12125 7.34122 
0.265326 1.0499 6.82489 0.0771368 1.08653 6.81 0.272608 1.12125 7.34122 
0.0771368 1.08653 6.81 -0.083308 1.08311 6.78062 0.0555328 1.15517 7.33366 
-0.083308 1.08311 6.78062 -0.257075 1.07254 6.98281 -0.122363 1.14851 7.32165 
-0.257075 1.07254 6.98281 -0.42877 0.992069 6.97226 -0.496297 1.04966 7.47926 
-0.42877 0.992069 6.97226 -0.590969 0.866978 6.95346 -0.63794 0.904683 7.28603 
-0.590969 0.866978 6.95346 -0.728078 0.669479 6.8879 -0.811581 0.69383 7.27546 
-0.728078 0.669479 6.8879 -0.818493 0.391933 6.86878 -0.924445 0.442972 7.30467 
-0.818493 0.391933 6.86878 -0.811325 0.154221 6.84526 -0.92358 0.220048 7.19017 
-0.811325 0.154221 6.84526 -0.798141 -0.044608 6.95323 -0.958244 -0.0371007 7.36506 
-0.571574 -0.348884 6.87617 -0.390259 -0.492185 6.90005 -0.613962 -0.554668 7.28007 
-0.238795 -0.540883 6.87477 -0.005185 -0.59629 6.91386 -0.207582 -0.732707 7.22212 
0.364909 -0.374686 6.64239 0.568017 -0.399857 6.96513 0.499064 -0.574408 7.1684 
0.835844 0.0874596 6.9578 0.826592 0.346257 6.87939 1.00239 0.203982 7.43125 
0.491717 1.06619 7.5499 0.272608 1.12125 7.34122 0.347121 1.17562 7.76607 
0.272608 1.12125 7.34122 0.0555328 1.15517 7.33366 0.0836088 1.25344 7.88478 
0.0555328 1.15517 7.33366 -0.122363 1.14851 7.32165 0.0836088 1.25344 7.88478 
-0.496297 1.04966 7.47926 -0.63794 0.904683 7.28603 -0.758 0.944417 7.78791 
-0.63794 0.904683 7.28603 -0.811581 0.69383 7.27546 -0.906571 0.774815 7.7851 
-0.924445 0.442972 7.30467 -0.92358 0.220048 7.19017 -1.0702 0.324453 7.6725 
-0.92358 0.220048 7.19017 -0.958244 -0.0371007 7.36506 -1.08083 0.0881933 7.64191 
-0.958244 -0.0371007 7.36506 -0.798141 -0.044608 6.95323 -0.93605 -0.233373 7.44457 
-0.798141 -0.044608 6.95323 -0.731708 -0.205031 6.97205 -0.93605 -0.233373 7.44457 
-0.731708 -0.205031 6.97205 -0.571574 -0.348884 6.87617 -0.792167 -0.446387 7.39207 
-0.613962 -0.554668 7.28007 -0.390259 -0.492185 6.90005 -0.496527 -0.792983 7.52914 
-0.390259 -0.492185 6.90005 -0.238795 -0.540883 6.87477 -0.496527 -0.792983 7.52914 
-0.207582 -0.732707 7.22212 -0.005185 -0.59629 6.91386 -0.102179 -0.900804 7.50482 
-0.005185 -0.59629 6.91386 0.142716 -0.57013 6.88857 0.237537 -0.891726 7.52847 
0.142716 -0.57013 6.88857 0.291959 -0.550229 6.92829 0.387035 -0.834354 7.51607 
0.499064 -0.574408 7.1684 0.568017 -0.399857 6.96513 0.713387 -0.635164 7.53654 
0.568017 -0.399857 6.96513 0.700307 -0.235861 6.95127 0.855409 -0.524786 7.60187 
0.700307 -0.235861 6.95127 0.805032 -0.0846432 7.00961 0.911604 -0.236964 7.38735 
0.805032 -0.0846432 7.00961 0.835844 0.0874596 6.9578 1.02016 -0.00786945 7.50118 
0.835844 0.0874596 6.9578 1.00239 0.203982 7.43125 1.02016 -0.00786945 7.50118 
1.00239 0.203982 7.43125 0.940192 0.443074 7.36285 1.21432 0.293831 8.04352 
0.940192 0.443074 7.36285 0.863738 0.671348 7.43515 1.14654 0.515905 8.05113 
0.863738 0.671348 7.43515 0.750428 0.841221 7.47041 0.901642 0.850477 7.93016 
0.750428 0.841221 7.47041 0.621043 0.967921 7.48662 0.773687 0.986991 7.95947 
0.621043 0.967921 7.48662 0.491717 1.06619 7.5499 0.593947 1.11707 7.96855 
0.491717 1.06619 7.5499 0.347121 1.17562 7.76607 0.447733 1.23614 8.16487 
-0.150415 1.23994 7.85973 -0.30336 1.14554 7.5518 -0.346337 1.27695 8.19193 
-0.30336 1.14554 7.5518 -0.496297 1.04966 7.47926 -0.488975 1.21311 8.14014 
-0.980624 0.643921 7.75456 -0.924445 0.442972 7.30467 -1.15488 0.492239 8.04561 
-1.08083 0.0881933 7.64191 -0.958244 -0.0371007 7.36506 -1.17211 -0.175706 7.93072 
-0.958244 -0.0371007 7.36506 -0.93605 -0.233373 7.44457 -1.11457 -0.378499 7.92568 
-0.93605 -0.233373 7.44457 -0.792167 -0.446387 7.39207 -1.01502 -0.582091 7.92689 
-0.792167 -0.446387 7.39207 -0.613962 -0.554668 7.28007 -0.758889 -0.8261 7.85496 
-0.496527 -0.792983 7.52914 -0.207582 -0.732707 7.22212 -0.31252 -0.947851 7.65425 
0.387035 -0.834354 7.51607 0.499064 -0.574408 7.1684 0.592266 -0.817125 7.65352 
0.911604 -0.236964 7.38735 1.02016 -0.00786945 7.50118 1.18383 -0.168983 7.95217 
1.02016 -0.00786945 7.50118 1.00239 0.203982 7.43125 1.15103 0.0599608 7.82008 
1.15103 0.0599608 7.82008 1.21432 0.293831 8.04352 1.35546 -0.00243071 8.2913 
1.08298 0.672553 8.08424 0.901642 0.850477 7.93016 1.10395 0.931329 8.57977 
0.901642 0.850477 7.93016 0.773687 0.986991 7.95947 0.909408 1.05522 8.44393 
0.773687 0.986991 7.95947 0.593947 1.11707 7.96855 0.708125 1.22124 8.50349 
0.447733 1.23614 8.16487 0.347121 1.17562 7.76607 0.275413 1.38522 8.52099 
0.347121 1.17562 7.76607 0.0836088 1.25344 7.88478 0.275413 1.38522 8.52099 
0.0836088 1.25344 7.88478 -0.150415 1.23994 7.85973 -0.196624 1.39844 8.52754 
-0.150415 1.23994 7.85973 -0.346337 1.27695 8.19193 -0.196624 1.39844 8.52754 
-0.488975 1.21311 8.14014 -0.616572 1.10596 7.97791 -0.735641 1.20013 8.49537 
-0.616572 1.10596 7.97791 -0.758 0.944417 7.78791 -0.951462 1.03554 8.47592 
-0.758 0.944417 7.78791 -0.906571 0.774815 7.7851 -1.1192 0.83264 8.43778 
-0.906571 0.774815 7.7851 -0.980624 0.643921 7.75456 -1.20848 0.665523 8.38746 
-1.15488 0.492239 8.04561 -1.0702 0.324453 7.6725 -1.26567 0.315704 8.1804 
-1.0702 0.324453 7.6725 -1.08083 0.0881933 7.64191 -1.28106 0.042723 8.12394 
-0.758889 -0.8261 7.85496 -0.496527 -0.792983 7.52914 -0.678406 -1.08471 8.11714 
-0.496527 -0.792983 7.52914 -0.31252 -0.947851 7.65425 -0.496466 -1.17334 8.10714 
-0.31252 -0.947851 7.65425 -0.102179 -0.900804 7.50482 -0.28494 -1.20724 8.05221 
-0.102179 -0.900804 7.50482 0.0758263 -0.916068 7.52796 0.128556 -1.16617 7.94199 
0.0758263 -0.916068 7.52796 0.237537 -0.891726 7.52847 0.128556 -1.16617 7.94199 
0.237537 -0.891726 7.52847 0.387035 -0.834354 7.51607 0.457348 -1.09083 7.95059 
0.387035 -0.834354 7.51607 0.592266 -0.817125 7.65352 0.457348 -1.09083 7.95059 
0.592266 -0.817125 7.65352 0.713387 -0.635164 7.53654 0.770263 -0.899049 7.95572 
0.713387 -0.635164 7.53654 0.855409 -0.524786 7.60187 1.03019 -0.796511 8.16816 
0.855409 -0.524786 7.60187 1.08709 -0.380144 7.87091 1.17429 -0.616948 8.21638 
1.18383 -0.168983 7.95217 1.15103 0.0599608 7.82008 1.35546 -0.00243071 8.2913 
1.35546 -0.00243071 8.2913 1.21432 0.293831 8.04352 1.41396 0.197552 8.46697 
1.21432 0.293831 8.04352 1.14654 0.515905 8.05113 1.37923 0.391676 8.49707 
1.14654 0.515905 8.05113 1.08298 0.672553 8.08424 1.36383 0.609369 8.66564 
1.08298 0.672553 8.08424 1.10395 0.931329 8.57977 1.26486 0.818824 8.73189 
0.708125 1.22124 8.50349 0.447733 1.23614 8.16487 0.506719 1.36436 8.65857 
0.447733 1.23614 8.16487 0.275413 1.38522 8.52099 0.506719 1.36436 8.65857 
-0.196624 1.39844 8.52754 -0.346337 1.27695 8.19193 -0.461292 1.43408 8.83084 
-0.346337 1.27695 8.19193 -0.488975 1.21311 8.14014 -0.582966 1.3327 8.65428 
-1.20848 0.665523 8.38746 -1.15488 0.492239 8.04561 -1.365 0.445466 8.50227 
-1.15488 0.492239 8.04561 -1.26567 0.315704 8.1804 -1.365 0.445466 8.50227 
-1.26567 0.315704 8.1804 -1.28106 0.042723 8.12394 -1.47648 0.195417 8.60435 
-1.28106 0.042723 8.12394 -1.17211 -0.175706 7.93072 -1.39021 -0.217975 8.3878 
-1.17211 -0.175706 7.93072 -1.11457 -0.378499 7.92568 -1.34102 -0.422866 8.37334 
-1.11457 -0.378499 7.92568 -1.01502 -0.582091 7.92689 -1.30509 -0.659768 8.4543 
-1.01502 -0.582091 7.92689 -0.899895 -0.72165 7.90304 -1.17314 -0.865694 8.42853 
-0.899895 -0.72165 7.90304 -0.758889 -0.8261 7.85496 -0.997177 -1.09714 8.4412 
-0.0967045 -1.1575 7.92781 0.128556 -1.16617 7.94199 0.109423 -1.46209 8.38169 
0.128556 -1.16617 7.94199 0.457348 -1.09083 7.95059 0.313957 -1.43317 8.38706 
0.457348 -1.09083 7.95059 0.770263 -0.899049 7.95572 0.712596 -1.1687 8.25521 
0.770263 -0.899049 7.95572 1.03019 -0.796511 8.16816 0.918172 -1.02071 8.26643 
1.08709 -0.380144 7.87091 1.18383 -0.168983 7.95217 1.48339 -0.294821 8.58888 
1.35546 -0.00243071 8.2913 1.41396 0.197552 8.46697 1.57196 -0.0262299 8.73353 
1.41396 0.197552 8.46697 1.37923 0.391676 8.49707 1.63739 0.218239 8.9383 
1.10395 0.931329 8.57977 0.909408 1.05522 8.44393 1.05816 1.15246 8.92846 
0.909408 1.05522 8.44393 0.708125 1.22124 8.50349 0.883011 1.36254 9.12614 
0.708125 1.22124 8.50349 0.506719 1.36436 8.65857 0.628273 1.48379 9.12365 
0.506719 1.36436 8.65857 0.275413 1.38522 8.52099 0.383155 1.5098 8.98671 
0.275413 1.38522 8.52099 0.0183677 1.41811 8.54879 0.139297 1.55395 8.99947 
0.0183677 1.41811 8.54879 -0.196624 1.39844 8.52754 -0.202379 1.54042 8.97205 
-0.196624 1.39844 8.52754 -0.461292 1.43408 8.83084 -0.202379 1.54042 8.97205 
-0.582966 1.3327 8.65428 -0.735641 1.20013 8.49537 -0.732712 1.42686 9.09492 
-0.735641 1.20013 8.49537 -0.951462 1.03554 8.47592 -0.979843 1.28827 9.09613 
-0.951462 1.03554 8.47592 -1.1192 0.83264 8.43778 -1.16703 1.04852 8.91104 
-1.1192 0.83264 8.43778 -1.20848 0.665523 8.38746 -1.3997 0.851261 9.04583 
-1.20848 0.665523 8.38746 -1.365 0.445466 8.50227 -1.51814 0.641291 9.01808 
-1.49081 -0.000672922 8.58262 -1.39021 -0.217975 8.3878 -1.63963 -0.266246 8.86475 
-1.39021 -0.217975 8.3878 -1.34102 -0.422866 8.37334 -1.56808 -0.547299 8.81453 
-0.997177 -1.09714 8.4412 -0.678406 -1.08471 8.11714 -0.842351 -1.31351 8.53893 
-0.678406 -1.08471 8.11714 -0.496466 -1.17334 8.10714 -0.63745 -1.42064 8.52068 
-0.496466 -1.17334 8.10714 -0.28494 -1.20724 8.05221 -0.368475 -1.53067 8.5287 
0.535952 -1.36997 8.3981 0.712596 -1.1687 8.25521 0.764091 -1.47669 8.67412 
0.712596 -1.1687 8.25521 0.918172 -1.02071 8.26643 0.970535 -1.33584 8.67642 
0.918172 -1.02071 8.26643 1.03019 -0.796511 8.16816 1.1977 -1.15161 8.71884 
1.03019 -0.796511 8.16816 1.17429 -0.616948 8.21638 1.36972 -0.931941 8.74906 
1.17429 -0.616948 8.21638 1.39409 -0.478857 8.49739 1.49937 -0.726299 8.79437 
1.36383 0.609369 8.66564 1.26486 0.818824 8.73189 1.51792 0.797678 9.18368 
1.26486 0.818824 8.73189 1.10395 0.931329 8.57977 1.32472 1.07054 9.22254 
1.10395 0.931329 8.57977 1.05816 1.15246 8.92846 1.32472 1.07054 9.22254 
1.05816 1.15246 8.92846 0.883011 1.36254 9.12614 1.08936 1.28769 9.24846 
0.628273 1.48379 9.12365 0.383155 1.5098 8.98671 0.4535 1.67534 9.47323 
0.383155 1.5098 8.98671 0.139297 1.55395 8.99947 0.201234 1.71909 9.47376 
0.139297 1.55395 8.99947 -0.202379 1.54042 8.97205 -0.031127 1.72947 9.47844 
-0.202379 1.54042 8.97205 -0.461292 1.43408 8.83084 -0.558909 1.65117 9.47774 
-0.979843 1.28827 9.09613 -1.16703 1.04852 8.91104 -1.27882 1.11589 9.22163 
-1.62775 0.397728 9.02032 -1.47648 0.195417 8.60435 -1.72536 0.152665 9.07442 
-1.47648 0.195417 8.60435 -1.49081 -0.000672922 8.58262 -1.73665 -0.0890331 9.0352 
-1.49081 -0.000672922 8.58262 -1.63963 -0.266246 8.86475 -1.73665 -0.0890331 9.0352 
-1.30509 -0.659768 8.4543 -1.17314 -0.865694 8.42853 -1.41698 -1.1556 8.97806 
-1.17314 -0.865694 8.42853 -0.997177 -1.09714 8.4412 -1.26191 -1.36011 8.98158 
-0.997177 -1.09714 8.4412 -0.842351 -1.31351 8.53893 -1.09852 -1.51717 8.98007 
-0.842351 -1.31351 8.53893 -0.63745 -1.42064 8.52068 -0.763252 -1.71808 8.94967 
-0.63745 -1.42064 8.52068 -0.368475 -1.53067 8.5287 -0.483545 -1.8146 8.92655 
-0.368475 -1.53067 8.5287 -0.0792005 -1.45521 8.36988 -0.200012 -1.84483 8.89518 
-0.0792005 -1.45521 8.36988 0.109423 -1.46209 8.38169 0.0331969 -1.84007 8.87199 
0.109423 -1.46209 8.38169 0.313957 -1.43317 8.38706 0.322822 -1.81116 8.87478 
0.313957 -1.43317 8.38706 0.535952 -1.36997 8.3981 0.612192 -1.7713 8.93137 
1.49937 -0.726299 8.79437 1.39409 -0.478857 8.49739 1.73349 -0.62871 9.10739 
1.39409 -0.478857 8.49739 1.48339 -0.294821 8.58888 1.80218 -0.424553 9.16011 
1.48339 -0.294821 8.58888 1.57196 -0.0262299 8.73353 1.83476 -0.106891 9.20213 
1.83476 -0.106891 9.20213 1.63739 0.218239 8.9383 1.878 0.242535 9.3807 
1.63739 0.218239 8.9383 1.5818 0.508794 9.01061 1.878 0.242535 9.3807 
1.5818 0.508794 9.01061 1.51792 0.797678 9.18368 1.68613 0.792928 9.47237 
1.51792 0.797678 9.18368 1.32472 1.07054 9.22254 1.55789 1.07848 9.60963 
1.32472 1.07054 9.22254 1.08936 1.28769 9.24846 1.29885 1.37626 9.69563 
1.08936 1.28769 9.24846 0.883011 1.36254 9.12614 1.03071 1.59154 9.7759 
0.883011 1.36254 9.12614 0.628273 1.48379 9.12365 0.774525 1.71334 9.78414 
-0.558909 1.65117 9.47774 -0.732712 1.42686 9.09492 -0.85965 1.59385 9.60414 
-0.732712 1.42686 9.09492 -0.979843 1.28827 9.09613 -1.10504 1.44992 9.58188 
-0.979843 1.28827 9.09613 -1.27882 1.11589 9.22163 -1.34212 1.3356 9.69262 
-1.27882 1.11589 9.22163 -1.3997 0.851261 9.04583 -1.56009 1.11626 9.66657 
-1.3997 0.851261 9.04583 -1.51814 0.641291 9.01808 -1.74377 0.83764 9.62022 
-1.51814 0.641291 9.01808 -1.62775 0.397728 9.02032 -1.93555 0.408807 9.57467 
-1.62775 0.397728 9.02032 -1.72536 0.152665 9.07442 -1.97877 0.182904 9.53222 
-1.72536 0.152665 9.07442 -1.73665 -0.0890331 9.0352 -1.98292 -0.0276169 9.47064 
-1.73665 -0.0890331 9.0352 -1.63963 -0.266246 8.86475 -1.89515 -0.268701 9.29414 
-1.63963 -0.266246 8.86475 -1.56808 -0.547299 8.81453 -1.85497 -0.549389 9.26664 
-1.56808 -0.547299 8.81453 -1.51357 -0.887233 8.90879 -1.7575 -0.827847 9.21312 
-1.51357 -0.887233 8.90879 -1.41698 -1.1556 8.97806 -1.70853 -1.1766 9.33796 
0.612192 -1.7713 8.93137 0.764091 -1.47669 8.67412 0.898587 -1.91742 9.23873 
0.764091 -1.47669 8.67412 0.970535 -1.33584 8.67642 0.898587 -1.91742 9.23873 
0.970535 -1.33584 8.67642 1.1977 -1.15161 8.71884 1.33949 -1.42884 9.11158 
1.1977 -1.15161 8.71884 1.36972 -0.931941 8.74906 1.54919 -1.19704 9.16071 
1.36972 -0.931941 8.74906 1.49937 -0.726299 8.79437 1.70586 -0.922394 9.18734 
1.83476 -0.106891 9.20213 1.878 0.242535 9.3807 2.1572 0.180717 9.8094 
1.878 0.242535 9.3807 1.79711 0.552043 9.44016 2.05255 0.608618 9.89133 
1.79711 0.552043 9.44016 1.68613 0.792928 9.47237 2.05255 0.608618 9.89133 
1.68613 0.792928 9.47237 1.55789 1.07848 9.60963 1.80458 1.08876 9.98768 
0.774525 1.71334 9.78414 0.4535 1.67534 9.47323 0.536601 1.91736 10.0588 
0.4535 1.67534 9.47323 0.201234 1.71909 9.47376 0.225644 1.9739 10.0684 
0.201234 1.71909 9.47376 -0.031127 1.72947 9.47844 -0.0389473 1.93263 9.95587 
-0.031127 1.72947 9.47844 -0.244881 1.71214 9.4701 -0.284737 1.90933 9.94051 
-0.244881 1.71214 9.4701 -0.558909 1.65117 9.47774 -0.593607 1.84669 9.93487 
-0.558909 1.65117 9.47774 -0.85965 1.59385 9.60414 -0.901498 1.7827 10.0263 
-0.85965 1.59385 9.60414 -1.10504 1.44992 9.58188 -1.25844 1.61934 10.056 
-1.89515 -0.268701 9.29414 -1.85497 -0.549389 9.26664 -2.08467 -0.445232 9.58919 
-1.85497 -0.549389 9.26664 -1.7575 -0.827847 9.21312 -2.07186 -0.829968 9.64471 
-1.70853 -1.1766 9.33796 -1.41698 -1.1556 8.97806 -1.65881 -1.53011 9.51156 
-1.41698 -1.1556 8.97806 -1.26191 -1.36011 8.98158 -1.65881 -1.53011 9.51156 
-1.26191 -1.36011 8.98158 -1.09852 -1.51717 8.98007 -1.44301 -1.76254 9.48849 
-1.09852 -1.51717 8.98007 -0.956129 -1.61948 8.96883 -1.07674 -2.02342 9.44963 
-0.956129 -1.61948 8.96883 -0.763252 -1.71808 8.94967 -1.07674 -2.02342 9.44963 
-0.763252 -1.71808 8.94967 -0.483545 -1.8146 8.92655 -0.646272 -2.2021 9.41482 
-0.483545 -1.8146 8.92655 -0.200012 -1.84483 8.89518 -0.373201 -2.16751 9.29348 
-0.200012 -1.84483 8.89518 0.0331969 -1.84007 8.87199 -0.126189 -2.20328 9.29725 
0.0331969 -1.84007 8.87199 0.322822 -1.81116 8.87478 0.123141 -2.20172 9.2942 
0.322822 -1.81116 8.87478 0.612192 -1.7713 8.93137 0.664635 -2.09991 9.31296 
1.13013 -1.71291 9.19269 1.33949 -1.42884 9.11158 1.38751 -1.81334 9.48283 
1.33949 -1.42884 9.11158 1.54919 -1.19704 9.16071 1.80495 -1.39277 9.572 
1.54919 -1.19704 9.16071 1.70586 -0.922394 9.18734 1.80495 -1.39277 9.572 
1.70586 -0.922394 9.18734 1.73349 -0.62871 9.10739 2.07465 -0.819659 9.64924 
1.73349 -0.62871 9.10739 1.80218 -0.424553 9.16011 2.11855 -0.616308 9.6646 
1.80218 -0.424553 9.16011 1.83476 -0.106891 9.20213 2.14894 -0.414055 9.69111 
1.80458 1.08876 9.98768 1.55789 1.07848 9.60963 1.70325 1.33954 10.157 
1.55789 1.07848 9.60963 1.29885 1.37626 9.69563 1.70325 1.33954 10.157 
1.29885 1.37626 9.69563 1.03071 1.59154 9.7759 1.23908 1.71902 10.2075 
1.03071 1.59154 9.7759 0.774525 1.71334 9.78414 1.01047 1.8453 10.2235 
0.225644 1.9739 10.0684 -0.0389473 1.93263 9.95587 -0.0410984 2.14971 10.4085 
-0.0389473 1.93263 9.95587 -0.284737 1.90933 9.94051 -0.256604 2.13442 10.4036 
-0.284737 1.90933 9.94051 -0.593607 1.84669 9.93487 -0.50892 2.02363 10.2562 
-1.25844 1.61934 10.056 -1.34212 1.3356 9.69262 -1.60398 1.4413 10.1732 
-1.34212 1.3356 9.69262 -1.56009 1.11626 9.66657 -1.60398 1.4413 10.1732 
-1.56009 1.11626 9.66657 -1.74377 0.83764 9.62022 -1.96947 0.970788 10.089 
-1.74377 0.83764 9.62022 -1.86731 0.630834 9.62561 -2.08826 0.741175 10.0486 
-1.86731 0.630834 9.62561 -1.93555 0.408807 9.57467 -2.19837 0.437464 9.99579 
-1.93555 0.408807 9.57467 -1.97877 0.182904 9.53222 -2.26575 0.147352 9.95866 
-1.97877 0.182904 9.53222 -1.98292 -0.0276169 9.47064 -2.283 -0.130347 9.90285 
-1.98292 -0.0276169 9.47064 -2.08467 -0.445232 9.58919 -2.37001 -0.428961 9.99786 
-1.98631 -1.08871 9.62983 -1.70853 -1.1766 9.33796 -1.94941 -1.36878 9.71636 
-0.646272 -2.2021 9.41482 -0.373201 -2.16751 9.29348 -0.417705 -2.53551 9.68216 
-0.373201 -2.16751 9.29348 -0.126189 -2.20328 9.29725 -0.140436 -2.56976 9.68122 
-0.126189 -2.20328 9.29725 0.123141 -2.20172 9.2942 0.137264 -2.58052 9.69015 
0.123141 -2.20172 9.2942 0.414171 -2.16186 9.2965 0.375284 -2.53503 9.67703 
0.414171 -2.16186 9.2965 0.664635 -2.09991 9.31296 0.613211 -2.47372 9.6712 
0.664635 -2.09991 9.31296 0.898587 -1.91742 9.23873 0.868301 -2.39182 9.68719 
0.898587 -1.91742 9.23873 1.13013 -1.71291 9.19269 1.29704 -2.19309 9.73689 
2.15778 -0.162745 9.71883 2.1572 0.180717 9.8094 2.54704 0.0565844 10.3216 
2.1572 0.180717 9.8094 2.05255 0.608618 9.89133 2.40514 0.400865 10.2683 
2.05255 0.608618 9.89133 1.91463 0.897554 9.94132 2.17066 0.979283 10.3666 
1.91463 0.897554 9.94132 1.80458 1.08876 9.98768 2.11053 1.21349 10.5172 
1.80458 1.08876 9.98768 1.70325 1.33954 10.157 1.96204 1.41822 10.5649 
1.70325 1.33954 10.157 1.4537 1.55981 10.1738 1.79986 1.59583 10.5993 
1.4537 1.55981 10.1738 1.23908 1.71902 10.2075 1.54768 1.79747 10.6184 
1.23908 1.71902 10.2075 1.01047 1.8453 10.2235 1.2982 1.97153 10.6634 
1.01047 1.8453 10.2235 0.760824 2.04547 10.4227 1.05245 2.10489 10.6958 
0.536601 1.91736 10.0588 0.225644 1.9739 10.0684 0.542256 2.24716 10.6888 
-0.256604 2.13442 10.4036 -0.50892 2.02363 10.2562 -0.541318 2.26525 10.7178 
-0.7372 2.04995 10.4179 -0.901498 1.7827 10.0263 -1.03174 2.0139 10.5292 
-0.901498 1.7827 10.0263 -1.25844 1.61934 10.056 -1.29822 1.87305 10.5082 
-1.25844 1.61934 10.056 -1.60398 1.4413 10.1732 -1.82226 1.58742 10.6113 
-1.60398 1.4413 10.1732 -1.81483 1.18983 10.1151 -1.85617 1.41458 10.4353 
-1.81483 1.18983 10.1151 -1.96947 0.970788 10.089 -2.12395 1.17367 10.4905 
-1.96947 0.970788 10.089 -2.08826 0.741175 10.0486 -2.33224 0.871897 10.4846 
-2.08826 0.741175 10.0486 -2.19837 0.437464 9.99579 -2.46596 0.542558 10.4325 
-2.19837 0.437464 9.99579 -2.26575 0.147352 9.95866 -2.5656 0.12046 10.3614 
-2.26575 0.147352 9.95866 -2.283 -0.130347 9.90285 -2.5656 0.12046 10.3614 
-2.33277 -0.656005 9.95707 -2.07186 -0.829968 9.64471 -2.38912 -0.921674 10.0662 
-2.07186 -0.829968 9.64471 -1.98631 -1.08871 9.62983 -2.26908 -1.2181 10.0071 
-1.98631 -1.08871 9.62983 -1.94941 -1.36878 9.71636 -2.14034 -1.48132 9.97547 
-1.94941 -1.36878 9.71636 -1.65881 -1.53011 9.51156 -1.92367 -1.78344 9.92173 
-1.65881 -1.53011 9.51156 -1.44301 -1.76254 9.48849 -1.64267 -2.07292 9.8802 
-1.44301 -1.76254 9.48849 -1.2769 -1.92636 9.4964 -1.40201 -2.26022 9.85505 
-1.2769 -1.92636 9.4964 -1.07674 -2.02342 9.44963 -1.40201 -2.26022 9.85505 
-1.07674 -2.02342 9.44963 -0.844905 -2.14405 9.43992 -1.13347 -2.40865 9.82186 
-0.844905 -2.14405 9.43992 -0.646272 -2.2021 9.41482 -0.762579 -2.5538 9.78928 
-0.646272 -2.2021 9.41482 -0.417705 -2.53551 9.68216 -0.762579 -2.5538 9.78928 
1.29704 -2.19309 9.73689 1.38751 -1.81334 9.48283 1.65768 -2.22564 10.0035 
1.38751 -1.81334 9.48283 1.59668 -1.64164 9.53278 1.86586 -1.87266 9.92688 
1.59668 -1.64164 9.53278 1.80495 -1.39277 9.572 1.86586 -1.87266 9.92688 
1.80495 -1.39277 9.572 2.00231 -1.07225 9.64123 2.28605 -1.23532 10.0282 
2.00231 -1.07225 9.64123 2.07465 -0.819659 9.64924 2.28605 -1.23532 10.0282 
2.07465 -0.819659 9.64924 2.11855 -0.616308 9.6646 2.40144 -0.875144 10.0729 
2.11855 -0.616308 9.6646 2.14894 -0.414055 9.69111 2.45297 -0.590501 10.1051 
2.14894 -0.414055 9.69111 2.15778 -0.162745 9.71883 2.48504 -0.245496 10.1628 
2.54704 0.0565844 10.3216 2.40514 0.400865 10.2683 2.60822 0.398065 10.5321 
2.40514 0.400865 10.2683 2.29039 0.730755 10.3205 2.60135 0.791023 10.756 
2.29039 0.730755 10.3205 2.17066 0.979283 10.3666 2.45893 1.08154 10.8068 
1.05245 2.10489 10.6958 0.760824 2.04547 10.4227 0.914913 2.34515 11.0048 
0.243869 2.30277 10.7161 -0.0410984 2.14971 10.4085 0.0190684 2.40355 10.8673 
-0.0410984 2.14971 10.4085 -0.256604 2.13442 10.4036 -0.296806 2.38467 10.8613 
-0.541318 2.26525 10.7178 -0.7372 2.04995 10.4179 -0.947421 2.31889 10.9764 
-0.7372 2.04995 10.4179 -1.03174 2.0139 10.5292 -0.947421 2.31889 10.9764 
-1.03174 2.0139 10.5292 -1.29822 1.87305 10.5082 -1.2923 2.16817 10.949 
-1.29822 1.87305 10.5082 -1.60079 1.76004 10.6179 -1.57154 2.00806 10.9311 
-1.85617 1.41458 10.4353 -2.12395 1.17367 10.4905 -2.23201 1.41838 10.8587 
-2.60126 -0.24587 10.3201 -2.37001 -0.428961 9.99786 -2.79626 -0.547786 10.5295 
-2.37001 -0.428961 9.99786 -2.33277 -0.656005 9.95707 -2.7262 -0.892372 10.4579 
-2.33277 -0.656005 9.95707 -2.38912 -0.921674 10.0662 -2.7262 -0.892372 10.4579 
-2.38912 -0.921674 10.0662 -2.26908 -1.2181 10.0071 -2.64042 -1.20466 10.4145 
-2.26908 -1.2181 10.0071 -2.14034 -1.48132 9.97547 -2.43419 -1.72271 10.3715 
-2.14034 -1.48132 9.97547 -1.92367 -1.78344 9.92173 -2.2206 -1.98919 10.3014 
-1.92367 -1.78344 9.92173 -1.64267 -2.07292 9.8802 -1.99036 -2.22036 10.246 
-1.64267 -2.07292 9.8802 -1.40201 -2.26022 9.85505 -1.59048 -2.59581 10.224 
-1.40201 -2.26022 9.85505 -1.13347 -2.40865 9.82186 -1.30514 -2.76569 10.1969 
-1.13347 -2.40865 9.82186 -0.762579 -2.5538 9.78928 -0.888208 -2.7937 10.0437 
-0.762579 -2.5538 9.78928 -0.417705 -2.53551 9.68216 -0.560116 -2.99785 10.1341 
-0.417705 -2.53551 9.68216 -0.140436 -2.56976 9.68122 -0.270653 -3.04011 10.1279 
-0.140436 -2.56976 9.68122 0.137264 -2.58052 9.69015 0.0422456 -3.05644 10.1263 
0.137264 -2.58052 9.69015 0.375284 -2.53503 9.67703 0.42093 -3.00431 10.1123 
0.375284 -2.53503 9.67703 0.613211 -2.47372 9.6712 0.68265 -2.83404 10.0164 
0.613211 -2.47372 9.6712 0.868301 -2.39182 9.68719 1.03431 -2.86463 10.1604 
0.868301 -2.39182 9.68719 1.09168 -2.30559 9.71332 1.23708 -2.64069 10.0653 
1.09168 -2.30559 9.71332 1.29704 -2.19309 9.73689 1.52339 -2.62158 10.2056 
1.65768 -2.22564 10.0035 1.86586 -1.87266 9.92688 1.96847 -2.095 10.1517 
1.86586 -1.87266 9.92688 2.18668 -1.59282 10.0759 2.1401 -1.89724 10.183 
2.28605 -1.23532 10.0282 2.40144 -0.875144 10.0729 2.67384 -1.16175 10.4401 
2.40144 -0.875144 10.0729 2.45297 -0.590501 10.1051 2.63723 -0.846374 10.3495 
2.45297 -0.590501 10.1051 2.48504 -0.245496 10.1628 2.69079 -0.547263 10.4 
2.54704 0.0565844 10.3216 2.60822 0.398065 10.5321 2.85611 0.245054 10.7718 
2.45893 1.08154 10.8068 2.11053 1.21349 10.5172 2.3457 1.41598 10.9699 
2.11053 1.21349 10.5172 1.96204 1.41822 10.5649 2.3457 1.41598 10.9699 
1.96204 1.41822 10.5649 1.79986 1.59583 10.5993 2.05615 1.73693 11.0157 
1.79986 1.59583 10.5993 1.54768 1.79747 10.6184 1.87149 2.01193 11.1781 
1.54768 1.79747 10.6184 1.2982 1.97153 10.6634 1.57796 2.22831 11.2244 
1.2982 1.97153 10.6634 1.05245 2.10489 10.6958 1.21112 2.32135 11.1182 
0.914913 2.34515 11.0048 0.542256 2.24716 10.6888 0.638381 2.59364 11.2752 
0.542256 2.24716 10.6888 0.243869 2.30277 10.7161 0.227364 2.66363 11.3007 
0.243869 2.30277 10.7161 0.0190684 2.40355 10.8673 0.227364 2.66363 11.3007 
0.0190684 2.40355 10.8673 -0.296806 2.38467 10.8613 -0.186581 2.67278 11.3136 
-0.296806 2.38467 10.8613 -0.541318 2.26525 10.7178 -0.476989 2.62459 11.2867 
-0.541318 2.26525 10.7178 -0.947421 2.31889 10.9764 -0.803268 2.46098 11.1286 
-1.57154 2.00806 10.9311 -1.60079 1.76004 10.6179 -1.95348 1.98763 11.2148 
-1.60079 1.76004 10.6179 -1.82226 1.58742 10.6113 -2.07988 1.71918 11.0204 
-2.23201 1.41838 10.8587 -2.12395 1.17367 10.4905 -2.53634 1.12503 10.9226 
-2.12395 1.17367 10.4905 -2.33224 0.871897 10.4846 -2.53634 1.12503 10.9226 
-2.33224 0.871897 10.4846 -2.46596 0.542558 10.4325 -2.79837 0.8126 11.0001 
-2.46596 0.542558 10.4325 -2.5656 0.12046 10.3614 -2.82667 0.419217 10.81 
-2.5656 0.12046 10.3614 -2.60126 -0.24587 10.3201 -2.92233 -0.309697 10.6991 
-1.30514 -2.76569 10.1969 -0.888208 -2.7937 10.0437 -0.983732 -3.1667 10.3769 
1.03431 -2.86463 10.1604 1.23708 -2.64069 10.0653 1.39067 -3.01124 10.417 
1.52339 -2.62158 10.2056 1.65768 -2.22564 10.0035 1.92827 -2.64215 10.4575 
1.65768 -2.22564 10.0035 1.96847 -2.095 10.1517 2.14987 -2.42864 10.4834 
1.96847 -2.095 10.1517 2.1401 -1.89724 10.183 2.36753 -2.19945 10.5259 
2.1401 -1.89724 10.183 2.18668 -1.59282 10.0759 2.55145 -1.91394 10.5543 
2.67384 -1.16175 10.4401 2.63723 -0.846374 10.3495 2.97851 -0.976584 10.7398 
2.63723 -0.846374 10.3495 2.69079 -0.547263 10.4 3.03569 -0.689101 10.7937 
2.69079 -0.547263 10.4 2.77915 -0.198215 10.5467 3.05912 -0.329757 10.8508 
2.77915 -0.198215 10.5467 2.85611 0.245054 10.7718 3.25708 0.0246794 11.1491 
2.85611 0.245054 10.7718 2.79812 0.522998 10.8316 3.18126 0.410512 11.2028 
2.79812 0.522998 10.8316 2.60135 0.791023 10.756 3.05238 0.766223 11.2454 
2.60135 0.791023 10.756 2.45893 1.08154 10.8068 2.88085 1.12001 11.2881 
2.45893 1.08154 10.8068 2.3457 1.41598 10.9699 2.71922 1.39703 11.3365 
2.3457 1.41598 10.9699 2.05615 1.73693 11.0157 2.23273 1.83906 11.2837 
1.57796 2.22831 11.2244 1.21112 2.32135 11.1182 1.35714 2.59081 11.5662 
1.21112 2.32135 11.1182 0.914913 2.34515 11.0048 1.05005 2.702 11.5736 
-0.476989 2.62459 11.2867 -0.803268 2.46098 11.1286 -0.849513 2.64966 11.4222 
-0.803268 2.46098 11.1286 -0.947421 2.31889 10.9764 -1.28832 2.6085 11.554 
-0.947421 2.31889 10.9764 -1.2923 2.16817 10.949 -1.45131 2.41329 11.3823 
-1.2923 2.16817 10.949 -1.57154 2.00806 10.9311 -1.77312 2.22827 11.3602 
-1.95348 1.98763 11.2148 -2.07988 1.71918 11.0204 -2.33425 1.90611 11.4446 
-2.07988 1.71918 11.0204 -2.23201 1.41838 10.8587 -2.46385 1.72408 11.3824 
-2.23201 1.41838 10.8587 -2.53634 1.12503 10.9226 -2.59223 1.41681 11.223 
-2.79837 0.8126 11.0001 -2.82667 0.419217 10.81 -3.04713 0.452307 11.0737 
-2.98672 0.0182143 10.8488 -2.92233 -0.309697 10.6991 -3.15495 -0.425738 10.9394 
-2.92233 -0.309697 10.6991 -2.79626 -0.547786 10.5295 -3.15495 -0.425738 10.9394 
-2.79626 -0.547786 10.5295 -2.7262 -0.892372 10.4579 -3.11811 -0.802619 10.8778 
-2.7262 -0.892372 10.4579 -2.64042 -1.20466 10.4145 -2.97606 -1.38293 10.789 
-2.64042 -1.20466 10.4145 -2.54979 -1.4701 10.392 -2.81969 -1.73481 10.7256 
-2.54979 -1.4701 10.392 -2.43419 -1.72271 10.3715 -2.81969 -1.73481 10.7256 
-2.43419 -1.72271 10.3715 -2.2206 -1.98919 10.3014 -2.62793 -2.06685 10.6776 
-2.2206 -1.98919 10.3014 -1.99036 -2.22036 10.246 -2.2415 -2.53878 10.6033 
-1.99036 -2.22036 10.246 -1.80169 -2.43272 10.2444 -1.95375 -2.78817 10.5589 
-1.80169 -2.43272 10.2444 -1.59048 -2.59581 10.224 -1.95375 -2.78817 10.5589 
-1.59048 -2.59581 10.224 -1.30514 -2.76569 10.1969 -1.6408 -3.00604 10.5288 
-0.983732 -3.1667 10.3769 -0.560116 -2.99785 10.1341 -0.676332 -3.53127 10.5758 
-0.560116 -2.99785 10.1341 -0.270653 -3.04011 10.1279 -0.357767 -3.582 10.5686 
-0.270653 -3.04011 10.1279 0.0422456 -3.05644 10.1263 -0.115102 -3.45885 10.4578 
0.0422456 -3.05644 10.1263 0.42093 -3.00431 10.1123 0.204883 -3.45167 10.4552 
0.844256 -3.19449 10.3593 1.03431 -2.86463 10.1604 1.20972 -3.37256 10.6026 
1.39067 -3.01124 10.417 1.52339 -2.62158 10.2056 1.77582 -3.07044 10.6387 
2.55145 -1.91394 10.5543 2.53907 -1.46648 10.3792 2.85788 -1.67279 10.7428 
2.53907 -1.46648 10.3792 2.67384 -1.16175 10.4401 2.99563 -1.32628 10.7979 
2.23273 1.83906 11.2837 1.87149 2.01193 11.1781 2.17988 2.30106 11.7288 
1.87149 2.01193 11.1781 1.57796 2.22831 11.2244 1.77174 2.46604 11.6386 
1.05005 2.702 11.5736 0.638381 2.59364 11.2752 0.711496 2.99209 11.8483 
0.638381 2.59364 11.2752 0.227364 2.66363 11.3007 0.302272 3.02162 11.8215 
0.227364 2.66363 11.3007 -0.186581 2.67278 11.3136 -0.0343354 3.03745 11.829 
-0.186581 2.67278 11.3136 -0.476989 2.62459 11.2867 -0.393158 3.00574 11.8093 
-0.476989 2.62459 11.2867 -0.849513 2.64966 11.4222 -0.698049 2.89005 11.7113 
-0.849513 2.64966 11.4222 -1.28832 2.6085 11.554 -1.11878 2.88825 11.8374 
-1.45131 2.41329 11.3823 -1.77312 2.22827 11.3602 -1.94385 2.46995 11.7548 
-1.77312 2.22827 11.3602 -1.95348 1.98763 11.2148 -2.12269 2.21277 11.5914 
-2.46385 1.72408 11.3824 -2.59223 1.41681 11.223 -2.78195 1.50794 11.4777 
-2.59223 1.41681 11.223 -2.78793 1.10894 11.183 -3.11625 1.20803 11.575 
-2.78793 1.10894 11.183 -2.79837 0.8126 11.0001 -3.2816 0.840218 11.5105 
-2.79837 0.8126 11.0001 -3.04713 0.452307 11.0737 -3.2816 0.840218 11.5105 
-3.04713 0.452307 11.0737 -2.98672 0.0182143 10.8488 -3.36128 0.0268131 11.2528 
-2.98672 0.0182143 10.8488 -3.15495 -0.425738 10.9394 -3.3887 -0.30505 11.206 
-3.15495 -0.425738 10.9394 -3.11811 -0.802619 10.8778 -3.47931 -0.689705 11.2454 
-3.11811 -0.802619 10.8778 -3.06103 -1.10054 10.833 -3.41973 -1.17896 11.1834 
-3.06103 -1.10054 10.833 -2.97606 -1.38293 10.789 -3.30583 -1.57104 11.1264 
-2.97606 -1.38293 10.789 -2.81969 -1.73481 10.7256 -3.16326 -1.97034 11.0864 
-2.81969 -1.73481 10.7256 -2.62793 -2.06685 10.6776 -2.92977 -2.32717 11.0123 
-2.62793 -2.06685 10.6776 -2.44837 -2.31271 10.641 -2.65137 -2.66607 10.9434 
-2.44837 -2.31271 10.641 -2.2415 -2.53878 10.6033 -2.65137 -2.66607 10.9434 
-2.2415 -2.53878 10.6033 -1.95375 -2.78817 10.5589 -2.24157 -2.89477 10.7917 
-1.95375 -2.78817 10.5589 -1.6408 -3.00604 10.5288 -1.85606 -3.16929 10.7355 
-1.6408 -3.00604 10.5288 -1.37272 -3.15341 10.5079 -1.493 -3.39438 10.717 
-1.37272 -3.15341 10.5079 -0.983732 -3.1667 10.3769 -1.0989 -3.54694 10.6834 
-0.357767 -3.582 10.5686 -0.115102 -3.45885 10.4578 0.028769 -3.8757 10.7616 
-0.115102 -3.45885 10.4578 0.204883 -3.45167 10.4552 0.028769 -3.8757 10.7616 
0.204883 -3.45167 10.4552 0.573846 -3.41191 10.4669 0.4535 -3.70463 10.6659 
0.573846 -3.41191 10.4669 0.844256 -3.19449 10.3593 0.861201 -3.71602 10.7428 
1.20972 -3.37256 10.6026 1.39067 -3.01124 10.417 1.55123 -3.36362 10.7209 
1.77582 -3.07044 10.6387 1.92827 -2.64215 10.4575 2.15576 -2.96258 10.7763 
1.92827 -2.64215 10.4575 2.14987 -2.42864 10.4834 2.47102 -2.67981 10.8289 
2.14987 -2.42864 10.4834 2.36753 -2.19945 10.5259 2.47102 -2.67981 10.8289 
2.36753 -2.19945 10.5259 2.55145 -1.91394 10.5543 2.91328 -2.09104 10.9164 
2.55145 -1.91394 10.5543 2.85788 -1.67279 10.7428 2.91328 -2.09104 10.9164 
2.85788 -1.67279 10.7428 2.99563 -1.32628 10.7979 3.14161 -1.64268 10.991 
2.99563 -1.32628 10.7979 2.97851 -0.976584 10.7398 3.26944 -1.27147 11.0522 
2.97851 -0.976584 10.7398 3.03569 -0.689101 10.7937 3.34109 -0.953201 11.1026 
3.03569 -0.689101 10.7937 3.05912 -0.329757 10.8508 3.37594 -0.619631 11.1491 
3.38897 -0.303615 11.2055 3.25708 0.0246794 11.1491 3.748 -0.0746782 11.6058 
3.25708 0.0246794 11.1491 3.18126 0.410512 11.2028 3.55723 0.306941 11.5378 
3.18126 0.410512 11.2028 3.05238 0.766223 11.2454 3.45525 0.69582 11.6041 
3.05238 0.766223 11.2454 2.88085 1.12001 11.2881 3.31932 1.0274 11.6494 
2.88085 1.12001 11.2881 2.71922 1.39703 11.3365 3.10389 1.44693 11.7202 
2.71922 1.39703 11.3365 2.52578 1.66682 11.3815 2.80463 1.85574 11.7812 
2.17988 2.30106 11.7288 1.77174 2.46604 11.6386 2.20795 2.60204 12.0528 
1.77174 2.46604 11.6386 1.35714 2.59081 11.5662 1.72062 2.73982 11.9251 
1.35714 2.59081 11.5662 1.05005 2.702 11.5736 1.33908 2.91563 11.9557 
1.05005 2.702 11.5736 0.711496 2.99209 11.8483 1.03478 3.1517 12.1339 
-0.393158 3.00574 11.8093 -0.698049 2.89005 11.7113 -0.7667 3.19561 12.1182 
-1.11878 2.88825 11.8374 -1.28832 2.6085 11.554 -1.55544 2.94152 12.0809 
-2.12269 2.21277 11.5914 -2.33425 1.90611 11.4446 -2.74924 2.14257 11.9842 
-2.33425 1.90611 11.4446 -2.46385 1.72408 11.3824 -2.83754 1.81308 11.7735 
-2.46385 1.72408 11.3824 -2.78195 1.50794 11.4777 -2.83754 1.81308 11.7735 
-3.2816 0.840218 11.5105 -3.29029 0.419645 11.3201 -3.6807 0.455043 11.7116 
-3.29029 0.419645 11.3201 -3.36128 0.0268131 11.2528 -3.7487 0.0127726 11.6251 
-3.36128 0.0268131 11.2528 -3.3887 -0.30505 11.206 -3.7807 -0.451352 11.5574 
-3.3887 -0.30505 11.206 -3.47931 -0.689705 11.2454 -3.7807 -0.451352 11.5574 
-2.65137 -2.66607 10.9434 -2.24157 -2.89477 10.7917 -2.54521 -3.16815 11.1038 
-2.24157 -2.89477 10.7917 -1.85606 -3.16929 10.7355 -2.20835 -3.46365 11.0714 
-1.85606 -3.16929 10.7355 -1.493 -3.39438 10.717 -1.79636 -3.7077 11.0264 
-1.493 -3.39438 10.717 -1.0989 -3.54694 10.6834 -1.48279 -3.8725 11.0113 
-1.0989 -3.54694 10.6834 -0.676332 -3.53127 10.5758 -0.747366 -3.94044 10.8701 
-0.676332 -3.53127 10.5758 -0.357767 -3.582 10.5686 -0.396417 -3.9938 10.8613 
0.028769 -3.8757 10.7616 0.4535 -3.70463 10.6659 0.500987 -4.1978 11.0038 
0.861201 -3.71602 10.7428 1.20972 -3.37256 10.6026 1.15153 -3.83012 10.8867 
1.20972 -3.37256 10.6026 1.55123 -3.36362 10.7209 1.63121 -3.74692 10.9866 
1.55123 -3.36362 10.7209 1.77582 -3.07044 10.6387 1.96365 -3.6186 11.0455 
1.77582 -3.07044 10.6387 2.15576 -2.96258 10.7763 2.18286 -3.46653 11.062 
2.15576 -2.96258 10.7763 2.47102 -2.67981 10.8289 2.45109 -3.08083 11.0069 
2.78602 -2.52916 10.9845 2.91328 -2.09104 10.9164 3.11051 -2.27265 11.1266 
2.91328 -2.09104 10.9164 3.14161 -1.64268 10.991 3.39977 -2.02611 11.2901 
3.14161 -1.64268 10.991 3.26944 -1.27147 11.0522 3.53386 -1.30943 11.2924 
3.26944 -1.27147 11.0522 3.34109 -0.953201 11.1026 3.53386 -1.30943 11.2924 
3.34109 -0.953201 11.1026 3.37594 -0.619631 11.1491 3.59868 -0.874794 11.3471 
3.37594 -0.619631 11.1491 3.38897 -0.303615 11.2055 3.72759 -0.438567 11.5103 
3.748 -0.0746782 11.6058 3.55723 0.306941 11.5378 3.81129 0.299209 11.7682 
3.55723 0.306941 11.5378 3.45525 0.69582 11.6041 3.69948 0.738026 11.8443 
3.45525 0.69582 11.6041 3.31932 1.0274 11.6494 3.56315 1.08934 11.8988 
3.31932 1.0274 11.6494 3.10389 1.44693 11.7202 3.45806 1.5588 12.0887 
3.10389 1.44693 11.7202 2.80463 1.85574 11.7812 3.08105 1.89089 12.0269 
2.80463 1.85574 11.7812 2.43674 2.10576 11.7211 2.79429 2.22523 12.083 
2.43674 2.10576 11.7211 2.17988 2.30106 11.7288 2.48861 2.49406 12.1213 
2.20795 2.60204 12.0528 1.72062 2.73982 11.9251 1.86314 2.91174 12.1816 
1.72062 2.73982 11.9251 1.33908 2.91563 11.9557 1.43438 3.11505 12.2208 
1.03478 3.1517 12.1339 0.711496 2.99209 11.8483 0.70656 3.3217 12.2535 
0.711496 2.99209 11.8483 0.302272 3.02162 11.8215 0.335258 3.37229 12.2617 
0.302272 3.02162 11.8215 -0.0343354 3.03745 11.829 -0.048007 3.38525 12.2636 
-0.0343354 3.03745 11.829 -0.393158 3.00574 11.8093 -0.427265 3.36288 12.2594 
-0.7667 3.19561 12.1182 -1.11878 2.88825 11.8374 -1.2308 3.19367 12.2364 
-1.55544 2.94152 12.0809 -1.69294 2.65116 11.8134 -1.86442 2.91593 12.1893 
-1.69294 2.65116 11.8134 -1.94385 2.46995 11.7548 -2.18908 2.72054 12.1575 
-3.20376 1.53423 11.8712 -3.11625 1.20803 11.575 -3.55367 1.3817 12.0598 
-3.11625 1.20803 11.575 -3.2816 0.840218 11.5105 -3.67194 1.04277 11.9695 
-3.7807 -0.451352 11.5574 -3.47931 -0.689705 11.2454 -3.86197 -0.922978 11.5765 
-3.47931 -0.689705 11.2454 -3.41973 -1.17896 11.1834 -3.86197 -0.922978 11.5765 
-3.41973 -1.17896 11.1834 -3.30583 -1.57104 11.1264 -3.62147 -1.83949 11.4233 
-3.30583 -1.57104 11.1264 -3.16326 -1.97034 11.0864 -3.62147 -1.83949 11.4233 
-3.16326 -1.97034 11.0864 -2.92977 -2.32717 11.0123 -3.40034 -2.34961 11.3615 
-2.92977 -2.32717 11.0123 -2.65137 -2.66607 10.9434 -3.13575 -2.73429 11.2925 
-1.13226 -4.0193 11.0023 -0.747366 -3.94044 10.8701 -0.850486 -4.42077 11.1858 
-0.747366 -3.94044 10.8701 -0.396417 -3.9938 10.8613 -0.425208 -4.2819 11.0492 
-0.396417 -3.9938 10.8613 0.028769 -3.8757 10.7616 0.0388086 -4.30216 11.0421 
0.500987 -4.1978 11.0038 0.861201 -3.71602 10.7428 0.981464 -4.17676 11.0608 
0.861201 -3.71602 10.7428 1.15153 -3.83012 10.8867 0.981464 -4.17676 11.0608 
1.15153 -3.83012 10.8867 1.63121 -3.74692 10.9866 1.43522 -4.03122 11.0871 
2.18286 -3.46653 11.062 2.45109 -3.08083 11.0069 2.71294 -3.43116 11.3073 
2.8087 -2.93266 11.159 2.78602 -2.52916 10.9845 3.24859 -2.81759 11.3921 
2.78602 -2.52916 10.9845 3.11051 -2.27265 11.1266 3.24859 -2.81759 11.3921 
3.51988 -1.7752 11.3375 3.53386 -1.30943 11.2924 3.85743 -1.62406 11.59 
3.53386 -1.30943 11.2924 3.59868 -0.874794 11.3471 3.8862 -0.867484 11.6 
3.59868 -0.874794 11.3471 3.72759 -0.438567 11.5103 3.8862 -0.867484 11.6 
3.72759 -0.438567 11.5103 3.748 -0.0746782 11.6058 4.12921 -0.0576014 11.9374 
3.748 -0.0746782 11.6058 3.81129 0.299209 11.7682 4.12921 -0.0576014 11.9374 
3.81129 0.299209 11.7682 3.69948 0.738026 11.8443 4.06419 0.854107 12.1961 
3.69948 0.738026 11.8443 3.56315 1.08934 11.8988 4.06419 0.854107 12.1961 
3.45806 1.5588 12.0887 3.08105 1.89089 12.0269 3.42142 2.08515 12.4109 
3.08105 1.89089 12.0269 2.79429 2.22523 12.083 3.02486 2.31746 12.3147 
2.79429 2.22523 12.083 2.48861 2.49406 12.1213 2.81954 2.66568 12.4718 
2.48861 2.49406 12.1213 2.20795 2.60204 12.0528 2.32126 2.89995 12.3969 
2.20795 2.60204 12.0528 1.86314 2.91174 12.1816 2.32126 2.89995 12.3969 
1.86314 2.91174 12.1816 1.43438 3.11505 12.2208 1.84548 3.29455 12.5647 
1.43438 3.11505 12.2208 1.03478 3.1517 12.1339 1.39168 3.48472 12.6023 
1.03478 3.1517 12.1339 0.70656 3.3217 12.2535 0.773 3.64854 12.6317 
0.70656 3.3217 12.2535 0.335258 3.37229 12.2617 0.378858 3.59062 12.5162 
0.335258 3.37229 12.2617 -0.048007 3.38525 12.2636 -0.114668 3.60944 12.5207 
-0.048007 3.38525 12.2636 -0.427265 3.36288 12.2594 -0.114668 3.60944 12.5207 
-0.427265 3.36288 12.2594 -0.7667 3.19561 12.1182 -0.854736 3.52006 12.5058 
-0.7667 3.19561 12.1182 -1.2308 3.19367 12.2364 -1.27316 3.51471 12.5995 
-1.2308 3.19367 12.2364 -1.55544 2.94152 12.0809 -1.66248 3.38508 12.5891 
-1.55544 2.94152 12.0809 -1.86442 2.91593 12.1893 -1.95001 3.25659 12.5726 
-1.86442 2.91593 12.1893 -2.18908 2.72054 12.1575 -2.2186 3.10198 12.5418 
-2.18908 2.72054 12.1575 -2.41603 2.4228 12.0088 -2.75509 2.74182 12.4989 
-2.41603 2.4228 12.0088 -2.74924 2.14257 11.9842 -3.04449 2.46657 12.4457 
-2.74924 2.14257 11.9842 -3.1388 1.81513 12.0149 -3.31399 2.15748 12.3902 
-3.1388 1.81513 12.0149 -3.20376 1.53423 11.8712 -3.57451 1.82393 12.3447 
-3.66722 0.8244 11.8561 -3.6807 0.455043 11.7116 -4.0799 0.725257 12.158 
-3.6807 0.455043 11.7116 -3.7487 0.0127726 11.6251 -4.11338 0.0916196 11.9644 
-3.7487 0.0127726 11.6251 -3.7807 -0.451352 11.5574 -4.14793 -0.295306 11.9015 
-3.7807 -0.451352 11.5574 -3.86197 -0.922978 11.5765 -4.14639 -0.697596 11.8358 
-3.86197 -0.922978 11.5765 -3.77563 -1.38725 11.5058 -4.08793 -1.20069 11.7543 
-3.77563 -1.38725 11.5058 -3.62147 -1.83949 11.4233 -4.10044 -1.7198 11.78 
-3.62147 -1.83949 11.4233 -3.40034 -2.34961 11.3615 -3.79125 -2.48515 11.6638 
-3.40034 -2.34961 11.3615 -3.13575 -2.73429 11.2925 -3.58005 -2.8388 11.6072 
-3.13575 -2.73429 11.2925 -2.89911 -3.0261 11.2481 -3.32287 -3.1602 11.5456 
-2.89911 -3.0261 11.2481 -2.54521 -3.16815 11.1038 -2.86124 -3.43967 11.3862 
-2.54521 -3.16815 11.1038 -2.20835 -3.46365 11.0714 -2.55436 -3.87768 11.4252 
-2.20835 -3.46365 11.0714 -1.79636 -3.7077 11.0264 -2.1636 -3.9954 11.3148 
-1.79636 -3.7077 11.0264 -1.48279 -3.8725 11.0113 -1.80723 -4.18669 11.2851 
-1.48279 -3.8725 11.0113 -1.13226 -4.0193 11.0023 -1.27824 -4.54564 11.334 
-0.850486 -4.42077 11.1858 -0.425208 -4.2819 11.0492 -0.384228 -4.58588 11.2259 
-0.425208 -4.2819 11.0492 0.0388086 -4.30216 11.0421 -0.384228 -4.58588 11.2259 
0.0388086 -4.30216 11.0421 0.500987 -4.1978 11.0038 0.361577 -4.716 11.3019 
0.500987 -4.1978 11.0038 0.981464 -4.17676 11.0608 0.756832 -4.52601 11.2298 
0.981464 -4.17676 11.0608 1.43522 -4.03122 11.0871 1.25575 -4.4001 11.2475 
1.43522 -4.03122 11.0871 1.63121 -3.74692 10.9866 1.7179 -4.22807 11.2786 
1.63121 -3.74692 10.9866 1.96365 -3.6186 11.0455 2.08107 -4.03465 11.303 
1.96365 -3.6186 11.0455 2.18286 -3.46653 11.062 2.41734 -3.82894 11.3418 
2.71294 -3.43116 11.3073 2.8087 -2.93266 11.159 3.19773 -3.33988 11.5347 
3.51762 -2.4261 11.4656 3.39977 -2.02611 11.2901 3.88691 -2.30968 11.6976 
3.39977 -2.02611 11.2901 3.51988 -1.7752 11.3375 4.00784 -2.02454 11.7405 
3.93654 -1.34259 11.6372 3.8862 -0.867484 11.6 4.24663 -1.12613 11.8849 
3.8862 -0.867484 11.6 3.72759 -0.438567 11.5103 4.15248 -0.493912 11.8708 
4.15248 -0.493912 11.8708 4.12921 -0.0576014 11.9374 4.56251 -0.211744 12.2451 
3.89871 1.29173 12.2786 3.45806 1.5588 12.0887 3.99396 1.62773 12.5243 
3.42142 2.08515 12.4109 3.02486 2.31746 12.3147 3.31146 2.56307 12.6782 
2.81954 2.66568 12.4718 2.32126 2.89995 12.3969 2.73711 3.07176 12.7637 
0.773 3.64854 12.6317 0.378858 3.59062 12.5162 0.485109 3.94638 12.9033 
0.378858 3.59062 12.5162 -0.114668 3.60944 12.5207 0.157338 3.95746 12.8945 
-0.572171 3.69477 12.6528 -0.854736 3.52006 12.5058 -0.933128 3.90493 12.9171 
-3.57451 1.82393 12.3447 -3.55367 1.3817 12.0598 -3.9102 1.51807 12.4038 
-3.55367 1.3817 12.0598 -3.67194 1.04277 11.9695 -4.09308 1.13642 12.3438 
-4.19978 0.413043 12.1372 -4.11338 0.0916196 11.9644 -4.53524 0.129238 12.3068 
-4.11338 0.0916196 11.9644 -4.14793 -0.295306 11.9015 -4.56821 -0.300266 12.2318 
-4.14793 -0.295306 11.9015 -4.14639 -0.697596 11.8358 -4.58828 -0.700492 12.178 
-4.14639 -0.697596 11.8358 -4.08793 -1.20069 11.7543 -4.54062 -1.19577 12.0991 
-3.32287 -3.1602 11.5456 -2.86124 -3.43967 11.3862 -3.31514 -3.64763 11.6966 
-2.55436 -3.87768 11.4252 -2.1636 -3.9954 11.3148 -2.36426 -4.42282 11.5833 
-2.1636 -3.9954 11.3148 -1.80723 -4.18669 11.2851 -1.98588 -4.61519 11.5471 
-1.27824 -4.54564 11.334 -0.850486 -4.42077 11.1858 -1.03001 -4.93923 11.4917 
-0.850486 -4.42077 11.1858 -0.384228 -4.58588 11.2259 -0.714109 -4.99495 11.4789 
0.361577 -4.716 11.3019 0.756832 -4.52601 11.2298 0.791655 -4.82846 11.3998 
0.756832 -4.52601 11.2298 1.25575 -4.4001 11.2475 1.3258 -4.68826 11.4129 
1.25575 -4.4001 11.2475 1.7179 -4.22807 11.2786 1.90115 -4.68086 11.5527 
1.7179 -4.22807 11.2786 2.08107 -4.03465 11.303 2.29359 -4.46881 11.5792 
2.08107 -4.03465 11.303 2.41734 -3.82894 11.3418 2.6644 -4.22109 11.6114 
2.41734 -3.82894 11.3418 2.71294 -3.43116 11.3073 2.96945 -3.75538 11.56 
3.19773 -3.33988 11.5347 3.24859 -2.81759 11.3921 3.60813 -3.30029 11.7459 
3.24859 -2.81759 11.3921 3.51762 -2.4261 11.4656 3.97473 -2.73415 11.8294 
4.00784 -2.02454 11.7405 3.85743 -1.62406 11.59 4.38214 -1.8289 11.9866 
3.85743 -1.62406 11.59 3.93654 -1.34259 11.6372 4.44335 -1.51866 12.022 
4.28006 -0.818826 11.932 4.15248 -0.493912 11.8708 4.61201 -0.547914 12.219 
4.5276 0.128881 12.3021 4.16458 0.393954 12.1023 4.58712 0.447078 12.4364 
4.16458 0.393954 12.1023 4.06419 0.854107 12.1961 4.47449 0.876885 12.5083 
4.06419 0.854107 12.1961 3.89871 1.29173 12.2786 4.30682 1.30209 12.5736 
3.84553 1.88076 12.5681 3.42142 2.08515 12.4109 3.65649 2.35011 12.7328 
3.42142 2.08515 12.4109 3.31146 2.56307 12.6782 3.65649 2.35011 12.7328 
3.31146 2.56307 12.6782 2.81954 2.66568 12.4718 3.10159 2.93655 12.836 
2.44593 3.24264 12.7708 1.84548 3.29455 12.5647 2.04008 3.61087 12.926 
1.84548 3.29455 12.5647 1.39168 3.48472 12.6023 1.52284 3.83237 12.973 
1.39168 3.48472 12.6023 1.08919 3.59362 12.6365 1.18837 3.93118 12.9892 
1.08919 3.59362 12.6365 0.773 3.64854 12.6317 0.859948 4.01122 13.0068 
-0.267426 3.9729 12.9128 -0.572171 3.69477 12.6528 -0.627434 4.04051 13.0065 
-0.933128 3.90493 12.9171 -1.27316 3.51471 12.5995 -1.39489 3.88439 12.9897 
-1.27316 3.51471 12.5995 -1.66248 3.38508 12.5891 -1.83479 3.71953 12.9589 
-1.66248 3.38508 12.5891 -1.95001 3.25659 12.5726 -2.30949 3.48837 12.9199 
-1.95001 3.25659 12.5726 -2.2186 3.10198 12.5418 -2.30949 3.48837 12.9199 
-2.2186 3.10198 12.5418 -2.49914 2.94066 12.533 -2.73377 3.21564 12.8759 
-2.49914 2.94066 12.533 -2.75509 2.74182 12.4989 -3.00166 3.01102 12.8416 
-2.75509 2.74182 12.4989 -3.04449 2.46657 12.4457 -3.34547 2.71352 12.8018 
-3.04449 2.46657 12.4457 -3.31399 2.15748 12.3902 -3.64356 2.36937 12.7398 
-3.31399 2.15748 12.3902 -3.57451 1.82393 12.3447 -3.90287 2.03497 12.6918 
-3.57451 1.82393 12.3447 -3.9102 1.51807 12.4038 -4.09719 1.71272 12.6378 
-3.9102 1.51807 12.4038 -4.09308 1.13642 12.3438 -4.2994 1.29756 12.5648 
-4.09308 1.13642 12.3438 -4.0799 0.725257 12.158 -4.49664 0.783959 12.4887 
-4.0799 0.725257 12.158 -4.19978 0.413043 12.1372 -4.58594 0.450558 12.4379 
-4.4703 -1.54493 12.0409 -4.10044 -1.7198 11.78 -4.50928 -1.89323 12.0722 
-4.10044 -1.7198 11.78 -3.96413 -2.11337 11.7198 -4.34903 -2.3235 11.9996 
-3.96413 -2.11337 11.7198 -3.79125 -2.48515 11.6638 -4.1556 -2.73072 11.935 
-3.79125 -2.48515 11.6638 -3.58005 -2.8388 11.6072 -3.93723 -3.10576 11.8793 
-3.58005 -2.8388 11.6072 -3.32287 -3.1602 11.5456 -3.65664 -3.48345 11.8185 
-3.0841 -3.87951 11.6626 -2.55436 -3.87768 11.4252 -2.78374 -4.30828 11.6883 
-2.55436 -3.87768 11.4252 -2.36426 -4.42282 11.5833 -2.78374 -4.30828 11.6883 
-1.98588 -4.61519 11.5471 -1.58577 -4.45765 11.3616 -1.55184 -4.9437 11.5837 
-1.58577 -4.45765 11.3616 -1.27824 -4.54564 11.334 -1.55184 -4.9437 11.5837 
-0.319697 -5.05312 11.4787 0.0476027 -4.74593 11.3085 -0.025338 -5.18404 11.5349 
0.0476027 -4.74593 11.3085 0.361577 -4.716 11.3019 0.498283 -5.15982 11.5384 
0.361577 -4.716 11.3019 0.791655 -4.82846 11.3998 0.498283 -5.15982 11.5384 
0.791655 -4.82846 11.3998 1.3258 -4.68826 11.4129 1.06523 -5.07385 11.5593 
2.6644 -4.22109 11.6114 2.96945 -3.75538 11.56 3.15729 -4.00208 11.7333 
2.96945 -3.75538 11.56 3.19773 -3.33988 11.5347 3.4992 -3.65512 11.7876 
3.97473 -2.73415 11.8294 3.88691 -2.30968 11.6976 4.25411 -2.52812 11.9661 
3.88691 -2.30968 11.6976 4.00784 -2.02454 11.7405 4.3878 -2.21887 12.0142 
4.44335 -1.51866 12.022 4.24663 -1.12613 11.8849 4.69508 -1.05263 12.2139 
4.24663 -1.12613 11.8849 4.28006 -0.818826 11.932 4.69508 -1.05263 12.2139 
4.61201 -0.547914 12.219 4.56251 -0.211744 12.2451 5.07815 -0.382165 12.5684 
4.56251 -0.211744 12.2451 4.5276 0.128881 12.3021 5.01926 0.163116 12.6529 
4.5276 0.128881 12.3021 4.58712 0.447078 12.4364 5.01926 0.163116 12.6529 
4.90705 0.698382 12.7376 5.01926 0.163116 12.6529 4.58712 0.447078 12.4364 
4.47449 0.876885 12.5083 4.75521 1.1643 12.8132 4.90705 0.698382 12.7376 
4.75521 1.1643 12.8132 4.47449 0.876885 12.5083 4.30682 1.30209 12.5736 
3.84553 1.88076 12.5681 4.2344 2.18581 12.9792 4.52382 1.65915 12.8806 
3.84553 1.88076 12.5681 3.65649 2.35011 12.7328 4.2344 2.18581 12.9792 
3.65649 2.35011 12.7328 3.31146 2.56307 12.6782 3.6082 2.93718 13.0948 
3.27718 3.24 13.1445 3.6082 2.93718 13.0948 3.10159 2.93655 12.836 
3.27718 3.24 13.1445 3.10159 2.93655 12.836 2.73711 3.07176 12.7637 
2.73711 3.07176 12.7637 2.98466 3.46026 13.1768 3.27718 3.24 13.1445 
2.44593 3.24264 12.7708 2.66658 3.66588 13.2048 2.98466 3.46026 13.1768 
2.04008 3.61087 12.926 2.19707 3.9189 13.2433 2.66658 3.66588 13.2048 
2.04008 3.61087 12.926 1.52284 3.83237 12.973 1.69894 4.1224 13.2759 
1.52284 3.83237 12.973 1.18837 3.93118 12.9892 1.25959 4.26549 13.3055 
1.18837 3.93118 12.9892 0.859948 4.01122 13.0068 1.25959 4.26549 13.3055 
0.676179 4.38189 13.326 1.25959 4.26549 13.3055 0.859948 4.01122 13.0068 
0.676179 4.38189 13.326 0.859948 4.01122 13.0068 0.485109 3.94638 12.9033 
0.676179 4.38189 13.326 0.485109 3.94638 12.9033 0.157338 3.95746 12.8945 
-0.267426 3.9729 12.9128 -0.464176 4.40408 13.3287 0.109471 4.42618 13.3362 
-0.627434 4.04051 13.0065 -0.933128 3.90493 12.9171 -1.11133 4.29146 13.3015 
-0.933128 3.90493 12.9171 -1.39489 3.88439 12.9897 -1.11133 4.29146 13.3015 
-2.07712 3.98432 13.2625 -1.68421 4.13877 13.2864 -1.83479 3.71953 12.9589 
-2.07712 3.98432 13.2625 -1.83479 3.71953 12.9589 -2.30949 3.48837 12.9199 
-2.30949 3.48837 12.9199 -2.58313 3.73091 13.2235 -2.07712 3.98432 13.2625 
-2.73377 3.21564 12.8759 -2.99251 3.45477 13.176 -2.58313 3.73091 13.2235 
-3.00166 3.01102 12.8416 -3.37643 3.15891 13.1334 -2.99251 3.45477 13.176 
-3.00166 3.01102 12.8416 -3.34547 2.71352 12.8018 -3.37643 3.15891 13.1334 
-3.34547 2.71352 12.8018 -3.64356 2.36937 12.7398 -3.7286 2.79852 13.0663 
-4.2912 2.09405 12.963 -4.03289 2.46193 13.0222 -3.90287 2.03497 12.6918 
-4.2912 2.09405 12.963 -3.90287 2.03497 12.6918 -4.09719 1.71272 12.6378 
-4.09719 1.71272 12.6378 -4.56993 1.60412 12.8843 -4.2912 2.09405 12.963 
-4.56993 1.60412 12.8843 -4.09719 1.71272 12.6378 -4.2994 1.29756 12.5648 
-4.2994 1.29756 12.5648 -4.75859 1.15564 12.8118 -4.56993 1.60412 12.8843 
-4.49664 0.783959 12.4887 -4.90754 0.702171 12.7399 -4.75859 1.15564 12.8118 
-4.49664 0.783959 12.4887 -4.58594 0.450558 12.4379 -4.90754 0.702171 12.7399 
-4.58594 0.450558 12.4379 -4.53524 0.129238 12.3068 -5.00644 0.206611 12.6557 
-4.53524 0.129238 12.3068 -4.56821 -0.300266 12.2318 -5.07011 -0.243876 12.5908 
-5.0821 -0.686756 12.5215 -5.07011 -0.243876 12.5908 -4.58828 -0.700492 12.178 
-4.58828 -0.700492 12.178 -5.04388 -1.13275 12.4435 -5.0821 -0.686756 12.5215 
-4.54062 -1.19577 12.0991 -4.96602 -1.67608 12.3642 -5.04388 -1.13275 12.4435 
-4.50928 -1.89323 12.0722 -4.34903 -2.3235 11.9996 -4.78335 -2.30333 12.2646 
-4.34903 -2.3235 11.9996 -4.1556 -2.73072 11.935 -4.52524 -2.8886 12.1734 
-4.2465 -3.36505 12.0975 -4.52524 -2.8886 12.1734 -4.1556 -2.73072 11.935 
-4.2465 -3.36505 12.0975 -3.93723 -3.10576 11.8793 -3.65664 -3.48345 11.8185 
-3.31514 -3.64763 11.6966 -3.53525 -4.21844 11.9667 -3.90401 -3.82574 12.0293 
-3.0841 -3.87951 11.6626 -2.78374 -4.30828 11.6883 -3.10336 -4.57489 11.9048 
-2.78374 -4.30828 11.6883 -2.36426 -4.42282 11.5833 -2.72802 -4.83275 11.8636 
-2.21625 -5.10275 11.8117 -2.72802 -4.83275 11.8636 -2.36426 -4.42282 11.5833 
-2.21625 -5.10275 11.8117 -1.98588 -4.61519 11.5471 -1.55184 -4.9437 11.5837 
-1.55184 -4.9437 11.5837 -1.70456 -5.32858 11.7858 -2.21625 -5.10275 11.8117 
-1.55184 -4.9437 11.5837 -1.23366 -5.46819 11.7626 -1.70456 -5.32858 11.7858 
-0.714109 -4.99495 11.4789 -0.801506 -5.54862 11.7469 -1.23366 -5.46819 11.7626 
-0.714109 -4.99495 11.4789 -0.319697 -5.05312 11.4787 -0.380146 -5.65597 11.7665 
-0.319697 -5.05312 11.4787 -0.025338 -5.18404 11.5349 -0.380146 -5.65597 11.7665 
-0.025338 -5.18404 11.5349 0.498283 -5.15982 11.5384 0.171139 -5.64594 11.7539 
0.683954 -5.57006 11.7465 0.171139 -5.64594 11.7539 0.498283 -5.15982 11.5384 
0.498283 -5.15982 11.5384 1.07158 -5.49807 11.7543 0.683954 -5.57006 11.7465 
1.07158 -5.49807 11.7543 0.498283 -5.15982 11.5384 1.06523 -5.07385 11.5593 
1.06523 -5.07385 11.5593 1.47545 -5.3913 11.7691 1.07158 -5.49807 11.7543 
1.50995 -4.95021 11.5797 1.98794 -5.22689 11.8056 1.47545 -5.3913 11.7691 
1.90115 -4.68086 11.5527 2.29359 -4.46881 11.5792 2.48846 -4.96637 11.8372 
2.29359 -4.46881 11.5792 2.6644 -4.22109 11.6114 2.89046 -4.7294 11.8814 
3.33206 -4.40204 11.9373 2.89046 -4.7294 11.8814 2.6644 -4.22109 11.6114 
3.4992 -3.65512 11.7876 3.99799 -3.69227 12.0409 3.7314 -4.08652 12.0197 
3.80542 -3.00633 11.7862 4.3071 -3.27487 12.1156 3.99799 -3.69227 12.0409 
3.80542 -3.00633 11.7862 3.97473 -2.73415 11.8294 4.3071 -3.27487 12.1156 
3.97473 -2.73415 11.8294 4.25411 -2.52812 11.9661 4.56699 -2.82028 12.1875 
4.25411 -2.52812 11.9661 4.3878 -2.21887 12.0142 4.56699 -2.82028 12.1875 
4.8113 -2.19471 12.275 4.56699 -2.82028 12.1875 4.3878 -2.21887 12.0142 
4.8113 -2.19471 12.275 4.38214 -1.8289 11.9866 4.44335 -1.51866 12.022 
4.44335 -1.51866 12.022 4.95198 -1.71527 12.3571 4.8113 -2.19471 12.275 
4.69508 -1.05263 12.2139 5.06311 -0.921128 12.4773 5.01032 -1.36735 12.4052 
4.61201 -0.547914 12.219 5.07815 -0.382165 12.5684 5.06311 -0.921128 12.4773 
5.06311 -0.921128 12.4773 4.69508 -1.05263 12.2139 4.61201 -0.547914 12.219 
5.01032 -1.36735 12.4052 4.44335 -1.51866 12.022 4.69508 -1.05263 12.2139 
4.44335 -1.51866 12.022 5.01032 -1.36735 12.4052 4.95198 -1.71527 12.3571 
4.3878 -2.21887 12.0142 4.38214 -1.8289 11.9866 4.8113 -2.19471 12.275 
4.56699 -2.82028 12.1875 4.3071 -3.27487 12.1156 3.97473 -2.73415 11.8294 
3.99799 -3.69227 12.0409 3.60813 -3.30029 11.7459 3.80542 -3.00633 11.7862 
3.99799 -3.69227 12.0409 3.4992 -3.65512 11.7876 3.60813 -3.30029 11.7459 
3.7314 -4.08652 12.0197 3.15729 -4.00208 11.7333 3.4992 -3.65512 11.7876 
3.15729 -4.00208 11.7333 3.7314 -4.08652 12.0197 3.33206 -4.40204 11.9373 
2.6644 -4.22109 11.6114 3.15729 -4.00208 11.7333 3.33206 -4.40204 11.9373 
2.89046 -4.7294 11.8814 2.48846 -4.96637 11.8372 2.29359 -4.46881 11.5792 
2.48846 -4.96637 11.8372 1.98794 -5.22689 11.8056 1.90115 -4.68086 11.5527 
1.98794 -5.22689 11.8056 1.50995 -4.95021 11.5797 1.90115 -4.68086 11.5527 
1.47545 -5.3913 11.7691 1.06523 -5.07385 11.5593 1.50995 -4.95021 11.5797 
0.171139 -5.64594 11.7539 -0.380146 -5.65597 11.7665 -0.025338 -5.18404 11.5349 
-0.380146 -5.65597 11.7665 -0.801506 -5.54862 11.7469 -0.714109 -4.99495 11.4789 
-1.23366 -5.46819 11.7626 -1.03001 -4.93923 11.4917 -0.714109 -4.99495 11.4789 
-1.23366 -5.46819 11.7626 -1.55184 -4.9437 11.5837 -1.03001 -4.93923 11.4917 
-2.36426 -4.42282 11.5833 -1.98588 -4.61519 11.5471 -2.21625 -5.10275 11.8117 
-2.72802 -4.83275 11.8636 -3.10336 -4.57489 11.9048 -2.78374 -4.30828 11.6883 
-3.10336 -4.57489 11.9048 -3.53525 -4.21844 11.9667 -3.0841 -3.87951 11.6626 
-3.53525 -4.21844 11.9667 -3.31514 -3.64763 11.6966 -3.0841 -3.87951 11.6626 
-3.90401 -3.82574 12.0293 -3.65664 -3.48345 11.8185 -3.31514 -3.64763 11.6966 
-3.65664 -3.48345 11.8185 -3.90401 -3.82574 12.0293 -4.2465 -3.36505 12.0975 
-4.1556 -2.73072 11.935 -3.93723 -3.10576 11.8793 -4.2465 -3.36505 12.0975 
-4.52524 -2.8886 12.1734 -4.78335 -2.30333 12.2646 -4.34903 -2.3235 11.9996 
-4.78335 -2.30333 12.2646 -4.96602 -1.67608 12.3642 -4.50928 -1.89323 12.0722 
-4.96602 -1.67608 12.3642 -4.4703 -1.54493 12.0409 -4.50928 -1.89323 12.0722 
-4.96602 -1.67608 12.3642 -4.54062 -1.19577 12.0991 -4.4703 -1.54493 12.0409 
-5.04388 -1.13275 12.4435 -4.58828 -0.700492 12.178 -4.54062 -1.19577 12.0991 
-4.56821 -0.300266 12.2318 -4.58828 -0.700492 12.178 -5.07011 -0.243876 12.5908 
-5.07011 -0.243876 12.5908 -5.00644 0.206611 12.6557 -4.53524 0.129238 12.3068 
-5.00644 0.206611 12.6557 -4.90754 0.702171 12.7399 -4.58594 0.450558 12.4379 
-4.75859 1.15564 12.8118 -4.2994 1.29756 12.5648 -4.49664 0.783959 12.4887 
-3.64356 2.36937 12.7398 -3.90287 2.03497 12.6918 -4.03289 2.46193 13.0222 
-4.03289 2.46193 13.0222 -3.7286 2.79852 13.0663 -3.64356 2.36937 12.7398 
-3.7286 2.79852 13.0663 -3.37643 3.15891 13.1334 -3.34547 2.71352 12.8018 
-2.99251 3.45477 13.176 -2.73377 3.21564 12.8759 -3.00166 3.01102 12.8416 
-2.58313 3.73091 13.2235 -2.30949 3.48837 12.9199 -2.73377 3.21564 12.8759 
-1.39489 3.88439 12.9897 -1.83479 3.71953 12.9589 -1.68421 4.13877 13.2864 
-1.68421 4.13877 13.2864 -1.11133 4.29146 13.3015 -1.39489 3.88439 12.9897 
-1.11133 4.29146 13.3015 -0.464176 4.40408 13.3287 -0.627434 4.04051 13.0065 
-0.464176 4.40408 13.3287 -0.267426 3.9729 12.9128 -0.627434 4.04051 13.0065 
0.109471 4.42618 13.3362 0.157338 3.95746 12.8945 -0.267426 3.9729 12.9128 
0.157338 3.95746 12.8945 0.109471 4.42618 13.3362 0.676179 4.38189 13.326 
1.25959 4.26549 13.3055 1.69894 4.1224 13.2759 1.52284 3.83237 12.973 
1.69894 4.1224 13.2759 2.19707 3.9189 13.2433 2.04008 3.61087 12.926 
2.66658 3.66588 13.2048 2.44593 3.24264 12.7708 2.04008 3.61087 12.926 
2.98466 3.46026 13.1768 2.73711 3.07176 12.7637 2.44593 3.24264 12.7708 
3.31146 2.56307 12.6782 3.10159 2.93655 12.836 3.6082 2.93718 13.0948 
3.6082 2.93718 13.0948 3.90776 2.59597 13.0342 3.65649 2.35011 12.7328 
3.90776 2.59597 13.0342 4.2344 2.18581 12.9792 3.65649 2.35011 12.7328 
4.52382 1.65915 12.8806 3.99396 1.62773 12.5243 3.84553 1.88076 12.5681 
4.52382 1.65915 12.8806 4.30682 1.30209 12.5736 3.99396 1.62773 12.5243 
4.30682 1.30209 12.5736 4.52382 1.65915 12.8806 4.75521 1.1643 12.8132 
4.58712 0.447078 12.4364 4.47449 0.876885 12.5083 4.90705 0.698382 12.7376 
5.01926 0.163116 12.6529 5.07815 -0.382165 12.5684 4.56251 -0.211744 12.2451 
4.61201 -0.547914 12.219 4.69508 -1.05263 12.2139 4.28006 -0.818826 11.932 
4.38214 -1.8289 11.9866 4.3878 -2.21887 12.0142 4.00784 -2.02454 11.7405 
4.3878 -2.21887 12.0142 4.25411 -2.52812 11.9661 3.88691 -2.30968 11.6976 
3.60813 -3.30029 11.7459 3.4992 -3.65512 11.7876 3.19773 -3.33988 11.5347 
3.4992 -3.65512 11.7876 3.15729 -4.00208 11.7333 2.96945 -3.75538 11.56 
1.90115 -4.68086 11.5527 1.50995 -4.95021 11.5797 1.3258 -4.68826 11.4129 
1.50995 -4.95021 11.5797 1.06523 -5.07385 11.5593 1.3258 -4.68826 11.4129 
1.06523 -5.07385 11.5593 0.498283 -5.15982 11.5384 0.791655 -4.82846 11.3998 
0.498283 -5.15982 11.5384 -0.025338 -5.18404 11.5349 0.0476027 -4.74593 11.3085 
-1.03001 -4.93923 11.4917 -1.55184 -4.9437 11.5837 -1.27824 -4.54564 11.334 
-3.31514 -3.64763 11.6966 -3.65664 -3.48345 11.8185 -3.32287 -3.1602 11.5456 
-3.65664 -3.48345 11.8185 -3.93723 -3.10576 11.8793 -3.58005 -2.8388 11.6072 
-3.93723 -3.10576 11.8793 -4.1556 -2.73072 11.935 -3.79125 -2.48515 11.6638 
-4.1556 -2.73072 11.935 -4.34903 -2.3235 11.9996 -3.96413 -2.11337 11.7198 
-4.34903 -2.3235 11.9996 -4.50928 -1.89323 12.0722 -4.10044 -1.7198 11.78 
-4.53524 0.129238 12.3068 -4.58594 0.450558 12.4379 -4.19978 0.413043 12.1372 
-4.58594 0.450558 12.4379 -4.49664 0.783959 12.4887 -4.0799 0.725257 12.158 
-4.49664 0.783959 12.4887 -4.2994 1.29756 12.5648 -4.09308 1.13642 12.3438 
-4.2994 1.29756 12.5648 -4.09719 1.71272 12.6378 -3.9102 1.51807 12.4038 
-4.09719 1.71272 12.6378 -3.90287 2.03497 12.6918 -3.57451 1.82393 12.3447 
-3.90287 2.03497 12.6918 -3.64356 2.36937 12.7398 -3.31399 2.15748 12.3902 
-3.64356 2.36937 12.7398 -3.34547 2.71352 12.8018 -3.04449 2.46657 12.4457 
-3.34547 2.71352 12.8018 -3.00166 3.01102 12.8416 -2.75509 2.74182 12.4989 
-3.00166 3.01102 12.8416 -2.73377 3.21564 12.8759 -2.49914 2.94066 12.533 
-2.73377 3.21564 12.8759 -2.30949 3.48837 12.9199 -2.2186 3.10198 12.5418 
-2.30949 3.48837 12.9199 -1.83479 3.71953 12.9589 -1.66248 3.38508 12.5891 
-1.83479 3.71953 12.9589 -1.39489 3.88439 12.9897 -1.27316 3.51471 12.5995 
-0.933128 3.90493 12.9171 -0.627434 4.04051 13.0065 -0.572171 3.69477 12.6528 
0.485109 3.94638 12.9033 0.859948 4.01122 13.0068 0.773 3.64854 12.6317 
0.859948 4.01122 13.0068 1.18837 3.93118 12.9892 1.08919 3.59362 12.6365 
1.18837 3.93118 12.9892 1.52284 3.83237 12.973 1.39168 3.48472 12.6023 
1.52284 3.83237 12.973 2.04008 3.61087 12.926 1.84548 3.29455 12.5647 
2.73711 3.07176 12.7637 3.10159 2.93655 12.836 2.81954 2.66568 12.4718 
3.99396 1.62773 12.5243 4.30682 1.30209 12.5736 3.89871 1.29173 12.2786 
4.30682 1.30209 12.5736 4.47449 0.876885 12.5083 4.06419 0.854107 12.1961 
4.47449 0.876885 12.5083 4.58712 0.447078 12.4364 4.16458 0.393954 12.1023 
4.24663 -1.12613 11.8849 4.44335 -1.51866 12.022 3.93654 -1.34259 11.6372 
4.44335 -1.51866 12.022 4.38214 -1.8289 11.9866 3.85743 -1.62406 11.59 
3.88691 -2.30968 11.6976 3.97473 -2.73415 11.8294 3.51762 -2.4261 11.4656 
3.97473 -2.73415 11.8294 3.80542 -3.00633 11.7862 3.24859 -2.81759 11.3921 
3.80542 -3.00633 11.7862 3.60813 -3.30029 11.7459 3.24859 -2.81759 11.3921 
3.19773 -3.33988 11.5347 2.96945 -3.75538 11.56 2.71294 -3.43116 11.3073 
2.96945 -3.75538 11.56 2.6644 -4.22109 11.6114 2.41734 -3.82894 11.3418 
2.6644 -4.22109 11.6114 2.29359 -4.46881 11.5792 2.08107 -4.03465 11.303 
2.29359 -4.46881 11.5792 1.90115 -4.68086 11.5527 1.7179 -4.22807 11.2786 
1.90115 -4.68086 11.5527 1.3258 -4.68826 11.4129 1.25575 -4.4001 11.2475 
1.3258 -4.68826 11.4129 0.791655 -4.82846 11.3998 0.756832 -4.52601 11.2298 
0.0476027 -4.74593 11.3085 -0.319697 -5.05312 11.4787 -0.384228 -4.58588 11.2259 
-0.319697 -5.05312 11.4787 -0.714109 -4.99495 11.4789 -0.384228 -4.58588 11.2259 
-0.714109 -4.99495 11.4789 -1.03001 -4.93923 11.4917 -0.850486 -4.42077 11.1858 
-1.58577 -4.45765 11.3616 -1.98588 -4.61519 11.5471 -1.80723 -4.18669 11.2851 
-1.98588 -4.61519 11.5471 -2.36426 -4.42282 11.5833 -2.1636 -3.9954 11.3148 
-2.55436 -3.87768 11.4252 -3.0841 -3.87951 11.6626 -2.86124 -3.43967 11.3862 
-3.0841 -3.87951 11.6626 -3.31514 -3.64763 11.6966 -2.86124 -3.43967 11.3862 
-4.10044 -1.7198 11.78 -4.4703 -1.54493 12.0409 -4.08793 -1.20069 11.7543 
-4.4703 -1.54493 12.0409 -4.54062 -1.19577 12.0991 -4.08793 -1.20069 11.7543 
-4.54062 -1.19577 12.0991 -4.58828 -0.700492 12.178 -4.14639 -0.697596 11.8358 
-4.58828 -0.700492 12.178 -4.56821 -0.300266 12.2318 -4.14793 -0.295306 11.9015 
-4.56821 -0.300266 12.2318 -4.53524 0.129238 12.3068 -4.11338 0.0916196 11.9644 
-4.0799 0.725257 12.158 -4.09308 1.13642 12.3438 -3.67194 1.04277 11.9695 
-4.09308 1.13642 12.3438 -3.9102 1.51807 12.4038 -3.55367 1.3817 12.0598 
-1.27316 3.51471 12.5995 -0.933128 3.90493 12.9171 -0.854736 3.52006 12.5058 
-0.572171 3.69477 12.6528 -0.267426 3.9729 12.9128 -0.114668 3.60944 12.5207 
-0.267426 3.9729 12.9128 0.157338 3.95746 12.8945 -0.114668 3.60944 12.5207 
0.157338 3.95746 12.8945 0.485109 3.94638 12.9033 0.378858 3.59062 12.5162 
1.84548 3.29455 12.5647 2.44593 3.24264 12.7708 2.32126 2.89995 12.3969 
2.44593 3.24264 12.7708 2.73711 3.07176 12.7637 2.32126 2.89995 12.3969 
2.81954 2.66568 12.4718 3.31146 2.56307 12.6782 3.02486 2.31746 12.3147 
3.42142 2.08515 12.4109 3.84553 1.88076 12.5681 3.45806 1.5588 12.0887 
3.84553 1.88076 12.5681 3.99396 1.62773 12.5243 3.45806 1.5588 12.0887 
4.16458 0.393954 12.1023 4.5276 0.128881 12.3021 4.12921 -0.0576014 11.9374 
4.5276 0.128881 12.3021 4.56251 -0.211744 12.2451 4.12921 -0.0576014 11.9374 
4.56251 -0.211744 12.2451 4.61201 -0.547914 12.219 4.15248 -0.493912 11.8708 
4.15248 -0.493912 11.8708 4.28006 -0.818826 11.932 3.8862 -0.867484 11.6 
4.28006 -0.818826 11.932 4.24663 -1.12613 11.8849 3.8862 -0.867484 11.6 
3.85743 -1.62406 11.59 4.00784 -2.02454 11.7405 3.51988 -1.7752 11.3375 
4.00784 -2.02454 11.7405 3.88691 -2.30968 11.6976 3.39977 -2.02611 11.2901 
3.24859 -2.81759 11.3921 3.19773 -3.33988 11.5347 2.8087 -2.93266 11.159 
2.71294 -3.43116 11.3073 2.41734 -3.82894 11.3418 2.18286 -3.46653 11.062 
2.41734 -3.82894 11.3418 2.08107 -4.03465 11.303 1.96365 -3.6186 11.0455 
2.08107 -4.03465 11.303 1.7179 -4.22807 11.2786 1.63121 -3.74692 10.9866 
1.7179 -4.22807 11.2786 1.25575 -4.4001 11.2475 1.43522 -4.03122 11.0871 
1.25575 -4.4001 11.2475 0.756832 -4.52601 11.2298 0.981464 -4.17676 11.0608 
0.756832 -4.52601 11.2298 0.361577 -4.716 11.3019 0.500987 -4.1978 11.0038 
0.361577 -4.716 11.3019 0.0476027 -4.74593 11.3085 0.0388086 -4.30216 11.0421 
0.0476027 -4.74593 11.3085 -0.384228 -4.58588 11.2259 0.0388086 -4.30216 11.0421 
-0.850486 -4.42077 11.1858 -1.27824 -4.54564 11.334 -1.13226 -4.0193 11.0023 
-1.27824 -4.54564 11.334 -1.58577 -4.45765 11.3616 -1.48279 -3.8725 11.0113 
-1.58577 -4.45765 11.3616 -1.80723 -4.18669 11.2851 -1.48279 -3.8725 11.0113 
-1.80723 -4.18669 11.2851 -2.1636 -3.9954 11.3148 -1.79636 -3.7077 11.0264 
-2.1636 -3.9954 11.3148 -2.55436 -3.87768 11.4252 -2.20835 -3.46365 11.0714 
-2.55436 -3.87768 11.4252 -2.86124 -3.43967 11.3862 -2.54521 -3.16815 11.1038 
-2.86124 -3.43967 11.3862 -3.32287 -3.1602 11.5456 -2.89911 -3.0261 11.2481 
-3.32287 -3.1602 11.5456 -3.58005 -2.8388 11.6072 -3.13575 -2.73429 11.2925 
-3.58005 -2.8388 11.6072 -3.79125 -2.48515 11.6638 -3.40034 -2.34961 11.3615 
-3.79125 -2.48515 11.6638 -3.96413 -2.11337 11.7198 -3.62147 -1.83949 11.4233 
-3.96413 -2.11337 11.7198 -4.10044 -1.7198 11.78 -3.62147 -1.83949 11.4233 
-4.10044 -1.7198 11.78 -4.08793 -1.20069 11.7543 -3.77563 -1.38725 11.5058 
-4.08793 -1.20069 11.7543 -4.14639 -0.697596 11.8358 -3.86197 -0.922978 11.5765 
-4.14639 -0.697596 11.8358 -4.14793 -0.295306 11.9015 -3.7807 -0.451352 11.5574 
-4.14793 -0.295306 11.9015 -4.11338 0.0916196 11.9644 -3.7487 0.0127726 11.6251 
-4.11338 0.0916196 11.9644 -4.19978 0.413043 12.1372 -3.6807 0.455043 11.7116 
-4.19978 0.413043 12.1372 -4.0799 0.725257 12.158 -3.6807 0.455043 11.7116 
-4.0799 0.725257 12.158 -3.67194 1.04277 11.9695 -3.66722 0.8244 11.8561 
-3.55367 1.3817 12.0598 -3.57451 1.82393 12.3447 -3.20376 1.53423 11.8712 
-3.57451 1.82393 12.3447 -3.31399 2.15748 12.3902 -3.1388 1.81513 12.0149 
-3.31399 2.15748 12.3902 -3.04449 2.46657 12.4457 -2.74924 2.14257 11.9842 
-3.04449 2.46657 12.4457 -2.75509 2.74182 12.4989 -2.41603 2.4228 12.0088 
-2.75509 2.74182 12.4989 -2.49914 2.94066 12.533 -2.18908 2.72054 12.1575 
-2.49914 2.94066 12.533 -2.2186 3.10198 12.5418 -2.18908 2.72054 12.1575 
-2.2186 3.10198 12.5418 -1.95001 3.25659 12.5726 -1.86442 2.91593 12.1893 
-1.95001 3.25659 12.5726 -1.66248 3.38508 12.5891 -1.55544 2.94152 12.0809 
-1.66248 3.38508 12.5891 -1.27316 3.51471 12.5995 -1.2308 3.19367 12.2364 
-1.27316 3.51471 12.5995 -0.854736 3.52006 12.5058 -0.7667 3.19561 12.1182 
-0.854736 3.52006 12.5058 -0.572171 3.69477 12.6528 -0.427265 3.36288 12.2594 
-0.572171 3.69477 12.6528 -0.114668 3.60944 12.5207 -0.427265 3.36288 12.2594 
-0.114668 3.60944 12.5207 0.378858 3.59062 12.5162 0.335258 3.37229 12.2617 
0.378858 3.59062 12.5162 0.773 3.64854 12.6317 0.70656 3.3217 12.2535 
0.773 3.64854 12.6317 1.08919 3.59362 12.6365 1.03478 3.1517 12.1339 
1.08919 3.59362 12.6365 1.39168 3.48472 12.6023 1.03478 3.1517 12.1339 
1.39168 3.48472 12.6023 1.84548 3.29455 12.5647 1.43438 3.11505 12.2208 
1.84548 3.29455 12.5647 2.32126 2.89995 12.3969 1.86314 2.91174 12.1816 
2.32126 2.89995 12.3969 2.81954 2.66568 12.4718 2.48861 2.49406 12.1213 
2.81954 2.66568 12.4718 3.02486 2.31746 12.3147 2.79429 2.22523 12.083 
3.02486 2.31746 12.3147 3.42142 2.08515 12.4109 3.08105 1.89089 12.0269 
3.45806 1.5588 12.0887 3.89871 1.29173 12.2786 3.56315 1.08934 11.8988 
3.89871 1.29173 12.2786 4.06419 0.854107 12.1961 3.56315 1.08934 11.8988 
4.06419 0.854107 12.1961 4.16458 0.393954 12.1023 3.81129 0.299209 11.7682 
4.16458 0.393954 12.1023 4.12921 -0.0576014 11.9374 3.81129 0.299209 11.7682 
4.12921 -0.0576014 11.9374 4.15248 -0.493912 11.8708 3.72759 -0.438567 11.5103 
3.8862 -0.867484 11.6 3.93654 -1.34259 11.6372 3.53386 -1.30943 11.2924 
3.93654 -1.34259 11.6372 3.85743 -1.62406 11.59 3.53386 -1.30943 11.2924 
3.39977 -2.02611 11.2901 3.51762 -2.4261 11.4656 3.11051 -2.27265 11.1266 
3.51762 -2.4261 11.4656 3.24859 -2.81759 11.3921 3.11051 -2.27265 11.1266 
2.8087 -2.93266 11.159 2.71294 -3.43116 11.3073 2.45109 -3.08083 11.0069 
1.43522 -4.03122 11.0871 0.981464 -4.17676 11.0608 1.15153 -3.83012 10.8867 
0.500987 -4.1978 11.0038 0.0388086 -4.30216 11.0421 0.028769 -3.8757 10.7616 
0.0388086 -4.30216 11.0421 -0.425208 -4.2819 11.0492 -0.396417 -3.9938 10.8613 
-0.425208 -4.2819 11.0492 -0.850486 -4.42077 11.1858 -0.747366 -3.94044 10.8701 
-2.54521 -3.16815 11.1038 -2.89911 -3.0261 11.2481 -2.65137 -2.66607 10.9434 
-2.89911 -3.0261 11.2481 -3.13575 -2.73429 11.2925 -2.65137 -2.66607 10.9434 
-3.13575 -2.73429 11.2925 -3.40034 -2.34961 11.3615 -2.92977 -2.32717 11.0123 
-3.40034 -2.34961 11.3615 -3.62147 -1.83949 11.4233 -3.16326 -1.97034 11.0864 
-3.62147 -1.83949 11.4233 -3.77563 -1.38725 11.5058 -3.41973 -1.17896 11.1834 
-3.77563 -1.38725 11.5058 -3.86197 -0.922978 11.5765 -3.41973 -1.17896 11.1834 
-3.6807 0.455043 11.7116 -3.66722 0.8244 11.8561 -3.2816 0.840218 11.5105 
-3.66722 0.8244 11.8561 -3.67194 1.04277 11.9695 -3.2816 0.840218 11.5105 
-3.67194 1.04277 11.9695 -3.55367 1.3817 12.0598 -3.11625 1.20803 11.575 
-3.20376 1.53423 11.8712 -3.1388 1.81513 12.0149 -2.83754 1.81308 11.7735 
-3.1388 1.81513 12.0149 -2.74924 2.14257 11.9842 -2.83754 1.81308 11.7735 
-2.41603 2.4228 12.0088 -2.18908 2.72054 12.1575 -1.94385 2.46995 11.7548 
-2.18908 2.72054 12.1575 -1.86442 2.91593 12.1893 -1.69294 2.65116 11.8134 
-1.55544 2.94152 12.0809 -1.2308 3.19367 12.2364 -1.11878 2.88825 11.8374 
-0.7667 3.19561 12.1182 -0.427265 3.36288 12.2594 -0.393158 3.00574 11.8093 
-0.427265 3.36288 12.2594 -0.048007 3.38525 12.2636 -0.0343354 3.03745 11.829 
-0.048007 3.38525 12.2636 0.335258 3.37229 12.2617 0.302272 3.02162 11.8215 
0.335258 3.37229 12.2617 0.70656 3.3217 12.2535 0.711496 2.99209 11.8483 
1.03478 3.1517 12.1339 1.43438 3.11505 12.2208 1.33908 2.91563 11.9557 
1.43438 3.11505 12.2208 1.86314 2.91174 12.1816 1.72062 2.73982 11.9251 
2.20795 2.60204 12.0528 2.48861 2.49406 12.1213 2.17988 2.30106 11.7288 
2.48861 2.49406 12.1213 2.79429 2.22523 12.083 2.43674 2.10576 11.7211 
2.79429 2.22523 12.083 3.08105 1.89089 12.0269 2.80463 1.85574 11.7812 
3.08105 1.89089 12.0269 3.45806 1.5588 12.0887 3.10389 1.44693 11.7202 
3.45806 1.5588 12.0887 3.56315 1.08934 11.8988 3.31932 1.0274 11.6494 
3.56315 1.08934 11.8988 3.69948 0.738026 11.8443 3.45525 0.69582 11.6041 
3.69948 0.738026 11.8443 3.81129 0.299209 11.7682 3.55723 0.306941 11.5378 
3.72759 -0.438567 11.5103 3.59868 -0.874794 11.3471 3.37594 -0.619631 11.1491 
3.59868 -0.874794 11.3471 3.53386 -1.30943 11.2924 3.34109 -0.953201 11.1026 
3.53386 -1.30943 11.2924 3.51988 -1.7752 11.3375 3.14161 -1.64268 10.991 
3.51988 -1.7752 11.3375 3.39977 -2.02611 11.2901 3.14161 -1.64268 10.991 
3.39977 -2.02611 11.2901 3.11051 -2.27265 11.1266 2.91328 -2.09104 10.9164 
2.78602 -2.52916 10.9845 2.8087 -2.93266 11.159 2.47102 -2.67981 10.8289 
2.8087 -2.93266 11.159 2.45109 -3.08083 11.0069 2.47102 -2.67981 10.8289 
2.45109 -3.08083 11.0069 2.18286 -3.46653 11.062 2.15576 -2.96258 10.7763 
2.18286 -3.46653 11.062 1.96365 -3.6186 11.0455 1.77582 -3.07044 10.6387 
1.96365 -3.6186 11.0455 1.63121 -3.74692 10.9866 1.55123 -3.36362 10.7209 
1.63121 -3.74692 10.9866 1.15153 -3.83012 10.8867 1.20972 -3.37256 10.6026 
0.861201 -3.71602 10.7428 0.500987 -4.1978 11.0038 0.4535 -3.70463 10.6659 
0.028769 -3.8757 10.7616 -0.396417 -3.9938 10.8613 -0.357767 -3.582 10.5686 
-0.396417 -3.9938 10.8613 -0.747366 -3.94044 10.8701 -0.676332 -3.53127 10.5758 
-0.747366 -3.94044 10.8701 -1.13226 -4.0193 11.0023 -1.0989 -3.54694 10.6834 
-1.13226 -4.0193 11.0023 -1.48279 -3.8725 11.0113 -1.0989 -3.54694 10.6834 
-1.48279 -3.8725 11.0113 -1.79636 -3.7077 11.0264 -1.493 -3.39438 10.717 
-1.79636 -3.7077 11.0264 -2.20835 -3.46365 11.0714 -1.85606 -3.16929 10.7355 
-2.20835 -3.46365 11.0714 -2.54521 -3.16815 11.1038 -2.24157 -2.89477 10.7917 
-3.7807 -0.451352 11.5574 -3.7487 0.0127726 11.6251 -3.36128 0.0268131 11.2528 
-3.7487 0.0127726 11.6251 -3.6807 0.455043 11.7116 -3.29029 0.419645 11.3201 
-3.11625 1.20803 11.575 -3.20376 1.53423 11.8712 -2.78195 1.50794 11.4777 
-3.20376 1.53423 11.8712 -2.83754 1.81308 11.7735 -2.78195 1.50794 11.4777 
-2.83754 1.81308 11.7735 -2.74924 2.14257 11.9842 -2.33425 1.90611 11.4446 
-2.74924 2.14257 11.9842 -2.41603 2.4228 12.0088 -2.12269 2.21277 11.5914 
-2.41603 2.4228 12.0088 -1.94385 2.46995 11.7548 -2.12269 2.21277 11.5914 
-1.69294 2.65116 11.8134 -1.55544 2.94152 12.0809 -1.28832 2.6085 11.554 
-1.11878 2.88825 11.8374 -0.7667 3.19561 12.1182 -0.698049 2.89005 11.7113 
1.03478 3.1517 12.1339 1.33908 2.91563 11.9557 1.05005 2.702 11.5736 
1.33908 2.91563 11.9557 1.72062 2.73982 11.9251 1.35714 2.59081 11.5662 
1.72062 2.73982 11.9251 2.20795 2.60204 12.0528 1.77174 2.46604 11.6386 
2.43674 2.10576 11.7211 2.80463 1.85574 11.7812 2.52578 1.66682 11.3815 
2.80463 1.85574 11.7812 3.10389 1.44693 11.7202 2.71922 1.39703 11.3365 
3.10389 1.44693 11.7202 3.31932 1.0274 11.6494 2.88085 1.12001 11.2881 
3.31932 1.0274 11.6494 3.45525 0.69582 11.6041 3.05238 0.766223 11.2454 
3.45525 0.69582 11.6041 3.55723 0.306941 11.5378 3.18126 0.410512 11.2028 
3.55723 0.306941 11.5378 3.748 -0.0746782 11.6058 3.25708 0.0246794 11.1491 
3.748 -0.0746782 11.6058 3.72759 -0.438567 11.5103 3.38897 -0.303615 11.2055 
3.38897 -0.303615 11.2055 3.37594 -0.619631 11.1491 3.05912 -0.329757 10.8508 
3.37594 -0.619631 11.1491 3.34109 -0.953201 11.1026 3.03569 -0.689101 10.7937 
3.34109 -0.953201 11.1026 3.26944 -1.27147 11.0522 2.97851 -0.976584 10.7398 
3.26944 -1.27147 11.0522 3.14161 -1.64268 10.991 2.99563 -1.32628 10.7979 
3.14161 -1.64268 10.991 2.91328 -2.09104 10.9164 2.85788 -1.67279 10.7428 
2.91328 -2.09104 10.9164 2.78602 -2.52916 10.9845 2.36753 -2.19945 10.5259 
2.78602 -2.52916 10.9845 2.47102 -2.67981 10.8289 2.36753 -2.19945 10.5259 
2.47102 -2.67981 10.8289 2.15576 -2.96258 10.7763 1.92827 -2.64215 10.4575 
1.77582 -3.07044 10.6387 1.55123 -3.36362 10.7209 1.39067 -3.01124 10.417 
1.20972 -3.37256 10.6026 0.861201 -3.71602 10.7428 0.844256 -3.19449 10.3593 
0.861201 -3.71602 10.7428 0.4535 -3.70463 10.6659 0.573846 -3.41191 10.4669 
0.4535 -3.70463 10.6659 0.028769 -3.8757 10.7616 0.204883 -3.45167 10.4552 
-0.676332 -3.53127 10.5758 -1.0989 -3.54694 10.6834 -0.983732 -3.1667 10.3769 
-1.0989 -3.54694 10.6834 -1.493 -3.39438 10.717 -1.37272 -3.15341 10.5079 
-1.493 -3.39438 10.717 -1.85606 -3.16929 10.7355 -1.6408 -3.00604 10.5288 
-1.85606 -3.16929 10.7355 -2.24157 -2.89477 10.7917 -1.95375 -2.78817 10.5589 
-2.24157 -2.89477 10.7917 -2.65137 -2.66607 10.9434 -2.2415 -2.53878 10.6033 
-2.65137 -2.66607 10.9434 -2.92977 -2.32717 11.0123 -2.62793 -2.06685 10.6776 
-2.92977 -2.32717 11.0123 -3.16326 -1.97034 11.0864 -2.81969 -1.73481 10.7256 
-3.16326 -1.97034 11.0864 -3.30583 -1.57104 11.1264 -2.97606 -1.38293 10.789 
-3.30583 -1.57104 11.1264 -3.41973 -1.17896 11.1834 -3.06103 -1.10054 10.833 
-3.41973 -1.17896 11.1834 -3.47931 -0.689705 11.2454 -3.11811 -0.802619 10.8778 
-3.47931 -0.689705 11.2454 -3.3887 -0.30505 11.206 -3.15495 -0.425738 10.9394 
-3.3887 -0.30505 11.206 -3.36128 0.0268131 11.2528 -2.98672 0.0182143 10.8488 
-3.36128 0.0268131 11.2528 -3.29029 0.419645 11.3201 -3.04713 0.452307 11.0737 
-3.29029 0.419645 11.3201 -3.2816 0.840218 11.5105 -3.04713 0.452307 11.0737 
-3.2816 0.840218 11.5105 -3.11625 1.20803 11.575 -2.78793 1.10894 11.183 
-3.11625 1.20803 11.575 -2.78195 1.50794 11.4777 -2.59223 1.41681 11.223 
-2.33425 1.90611 11.4446 -2.12269 2.21277 11.5914 -1.95348 1.98763 11.2148 
-2.12269 2.21277 11.5914 -1.94385 2.46995 11.7548 -1.77312 2.22827 11.3602 
-1.94385 2.46995 11.7548 -1.69294 2.65116 11.8134 -1.45131 2.41329 11.3823 
-1.69294 2.65116 11.8134 -1.28832 2.6085 11.554 -1.45131 2.41329 11.3823 
-1.11878 2.88825 11.8374 -0.698049 2.89005 11.7113 -0.849513 2.64966 11.4222 
-0.698049 2.89005 11.7113 -0.393158 3.00574 11.8093 -0.476989 2.62459 11.2867 
-0.393158 3.00574 11.8093 -0.0343354 3.03745 11.829 -0.186581 2.67278 11.3136 
-0.0343354 3.03745 11.829 0.302272 3.02162 11.8215 0.227364 2.66363 11.3007 
0.302272 3.02162 11.8215 0.711496 2.99209 11.8483 0.638381 2.59364 11.2752 
1.35714 2.59081 11.5662 1.77174 2.46604 11.6386 1.57796 2.22831 11.2244 
1.77174 2.46604 11.6386 2.17988 2.30106 11.7288 1.87149 2.01193 11.1781 
2.17988 2.30106 11.7288 2.43674 2.10576 11.7211 2.23273 1.83906 11.2837 
2.43674 2.10576 11.7211 2.52578 1.66682 11.3815 2.23273 1.83906 11.2837 
3.25708 0.0246794 11.1491 3.38897 -0.303615 11.2055 3.05912 -0.329757 10.8508 
2.97851 -0.976584 10.7398 2.99563 -1.32628 10.7979 2.67384 -1.16175 10.4401 
2.99563 -1.32628 10.7979 2.85788 -1.67279 10.7428 2.53907 -1.46648 10.3792 
1.92827 -2.64215 10.4575 1.77582 -3.07044 10.6387 1.52339 -2.62158 10.2056 
1.39067 -3.01124 10.417 1.20972 -3.37256 10.6026 1.03431 -2.86463 10.1604 
0.844256 -3.19449 10.3593 0.573846 -3.41191 10.4669 0.42093 -3.00431 10.1123 
0.573846 -3.41191 10.4669 0.204883 -3.45167 10.4552 0.42093 -3.00431 10.1123 
0.204883 -3.45167 10.4552 -0.115102 -3.45885 10.4578 0.0422456 -3.05644 10.1263 
-0.115102 -3.45885 10.4578 -0.357767 -3.582 10.5686 -0.270653 -3.04011 10.1279 
-0.357767 -3.582 10.5686 -0.676332 -3.53127 10.5758 -0.560116 -2.99785 10.1341 
-0.983732 -3.1667 10.3769 -1.37272 -3.15341 10.5079 -1.30514 -2.76569 10.1969 
-1.37272 -3.15341 10.5079 -1.6408 -3.00604 10.5288 -1.30514 -2.76569 10.1969 
-1.6408 -3.00604 10.5288 -1.95375 -2.78817 10.5589 -1.59048 -2.59581 10.224 
-1.95375 -2.78817 10.5589 -2.2415 -2.53878 10.6033 -1.99036 -2.22036 10.246 
-2.2415 -2.53878 10.6033 -2.44837 -2.31271 10.641 -2.2206 -1.98919 10.3014 
-2.44837 -2.31271 10.641 -2.62793 -2.06685 10.6776 -2.2206 -1.98919 10.3014 
-2.62793 -2.06685 10.6776 -2.81969 -1.73481 10.7256 -2.43419 -1.72271 10.3715 
-2.81969 -1.73481 10.7256 -2.97606 -1.38293 10.789 -2.64042 -1.20466 10.4145 
-2.97606 -1.38293 10.789 -3.06103 -1.10054 10.833 -2.7262 -0.892372 10.4579 
-3.06103 -1.10054 10.833 -3.11811 -0.802619 10.8778 -2.7262 -0.892372 10.4579 
-3.11811 -0.802619 10.8778 -3.15495 -0.425738 10.9394 -2.79626 -0.547786 10.5295 
-2.98672 0.0182143 10.8488 -3.04713 0.452307 11.0737 -2.82667 0.419217 10.81 
-2.79837 0.8126 11.0001 -2.78793 1.10894 11.183 -2.53634 1.12503 10.9226 
-2.78793 1.10894 11.183 -2.59223 1.41681 11.223 -2.53634 1.12503 10.9226 
-2.59223 1.41681 11.223 -2.46385 1.72408 11.3824 -2.23201 1.41838 10.8587 
-2.46385 1.72408 11.3824 -2.33425 1.90611 11.4446 -2.07988 1.71918 11.0204 
-1.95348 1.98763 11.2148 -1.77312 2.22827 11.3602 -1.57154 2.00806 10.9311 
-1.77312 2.22827 11.3602 -1.45131 2.41329 11.3823 -1.2923 2.16817 10.949 
-1.45131 2.41329 11.3823 -1.28832 2.6085 11.554 -0.947421 2.31889 10.9764 
-1.28832 2.6085 11.554 -0.849513 2.64966 11.4222 -0.803268 2.46098 11.1286 
0.638381 2.59364 11.2752 1.05005 2.702 11.5736 0.914913 2.34515 11.0048 
1.05005 2.702 11.5736 1.35714 2.59081 11.5662 1.21112 2.32135 11.1182 
1.87149 2.01193 11.1781 2.23273 1.83906 11.2837 2.05615 1.73693 11.0157 
2.23273 1.83906 11.2837 2.52578 1.66682 11.3815 2.3457 1.41598 10.9699 
2.52578 1.66682 11.3815 2.71922 1.39703 11.3365 2.3457 1.41598 10.9699 
2.71922 1.39703 11.3365 2.88085 1.12001 11.2881 2.45893 1.08154 10.8068 
2.88085 1.12001 11.2881 3.05238 0.766223 11.2454 2.60135 0.791023 10.756 
3.05238 0.766223 11.2454 3.18126 0.410512 11.2028 2.79812 0.522998 10.8316 
3.18126 0.410512 11.2028 3.25708 0.0246794 11.1491 2.85611 0.245054 10.7718 
3.25708 0.0246794 11.1491 3.05912 -0.329757 10.8508 2.77915 -0.198215 10.5467 
3.05912 -0.329757 10.8508 3.03569 -0.689101 10.7937 2.69079 -0.547263 10.4 
3.03569 -0.689101 10.7937 2.97851 -0.976584 10.7398 2.63723 -0.846374 10.3495 
2.53907 -1.46648 10.3792 2.55145 -1.91394 10.5543 2.18668 -1.59282 10.0759 
2.55145 -1.91394 10.5543 2.36753 -2.19945 10.5259 2.1401 -1.89724 10.183 
2.36753 -2.19945 10.5259 2.14987 -2.42864 10.4834 1.96847 -2.095 10.1517 
2.14987 -2.42864 10.4834 1.92827 -2.64215 10.4575 1.65768 -2.22564 10.0035 
1.52339 -2.62158 10.2056 1.39067 -3.01124 10.417 1.23708 -2.64069 10.0653 
1.03431 -2.86463 10.1604 0.844256 -3.19449 10.3593 0.68265 -2.83404 10.0164 
0.844256 -3.19449 10.3593 0.42093 -3.00431 10.1123 0.68265 -2.83404 10.0164 
-0.560116 -2.99785 10.1341 -0.983732 -3.1667 10.3769 -0.888208 -2.7937 10.0437 
-2.79626 -0.547786 10.5295 -2.92233 -0.309697 10.6991 -2.60126 -0.24587 10.3201 
-2.92233 -0.309697 10.6991 -2.98672 0.0182143 10.8488 -2.5656 0.12046 10.3614 
-2.98672 0.0182143 10.8488 -2.82667 0.419217 10.81 -2.5656 0.12046 10.3614 
-2.82667 0.419217 10.81 -2.79837 0.8126 11.0001 -2.46596 0.542558 10.4325 
-2.79837 0.8126 11.0001 -2.53634 1.12503 10.9226 -2.33224 0.871897 10.4846 
-2.23201 1.41838 10.8587 -2.07988 1.71918 11.0204 -1.82226 1.58742 10.6113 
-2.07988 1.71918 11.0204 -1.95348 1.98763 11.2148 -1.60079 1.76004 10.6179 
-0.803268 2.46098 11.1286 -0.476989 2.62459 11.2867 -0.541318 2.26525 10.7178 
-0.476989 2.62459 11.2867 -0.186581 2.67278 11.3136 -0.296806 2.38467 10.8613 
-0.186581 2.67278 11.3136 0.227364 2.66363 11.3007 0.0190684 2.40355 10.8673 
0.227364 2.66363 11.3007 0.638381 2.59364 11.2752 0.542256 2.24716 10.6888 
0.914913 2.34515 11.0048 1.21112 2.32135 11.1182 1.05245 2.10489 10.6958 
1.21112 2.32135 11.1182 1.57796 2.22831 11.2244 1.2982 1.97153 10.6634 
1.57796 2.22831 11.2244 1.87149 2.01193 11.1781 1.54768 1.79747 10.6184 
1.87149 2.01193 11.1781 2.05615 1.73693 11.0157 1.79986 1.59583 10.5993 
2.05615 1.73693 11.0157 2.3457 1.41598 10.9699 1.96204 1.41822 10.5649 
2.60135 0.791023 10.756 2.79812 0.522998 10.8316 2.60822 0.398065 10.5321 
2.79812 0.522998 10.8316 2.85611 0.245054 10.7718 2.60822 0.398065 10.5321 
2.85611 0.245054 10.7718 2.77915 -0.198215 10.5467 2.54704 0.0565844 10.3216 
2.77915 -0.198215 10.5467 2.69079 -0.547263 10.4 2.48504 -0.245496 10.1628 
2.69079 -0.547263 10.4 2.63723 -0.846374 10.3495 2.45297 -0.590501 10.1051 
2.63723 -0.846374 10.3495 2.67384 -1.16175 10.4401 2.40144 -0.875144 10.0729 
2.67384 -1.16175 10.4401 2.53907 -1.46648 10.3792 2.28605 -1.23532 10.0282 
2.53907 -1.46648 10.3792 2.18668 -1.59282 10.0759 2.28605 -1.23532 10.0282 
2.1401 -1.89724 10.183 1.96847 -2.095 10.1517 1.86586 -1.87266 9.92688 
1.65768 -2.22564 10.0035 1.52339 -2.62158 10.2056 1.29704 -2.19309 9.73689 
1.52339 -2.62158 10.2056 1.23708 -2.64069 10.0653 1.09168 -2.30559 9.71332 
1.23708 -2.64069 10.0653 1.03431 -2.86463 10.1604 0.868301 -2.39182 9.68719 
1.03431 -2.86463 10.1604 0.68265 -2.83404 10.0164 0.613211 -2.47372 9.6712 
0.68265 -2.83404 10.0164 0.42093 -3.00431 10.1123 0.375284 -2.53503 9.67703 
0.42093 -3.00431 10.1123 0.0422456 -3.05644 10.1263 0.137264 -2.58052 9.69015 
0.0422456 -3.05644 10.1263 -0.270653 -3.04011 10.1279 -0.140436 -2.56976 9.68122 
-0.270653 -3.04011 10.1279 -0.560116 -2.99785 10.1341 -0.417705 -2.53551 9.68216 
-0.560116 -2.99785 10.1341 -0.888208 -2.7937 10.0437 -0.762579 -2.5538 9.78928 
-0.888208 -2.7937 10.0437 -1.30514 -2.76569 10.1969 -1.13347 -2.40865 9.82186 
-1.30514 -2.76569 10.1969 -1.59048 -2.59581 10.224 -1.40201 -2.26022 9.85505 
-1.59048 -2.59581 10.224 -1.80169 -2.43272 10.2444 -1.64267 -2.07292 9.8802 
-1.80169 -2.43272 10.2444 -1.99036 -2.22036 10.246 -1.64267 -2.07292 9.8802 
-1.99036 -2.22036 10.246 -2.2206 -1.98919 10.3014 -1.92367 -1.78344 9.92173 
-2.2206 -1.98919 10.3014 -2.43419 -1.72271 10.3715 -2.14034 -1.48132 9.97547 
-2.43419 -1.72271 10.3715 -2.54979 -1.4701 10.392 -2.26908 -1.2181 10.0071 
-2.54979 -1.4701 10.392 -2.64042 -1.20466 10.4145 -2.26908 -1.2181 10.0071 
-2.64042 -1.20466 10.4145 -2.7262 -0.892372 10.4579 -2.38912 -0.921674 10.0662 
-2.7262 -0.892372 10.4579 -2.79626 -0.547786 10.5295 -2.37001 -0.428961 9.99786 
-2.23201 1.41838 10.8587 -1.82226 1.58742 10.6113 -1.85617 1.41458 10.4353 
-1.57154 2.00806 10.9311 -1.2923 2.16817 10.949 -1.29822 1.87305 10.5082 
-1.2923 2.16817 10.949 -0.947421 2.31889 10.9764 -1.03174 2.0139 10.5292 
-0.541318 2.26525 10.7178 -0.296806 2.38467 10.8613 -0.256604 2.13442 10.4036 
-0.296806 2.38467 10.8613 0.0190684 2.40355 10.8673 -0.0410984 2.14971 10.4085 
0.542256 2.24716 10.6888 0.914913 2.34515 11.0048 0.760824 2.04547 10.4227 
2.11053 1.21349 10.5172 2.45893 1.08154 10.8068 2.17066 0.979283 10.3666 
2.45893 1.08154 10.8068 2.60135 0.791023 10.756 2.29039 0.730755 10.3205 
2.60135 0.791023 10.756 2.60822 0.398065 10.5321 2.40514 0.400865 10.2683 
2.54704 0.0565844 10.3216 2.77915 -0.198215 10.5467 2.48504 -0.245496 10.1628 
2.48504 -0.245496 10.1628 2.45297 -0.590501 10.1051 2.14894 -0.414055 9.69111 
2.45297 -0.590501 10.1051 2.40144 -0.875144 10.0729 2.11855 -0.616308 9.6646 
2.40144 -0.875144 10.0729 2.28605 -1.23532 10.0282 2.07465 -0.819659 9.64924 
2.28605 -1.23532 10.0282 2.18668 -1.59282 10.0759 1.80495 -1.39277 9.572 
2.18668 -1.59282 10.0759 1.86586 -1.87266 9.92688 1.80495 -1.39277 9.572 
1.86586 -1.87266 9.92688 1.65768 -2.22564 10.0035 1.38751 -1.81334 9.48283 
-0.762579 -2.5538 9.78928 -1.13347 -2.40865 9.82186 -0.844905 -2.14405 9.43992 
-1.13347 -2.40865 9.82186 -1.40201 -2.26022 9.85505 -1.07674 -2.02342 9.44963 
-1.40201 -2.26022 9.85505 -1.64267 -2.07292 9.8802 -1.44301 -1.76254 9.48849 
-1.64267 -2.07292 9.8802 -1.92367 -1.78344 9.92173 -1.65881 -1.53011 9.51156 
-1.92367 -1.78344 9.92173 -2.14034 -1.48132 9.97547 -1.94941 -1.36878 9.71636 
-2.14034 -1.48132 9.97547 -2.26908 -1.2181 10.0071 -1.98631 -1.08871 9.62983 
-2.26908 -1.2181 10.0071 -2.38912 -0.921674 10.0662 -2.07186 -0.829968 9.64471 
-2.37001 -0.428961 9.99786 -2.60126 -0.24587 10.3201 -2.283 -0.130347 9.90285 
-2.60126 -0.24587 10.3201 -2.5656 0.12046 10.3614 -2.283 -0.130347 9.90285 
-2.5656 0.12046 10.3614 -2.46596 0.542558 10.4325 -2.19837 0.437464 9.99579 
-2.46596 0.542558 10.4325 -2.33224 0.871897 10.4846 -2.08826 0.741175 10.0486 
-2.33224 0.871897 10.4846 -2.12395 1.17367 10.4905 -1.96947 0.970788 10.089 
-2.12395 1.17367 10.4905 -1.85617 1.41458 10.4353 -1.81483 1.18983 10.1151 
-1.85617 1.41458 10.4353 -1.82226 1.58742 10.6113 -1.60398 1.4413 10.1732 
-1.82226 1.58742 10.6113 -1.60079 1.76004 10.6179 -1.25844 1.61934 10.056 
-1.60079 1.76004 10.6179 -1.29822 1.87305 10.5082 -1.25844 1.61934 10.056 
-1.29822 1.87305 10.5082 -1.03174 2.0139 10.5292 -0.901498 1.7827 10.0263 
-0.7372 2.04995 10.4179 -0.541318 2.26525 10.7178 -0.50892 2.02363 10.2562 
-0.0410984 2.14971 10.4085 0.243869 2.30277 10.7161 0.225644 1.9739 10.0684 
0.243869 2.30277 10.7161 0.542256 2.24716 10.6888 0.225644 1.9739 10.0684 
0.542256 2.24716 10.6888 0.760824 2.04547 10.4227 0.536601 1.91736 10.0588 
1.05245 2.10489 10.6958 1.2982 1.97153 10.6634 1.01047 1.8453 10.2235 
1.2982 1.97153 10.6634 1.54768 1.79747 10.6184 1.23908 1.71902 10.2075 
1.54768 1.79747 10.6184 1.79986 1.59583 10.5993 1.4537 1.55981 10.1738 
1.79986 1.59583 10.5993 1.96204 1.41822 10.5649 1.70325 1.33954 10.157 
1.96204 1.41822 10.5649 2.11053 1.21349 10.5172 1.80458 1.08876 9.98768 
2.11053 1.21349 10.5172 2.17066 0.979283 10.3666 1.91463 0.897554 9.94132 
2.17066 0.979283 10.3666 2.29039 0.730755 10.3205 2.05255 0.608618 9.89133 
2.29039 0.730755 10.3205 2.40514 0.400865 10.2683 2.05255 0.608618 9.89133 
2.40514 0.400865 10.2683 2.54704 0.0565844 10.3216 2.1572 0.180717 9.8094 
2.54704 0.0565844 10.3216 2.48504 -0.245496 10.1628 2.15778 -0.162745 9.71883 
1.38751 -1.81334 9.48283 1.29704 -2.19309 9.73689 1.13013 -1.71291 9.19269 
1.29704 -2.19309 9.73689 1.09168 -2.30559 9.71332 0.898587 -1.91742 9.23873 
1.09168 -2.30559 9.71332 0.868301 -2.39182 9.68719 0.898587 -1.91742 9.23873 
0.868301 -2.39182 9.68719 0.613211 -2.47372 9.6712 0.664635 -2.09991 9.31296 
0.613211 -2.47372 9.6712 0.375284 -2.53503 9.67703 0.414171 -2.16186 9.2965 
0.375284 -2.53503 9.67703 0.137264 -2.58052 9.69015 0.123141 -2.20172 9.2942 
0.137264 -2.58052 9.69015 -0.140436 -2.56976 9.68122 -0.126189 -2.20328 9.29725 
-0.140436 -2.56976 9.68122 -0.417705 -2.53551 9.68216 -0.373201 -2.16751 9.29348 
-1.65881 -1.53011 9.51156 -1.94941 -1.36878 9.71636 -1.70853 -1.1766 9.33796 
-2.07186 -0.829968 9.64471 -2.33277 -0.656005 9.95707 -2.08467 -0.445232 9.58919 
-2.33277 -0.656005 9.95707 -2.37001 -0.428961 9.99786 -2.08467 -0.445232 9.58919 
-2.37001 -0.428961 9.99786 -2.283 -0.130347 9.90285 -1.98292 -0.0276169 9.47064 
-2.283 -0.130347 9.90285 -2.26575 0.147352 9.95866 -1.97877 0.182904 9.53222 
-2.26575 0.147352 9.95866 -2.19837 0.437464 9.99579 -1.93555 0.408807 9.57467 
-2.19837 0.437464 9.99579 -2.08826 0.741175 10.0486 -1.86731 0.630834 9.62561 
-2.08826 0.741175 10.0486 -1.96947 0.970788 10.089 -1.74377 0.83764 9.62022 
-1.96947 0.970788 10.089 -1.81483 1.18983 10.1151 -1.56009 1.11626 9.66657 
-1.81483 1.18983 10.1151 -1.60398 1.4413 10.1732 -1.56009 1.11626 9.66657 
-0.901498 1.7827 10.0263 -0.7372 2.04995 10.4179 -0.593607 1.84669 9.93487 
-0.7372 2.04995 10.4179 -0.50892 2.02363 10.2562 -0.593607 1.84669 9.93487 
-0.50892 2.02363 10.2562 -0.256604 2.13442 10.4036 -0.284737 1.90933 9.94051 
-0.256604 2.13442 10.4036 -0.0410984 2.14971 10.4085 -0.0389473 1.93263 9.95587 
0.536601 1.91736 10.0588 0.760824 2.04547 10.4227 0.774525 1.71334 9.78414 
0.760824 2.04547 10.4227 1.01047 1.8453 10.2235 0.774525 1.71334 9.78414 
1.01047 1.8453 10.2235 1.23908 1.71902 10.2075 1.03071 1.59154 9.7759 
1.23908 1.71902 10.2075 1.4537 1.55981 10.1738 1.29885 1.37626 9.69563 
1.4537 1.55981 10.1738 1.70325 1.33954 10.157 1.29885 1.37626 9.69563 
2.15778 -0.162745 9.71883 2.14894 -0.414055 9.69111 1.83476 -0.106891 9.20213 
2.14894 -0.414055 9.69111 2.11855 -0.616308 9.6646 1.80218 -0.424553 9.16011 
2.11855 -0.616308 9.6646 2.07465 -0.819659 9.64924 1.73349 -0.62871 9.10739 
2.07465 -0.819659 9.64924 2.00231 -1.07225 9.64123 1.70586 -0.922394 9.18734 
2.00231 -1.07225 9.64123 1.80495 -1.39277 9.572 1.70586 -0.922394 9.18734 
1.80495 -1.39277 9.572 1.59668 -1.64164 9.53278 1.33949 -1.42884 9.11158 
1.59668 -1.64164 9.53278 1.38751 -1.81334 9.48283 1.33949 -1.42884 9.11158 
0.898587 -1.91742 9.23873 0.664635 -2.09991 9.31296 0.612192 -1.7713 8.93137 
0.664635 -2.09991 9.31296 0.414171 -2.16186 9.2965 0.322822 -1.81116 8.87478 
0.414171 -2.16186 9.2965 0.123141 -2.20172 9.2942 0.322822 -1.81116 8.87478 
0.123141 -2.20172 9.2942 -0.126189 -2.20328 9.29725 0.0331969 -1.84007 8.87199 
-0.126189 -2.20328 9.29725 -0.373201 -2.16751 9.29348 -0.200012 -1.84483 8.89518 
-0.373201 -2.16751 9.29348 -0.646272 -2.2021 9.41482 -0.483545 -1.8146 8.92655 
-0.646272 -2.2021 9.41482 -0.844905 -2.14405 9.43992 -0.763252 -1.71808 8.94967 
-0.844905 -2.14405 9.43992 -1.07674 -2.02342 9.44963 -0.763252 -1.71808 8.94967 
-1.07674 -2.02342 9.44963 -1.2769 -1.92636 9.4964 -1.09852 -1.51717 8.98007 
-1.2769 -1.92636 9.4964 -1.44301 -1.76254 9.48849 -1.09852 -1.51717 8.98007 
-1.44301 -1.76254 9.48849 -1.65881 -1.53011 9.51156 -1.26191 -1.36011 8.98158 
-1.70853 -1.1766 9.33796 -1.98631 -1.08871 9.62983 -1.7575 -0.827847 9.21312 
-1.98631 -1.08871 9.62983 -2.07186 -0.829968 9.64471 -1.7575 -0.827847 9.21312 
-2.07186 -0.829968 9.64471 -2.08467 -0.445232 9.58919 -1.85497 -0.549389 9.26664 
-2.08467 -0.445232 9.58919 -1.98292 -0.0276169 9.47064 -1.89515 -0.268701 9.29414 
-1.34212 1.3356 9.69262 -1.25844 1.61934 10.056 -1.10504 1.44992 9.58188 
-1.25844 1.61934 10.056 -0.901498 1.7827 10.0263 -0.85965 1.59385 9.60414 
-0.901498 1.7827 10.0263 -0.593607 1.84669 9.93487 -0.558909 1.65117 9.47774 
-0.593607 1.84669 9.93487 -0.284737 1.90933 9.94051 -0.244881 1.71214 9.4701 
-0.284737 1.90933 9.94051 -0.0389473 1.93263 9.95587 -0.031127 1.72947 9.47844 
-0.0389473 1.93263 9.95587 0.225644 1.9739 10.0684 0.201234 1.71909 9.47376 
0.225644 1.9739 10.0684 0.536601 1.91736 10.0588 0.4535 1.67534 9.47323 
1.80458 1.08876 9.98768 1.91463 0.897554 9.94132 1.68613 0.792928 9.47237 
1.91463 0.897554 9.94132 2.05255 0.608618 9.89133 1.68613 0.792928 9.47237 
2.05255 0.608618 9.89133 2.1572 0.180717 9.8094 1.878 0.242535 9.3807 
2.1572 0.180717 9.8094 2.15778 -0.162745 9.71883 1.83476 -0.106891 9.20213 
1.73349 -0.62871 9.10739 1.70586 -0.922394 9.18734 1.49937 -0.726299 8.79437 
1.70586 -0.922394 9.18734 1.54919 -1.19704 9.16071 1.36972 -0.931941 8.74906 
1.54919 -1.19704 9.16071 1.33949 -1.42884 9.11158 1.1977 -1.15161 8.71884 
1.33949 -1.42884 9.11158 1.13013 -1.71291 9.19269 0.970535 -1.33584 8.67642 
1.13013 -1.71291 9.19269 0.898587 -1.91742 9.23873 0.970535 -1.33584 8.67642 
-1.70853 -1.1766 9.33796 -1.7575 -0.827847 9.21312 -1.51357 -0.887233 8.90879 
-1.7575 -0.827847 9.21312 -1.85497 -0.549389 9.26664 -1.56808 -0.547299 8.81453 
-1.85497 -0.549389 9.26664 -1.89515 -0.268701 9.29414 -1.63963 -0.266246 8.86475 
-1.89515 -0.268701 9.29414 -1.98292 -0.0276169 9.47064 -1.73665 -0.0890331 9.0352 
-1.98292 -0.0276169 9.47064 -1.97877 0.182904 9.53222 -1.72536 0.152665 9.07442 
-1.97877 0.182904 9.53222 -1.93555 0.408807 9.57467 -1.62775 0.397728 9.02032 
-1.93555 0.408807 9.57467 -1.86731 0.630834 9.62561 -1.51814 0.641291 9.01808 
-1.86731 0.630834 9.62561 -1.74377 0.83764 9.62022 -1.51814 0.641291 9.01808 
-1.74377 0.83764 9.62022 -1.56009 1.11626 9.66657 -1.3997 0.851261 9.04583 
-1.56009 1.11626 9.66657 -1.34212 1.3356 9.69262 -1.27882 1.11589 9.22163 
-1.34212 1.3356 9.69262 -1.10504 1.44992 9.58188 -0.979843 1.28827 9.09613 
-1.10504 1.44992 9.58188 -0.85965 1.59385 9.60414 -0.732712 1.42686 9.09492 
0.4535 1.67534 9.47323 0.774525 1.71334 9.78414 0.628273 1.48379 9.12365 
0.774525 1.71334 9.78414 1.03071 1.59154 9.7759 0.883011 1.36254 9.12614 
1.03071 1.59154 9.7759 1.29885 1.37626 9.69563 1.08936 1.28769 9.24846 
1.29885 1.37626 9.69563 1.55789 1.07848 9.60963 1.32472 1.07054 9.22254 
1.55789 1.07848 9.60963 1.68613 0.792928 9.47237 1.51792 0.797678 9.18368 
1.68613 0.792928 9.47237 1.79711 0.552043 9.44016 1.5818 0.508794 9.01061 
1.79711 0.552043 9.44016 1.878 0.242535 9.3807 1.5818 0.508794 9.01061 
1.83476 -0.106891 9.20213 1.80218 -0.424553 9.16011 1.48339 -0.294821 8.58888 
1.80218 -0.424553 9.16011 1.73349 -0.62871 9.10739 1.39409 -0.478857 8.49739 
0.764091 -1.47669 8.67412 0.612192 -1.7713 8.93137 0.535952 -1.36997 8.3981 
0.612192 -1.7713 8.93137 0.322822 -1.81116 8.87478 0.313957 -1.43317 8.38706 
0.322822 -1.81116 8.87478 0.0331969 -1.84007 8.87199 0.109423 -1.46209 8.38169 
0.0331969 -1.84007 8.87199 -0.200012 -1.84483 8.89518 -0.0792005 -1.45521 8.36988 
-0.200012 -1.84483 8.89518 -0.483545 -1.8146 8.92655 -0.368475 -1.53067 8.5287 
-0.483545 -1.8146 8.92655 -0.763252 -1.71808 8.94967 -0.63745 -1.42064 8.52068 
-0.763252 -1.71808 8.94967 -0.956129 -1.61948 8.96883 -0.842351 -1.31351 8.53893 
-0.956129 -1.61948 8.96883 -1.09852 -1.51717 8.98007 -0.842351 -1.31351 8.53893 
-1.09852 -1.51717 8.98007 -1.26191 -1.36011 8.98158 -0.997177 -1.09714 8.4412 
-1.26191 -1.36011 8.98158 -1.41698 -1.1556 8.97806 -1.17314 -0.865694 8.42853 
-1.41698 -1.1556 8.97806 -1.51357 -0.887233 8.90879 -1.30509 -0.659768 8.4543 
-1.51357 -0.887233 8.90879 -1.56808 -0.547299 8.81453 -1.30509 -0.659768 8.4543 
-1.73665 -0.0890331 9.0352 -1.72536 0.152665 9.07442 -1.47648 0.195417 8.60435 
-1.3997 0.851261 9.04583 -1.27882 1.11589 9.22163 -1.16703 1.04852 8.91104 
-0.732712 1.42686 9.09492 -0.558909 1.65117 9.47774 -0.461292 1.43408 8.83084 
-0.558909 1.65117 9.47774 -0.244881 1.71214 9.4701 -0.202379 1.54042 8.97205 
-0.244881 1.71214 9.4701 -0.031127 1.72947 9.47844 -0.202379 1.54042 8.97205 
-0.031127 1.72947 9.47844 0.201234 1.71909 9.47376 0.139297 1.55395 8.99947 
0.201234 1.71909 9.47376 0.4535 1.67534 9.47323 0.383155 1.5098 8.98671 
1.08936 1.28769 9.24846 1.32472 1.07054 9.22254 1.05816 1.15246 8.92846 
1.32472 1.07054 9.22254 1.51792 0.797678 9.18368 1.26486 0.818824 8.73189 
1.51792 0.797678 9.18368 1.5818 0.508794 9.01061 1.36383 0.609369 8.66564 
1.63739 0.218239 8.9383 1.83476 -0.106891 9.20213 1.57196 -0.0262299 8.73353 
1.57196 -0.0262299 8.73353 1.48339 -0.294821 8.58888 1.35546 -0.00243071 8.2913 
1.49937 -0.726299 8.79437 1.36972 -0.931941 8.74906 1.17429 -0.616948 8.21638 
1.36972 -0.931941 8.74906 1.1977 -1.15161 8.71884 1.03019 -0.796511 8.16816 
1.1977 -1.15161 8.71884 0.970535 -1.33584 8.67642 0.918172 -1.02071 8.26643 
0.970535 -1.33584 8.67642 0.764091 -1.47669 8.67412 0.712596 -1.1687 8.25521 
-0.0792005 -1.45521 8.36988 -0.368475 -1.53067 8.5287 -0.28494 -1.20724 8.05221 
-0.368475 -1.53067 8.5287 -0.63745 -1.42064 8.52068 -0.496466 -1.17334 8.10714 
-0.63745 -1.42064 8.52068 -0.842351 -1.31351 8.53893 -0.678406 -1.08471 8.11714 
-1.30509 -0.659768 8.4543 -1.56808 -0.547299 8.81453 -1.34102 -0.422866 8.37334 
-1.56808 -0.547299 8.81453 -1.63963 -0.266246 8.86475 -1.39021 -0.217975 8.3878 
-1.47648 0.195417 8.60435 -1.62775 0.397728 9.02032 -1.365 0.445466 8.50227 
-1.62775 0.397728 9.02032 -1.51814 0.641291 9.01808 -1.365 0.445466 8.50227 
-1.51814 0.641291 9.01808 -1.3997 0.851261 9.04583 -1.20848 0.665523 8.38746 
-1.3997 0.851261 9.04583 -1.16703 1.04852 8.91104 -1.1192 0.83264 8.43778 
-1.16703 1.04852 8.91104 -0.979843 1.28827 9.09613 -0.951462 1.03554 8.47592 
-0.979843 1.28827 9.09613 -0.732712 1.42686 9.09492 -0.735641 1.20013 8.49537 
-0.732712 1.42686 9.09492 -0.461292 1.43408 8.83084 -0.582966 1.3327 8.65428 
-0.202379 1.54042 8.97205 0.139297 1.55395 8.99947 0.0183677 1.41811 8.54879 
0.139297 1.55395 8.99947 0.383155 1.5098 8.98671 0.275413 1.38522 8.52099 
0.383155 1.5098 8.98671 0.628273 1.48379 9.12365 0.506719 1.36436 8.65857 
0.628273 1.48379 9.12365 0.883011 1.36254 9.12614 0.708125 1.22124 8.50349 
0.883011 1.36254 9.12614 1.05816 1.15246 8.92846 0.909408 1.05522 8.44393 
1.36383 0.609369 8.66564 1.5818 0.508794 9.01061 1.37923 0.391676 8.49707 
1.5818 0.508794 9.01061 1.63739 0.218239 8.9383 1.37923 0.391676 8.49707 
1.63739 0.218239 8.9383 1.57196 -0.0262299 8.73353 1.41396 0.197552 8.46697 
1.35546 -0.00243071 8.2913 1.48339 -0.294821 8.58888 1.18383 -0.168983 7.95217 
1.48339 -0.294821 8.58888 1.39409 -0.478857 8.49739 1.08709 -0.380144 7.87091 
1.39409 -0.478857 8.49739 1.17429 -0.616948 8.21638 1.08709 -0.380144 7.87091 
0.918172 -1.02071 8.26643 0.712596 -1.1687 8.25521 0.770263 -0.899049 7.95572 
0.712596 -1.1687 8.25521 0.535952 -1.36997 8.3981 0.457348 -1.09083 7.95059 
0.535952 -1.36997 8.3981 0.313957 -1.43317 8.38706 0.457348 -1.09083 7.95059 
0.313957 -1.43317 8.38706 0.109423 -1.46209 8.38169 0.128556 -1.16617 7.94199 
0.109423 -1.46209 8.38169 -0.0792005 -1.45521 8.36988 -0.0967045 -1.1575 7.92781 
-0.0792005 -1.45521 8.36988 -0.28494 -1.20724 8.05221 -0.0967045 -1.1575 7.92781 
-0.678406 -1.08471 8.11714 -0.997177 -1.09714 8.4412 -0.758889 -0.8261 7.85496 
-0.997177 -1.09714 8.4412 -1.17314 -0.865694 8.42853 -0.899895 -0.72165 7.90304 
-1.17314 -0.865694 8.42853 -1.30509 -0.659768 8.4543 -1.01502 -0.582091 7.92689 
-1.30509 -0.659768 8.4543 -1.34102 -0.422866 8.37334 -1.11457 -0.378499 7.92568 
-1.34102 -0.422866 8.37334 -1.39021 -0.217975 8.3878 -1.17211 -0.175706 7.93072 
-1.39021 -0.217975 8.3878 -1.49081 -0.000672922 8.58262 -1.28106 0.042723 8.12394 
-1.49081 -0.000672922 8.58262 -1.47648 0.195417 8.60435 -1.28106 0.042723 8.12394 
-1.47648 0.195417 8.60435 -1.365 0.445466 8.50227 -1.26567 0.315704 8.1804 
-0.735641 1.20013 8.49537 -0.582966 1.3327 8.65428 -0.488975 1.21311 8.14014 
-0.582966 1.3327 8.65428 -0.461292 1.43408 8.83084 -0.346337 1.27695 8.19193 
1.26486 0.818824 8.73189 1.36383 0.609369 8.66564 1.08298 0.672553 8.08424 
1.36383 0.609369 8.66564 1.37923 0.391676 8.49707 1.14654 0.515905 8.05113 
1.37923 0.391676 8.49707 1.41396 0.197552 8.46697 1.21432 0.293831 8.04352 
1.17429 -0.616948 8.21638 1.03019 -0.796511 8.16816 0.855409 -0.524786 7.60187 
1.03019 -0.796511 8.16816 0.770263 -0.899049 7.95572 0.713387 -0.635164 7.53654 
0.770263 -0.899049 7.95572 0.457348 -1.09083 7.95059 0.592266 -0.817125 7.65352 
0.457348 -1.09083 7.95059 0.128556 -1.16617 7.94199 0.237537 -0.891726 7.52847 
0.128556 -1.16617 7.94199 -0.0967045 -1.1575 7.92781 -0.102179 -0.900804 7.50482 
-0.0967045 -1.1575 7.92781 -0.28494 -1.20724 8.05221 -0.102179 -0.900804 7.50482 
-0.28494 -1.20724 8.05221 -0.496466 -1.17334 8.10714 -0.31252 -0.947851 7.65425 
-0.496466 -1.17334 8.10714 -0.678406 -1.08471 8.11714 -0.496527 -0.792983 7.52914 
-1.17211 -0.175706 7.93072 -1.28106 0.042723 8.12394 -1.08083 0.0881933 7.64191 
-1.28106 0.042723 8.12394 -1.26567 0.315704 8.1804 -1.0702 0.324453 7.6725 
-1.15488 0.492239 8.04561 -1.20848 0.665523 8.38746 -0.980624 0.643921 7.75456 
-1.20848 0.665523 8.38746 -1.1192 0.83264 8.43778 -0.906571 0.774815 7.7851 
-1.1192 0.83264 8.43778 -0.951462 1.03554 8.47592 -0.758 0.944417 7.78791 
-0.951462 1.03554 8.47592 -0.735641 1.20013 8.49537 -0.616572 1.10596 7.97791 
-0.196624 1.39844 8.52754 0.0183677 1.41811 8.54879 0.0836088 1.25344 7.88478 
0.0183677 1.41811 8.54879 0.275413 1.38522 8.52099 0.0836088 1.25344 7.88478 
0.447733 1.23614 8.16487 0.708125 1.22124 8.50349 0.593947 1.11707 7.96855 
0.708125 1.22124 8.50349 0.909408 1.05522 8.44393 0.773687 0.986991 7.95947 
0.909408 1.05522 8.44393 1.10395 0.931329 8.57977 0.901642 0.850477 7.93016 
1.15103 0.0599608 7.82008 1.18383 -0.168983 7.95217 1.02016 -0.00786945 7.50118 
1.18383 -0.168983 7.95217 1.08709 -0.380144 7.87091 0.911604 -0.236964 7.38735 
1.08709 -0.380144 7.87091 0.855409 -0.524786 7.60187 0.911604 -0.236964 7.38735 
0.713387 -0.635164 7.53654 0.592266 -0.817125 7.65352 0.499064 -0.574408 7.1684 
-0.102179 -0.900804 7.50482 -0.31252 -0.947851 7.65425 -0.207582 -0.732707 7.22212 
-0.496527 -0.792983 7.52914 -0.758889 -0.8261 7.85496 -0.613962 -0.554668 7.28007 
-0.758889 -0.8261 7.85496 -0.899895 -0.72165 7.90304 -0.792167 -0.446387 7.39207 
-0.899895 -0.72165 7.90304 -1.01502 -0.582091 7.92689 -0.792167 -0.446387 7.39207 
-1.01502 -0.582091 7.92689 -1.11457 -0.378499 7.92568 -0.93605 -0.233373 7.44457 
-1.11457 -0.378499 7.92568 -1.17211 -0.175706 7.93072 -0.958244 -0.0371007 7.36506 
-1.0702 0.324453 7.6725 -1.15488 0.492239 8.04561 -0.924445 0.442972 7.30467 
-0.758 0.944417 7.78791 -0.616572 1.10596 7.97791 -0.496297 1.04966 7.47926 
-0.616572 1.10596 7.97791 -0.488975 1.21311 8.14014 -0.496297 1.04966 7.47926 
-0.488975 1.21311 8.14014 -0.346337 1.27695 8.19193 -0.30336 1.14554 7.5518 
0.447733 1.23614 8.16487 0.593947 1.11707 7.96855 0.491717 1.06619 7.5499 
0.593947 1.11707 7.96855 0.773687 0.986991 7.95947 0.621043 0.967921 7.48662 
0.773687 0.986991 7.95947 0.901642 0.850477 7.93016 0.750428 0.841221 7.47041 
0.901642 0.850477 7.93016 1.08298 0.672553 8.08424 0.863738 0.671348 7.43515 
1.08298 0.672553 8.08424 1.14654 0.515905 8.05113 0.863738 0.671348 7.43515 
1.14654 0.515905 8.05113 1.21432 0.293831 8.04352 0.940192 0.443074 7.36285 
1.21432 0.293831 8.04352 1.15103 0.0599608 7.82008 1.00239 0.203982 7.43125 
1.02016 -0.00786945 7.50118 0.911604 -0.236964 7.38735 0.805032 -0.0846432 7.00961 
0.911604 -0.236964 7.38735 0.855409 -0.524786 7.60187 0.700307 -0.235861 6.95127 
0.855409 -0.524786 7.60187 0.713387 -0.635164 7.53654 0.568017 -0.399857 6.96513 
0.499064 -0.574408 7.1684 0.387035 -0.834354 7.51607 0.291959 -0.550229 6.92829 
0.387035 -0.834354 7.51607 0.237537 -0.891726 7.52847 0.142716 -0.57013 6.88857 
0.237537 -0.891726 7.52847 0.0758263 -0.916068 7.52796 -0.005185 -0.59629 6.91386 
0.0758263 -0.916068 7.52796 -0.102179 -0.900804 7.50482 -0.005185 -0.59629 6.91386 
-0.207582 -0.732707 7.22212 -0.496527 -0.792983 7.52914 -0.238795 -0.540883 6.87477 
-0.613962 -0.554668 7.28007 -0.792167 -0.446387 7.39207 -0.571574 -0.348884 6.87617 
-0.792167 -0.446387 7.39207 -0.93605 -0.233373 7.44457 -0.731708 -0.205031 6.97205 
-1.08083 0.0881933 7.64191 -1.0702 0.324453 7.6725 -0.92358 0.220048 7.19017 
-0.924445 0.442972 7.30467 -0.980624 0.643921 7.75456 -0.811581 0.69383 7.27546 
-0.980624 0.643921 7.75456 -0.906571 0.774815 7.7851 -0.811581 0.69383 7.27546 
-0.906571 0.774815 7.7851 -0.758 0.944417 7.78791 -0.63794 0.904683 7.28603 
-0.30336 1.14554 7.5518 -0.150415 1.23994 7.85973 -0.122363 1.14851 7.32165 
-0.150415 1.23994 7.85973 0.0836088 1.25344 7.88478 -0.122363 1.14851 7.32165 
0.0836088 1.25344 7.88478 0.347121 1.17562 7.76607 0.272608 1.12125 7.34122 
0.499064 -0.574408 7.1684 0.291959 -0.550229 6.92829 0.364909 -0.374686 6.64239 
-0.958244 -0.0371007 7.36506 -0.92358 0.220048 7.19017 -0.811325 0.154221 6.84526 
-0.92358 0.220048 7.19017 -0.924445 0.442972 7.30467 -0.818493 0.391933 6.86878 
-0.924445 0.442972 7.30467 -0.811581 0.69383 7.27546 -0.728078 0.669479 6.8879 
-0.811581 0.69383 7.27546 -0.63794 0.904683 7.28603 -0.590969 0.866978 6.95346 
-0.63794 0.904683 7.28603 -0.496297 1.04966 7.47926 -0.42877 0.992069 6.97226 
-0.496297 1.04966 7.47926 -0.30336 1.14554 7.5518 -0.257075 1.07254 6.98281 
-0.30336 1.14554 7.5518 -0.122363 1.14851 7.32165 -0.257075 1.07254 6.98281 
-0.122363 1.14851 7.32165 0.0555328 1.15517 7.33366 -0.083308 1.08311 6.78062 
0.0555328 1.15517 7.33366 0.272608 1.12125 7.34122 0.0771368 1.08653 6.81 
0.272608 1.12125 7.34122 0.491717 1.06619 7.5499 0.420073 0.997979 6.9791 
0.491717 1.06619 7.5499 0.621043 0.967921 7.48662 0.555316 0.900522 6.96098 
0.621043 0.967921 7.48662 0.750428 0.841221 7.47041 0.555316 0.900522 6.96098 
0.750428 0.841221 7.47041 0.863738 0.671348 7.43515 0.686795 0.74489 6.91783 
0.863738 0.671348 7.43515 0.940192 0.443074 7.36285 0.747127 0.567618 6.77965 
0.940192 0.443074 7.36285 1.00239 0.203982 7.43125 0.826592 0.346257 6.87939 
0.826592 0.346257 6.87939 0.835844 0.0874596 6.9578 0.708732 0.385552 6.41791 
0.835844 0.0874596 6.9578 0.805032 -0.0846432 7.00961 0.705883 0.165049 6.48709 
0.805032 -0.0846432 7.00961 0.700307 -0.235861 6.95127 0.632253 -0.0379559 6.49636 
0.700307 -0.235861 6.95127 0.568017 -0.399857 6.96513 0.4617 -0.146828 6.30395 
0.364909 -0.374686 6.64239 0.291959 -0.550229 6.92829 0.125173 -0.357685 6.39319 
0.291959 -0.550229 6.92829 0.142716 -0.57013 6.88857 0.125173 -0.357685 6.39319 
0.142716 -0.57013 6.88857 -0.005185 -0.59629 6.91386 0.125173 -0.357685 6.39319 
-0.005185 -0.59629 6.91386 -0.238795 -0.540883 6.87477 -0.132792 -0.364769 6.42154 
-0.238795 -0.540883 6.87477 -0.390259 -0.492185 6.90005 -0.336734 -0.261205 6.35051 
-0.390259 -0.492185 6.90005 -0.571574 -0.348884 6.87617 -0.336734 -0.261205 6.35051 
-0.571574 -0.348884 6.87617 -0.731708 -0.205031 6.97205 -0.520861 -0.0752193 6.29203 
-0.731708 -0.205031 6.97205 -0.798141 -0.044608 6.95323 -0.637889 0.100446 6.32935 
-0.798141 -0.044608 6.95323 -0.811325 0.154221 6.84526 -0.637889 0.100446 6.32935 
-0.811325 0.154221 6.84526 -0.818493 0.391933 6.86878 -0.690286 0.277826 6.36413 
-0.818493 0.391933 6.86878 -0.728078 0.669479 6.8879 -0.620094 0.693032 6.39885 
-0.728078 0.669479 6.8879 -0.590969 0.866978 6.95346 -0.620094 0.693032 6.39885 
-0.590969 0.866978 6.95346 -0.42877 0.992069 6.97226 -0.467865 0.899182 6.52782 
-0.42877 0.992069 6.97226 -0.257075 1.07254 6.98281 -0.282085 1.02426 6.64185 
0.420073 0.997979 6.9791 0.555316 0.900522 6.96098 0.394459 0.945859 6.4921 
0.555316 0.900522 6.96098 0.686795 0.74489 6.91783 0.578532 0.753947 6.41653 
0.705883 0.165049 6.48709 0.632253 -0.0379559 6.49636 0.583651 0.231552 5.97346 
0.364909 -0.374686 6.64239 0.125173 -0.357685 6.39319 0.277912 -0.135757 5.98263 
0.125173 -0.357685 6.39319 -0.132792 -0.364769 6.42154 -0.0224644 -0.193996 5.959 
-0.132792 -0.364769 6.42154 -0.336734 -0.261205 6.35051 -0.172699 -0.16614 5.95015 
-0.467865 0.899182 6.52782 -0.282085 1.02426 6.64185 -0.364201 0.931275 6.10434 
-0.282085 1.02426 6.64185 -0.083308 1.08311 6.78062 -0.114835 1.03835 6.15699 
-0.083308 1.08311 6.78062 0.0771368 1.08653 6.81 0.0230119 1.05568 6.32117 
0.0771368 1.08653 6.81 0.265326 1.0499 6.82489 0.192405 1.02782 6.27964 
0.578532 0.753947 6.41653 0.747127 0.567618 6.77965 0.599627 0.615683 6.08288 
0.708732 0.385552 6.41791 0.705883 0.165049 6.48709 0.600646 0.427021 5.88623 
-0.336734 -0.261205 6.35051 -0.520861 -0.0752193 6.29203 -0.351057 -0.0264781 5.80185 
-0.520861 -0.0752193 6.29203 -0.637889 0.100446 6.32935 -0.490402 0.115061 5.83029 
-0.637889 0.100446 6.32935 -0.690286 0.277826 6.36413 -0.582466 0.308937 5.86006 
-0.690286 0.277826 6.36413 -0.693165 0.46078 6.39302 -0.595126 0.50159 5.88305 
-0.693165 0.46078 6.39302 -0.620094 0.693032 6.39885 -0.558115 0.668232 5.90567 
-0.620094 0.693032 6.39885 -0.467865 0.899182 6.52782 -0.469538 0.818695 5.92446 
-0.114835 1.03835 6.15699 0.0230119 1.05568 6.32117 0.0190862 1.04247 5.77056 
0.0230119 1.05568 6.32117 0.192405 1.02782 6.27964 0.175023 1.01784 5.75349 
0.192405 1.02782 6.27964 0.394459 0.945859 6.4921 0.175023 1.01784 5.75349 
0.394459 0.945859 6.4921 0.493094 0.858695 6.43781 0.341043 0.928499 5.80458 
0.493094 0.858695 6.43781 0.578532 0.753947 6.41653 0.433964 0.840605 5.76483 
0.578532 0.753947 6.41653 0.599627 0.615683 6.08288 0.509545 0.723316 5.7108 
0.600646 0.427021 5.88623 0.583651 0.231552 5.97346 0.534463 0.395235 5.53736 
0.583651 0.231552 5.97346 0.502934 0.0762805 5.95015 0.475046 0.281968 5.41985 
0.502934 0.0762805 5.95015 0.30154 0.0188938 5.59431 0.399908 0.138706 5.48848 
0.277912 -0.135757 5.98263 0.125063 -0.192128 5.98844 0.137208 -0.013017 5.45929 
0.125063 -0.192128 5.98844 -0.0224644 -0.193996 5.959 -0.012359 -0.0283869 5.45326 
-0.0224644 -0.193996 5.959 -0.172699 -0.16614 5.95015 -0.173773 -0.00206721 5.45498 
-0.172699 -0.16614 5.95015 -0.351057 -0.0264781 5.80185 -0.173773 -0.00206721 5.45498 
-0.351057 -0.0264781 5.80185 -0.490402 0.115061 5.83029 -0.350515 0.096001 5.46786 
-0.490402 0.115061 5.83029 -0.582466 0.308937 5.86006 -0.455745 0.269731 5.367 
-0.582466 0.308937 5.86006 -0.595126 0.50159 5.88305 -0.540249 0.554081 5.49083 
-0.595126 0.50159 5.88305 -0.558115 0.668232 5.90567 -0.540249 0.554081 5.49083 
-0.558115 0.668232 5.90567 -0.469538 0.818695 5.92446 -0.472552 0.76228 5.45245 
-0.469538 0.818695 5.92446 -0.364201 0.931275 6.10434 -0.383017 0.884014 5.44312 
-0.364201 0.931275 6.10434 -0.244959 0.997589 6.12334 -0.272712 0.972627 5.50999 
-0.244959 0.997589 6.12334 -0.114835 1.03835 6.15699 -0.139864 1.02973 5.64205 
0.599627 0.615683 6.08288 0.600646 0.427021 5.88623 0.544091 0.560537 5.54721 
0.544091 0.560537 5.54721 0.534463 0.395235 5.53736 0.47708 0.49145 5.02964 
0.399908 0.138706 5.48848 0.30154 0.0188938 5.59431 0.24378 0.170725 4.97186 
0.30154 0.0188938 5.59431 0.137208 -0.013017 5.45929 0.102498 0.121653 4.94688 
0.137208 -0.013017 5.45929 -0.012359 -0.0283869 5.45326 0.102498 0.121653 4.94688 
-0.012359 -0.0283869 5.45326 -0.173773 -0.00206721 5.45498 -0.0860385 0.101669 5.00539 
-0.173773 -0.00206721 5.45498 -0.350515 0.096001 5.46786 -0.243622 0.158257 5.02742 
-0.350515 0.096001 5.46786 -0.455745 0.269731 5.367 -0.38033 0.308461 4.90366 
-0.503965 0.37942 5.39476 -0.540249 0.554081 5.49083 -0.485013 0.558656 5.02376 
-0.139864 1.02973 5.64205 0.0190862 1.04247 5.77056 0.0250206 1.06832 5.17428 
0.0190862 1.04247 5.77056 0.175023 1.01784 5.75349 0.0250206 1.06832 5.17428 
0.175023 1.01784 5.75349 0.341043 0.928499 5.80458 0.217973 1.01544 5.14897 
0.341043 0.928499 5.80458 0.433964 0.840605 5.76483 0.31933 0.950715 5.11668 
0.433964 0.840605 5.76483 0.509545 0.723316 5.7108 0.415963 0.839469 5.08522 
0.509545 0.723316 5.7108 0.544091 0.560537 5.54721 0.487509 0.659114 5.0936 
0.47708 0.49145 5.02964 0.475046 0.281968 5.41985 0.422185 0.399143 4.83159 
-0.455745 0.269731 5.367 -0.503965 0.37942 5.39476 -0.453901 0.479146 4.85216 
-0.472552 0.76228 5.45245 -0.383017 0.884014 5.44312 -0.417497 0.841635 4.91223 
-0.383017 0.884014 5.44312 -0.272712 0.972627 5.50999 -0.301733 0.984081 4.83131 
0.487509 0.659114 5.0936 0.47708 0.49145 5.02964 0.458681 0.70278 4.54588 
0.47708 0.49145 5.02964 0.422185 0.399143 4.83159 0.443771 0.55838 4.51927 
0.422185 0.399143 4.83159 0.353442 0.257222 4.99461 0.391337 0.433308 4.48647 
0.353442 0.257222 4.99461 0.24378 0.170725 4.97186 0.299871 0.324468 4.48922 
0.24378 0.170725 4.97186 0.102498 0.121653 4.94688 0.0782662 0.226365 4.43519 
0.102498 0.121653 4.94688 -0.0860385 0.101669 5.00539 0.0782662 0.226365 4.43519 
-0.0860385 0.101669 5.00539 -0.243622 0.158257 5.02742 -0.225185 0.274473 4.4731 
-0.243622 0.158257 5.02742 -0.38033 0.308461 4.90366 -0.332979 0.360342 4.46507 
-0.38033 0.308461 4.90366 -0.453901 0.479146 4.85216 -0.432701 0.518221 4.47719 
-0.453901 0.479146 4.85216 -0.485013 0.558656 5.02376 -0.432701 0.518221 4.47719 
-0.485013 0.558656 5.02376 -0.476987 0.679228 5.05123 -0.457593 0.677547 4.53976 
-0.476987 0.679228 5.05123 -0.417497 0.841635 4.91223 -0.437801 0.797684 4.55554 
-0.417497 0.841635 4.91223 -0.301733 0.984081 4.83131 -0.374568 0.931884 4.5579 
-0.301733 0.984081 4.83131 -0.165442 1.04214 5.09204 -0.156045 1.09607 4.59315 
-0.165442 1.04214 5.09204 0.0250206 1.06832 5.17428 -0.156045 1.09607 4.59315 
0.0250206 1.06832 5.17428 0.217973 1.01544 5.14897 0.0964883 1.10852 4.62153 
0.217973 1.01544 5.14897 0.31933 0.950715 5.11668 0.207917 1.06926 4.59837 
0.31933 0.950715 5.11668 0.415963 0.839469 5.08522 0.309442 1.00064 4.5988 
0.415963 0.839469 5.08522 0.487509 0.659114 5.0936 0.408232 0.878398 4.56153 
0.458681 0.70278 4.54588 0.443771 0.55838 4.51927 0.44692 0.667883 4.19336 
0.441773 0.633894 4.20003 0.44692 0.667883 4.19336 0.443771 0.55838 4.51927 
0.387438 0.494848 4.16399 0.403173 0.525447 4.15543 0.391337 0.433308 4.48647 
0.299871 0.324468 4.48922 0.203563 0.262163 4.48119 0.221852 0.335249 4.12962 
0.0719892 0.27974 4.14608 0.104252 0.290484 4.11921 0.0782662 0.226365 4.43519 
-0.0811423 0.283749 4.13105 -0.0486067 0.280682 4.11963 -0.0859126 0.218689 4.48379 
-0.0859126 0.218689 4.48379 -0.225185 0.274473 4.4731 -0.206917 0.34472 4.01939 
-0.225185 0.274473 4.4731 -0.332979 0.360342 4.46507 -0.269796 0.362255 4.16197 
-0.295412 0.384491 4.15416 -0.269796 0.362255 4.16197 -0.332979 0.360342 4.46507 
-0.392055 0.502748 4.16524 -0.374915 0.477333 4.14633 -0.332979 0.360342 4.46507 
-0.432701 0.518221 4.47719 -0.457593 0.677547 4.53976 -0.448091 0.678415 4.19402 
-0.420749 0.87739 4.23426 -0.431333 0.849878 4.20885 -0.437801 0.797684 4.55554 
-0.437801 0.797684 4.55554 -0.374568 0.931884 4.5579 -0.407292 0.912028 4.21935 
-0.342795 1.00899 4.24591 -0.363218 0.985884 4.22719 -0.374568 0.931884 4.5579 
-0.301733 0.984081 4.83131 -0.156045 1.09607 4.59315 -0.213624 1.10895 4.28527 
0.00461801 1.16555 4.27022 -0.0282704 1.16657 4.25856 -0.0281912 1.11687 4.6135 
-0.0281912 1.11687 4.6135 0.0964883 1.10852 4.62153 0.0391996 1.16754 4.2474 
0.0964883 1.10852 4.62153 0.207917 1.06926 4.59837 0.186867 1.12794 4.24866 
0.207917 1.06926 4.59837 0.309442 1.00064 4.5988 0.272103 1.08306 4.20752 
0.30432 1.04878 4.2497 0.272103 1.08306 4.20752 0.309442 1.00064 4.5988 
0.348775 1.00227 4.24268 0.327087 1.02782 4.23959 0.309442 1.00064 4.5988 
0.309442 1.00064 4.5988 0.408232 0.878398 4.56153 0.369665 0.981272 4.19872 
0.423936 0.86968 4.2271 0.411846 0.903418 4.20944 0.408232 0.878398 4.56153 
0.408232 0.878398 4.56153 0.458681 0.70278 4.54588 0.434324 0.838802 4.21262 
0.45 1.75952 -2.35685 0.444512 0.792184 4.21669 0.448935 0.756055 4.18831 
0.444512 0.792184 4.21669 0.45 1.75952 -2.35685 0.443163 1.8367 -2.34463 
0.448935 0.756055 4.18831 0.450188 0.713098 4.16616 0.45 1.75952 -2.35685 
0.443163 1.8367 -2.34463 0.423936 0.86968 4.2271 0.434324 0.838802 4.21262 
0.434324 0.838802 4.21262 0.444512 0.792184 4.21669 0.443163 1.8367 -2.34463 
0.423936 0.86968 4.2271 0.443163 1.8367 -2.34463 0.422862 1.91154 -2.33278 
0.422862 1.91154 -2.33278 0.394232 0.935651 4.23768 0.411846 0.903418 4.20944 
0.394232 0.935651 4.23768 0.422862 1.91154 -2.33278 0.389711 1.98175 -2.32166 
0.411846 0.903418 4.20944 0.423936 0.86968 4.2271 0.422862 1.91154 -2.33278 
0.389711 1.98175 -2.32166 0.348775 1.00227 4.24268 0.369665 0.981272 4.19872 
0.369665 0.981272 4.19872 0.394232 0.935651 4.23768 0.389711 1.98175 -2.32166 
0.348775 1.00227 4.24268 0.389711 1.98175 -2.32166 0.34472 2.04522 -2.31161 
0.34472 2.04522 -2.31161 0.30432 1.04878 4.2497 0.327087 1.02782 4.23959 
0.30432 1.04878 4.2497 0.34472 2.04522 -2.31161 0.289254 2.1 -2.30293 
0.289254 2.1 -2.30293 0.228648 1.10217 4.27453 0.272103 1.08306 4.20752 
0.228648 1.10217 4.27453 0.289254 2.1 -2.30293 0.225 2.14444 -2.29589 
0.225 2.14444 -2.29589 0.155624 1.1383 4.2645 0.186867 1.12794 4.24866 
0.186867 1.12794 4.24866 0.228648 1.10217 4.27453 0.225 2.14444 -2.29589 
0.153909 2.17718 -2.2907 0.124493 1.15012 4.25597 0.155624 1.1383 4.2645 
0.155624 1.1383 4.2645 0.225 2.14444 -2.29589 0.153909 2.17718 -2.2907 
0.153909 2.17718 -2.2907 0.0850226 1.15444 4.29116 0.124493 1.15012 4.25597 
0.0850226 1.15444 4.29116 0.153909 2.17718 -2.2907 0.0781417 2.19723 -2.28753 
0.0781417 2.19723 -2.28753 0.00461801 1.16555 4.27022 0.0391996 1.16754 4.2474 
0.0391996 1.16754 4.2474 0.0850226 1.15444 4.29116 0.0781417 2.19723 -2.28753 
0.00461801 1.16555 4.27022 0.0781417 2.19723 -2.28753 -1.77636e-10 2.20398 -2.28646 
-1.77636e-10 2.20398 -2.28646 -0.0683429 1.15959 4.27695 -0.0282704 1.16657 4.25856 
-0.0683429 1.15959 4.27695 -1.77636e-10 2.20398 -2.28646 -0.0781417 2.19723 -2.28753 
-0.0781417 2.19723 -2.28753 -0.150125 1.13735 4.28543 -0.113422 1.15308 4.25673 
-0.113422 1.15308 4.25673 -0.0683429 1.15959 4.27695 -0.0781417 2.19723 -2.28753 
-0.150125 1.13735 4.28543 -0.0781417 2.19723 -2.28753 -0.153909 2.17718 -2.2907 
-0.153909 2.17718 -2.2907 -0.213624 1.10895 4.28527 -0.18603 1.12597 4.26255 
-0.213624 1.10895 4.28527 -0.153909 2.17718 -2.2907 -0.225 2.14444 -2.29589 
-0.18603 1.12597 4.26255 -0.150125 1.13735 4.28543 -0.153909 2.17718 -2.2907 
-0.225 2.14444 -2.29589 -0.28538 1.0631 4.26809 -0.252882 1.09052 4.24749 
-0.28538 1.0631 4.26809 -0.225 2.14444 -2.29589 -0.289254 2.1 -2.30293 
-0.252882 1.09052 4.24749 -0.213624 1.10895 4.28527 -0.225 2.14444 -2.29589 
-0.289254 2.1 -2.30293 -0.342795 1.00899 4.24591 -0.319585 1.03632 4.23574 
-0.319585 1.03632 4.23574 -0.28538 1.0631 4.26809 -0.289254 2.1 -2.30293 
-0.342795 1.00899 4.24591 -0.289254 2.1 -2.30293 -0.34472 2.04522 -2.31161 
-0.34472 2.04522 -2.31161 -0.385806 0.950613 4.23649 -0.363218 0.985884 4.22719 
-0.385806 0.950613 4.23649 -0.34472 2.04522 -2.31161 -0.389711 1.98175 -2.32166 
-0.363218 0.985884 4.22719 -0.342795 1.00899 4.24591 -0.34472 2.04522 -2.31161 
-0.389711 1.98175 -2.32166 -0.420749 0.87739 4.23426 -0.407292 0.912028 4.21935 
-0.407292 0.912028 4.21935 -0.385806 0.950613 4.23649 -0.389711 1.98175 -2.32166 
-0.420749 0.87739 4.23426 -0.389711 1.98175 -2.32166 -0.422862 1.91154 -2.33278 
-0.422862 1.91154 -2.33278 -0.4414 0.809636 4.21324 -0.431333 0.849878 4.20885 
-0.4414 0.809636 4.21324 -0.422862 1.91154 -2.33278 -0.443163 1.8367 -2.34463 
-0.443163 1.8367 -2.34463 -0.450435 0.72281 4.21373 -0.447975 0.766557 4.1941 
-0.447975 0.766557 4.1941 -0.4414 0.809636 4.21324 -0.443163 1.8367 -2.34463 
-0.450435 0.72281 4.21373 -0.443163 1.8367 -2.34463 -0.45 1.75952 -2.35685 
-0.45 1.75952 -2.35685 -0.443477 0.645862 4.18651 -0.448091 0.678415 4.19402 
-0.448091 0.678415 4.19402 -0.450435 0.72281 4.21373 -0.45 1.75952 -2.35685 
-0.443163 1.68234 -2.36908 -0.436864 0.615638 4.17192 -0.443477 0.645862 4.18651 
-0.443477 0.645862 4.18651 -0.45 1.75952 -2.35685 -0.443163 1.68234 -2.36908 
-0.443163 1.68234 -2.36908 -0.425595 0.572794 4.19267 -0.436864 0.615638 4.17192 
-0.425595 0.572794 4.19267 -0.443163 1.68234 -2.36908 -0.422862 1.60751 -2.38093 
-0.422862 1.60751 -2.38093 -0.392055 0.502748 4.16524 -0.407939 0.534792 4.15924 
-0.407939 0.534792 4.15924 -0.425595 0.572794 4.19267 -0.422862 1.60751 -2.38093 
-0.392055 0.502748 4.16524 -0.422862 1.60751 -2.38093 -0.389711 1.53729 -2.39205 
-0.389711 1.53729 -2.39205 -0.351738 0.445781 4.13967 -0.374915 0.477333 4.14633 
-0.351738 0.445781 4.13967 -0.389711 1.53729 -2.39205 -0.34472 1.47383 -2.4021 
-0.34472 1.47383 -2.4021 -0.295412 0.384491 4.15416 -0.320872 0.411903 4.13351 
-0.320872 0.411903 4.13351 -0.351738 0.445781 4.13967 -0.34472 1.47383 -2.4021 
-0.295412 0.384491 4.15416 -0.34472 1.47383 -2.4021 -0.289254 1.41905 -2.41078 
-0.289254 1.41905 -2.41078 -0.243707 0.347628 4.13927 -0.269796 0.362255 4.16197 
-0.225 1.37461 -2.41782 -0.206917 0.34472 4.01939 -0.243707 0.347628 4.13927 
-0.243707 0.347628 4.13927 -0.289254 1.41905 -2.41078 -0.225 1.37461 -2.41782 
-0.225 1.37461 -2.41782 -0.159167 0.304073 4.13873 -0.206917 0.34472 4.01939 
-0.159167 0.304073 4.13873 -0.225 1.37461 -2.41782 -0.153909 1.34187 -2.42301 
-0.153909 1.34187 -2.42301 -0.0811423 0.283749 4.13105 -0.114739 0.29302 4.11978 
-0.114739 0.29302 4.11978 -0.159167 0.304073 4.13873 -0.153909 1.34187 -2.42301 
-0.0811423 0.283749 4.13105 -0.153909 1.34187 -2.42301 -0.0781417 1.32182 -2.42618 
-0.0781417 1.32182 -2.42618 -0.00844419 0.274913 4.13773 -0.0486067 0.280682 4.11963 
-0.00844419 0.274913 4.13773 -0.0781417 1.32182 -2.42618 -1.77636e-10 1.31506 -2.42725 
-0.0486067 0.280682 4.11963 -0.0811423 0.283749 4.13105 -0.0781417 1.32182 -2.42618 
-1.77636e-10 1.31506 -2.42725 0.0719892 0.27974 4.14608 0.0376113 0.281683 4.10641 
0.0376113 0.281683 4.10641 -0.00844419 0.274913 4.13773 -1.77636e-10 1.31506 -2.42725 
0.0719892 0.27974 4.14608 -1.77636e-10 1.31506 -2.42725 0.0781417 1.32182 -2.42618 
0.0781417 1.32182 -2.42618 0.143095 0.298195 4.1396 0.104252 0.290484 4.11921 
0.143095 0.298195 4.1396 0.0781417 1.32182 -2.42618 0.153909 1.34187 -2.42301 
0.153909 1.34187 -2.42301 0.221852 0.335249 4.12962 0.185843 0.317962 4.12402 
0.185843 0.317962 4.12402 0.143095 0.298195 4.1396 0.153909 1.34187 -2.42301 
0.221852 0.335249 4.12962 0.153909 1.34187 -2.42301 0.225 1.37461 -2.41782 
0.225 1.37461 -2.41782 0.287853 0.379632 4.14434 0.261238 0.361118 4.12893 
0.261238 0.361118 4.12893 0.221852 0.335249 4.12962 0.225 1.37461 -2.41782 
0.289254 1.41905 -2.41078 0.312379 0.402527 4.13912 0.287853 0.379632 4.14434 
0.287853 0.379632 4.14434 0.225 1.37461 -2.41782 0.289254 1.41905 -2.41078 
0.289254 1.41905 -2.41078 0.340562 0.425126 4.18357 0.312379 0.402527 4.13912 
0.340562 0.425126 4.18357 0.289254 1.41905 -2.41078 0.34472 1.47383 -2.4021 
0.34472 1.47383 -2.4021 0.387438 0.494848 4.16399 0.36878 0.467916 4.14792 
0.36878 0.467916 4.14792 0.340562 0.425126 4.18357 0.34472 1.47383 -2.4021 
0.387438 0.494848 4.16399 0.34472 1.47383 -2.4021 0.389711 1.53729 -2.39205 
0.389711 1.53729 -2.39205 0.419453 0.557426 4.18438 0.403173 0.525447 4.15543 
0.419453 0.557426 4.18438 0.389711 1.53729 -2.39205 0.422862 1.60751 -2.38093 
0.422862 1.60751 -2.38093 0.441773 0.633894 4.20003 0.433861 0.60452 4.16851 
0.433861 0.60452 4.16851 0.419453 0.557426 4.18438 0.422862 1.60751 -2.38093 
0.441773 0.633894 4.20003 0.422862 1.60751 -2.38093 0.443163 1.68234 -2.36908 
0.443163 1.68234 -2.36908 0.450188 0.713098 4.16616 0.44692 0.667883 4.19336 
0.450188 0.713098 4.16616 0.443163 1.68234 -2.36908 0.45 1.75952 -2.35685 
0.44692 0.667883 4.19336 0.441773 0.633894 4.20003 0.443163 1.68234 -2.36908 
0.403173 0.525447 4.15543 0.387438 0.494848 4.16399 0.389711 1.53729 -2.39205 
0.104252 0.290484 4.11921 0.0719892 0.27974 4.14608 0.0781417 1.32182 -2.42618 
-0.269796 0.362255 4.16197 -0.295412 0.384491 4.15416 -0.289254 1.41905 -2.41078 
-0.374915 0.477333 4.14633 -0.392055 0.502748 4.16524 -0.389711 1.53729 -2.39205 
-0.431333 0.849878 4.20885 -0.420749 0.87739 4.23426 -0.422862 1.91154 -2.33278 
-0.0282704 1.16657 4.25856 0.00461801 1.16555 4.27022 -1.77636e-10 2.20398 -2.28646 
0.272103 1.08306 4.20752 0.30432 1.04878 4.2497 0.289254 2.1 -2.30293 
0.327087 1.02782 4.23959 0.348775 1.00227 4.24268 0.34472 2.04522 -2.31161 
-0.225 2.14444 -2.29589 0.443163 1.68234 -2.36908 0.422862 1.60751 -2.38093 
0.422862 1.60751 -2.38093 0.389711 1.53729 -2.39205 -0.225 2.14444 -2.29589 
0.389711 1.53729 -2.39205 0.34472 1.47383 -2.4021 -0.225 2.14444 -2.29589 
0.34472 1.47383 -2.4021 0.289254 1.41905 -2.41078 -0.225 2.14444 -2.29589 
0.289254 1.41905 -2.41078 0.225 1.37461 -2.41782 -0.225 2.14444 -2.29589 
0.225 1.37461 -2.41782 0.153909 1.34187 -2.42301 -0.225 2.14444 -2.29589 
0.153909 1.34187 -2.42301 0.0781417 1.32182 -2.42618 -0.225 2.14444 -2.29589 
0.0781417 1.32182 -2.42618 -1.77636e-10 1.31506 -2.42725 -0.225 2.14444 -2.29589 
-1.77636e-10 1.31506 -2.42725 -0.0781417 1.32182 -2.42618 -0.225 2.14444 -2.29589 
-0.0781417 1.32182 -2.42618 -0.153909 1.34187 -2.42301 -0.225 2.14444 -2.29589 
-0.153909 1.34187 -2.42301 -0.225 1.37461 -2.41782 -0.225 2.14444 -2.29589 
-0.225 1.37461 -2.41782 -0.289254 1.41905 -2.41078 -0.225 2.14444 -2.29589 
-0.289254 1.41905 -2.41078 -0.34472 1.47383 -2.4021 -0.225 2.14444 -2.29589 
-0.34472 1.47383 -2.4021 -0.389711 1.53729 -2.39205 -0.225 2.14444 -2.29589 
-0.389711 1.53729 -2.39205 -0.422862 1.60751 -2.38093 -0.225 2.14444 -2.29589 
-0.422862 1.60751 -2.38093 -0.443163 1.68234 -2.36908 -0.225 2.14444 -2.29589 
-0.443163 1.68234 -2.36908 -0.45 1.75952 -2.35685 -0.225 2.14444 -2.29589 
-0.45 1.75952 -2.35685 -0.443163 1.8367 -2.34463 -0.225 2.14444 -2.29589 
-0.443163 1.8367 -2.34463 -0.422862 1.91154 -2.33278 -0.225 2.14444 -2.29589 
-0.422862 1.91154 -2.33278 -0.389711 1.98175 -2.32166 -0.225 2.14444 -2.29589 
-0.389711 1.98175 -2.32166 -0.34472 2.04522 -2.31161 -0.225 2.14444 -2.29589 
-0.34472 2.04522 -2.31161 -0.289254 2.1 -2.30293 -0.225 2.14444 -2.29589 
-0.153909 2.17718 -2.2907 -0.0781417 2.19723 -2.28753 -0.225 2.14444 -2.29589 
-0.0781417 2.19723 -2.28753 -1.77636e-10 2.20398 -2.28646 -0.225 2.14444 -2.29589 
-1.77636e-10 2.20398 -2.28646 0.0781417 2.19723 -2.28753 -0.225 2.14444 -2.29589 
0.0781417 2.19723 -2.28753 0.153909 2.17718 -2.2907 -0.225 2.14444 -2.29589 
0.153909 2.17718 -2.2907 0.225 2.14444 -2.29589 -0.225 2.14444 -2.29589 
0.225 2.14444 -2.29589 0.289254 2.1 -2.30293 -0.225 2.14444 -2.29589 
0.289254 2.1 -2.30293 0.34472 2.04522 -2.31161 -0.225 2.14444 -2.29589 
0.34472 2.04522 -2.31161 0.389711 1.98175 -2.32166 -0.225 2.14444 -2.29589 
0.389711 1.98175 -2.32166 0.422862 1.91154 -2.33278 -0.225 2.14444 -2.29589 
0.422862 1.91154 -2.33278 0.443163 1.8367 -2.34463 -0.225 2.14444 -2.29589 
0.443163 1.8367 -2.34463 0.45 1.75952 -2.35685 -0.225 2.14444 -2.29589 
0.45 1.75952 -2.35685 0.443163 1.68234 -2.36908 -0.225 2.14444 -2.29589 
-0.301 1.60309 -1.36917 0.296427 1.65471 -1.36099 0.282847 1.70477 -1.35306 
0.282847 1.70477 -1.35306 0.260674 1.75174 -1.34562 -0.301 1.60309 -1.36917 
0.260674 1.75174 -1.34562 0.230579 1.79419 -1.3389 -0.301 1.60309 -1.36917 
0.230579 1.79419 -1.3389 0.193479 1.83083 -1.3331 -0.301 1.60309 -1.36917 
0.193479 1.83083 -1.3331 0.1505 1.86055 -1.32839 -0.301 1.60309 -1.36917 
0.1505 1.86055 -1.32839 0.102948 1.88245 -1.32492 -0.301 1.60309 -1.36917 
0.102948 1.88245 -1.32492 0.0522681 1.89587 -1.3228 -0.301 1.60309 -1.36917 
0.0522681 1.89587 -1.3228 -1.77636e-10 1.90038 -1.32208 -0.301 1.60309 -1.36917 
-1.77636e-10 1.90038 -1.32208 -0.0522681 1.89587 -1.3228 -0.301 1.60309 -1.36917 
-0.0522681 1.89587 -1.3228 -0.102948 1.88245 -1.32492 -0.301 1.60309 -1.36917 
-0.102948 1.88245 -1.32492 -0.1505 1.86055 -1.32839 -0.301 1.60309 -1.36917 
-0.1505 1.86055 -1.32839 -0.193479 1.83083 -1.3331 -0.301 1.60309 -1.36917 
-0.193479 1.83083 -1.3331 -0.230579 1.79419 -1.3389 -0.301 1.60309 -1.36917 
-0.230579 1.79419 -1.3389 -0.260674 1.75174 -1.34562 -0.301 1.60309 -1.36917 
-0.260674 1.75174 -1.34562 -0.282847 1.70477 -1.35306 -0.301 1.60309 -1.36917 
-0.282847 1.70477 -1.35306 -0.296427 1.65471 -1.36099 -0.301 1.60309 -1.36917 
-0.296427 1.55146 -1.37734 -0.282847 1.50141 -1.38527 -0.301 1.60309 -1.36917 
-0.282847 1.50141 -1.38527 -0.260674 1.45444 -1.39271 -0.301 1.60309 -1.36917 
-0.260674 1.45444 -1.39271 -0.230579 1.41199 -1.39943 -0.301 1.60309 -1.36917 
-0.230579 1.41199 -1.39943 -0.193479 1.37535 -1.40524 -0.301 1.60309 -1.36917 
-0.193479 1.37535 -1.40524 -0.1505 1.34562 -1.40995 -0.301 1.60309 -1.36917 
-0.1505 1.34562 -1.40995 -0.102948 1.32372 -1.41341 -0.301 1.60309 -1.36917 
-0.102948 1.32372 -1.41341 -0.0522681 1.31031 -1.41554 -0.301 1.60309 -1.36917 
-0.0522681 1.31031 -1.41554 -1.77636e-10 1.30579 -1.41625 -0.301 1.60309 -1.36917 
-1.77636e-10 1.30579 -1.41625 0.0522681 1.31031 -1.41554 -0.301 1.60309 -1.36917 
0.0522681 1.31031 -1.41554 0.102948 1.32372 -1.41341 -0.301 1.60309 -1.36917 
0.102948 1.32372 -1.41341 0.1505 1.34562 -1.40995 -0.301 1.60309 -1.36917 
0.1505 1.34562 -1.40995 0.193479 1.37535 -1.40524 -0.301 1.60309 -1.36917 
0.193479 1.37535 -1.40524 0.230579 1.41199 -1.39943 -0.301 1.60309 -1.36917 
0.230579 1.41199 -1.39943 0.260674 1.45444 -1.39271 -0.301 1.60309 -1.36917 
0.260674 1.45444 -1.39271 0.282847 1.50141 -1.38527 -0.301 1.60309 -1.36917 
0.282847 1.50141 -1.38527 0.296427 1.55146 -1.37734 -0.301 1.60309 -1.36917 
0.296427 1.55146 -1.37734 0.301 1.60309 -1.36917 -0.301 1.60309 -1.36917 
0.301 1.60309 -1.36917 0.296427 1.65471 -1.36099 -0.301 1.60309 -1.36917 
-0.296427 1.55146 -1.37734 -0.300117 0.00209623 8.59181 -0.295717 -0.0273617 8.55136 
-0.301 1.60309 -1.36917 -0.301002 0.0417568 8.56363 -0.300117 0.00209623 8.59181 
-0.300117 0.00209623 8.59181 -0.296427 1.55146 -1.37734 -0.301 1.60309 -1.36917 
-0.282847 1.50141 -1.38527 -0.295717 -0.0273617 8.55136 -0.286972 -0.0648459 8.58121 
-0.295717 -0.0273617 8.55136 -0.282847 1.50141 -1.38527 -0.296427 1.55146 -1.37734 
-0.286972 -0.0648459 8.58121 -0.280176 -0.0846005 8.58102 -0.282847 1.50141 -1.38527 
-0.260674 1.45444 -1.39271 -0.280176 -0.0846005 8.58102 -0.269746 -0.107061 8.57452 
-0.280176 -0.0846005 8.58102 -0.260674 1.45444 -1.39271 -0.282847 1.50141 -1.38527 
-0.269746 -0.107061 8.57452 -0.259365 -0.126634 8.57445 -0.260674 1.45444 -1.39271 
-0.230579 1.41199 -1.39943 -0.246197 -0.146185 8.56832 -0.231483 -0.165257 8.56535 
-0.230579 1.41199 -1.39943 -0.259365 -0.126634 8.57445 -0.246197 -0.146185 8.56832 
-0.259365 -0.126634 8.57445 -0.230579 1.41199 -1.39943 -0.260674 1.45444 -1.39271 
-0.193479 1.37535 -1.40524 -0.216877 -0.1813 8.56276 -0.190527 -0.200929 8.52742 
-0.230579 1.41199 -1.39943 -0.231483 -0.165257 8.56535 -0.216877 -0.1813 8.56276 
-0.216877 -0.1813 8.56276 -0.193479 1.37535 -1.40524 -0.230579 1.41199 -1.39943 
-0.1505 1.34562 -1.40995 -0.190527 -0.200929 8.52742 -0.163614 -0.224685 8.55589 
-0.190527 -0.200929 8.52742 -0.1505 1.34562 -1.40995 -0.193479 1.37535 -1.40524 
-0.163614 -0.224685 8.55589 -0.145683 -0.235706 8.55584 -0.1505 1.34562 -1.40995 
-0.102948 1.32372 -1.41341 -0.145683 -0.235706 8.55584 -0.12313 -0.246428 8.55245 
-0.145683 -0.235706 8.55584 -0.102948 1.32372 -1.41341 -0.1505 1.34562 -1.40995 
-0.12313 -0.246428 8.55245 -0.102095 -0.255082 8.5526 -0.102948 1.32372 -1.41341 
-0.0522681 1.31031 -1.41554 -0.0797594 -0.261813 8.55001 -0.0449797 -0.267631 8.53686 
-0.0522681 1.31031 -1.41554 -0.102095 -0.255082 8.5526 -0.0797594 -0.261813 8.55001 
-0.102095 -0.255082 8.5526 -0.0522681 1.31031 -1.41554 -0.102948 1.32372 -1.41341 
-1.77636e-10 1.30579 -1.41625 -0.0449797 -0.267631 8.53686 -0.00845798 -0.271941 8.54527 
-0.0449797 -0.267631 8.53686 -1.77636e-10 1.30579 -1.41625 -0.0522681 1.31031 -1.41554 
0.0522681 1.31031 -1.41554 0.0115291 -0.272222 8.54836 0.0345197 -0.270479 8.54864 
-1.77636e-10 1.30579 -1.41625 -0.00845798 -0.271941 8.54527 0.0115291 -0.272222 8.54836 
0.0115291 -0.272222 8.54836 0.0522681 1.31031 -1.41554 -1.77636e-10 1.30579 -1.41625 
0.0345197 -0.270479 8.54864 0.0558809 -0.268828 8.55831 0.0522681 1.31031 -1.41554 
0.102948 1.32372 -1.41341 0.0558809 -0.268828 8.55831 0.0906628 -0.262259 8.57197 
0.0558809 -0.268828 8.55831 0.102948 1.32372 -1.41341 0.0522681 1.31031 -1.41554 
0.1505 1.34562 -1.40995 0.12313 -0.246428 8.55245 0.155215 -0.227681 8.53783 
0.102948 1.32372 -1.41341 0.0906628 -0.262259 8.57197 0.12313 -0.246428 8.55245 
0.12313 -0.246428 8.55245 0.1505 1.34562 -1.40995 0.102948 1.32372 -1.41341 
0.193479 1.37535 -1.40524 0.155215 -0.227681 8.53783 0.182474 -0.211582 8.55797 
0.155215 -0.227681 8.53783 0.193479 1.37535 -1.40524 0.1505 1.34562 -1.40995 
0.182474 -0.211582 8.55797 0.198638 -0.198597 8.55945 0.193479 1.37535 -1.40524 
0.230579 1.41199 -1.39943 0.198638 -0.198597 8.55945 0.216877 -0.1813 8.56276 
0.198638 -0.198597 8.55945 0.230579 1.41199 -1.39943 0.193479 1.37535 -1.40524 
0.216877 -0.1813 8.56276 0.231792 -0.165284 8.56783 0.230579 1.41199 -1.39943 
0.260674 1.45444 -1.39271 0.246197 -0.146185 8.56832 0.265218 -0.110589 8.53547 
0.260674 1.45444 -1.39271 0.231792 -0.165284 8.56783 0.246197 -0.146185 8.56832 
0.231792 -0.165284 8.56783 0.260674 1.45444 -1.39271 0.230579 1.41199 -1.39943 
0.282847 1.50141 -1.38527 0.265218 -0.110589 8.53547 0.280474 -0.0829454 8.57562 
0.265218 -0.110589 8.53547 0.282847 1.50141 -1.38527 0.260674 1.45444 -1.39271 
0.296427 1.55146 -1.37734 0.286972 -0.0648459 8.58121 0.293082 -0.0428856 8.58468 
0.282847 1.50141 -1.38527 0.280474 -0.0829454 8.57562 0.286972 -0.0648459 8.58121 
0.286972 -0.0648459 8.58121 0.296427 1.55146 -1.37734 0.282847 1.50141 -1.38527 
0.293082 -0.0428856 8.58468 0.297307 -0.0229814 8.5922 0.296427 1.55146 -1.37734 
0.301 1.60309 -1.36917 0.297307 -0.0229814 8.5922 0.301002 0.0185994 8.55996 
0.297307 -0.0229814 8.5922 0.301 1.60309 -1.36917 0.296427 1.55146 -1.37734 
0.296427 1.65471 -1.36099 0.300117 0.0476115 8.59902 0.295717 0.0881263 8.56965 
0.301 1.60309 -1.36917 0.301002 0.0185994 8.55996 0.300117 0.0476115 8.59902 
0.300117 0.0476115 8.59902 0.296427 1.65471 -1.36099 0.301 1.60309 -1.36917 
0.282847 1.70477 -1.35306 0.295717 0.0881263 8.56965 0.286972 0.114554 8.60962 
0.295717 0.0881263 8.56965 0.282847 1.70477 -1.35306 0.296427 1.65471 -1.36099 
0.286972 0.114554 8.60962 0.280176 0.1334 8.61554 0.282847 1.70477 -1.35306 
0.260674 1.75174 -1.34562 0.280176 0.1334 8.61554 0.269746 0.156769 8.61631 
0.280176 0.1334 8.61554 0.260674 1.75174 -1.34562 0.282847 1.70477 -1.35306 
0.269746 0.156769 8.61631 0.259365 0.175406 8.62228 0.260674 1.75174 -1.34562 
0.230579 1.79419 -1.3389 0.246197 0.195893 8.6225 0.231483 0.214948 8.62557 
0.230579 1.79419 -1.3389 0.259365 0.175406 8.62228 0.246197 0.195893 8.6225 
0.259365 0.175406 8.62228 0.230579 1.79419 -1.3389 0.260674 1.75174 -1.34562 
0.193479 1.83083 -1.3331 0.216877 0.231007 8.62806 0.190527 0.260598 8.60051 
0.230579 1.79419 -1.3389 0.231483 0.214948 8.62557 0.216877 0.231007 8.62806 
0.216877 0.231007 8.62806 0.193479 1.83083 -1.3331 0.230579 1.79419 -1.3389 
0.1505 1.86055 -1.32839 0.190527 0.260598 8.60051 0.163614 0.274392 8.63494 
0.190527 0.260598 8.60051 0.1505 1.86055 -1.32839 0.193479 1.83083 -1.3331 
0.163614 0.274392 8.63494 0.145683 0.284889 8.6383 0.1505 1.86055 -1.32839 
0.102948 1.88245 -1.32492 0.145683 0.284889 8.6383 0.12313 0.296136 8.63838 
0.145683 0.284889 8.6383 0.102948 1.88245 -1.32492 0.1505 1.86055 -1.32839 
0.12313 0.296136 8.63838 0.102095 0.304319 8.6412 0.102948 1.88245 -1.32492 
0.0522681 1.89587 -1.3228 0.0797594 0.311521 8.64082 0.0449797 0.321115 8.63011 
0.0522681 1.89587 -1.3228 0.102095 0.304319 8.6412 0.0797594 0.311521 8.64082 
0.102095 0.304319 8.6412 0.0522681 1.89587 -1.3228 0.102948 1.88245 -1.32492 
-1.77636e-10 1.90038 -1.32208 0.0449797 0.321115 8.63011 0.00845798 0.322618 8.63944 
0.0449797 0.321115 8.63011 -1.77636e-10 1.90038 -1.32208 0.0522681 1.89587 -1.3228 
-0.0522681 1.89587 -1.3228 -0.0115291 0.32193 8.64246 -0.0345197 0.320187 8.64219 
-1.77636e-10 1.90038 -1.32208 0.00845798 0.322618 8.63944 -0.0115291 0.32193 8.64246 
-0.0115291 0.32193 8.64246 -0.0522681 1.89587 -1.3228 -1.77636e-10 1.90038 -1.32208 
-0.0345197 0.320187 8.64219 -0.0558809 0.315628 8.65088 -0.0522681 1.89587 -1.3228 
-0.102948 1.88245 -1.32492 -0.0558809 0.315628 8.65088 -0.0906628 0.305158 8.66184 
-0.0558809 0.315628 8.65088 -0.102948 1.88245 -1.32492 -0.0522681 1.89587 -1.3228 
-0.1505 1.86055 -1.32839 -0.12313 0.296136 8.63838 -0.155215 0.282823 8.61869 
-0.102948 1.88245 -1.32492 -0.0906628 0.305158 8.66184 -0.12313 0.296136 8.63838 
-0.12313 0.296136 8.63838 -0.1505 1.86055 -1.32839 -0.102948 1.88245 -1.32492 
-0.193479 1.83083 -1.3331 -0.155215 0.282823 8.61869 -0.182474 0.26129 8.63286 
-0.155215 0.282823 8.61869 -0.193479 1.83083 -1.3331 -0.1505 1.86055 -1.32839 
-0.182474 0.26129 8.63286 -0.198638 0.24848 8.63026 -0.193479 1.83083 -1.3331 
-0.230579 1.79419 -1.3389 -0.198638 0.24848 8.63026 -0.216877 0.231007 8.62806 
-0.198638 0.24848 8.63026 -0.230579 1.79419 -1.3389 -0.193479 1.83083 -1.3331 
-0.216877 0.231007 8.62806 -0.231792 0.214209 8.62794 -0.230579 1.79419 -1.3389 
-0.260674 1.75174 -1.34562 -0.246197 0.195893 8.6225 -0.265218 0.17219 8.58026 
-0.260674 1.75174 -1.34562 -0.231792 0.214209 8.62794 -0.246197 0.195893 8.6225 
-0.231792 0.214209 8.62794 -0.260674 1.75174 -1.34562 -0.230579 1.79419 -1.3389 
-0.282847 1.70477 -1.35306 -0.265218 0.17219 8.58026 -0.280474 0.133492 8.6099 
-0.265218 0.17219 8.58026 -0.282847 1.70477 -1.35306 -0.260674 1.75174 -1.34562 
-0.296427 1.65471 -1.36099 -0.286972 0.114554 8.60962 -0.293082 0.0925934 8.60614 
-0.282847 1.70477 -1.35306 -0.280474 0.133492 8.6099 -0.286972 0.114554 8.60962 
-0.286972 0.114554 8.60962 -0.296427 1.65471 -1.36099 -0.282847 1.70477 -1.35306 
-0.293082 0.0925934 8.60614 -0.297307 0.0713418 8.60714 -0.296427 1.65471 -1.36099 
-0.301 1.60309 -1.36917 -0.297307 0.0713418 8.60714 -0.301002 0.0417568 8.56363 
-0.297307 0.0713418 8.60714 -0.301 1.60309 -1.36917 -0.296427 1.65471 -1.36099 
2.02725 -0.251248 11.3043 1.76869 -0.187378 11.18 1.77667 -0.451276 11.1387 
1.77667 -0.451276 11.1387 2.03315 -0.400479 11.2809 2.02725 -0.251248 11.3043 
1.76869 -0.187378 11.18 2.02725 -0.251248 11.3043 2.0097 -0.104313 11.3271 
1.76869 -0.187378 11.18 2.0097 -0.104313 11.3271 1.98348 0.0441579 11.3515 
1.98348 0.0441579 11.3515 1.70876 0.160945 11.2438 1.76869 -0.187378 11.18 
1.70876 0.160945 11.2438 1.98348 0.0441579 11.3515 1.94186 0.18759 11.3728 
1.70876 0.160945 11.2438 1.94186 0.18759 11.3728 1.89173 0.323623 11.3933 
1.70876 0.160945 11.2438 1.89173 0.323623 11.3933 1.82544 0.464503 11.4134 
1.82544 0.464503 11.4134 1.4756 0.615778 11.3121 1.70876 0.160945 11.2438 
1.4756 0.615778 11.3121 1.82544 0.464503 11.4134 1.75207 0.587447 11.4296 
1.4756 0.615778 11.3121 1.75207 0.587447 11.4296 1.68829 0.717264 11.4573 
1.27359 0.949788 11.4025 1.4756 0.615778 11.3121 1.53859 0.845959 11.4566 
1.4756 0.615778 11.3121 1.68829 0.717264 11.4573 1.53859 0.845959 11.4566 
0.920206 1.21349 11.4477 1.27359 0.949788 11.4025 1.21236 1.20523 11.5324 
0.825732 1.43476 11.5715 0.685361 1.48888 11.5795 0.563004 1.36985 11.4738 
0.563004 1.36985 11.4738 0.685361 1.48888 11.5795 0.541382 1.535 11.5873 
0.563004 1.36985 11.4738 0.541382 1.535 11.5873 0.394957 1.56862 11.5923 
0.394957 1.56862 11.5923 0.227119 1.4955 11.53 0.563004 1.36985 11.4738 
0.227119 1.4955 11.53 0.0953936 1.60656 11.5992 -0.0535274 1.60398 11.5966 
-0.0535274 1.60398 11.5966 -0.0999485 1.38432 11.4348 0.227119 1.4955 11.53 
-0.0999485 1.38432 11.4348 -0.0535274 1.60398 11.5966 -0.209479 1.59224 11.5938 
-0.0999485 1.38432 11.4348 -0.209479 1.59224 11.5938 -0.351242 1.56965 11.5888 
-0.351242 1.56965 11.5888 -0.429014 1.3428 11.4346 -0.0999485 1.38432 11.4348 
-0.429014 1.3428 11.4346 -0.351242 1.56965 11.5888 -0.496443 1.53729 11.5827 
-0.429014 1.3428 11.4346 -0.496443 1.53729 11.5827 -0.654576 1.49302 11.5768 
-0.654576 1.49302 11.5768 -0.667326 1.23853 11.3998 -0.429014 1.3428 11.4346 
-0.667326 1.23853 11.3998 -0.654576 1.49302 11.5768 -0.834181 1.41398 11.56 
-0.978754 1.09357 11.3873 -0.667326 1.23853 11.3998 -0.99791 1.33967 11.5521 
-1.24302 0.874341 11.3479 -0.978754 1.09357 11.3873 -1.24612 1.1843 11.5309 
-1.56928 0.87384 11.4819 -1.66233 0.755471 11.4639 -1.45401 0.673112 11.3321 
-1.45401 0.673112 11.3321 -1.24302 0.874341 11.3479 -1.56928 0.87384 11.4819 
-1.74411 0.630565 11.4438 -1.68819 0.404189 11.322 -1.45401 0.673112 11.3321 
-1.45401 0.673112 11.3321 -1.66233 0.755471 11.4639 -1.74411 0.630565 11.4438 
-1.68819 0.404189 11.322 -1.74411 0.630565 11.4438 -1.81719 0.498769 11.4228 
-1.68819 0.404189 11.322 -1.81719 0.498769 11.4228 -1.88091 0.364791 11.4024 
-1.68819 0.404189 11.322 -1.88091 0.364791 11.4024 -1.92964 0.224784 11.3786 
-1.92964 0.224784 11.3786 -1.82182 6.2543e-05 11.2564 -1.68819 0.404189 11.322 
-1.82182 6.2543e-05 11.2564 -1.92964 0.224784 11.3786 -1.96644 0.0821245 11.3538 
-1.82182 6.2543e-05 11.2564 -1.96644 0.0821245 11.3538 -1.97367 -0.0962417 11.3115 
-1.97367 -0.0962417 11.3115 -1.77358 -0.452713 11.1315 -1.82182 6.2543e-05 11.2564 
-1.84836 -0.860292 11.1489 -1.77358 -0.452713 11.1315 -2.00026 -0.744947 11.2249 
-1.69691 -1.1492 11.0747 -1.84836 -0.860292 11.1489 -1.92961 -1.02534 11.1806 
-1.57074 -1.67494 11.0788 -1.37877 -1.69976 11.0177 -1.56332 -1.48002 11.053 
-1.37877 -1.69976 11.0177 -1.36358 -1.89127 11.045 -1.24612 -1.98497 11.0289 
-1.24612 -1.98497 11.0289 -1.06601 -1.90407 10.9578 -1.37877 -1.69976 11.0177 
-1.06601 -1.90407 10.9578 -1.24612 -1.98497 11.0289 -1.12456 -2.07013 11.015 
-1.06601 -1.90407 10.9578 -1.12456 -2.07013 11.015 -0.997976 -2.13935 11.0011 
-0.997976 -2.13935 11.0011 -0.795108 -2.10623 10.952 -1.06601 -1.90407 10.9578 
-0.318243 -2.24705 10.9281 -0.609714 -2.19629 10.9452 -0.498536 -2.34615 10.9719 
-0.000761073 -2.23148 10.9043 -0.318243 -2.24705 10.9281 -0.209214 -2.3898 10.9619 
0.238081 -2.25875 10.9262 -0.000761073 -2.23148 10.9043 0.095385 -2.40767 10.9634 
0.562757 -2.13961 10.9163 0.238081 -2.25875 10.9262 0.394992 -2.36945 10.9685 
0.541312 -2.33596 10.9742 0.68538 -2.29072 10.9813 0.562757 -2.13961 10.9163 
0.825782 -2.23507 10.99 0.917228 -1.89068 10.9112 0.562757 -2.13961 10.9163 
0.562757 -2.13961 10.9163 0.68538 -2.29072 10.9813 0.825782 -2.23507 10.99 
0.917228 -1.89068 10.9112 0.825782 -2.23507 10.99 0.959022 -2.16913 10.9998 
0.917228 -1.89068 10.9112 0.959022 -2.16913 10.9998 1.09237 -2.09634 11.0129 
0.917228 -1.89068 10.9112 1.09237 -2.09634 11.0129 1.21229 -2.00527 11.0239 
1.21229 -2.00527 11.0239 1.20406 -1.67834 10.9472 0.917228 -1.89068 10.9112 
1.20406 -1.67834 10.9472 1.21229 -2.00527 11.0239 1.32557 -1.91514 11.0381 
1.20406 -1.67834 10.9472 1.32557 -1.91514 11.0381 1.44419 -1.81263 11.0565 
1.44419 -1.81263 11.0565 1.43103 -1.41946 10.9844 1.20406 -1.67834 10.9472 
1.43103 -1.41946 10.9844 1.44419 -1.81263 11.0565 1.57828 -1.65886 11.0798 
1.64073 -1.03904 11.0397 1.43103 -1.41946 10.9844 1.75737 -1.38946 11.1194 
1.88857 -0.803398 11.1699 1.64073 -1.03904 11.0397 1.93999 -0.986664 11.1858 
1.77667 -0.451276 11.1387 1.88857 -0.803398 11.1699 2.00971 -0.696457 11.2333 
2.02728 -0.549695 11.2571 2.03315 -0.400479 11.2809 1.77667 -0.451276 11.1387 
1.34656 0.299688 11.0685 1.70876 0.160945 11.2438 1.4756 0.615778 11.3121 
1.06301 0.84788 11.2422 1.27359 0.949788 11.4025 0.920206 1.21349 11.4477 
0.747948 1.03814 11.2607 0.920206 1.21349 11.4477 0.563004 1.36985 11.4738 
0.328316 1.21802 11.307 0.563004 1.36985 11.4738 0.227119 1.4955 11.53 
-1.46823 0.31155 11.1522 -1.68819 0.404189 11.322 -1.82182 6.2543e-05 11.2564 
-1.58467 -0.0584523 11.0959 -1.82182 6.2543e-05 11.2564 -1.77358 -0.452713 11.1315 
-1.55994 -0.781706 10.9815 -1.84836 -0.860292 11.1489 -1.69691 -1.1492 11.0747 
-1.46091 -1.07255 10.9406 -1.69691 -1.1492 11.0747 -1.56332 -1.48002 11.053 
-1.28718 -1.33296 10.8958 -1.56332 -1.48002 11.053 -1.37877 -1.69976 11.0177 
-1.06242 -1.57077 10.8572 -1.37877 -1.69976 11.0177 -1.06601 -1.90407 10.9578 
-0.755903 -1.76741 10.8219 -1.06601 -1.90407 10.9578 -0.795108 -2.10623 10.952 
-0.755903 -1.76741 10.8219 -0.795108 -2.10623 10.952 -0.609714 -2.19629 10.9452 
-0.489035 -1.87477 10.8036 -0.609714 -2.19629 10.9452 -0.318243 -2.24705 10.9281 
-0.118773 -1.95904 10.7947 -0.318243 -2.24705 10.9281 -0.000761073 -2.23148 10.9043 
-0.118773 -1.95904 10.7947 -0.000761073 -2.23148 10.9043 0.238081 -2.25875 10.9262 
0.298817 -1.93588 10.8001 0.238081 -2.25875 10.9262 0.562757 -2.13961 10.9163 
0.617445 -1.8665 10.826 0.562757 -2.13961 10.9163 0.917228 -1.89068 10.9112 
1.58345 -0.669129 10.9985 1.88857 -0.803398 11.1699 1.77667 -0.451276 11.1387 
1.45933 -0.298488 10.9408 1.77667 -0.451276 11.1387 1.76869 -0.187378 11.18 
1.45933 -0.298488 10.9408 1.76869 -0.187378 11.18 1.70876 0.160945 11.2438 
1.42014 0.0378017 11.0068 1.70876 0.160945 11.2438 1.34656 0.299688 11.0685 
1.11541 0.579166 11.0764 1.4756 0.615778 11.3121 1.06301 0.84788 11.2422 
-0.0510425 1.09401 11.1618 -0.0999485 1.38432 11.4348 -0.429014 1.3428 11.4346 
-0.47629 1.02517 11.155 -0.429014 1.3428 11.4346 -0.667326 1.23853 11.3998 
-0.47629 1.02517 11.155 -0.667326 1.23853 11.3998 -0.978754 1.09357 11.3873 
-0.855728 0.83364 11.127 -0.978754 1.09357 11.3873 -1.24302 0.874341 11.3479 
-1.13746 0.574332 11.0906 -1.24302 0.874341 11.3479 -1.45401 0.673112 11.3321 
-1.13746 0.574332 11.0906 -1.45401 0.673112 11.3321 -1.46823 0.31155 11.1522 
-1.46371 -0.417667 10.9257 -1.77358 -0.452713 11.1315 -1.55994 -0.781706 10.9815 
0.83337 -1.53165 10.7448 0.917228 -1.89068 10.9112 1.20406 -1.67834 10.9472 
1.1278 -1.2651 10.7923 1.20406 -1.67834 10.9472 1.43103 -1.41946 10.9844 
1.33857 -0.931572 10.8417 1.43103 -1.41946 10.9844 1.64073 -1.03904 11.0397 
1.33857 -0.931572 10.8417 1.64073 -1.03904 11.0397 1.58345 -0.669129 10.9985 
0.782863 0.743596 11.0079 1.06301 0.84788 11.2422 0.747948 1.03814 11.2607 
0.548432 0.866216 11.0167 0.747948 1.03814 11.2607 0.328316 1.21802 11.307 
0.267858 1.01981 11.0977 0.328316 1.21802 11.307 -0.0510425 1.09401 11.1618 
-1.13525 0.201554 10.8426 -1.46823 0.31155 11.1522 -1.58467 -0.0584523 11.0959 
-1.21905 -0.180364 10.7551 -1.58467 -0.0584523 11.0959 -1.46371 -0.417667 10.9257 
-1.27698 -0.690197 10.7738 -1.55994 -0.781706 10.9815 -1.46091 -1.07255 10.9406 
-1.13894 -0.881482 10.694 -1.46091 -1.07255 10.9406 -1.28718 -1.33296 10.8958 
-1.05623 -1.24231 10.7379 -1.28718 -1.33296 10.8958 -1.06242 -1.57077 10.8572 
-0.783375 -1.41001 10.6709 -1.06242 -1.57077 10.8572 -0.755903 -1.76741 10.8219 
-0.548432 -1.52354 10.6382 -0.755903 -1.76741 10.8219 -0.489035 -1.87477 10.8036 
-0.26671 -1.69 10.6649 -0.489035 -1.87477 10.8036 -0.118773 -1.95904 10.7947 
0.0649912 -1.71395 10.6632 -0.118773 -1.95904 10.7947 0.298817 -1.93588 10.8001 
0.425414 -1.64939 10.6717 0.298817 -1.93588 10.8001 0.617445 -1.8665 10.826 
0.425414 -1.64939 10.6717 0.617445 -1.8665 10.826 0.83337 -1.53165 10.7448 
1.20615 -0.422608 10.7014 1.58345 -0.669129 10.9985 1.45933 -0.298488 10.9408 
1.22249 -0.0534605 10.7952 1.45933 -0.298488 10.9408 1.42014 0.0378017 11.0068 
1.22249 -0.0534605 10.7952 1.42014 0.0378017 11.0068 1.34656 0.299688 11.0685 
1.05232 0.233191 10.7834 1.34656 0.299688 11.0685 1.11541 0.579166 11.0764 
0.880799 0.481127 10.8216 1.11541 0.579166 11.0764 0.782863 0.743596 11.0079 
0.0416995 0.850759 10.8675 0.267858 1.01981 11.0977 -0.0510425 1.09401 11.1618 
-0.187331 0.843894 10.8767 -0.0510425 1.09401 11.1618 -0.47629 1.02517 11.155 
-0.442499 0.787063 10.8769 -0.47629 1.02517 11.155 -0.855728 0.83364 11.127 
-0.90044 0.457469 10.8179 -0.855728 0.83364 11.127 -1.13746 0.574332 11.0906 
-0.90044 0.457469 10.8179 -1.13746 0.574332 11.0906 -1.13525 0.201554 10.8426 
-1.10998 -0.479179 10.6071 -1.46371 -0.417667 10.9257 -1.27698 -0.690197 10.7738 
-0.886414 -1.10065 10.5764 -1.05623 -1.24231 10.7379 -0.783375 -1.41001 10.6709 
-0.0420285 -1.46226 10.5007 -0.26671 -1.69 10.6649 0.0649912 -1.71395 10.6632 
0.266757 -1.44906 10.5138 0.0649912 -1.71395 10.6632 0.425414 -1.64939 10.6717 
0.538275 -1.36875 10.5432 0.425414 -1.64939 10.6717 0.83337 -1.53165 10.7448 
0.748115 -1.22765 10.5561 0.83337 -1.53165 10.7448 1.1278 -1.2651 10.7923 
0.987285 -0.9686 10.5956 1.1278 -1.2651 10.7923 1.33857 -0.931572 10.8417 
1.1164 -0.705525 10.6349 1.33857 -0.931572 10.8417 1.20615 -0.422608 10.7014 
0.991304 0.067087 10.6162 1.22249 -0.0534605 10.7952 1.05232 0.233191 10.7834 
0.522003 0.630478 10.7099 0.782863 0.743596 11.0079 0.548432 0.866216 11.0167 
0.522003 0.630478 10.7099 0.548432 0.866216 11.0167 0.276886 0.816522 10.8583 
-0.991304 -0.639755 10.5042 -1.27698 -0.690197 10.7738 -1.13894 -0.881482 10.694 
-0.611877 -1.14877 10.4342 -0.783375 -1.41001 10.6709 -0.548432 -1.52354 10.6382 
0.925351 -0.321521 10.3991 1.20615 -0.422608 10.7014 0.967778 -0.126972 10.4983 
0.786328 0.218282 10.4842 1.05232 0.233191 10.7834 0.880799 0.481127 10.8216 
0.167782 0.64086 10.5484 0.276886 0.816522 10.8583 0.0416995 0.850759 10.8675 
-0.134872 0.652457 10.5631 0.0416995 0.850759 10.8675 -0.187331 0.843894 10.8767 
-0.134872 0.652457 10.5631 -0.187331 0.843894 10.8767 -0.442499 0.787063 10.8769 
-0.407972 0.620404 10.6289 -0.442499 0.787063 10.8769 -0.687791 0.652443 10.8559 
-0.562689 0.448695 10.5029 -0.687791 0.652443 10.8559 -0.90044 0.457469 10.8179 
-0.773604 0.255295 10.4992 -0.90044 0.457469 10.8179 -1.13525 0.201554 10.8426 
-0.886552 0.0193148 10.4597 -1.13525 0.201554 10.8426 -1.21905 -0.180364 10.7551 
-0.925351 -0.203107 10.4179 -1.21905 -0.180364 10.7551 -1.10998 -0.479179 10.6071 
-0.786328 -0.742774 10.332 -1.13894 -0.881482 10.694 -0.886414 -1.10065 10.5764 
-0.099468 -1.17659 10.2669 -0.345478 -1.3772 10.4791 -0.0420285 -1.46226 10.5007 
0.134869 -1.18009 10.2729 -0.0420285 -1.46226 10.5007 0.266757 -1.44906 10.5138 
0.407972 -1.16994 10.3454 0.266757 -1.44906 10.5138 0.538275 -1.36875 10.5432 
0.407972 -1.16994 10.3454 0.538275 -1.36875 10.5432 0.748115 -1.22765 10.5561 
0.764084 -0.784 10.3253 0.748115 -1.22765 10.5561 0.987285 -0.9686 10.5956 
0.764084 -0.784 10.3253 0.987285 -0.9686 10.5956 1.1164 -0.705525 10.6349 
0.886552 -0.545972 10.3702 1.1164 -0.705525 10.6349 1.20615 -0.422608 10.7014 
0.708694 0.0668793 10.2339 0.991304 0.067087 10.6162 0.786328 0.218282 10.4842 
-0.303439 0.506643 10.3659 -0.407972 0.620404 10.6289 -0.562689 0.448695 10.5029 
-0.866884 -0.382041 10.3181 -1.10998 -0.479179 10.6071 -0.991304 -0.639755 10.5042 
-0.708694 -0.52143 10.1407 -0.991304 -0.639755 10.5042 -0.786328 -0.742774 10.332 
-0.371856 -1.04838 10.2202 -0.611877 -1.14877 10.4342 -0.345478 -1.3772 10.4791 
0.303439 -0.980458 10.1303 0.407972 -1.16994 10.3454 0.558352 -0.957335 10.2664 
0.717215 -0.126402 10.1204 0.925351 -0.321521 10.3991 0.967778 -0.126972 10.4983 
0.717215 -0.126402 10.1204 0.967778 -0.126972 10.4983 0.708694 0.0668793 10.2339 
0.572251 0.185184 10.1326 0.786328 0.218282 10.4842 0.649845 0.386586 10.5073 
0.455145 0.321673 10.1658 0.649845 0.386586 10.5073 0.417097 0.510763 10.4598 
0.277071 0.444708 10.2127 0.417097 0.510763 10.4598 0.167782 0.64086 10.5484 
0.00587748 0.497703 10.2129 0.167782 0.64086 10.5484 -0.134872 0.652457 10.5631 
-0.613944 0.166135 10.1729 -0.773604 0.255295 10.4992 -0.886552 0.0193148 10.4597 
-0.702439 -0.0504125 10.1293 -0.886552 0.0193148 10.4597 -0.925351 -0.203107 10.4179 
-0.717215 -0.30254 10.0925 -0.925351 -0.203107 10.4179 -0.866884 -0.382041 10.3181 
-0.717215 -0.30254 10.0925 -0.866884 -0.382041 10.3181 -0.708694 -0.52143 10.1407 
-0.572251 -0.602649 10.0078 -0.786328 -0.742774 10.332 -0.649845 -0.909989 10.302 
-0.455145 -0.742717 9.99723 -0.649845 -0.909989 10.302 -0.371856 -1.04838 10.2202 
-0.277071 -0.874229 10.0038 -0.371856 -1.04838 10.2202 -0.099468 -1.17659 10.2669 
-0.00746746 -0.926182 9.98879 -0.099468 -1.17659 10.2669 0.134869 -1.18009 10.2729 
0.613944 -0.596981 10.052 0.764084 -0.784 10.3253 0.886552 -0.545972 10.3702 
0.702439 -0.377549 10.0774 0.886552 -0.545972 10.3702 0.925351 -0.321521 10.3991 
-0.083232 0.38261 9.89586 0.00587748 0.497703 10.2129 -0.303439 0.506643 10.3659 
-0.289338 0.372469 10.0568 -0.303439 0.506643 10.3659 -0.562689 0.448695 10.5029 
-0.421764 0.279177 10.0222 -0.562689 0.448695 10.5029 -0.613944 0.166135 10.1729 
0.083232 -0.717253 9.72166 -0.00746746 -0.926182 9.98879 0.303439 -0.980458 10.1303 
0.289338 -0.757335 9.87783 0.303439 -0.980458 10.1303 0.558352 -0.957335 10.2664 
0.421764 -0.657933 9.87381 0.558352 -0.957335 10.2664 0.613944 -0.596981 10.052 
0.533717 0.0187552 9.84122 0.717215 -0.126402 10.1204 0.708694 0.0668793 10.2339 
0.352382 0.251112 9.83339 0.455145 0.321673 10.1658 0.277071 0.444708 10.2127 
0.140543 0.36501 9.85128 0.277071 0.444708 10.2127 0.00587748 0.497703 10.2129 
-0.457084 0.115356 9.77843 -0.613944 0.166135 10.1729 -0.702439 -0.0504125 10.1293 
-0.577802 -0.11059 9.84544 -0.702439 -0.0504125 10.1293 -0.717215 -0.30254 10.0925 
-0.533717 -0.354323 9.78213 -0.717215 -0.30254 10.0925 -0.708694 -0.52143 10.1407 
-0.352382 -0.572887 9.70288 -0.455145 -0.742717 9.99723 -0.277071 -0.874229 10.0038 
-0.140543 -0.686738 9.6847 -0.277071 -0.874229 10.0038 -0.00746746 -0.926182 9.98879 
0.457084 -0.426792 9.69256 0.613944 -0.596981 10.052 0.702439 -0.377549 10.0774 
0.577802 -0.232612 9.82612 0.702439 -0.377549 10.0774 0.717215 -0.126402 10.1204 
-0.13658 0.309361 9.61945 -0.083232 0.38261 9.89586 -0.289338 0.372469 10.0568 
-0.13658 0.309361 9.61945 -0.289338 0.372469 10.0568 -0.421764 0.279177 10.0222 
0.13658 -0.562172 9.48141 0.083232 -0.717253 9.72166 0.289338 -0.757335 9.87783 
0.13658 -0.562172 9.48141 0.289338 -0.757335 9.87783 0.421764 -0.657933 9.87381 
0.422514 -0.03614 9.45355 0.577802 -0.232612 9.82612 0.533717 0.0187552 9.84122 
0.422514 -0.03614 9.45355 0.533717 0.0187552 9.84122 0.38901 0.138368 9.64039 
0.225113 0.260114 9.53443 0.352382 0.251112 9.83339 0.140543 0.36501 9.85128 
0.0338038 0.300669 9.44706 0.140543 0.36501 9.85128 -0.083232 0.38261 9.89586 
-0.422514 -0.182317 9.4304 -0.577802 -0.11059 9.84544 -0.533717 -0.354323 9.78213 
-0.422514 -0.182317 9.4304 -0.533717 -0.354323 9.78213 -0.38901 -0.406021 9.55417 
-0.225113 -0.489066 9.41578 -0.352382 -0.572887 9.70288 -0.140543 -0.686738 9.6847 
-0.0338038 -0.500636 9.32015 -0.140543 -0.686738 9.6847 0.083232 -0.717253 9.72166 
0.335559 0.0667612 9.22295 0.422514 -0.03614 9.45355 0.38901 0.138368 9.64039 
0.217337 0.219423 9.19302 0.38901 0.138368 9.64039 0.225113 0.260114 9.53443 
-0.109011 0.279934 9.29781 0.0338038 0.300669 9.44706 -0.13658 0.309361 9.61945 
-0.109011 0.279934 9.29781 -0.13658 0.309361 9.61945 -0.289047 0.243833 9.6668 
-0.291225 0.174078 9.36665 -0.289047 0.243833 9.6668 -0.457084 0.115356 9.77843 
-0.335559 -0.208921 9.17928 -0.422514 -0.182317 9.4304 -0.38901 -0.406021 9.55417 
-0.217337 -0.344863 9.10364 -0.38901 -0.406021 9.55417 -0.225113 -0.489066 9.41578 
0.109011 -0.434794 9.18461 -0.0338038 -0.500636 9.32015 0.13658 -0.562172 9.48141 
0.109011 -0.434794 9.18461 0.13658 -0.562172 9.48141 0.289047 -0.514484 9.54669 
0.291225 -0.355392 9.28279 0.289047 -0.514484 9.54669 0.457084 -0.426792 9.69256 
0.342425 -0.0390129 9.08348 0.408907 -0.240637 9.43337 0.422514 -0.03614 9.45355 
-0.310583 0.0914185 9.08928 -0.291225 0.174078 9.36665 -0.408907 0.0184085 9.4744 
-0.342425 -0.0652268 9.07933 -0.408907 0.0184085 9.4744 -0.422514 -0.182317 9.4304 
0.310583 -0.191067 9.04454 0.291225 -0.355392 9.28279 0.408907 -0.240637 9.43337 
0.072203 0.281835 8.94741 0.217337 0.219423 9.19302 0.0338038 0.300669 9.44706 
0.072203 0.281835 8.94741 0.0338038 0.300669 9.44706 -0.109011 0.279934 9.29781 
-0.072203 -0.328321 8.85077 -0.217337 -0.344863 9.10364 -0.0338038 -0.500636 9.32015 
-0.072203 -0.328321 8.85077 -0.0338038 -0.500636 9.32015 0.109011 -0.434794 9.18461 
0.287987 0.121897 8.82701 0.342425 -0.0390129 9.08348 0.335559 0.0667612 9.22295 
0.287987 0.121897 8.82701 0.335559 0.0667612 9.22295 0.217337 0.219423 9.19302 
-0.254711 0.168637 8.80676 -0.193454 0.226568 9.03603 -0.310583 0.0914185 9.08928 
-0.306694 0.044309 8.79085 -0.310583 0.0914185 9.08928 -0.342425 -0.0652268 9.07933 
-0.287987 -0.139007 8.78568 -0.342425 -0.0652268 9.07933 -0.335559 -0.208921 9.17928 
-0.287987 -0.139007 8.78568 -0.335559 -0.208921 9.17928 -0.217337 -0.344863 9.10364 
0.254711 -0.177202 8.75199 0.193454 -0.303146 8.95213 0.310583 -0.191067 9.04454 
0.306694 -0.0540435 8.77528 0.310583 -0.191067 9.04454 0.342425 -0.0390129 9.08348 
0.300117 0.0476115 8.59902 0.306694 -0.0540435 8.77528 0.287987 0.121897 8.82701 
0.287987 0.121897 8.82701 0.216877 0.231007 8.62806 0.231483 0.214948 8.62557 
0.216877 0.231007 8.62806 0.287987 0.121897 8.82701 0.182371 0.241923 8.82006 
0.145683 0.284889 8.6383 0.182371 0.241923 8.82006 0.072203 0.281835 8.94741 
0.0449797 0.321115 8.63011 0.072203 0.281835 8.94741 -0.0508787 0.285787 8.95995 
-0.0508787 0.285787 8.95995 -0.0115291 0.32193 8.64246 0.00845798 0.322618 8.63944 
-0.0906628 0.305158 8.66184 -0.0508787 0.285787 8.95995 -0.193454 0.226568 9.03603 
-0.193454 0.226568 9.03603 -0.12313 0.296136 8.63838 -0.0906628 0.305158 8.66184 
-0.198638 0.24848 8.63026 -0.193454 0.226568 9.03603 -0.254711 0.168637 8.80676 
-0.265218 0.17219 8.58026 -0.254711 0.168637 8.80676 -0.306694 0.044309 8.79085 
-0.306694 0.044309 8.79085 -0.286972 0.114554 8.60962 -0.280474 0.133492 8.6099 
-0.300117 0.00209623 8.59181 -0.306694 0.044309 8.79085 -0.287987 -0.139007 8.78568 
-0.287987 -0.139007 8.78568 -0.216877 -0.1813 8.56276 -0.231483 -0.165257 8.56535 
-0.216877 -0.1813 8.56276 -0.287987 -0.139007 8.78568 -0.182371 -0.251011 8.74199 
-0.145683 -0.235706 8.55584 -0.182371 -0.251011 8.74199 -0.072203 -0.328321 8.85077 
-0.0449797 -0.267631 8.53686 -0.072203 -0.328321 8.85077 0.0508787 -0.335955 8.86147 
0.0508787 -0.335955 8.86147 0.0115291 -0.272222 8.54836 -0.00845798 -0.271941 8.54527 
0.0906628 -0.262259 8.57197 0.0508787 -0.335955 8.86147 0.193454 -0.303146 8.95213 
0.193454 -0.303146 8.95213 0.12313 -0.246428 8.55245 0.0906628 -0.262259 8.57197 
0.198638 -0.198597 8.55945 0.193454 -0.303146 8.95213 0.254711 -0.177202 8.75199 
0.265218 -0.110589 8.53547 0.254711 -0.177202 8.75199 0.306694 -0.0540435 8.77528 
0.306694 -0.0540435 8.77528 0.286972 -0.0648459 8.58121 0.280474 -0.0829454 8.57562 
0.306694 -0.0540435 8.77528 0.301002 0.0185994 8.55996 0.297307 -0.0229814 8.5922 
0.297307 -0.0229814 8.5922 0.293082 -0.0428856 8.58468 0.306694 -0.0540435 8.77528 
0.306694 -0.0540435 8.77528 0.293082 -0.0428856 8.58468 0.286972 -0.0648459 8.58121 
0.306694 -0.0540435 8.77528 0.280474 -0.0829454 8.57562 0.265218 -0.110589 8.53547 
0.254711 -0.177202 8.75199 0.265218 -0.110589 8.53547 0.246197 -0.146185 8.56832 
0.254711 -0.177202 8.75199 0.246197 -0.146185 8.56832 0.231792 -0.165284 8.56783 
0.231792 -0.165284 8.56783 0.216877 -0.1813 8.56276 0.254711 -0.177202 8.75199 
0.254711 -0.177202 8.75199 0.216877 -0.1813 8.56276 0.198638 -0.198597 8.55945 
0.198638 -0.198597 8.55945 0.182474 -0.211582 8.55797 0.193454 -0.303146 8.95213 
0.193454 -0.303146 8.95213 0.182474 -0.211582 8.55797 0.155215 -0.227681 8.53783 
0.193454 -0.303146 8.95213 0.155215 -0.227681 8.53783 0.12313 -0.246428 8.55245 
0.0508787 -0.335955 8.86147 0.0906628 -0.262259 8.57197 0.0558809 -0.268828 8.55831 
0.0558809 -0.268828 8.55831 0.0345197 -0.270479 8.54864 0.0508787 -0.335955 8.86147 
0.0508787 -0.335955 8.86147 0.0345197 -0.270479 8.54864 0.0115291 -0.272222 8.54836 
0.0508787 -0.335955 8.86147 -0.00845798 -0.271941 8.54527 -0.0449797 -0.267631 8.53686 
-0.072203 -0.328321 8.85077 -0.0449797 -0.267631 8.53686 -0.0797594 -0.261813 8.55001 
-0.072203 -0.328321 8.85077 -0.0797594 -0.261813 8.55001 -0.102095 -0.255082 8.5526 
-0.102095 -0.255082 8.5526 -0.12313 -0.246428 8.55245 -0.072203 -0.328321 8.85077 
-0.072203 -0.328321 8.85077 -0.12313 -0.246428 8.55245 -0.145683 -0.235706 8.55584 
-0.145683 -0.235706 8.55584 -0.163614 -0.224685 8.55589 -0.182371 -0.251011 8.74199 
-0.182371 -0.251011 8.74199 -0.163614 -0.224685 8.55589 -0.190527 -0.200929 8.52742 
-0.182371 -0.251011 8.74199 -0.190527 -0.200929 8.52742 -0.216877 -0.1813 8.56276 
-0.287987 -0.139007 8.78568 -0.231483 -0.165257 8.56535 -0.246197 -0.146185 8.56832 
-0.287987 -0.139007 8.78568 -0.246197 -0.146185 8.56832 -0.259365 -0.126634 8.57445 
-0.259365 -0.126634 8.57445 -0.269746 -0.107061 8.57452 -0.287987 -0.139007 8.78568 
-0.287987 -0.139007 8.78568 -0.269746 -0.107061 8.57452 -0.280176 -0.0846005 8.58102 
-0.280176 -0.0846005 8.58102 -0.286972 -0.0648459 8.58121 -0.287987 -0.139007 8.78568 
-0.287987 -0.139007 8.78568 -0.286972 -0.0648459 8.58121 -0.295717 -0.0273617 8.55136 
-0.287987 -0.139007 8.78568 -0.295717 -0.0273617 8.55136 -0.300117 0.00209623 8.59181 
-0.306694 0.044309 8.79085 -0.300117 0.00209623 8.59181 -0.301002 0.0417568 8.56363 
-0.306694 0.044309 8.79085 -0.301002 0.0417568 8.56363 -0.297307 0.0713418 8.60714 
-0.297307 0.0713418 8.60714 -0.293082 0.0925934 8.60614 -0.306694 0.044309 8.79085 
-0.306694 0.044309 8.79085 -0.293082 0.0925934 8.60614 -0.286972 0.114554 8.60962 
-0.306694 0.044309 8.79085 -0.280474 0.133492 8.6099 -0.265218 0.17219 8.58026 
-0.254711 0.168637 8.80676 -0.265218 0.17219 8.58026 -0.246197 0.195893 8.6225 
-0.254711 0.168637 8.80676 -0.246197 0.195893 8.6225 -0.231792 0.214209 8.62794 
-0.231792 0.214209 8.62794 -0.216877 0.231007 8.62806 -0.254711 0.168637 8.80676 
-0.254711 0.168637 8.80676 -0.216877 0.231007 8.62806 -0.198638 0.24848 8.63026 
-0.198638 0.24848 8.63026 -0.182474 0.26129 8.63286 -0.193454 0.226568 9.03603 
-0.193454 0.226568 9.03603 -0.182474 0.26129 8.63286 -0.155215 0.282823 8.61869 
-0.193454 0.226568 9.03603 -0.155215 0.282823 8.61869 -0.12313 0.296136 8.63838 
-0.0508787 0.285787 8.95995 -0.0906628 0.305158 8.66184 -0.0558809 0.315628 8.65088 
-0.0558809 0.315628 8.65088 -0.0345197 0.320187 8.64219 -0.0508787 0.285787 8.95995 
-0.0508787 0.285787 8.95995 -0.0345197 0.320187 8.64219 -0.0115291 0.32193 8.64246 
-0.0508787 0.285787 8.95995 0.00845798 0.322618 8.63944 0.0449797 0.321115 8.63011 
0.072203 0.281835 8.94741 0.0449797 0.321115 8.63011 0.0797594 0.311521 8.64082 
0.072203 0.281835 8.94741 0.0797594 0.311521 8.64082 0.102095 0.304319 8.6412 
0.102095 0.304319 8.6412 0.12313 0.296136 8.63838 0.072203 0.281835 8.94741 
0.072203 0.281835 8.94741 0.12313 0.296136 8.63838 0.145683 0.284889 8.6383 
0.145683 0.284889 8.6383 0.163614 0.274392 8.63494 0.182371 0.241923 8.82006 
0.182371 0.241923 8.82006 0.163614 0.274392 8.63494 0.190527 0.260598 8.60051 
0.182371 0.241923 8.82006 0.190527 0.260598 8.60051 0.216877 0.231007 8.62806 
0.287987 0.121897 8.82701 0.231483 0.214948 8.62557 0.246197 0.195893 8.6225 
0.287987 0.121897 8.82701 0.246197 0.195893 8.6225 0.259365 0.175406 8.62228 
0.259365 0.175406 8.62228 0.269746 0.156769 8.61631 0.287987 0.121897 8.82701 
0.287987 0.121897 8.82701 0.269746 0.156769 8.61631 0.280176 0.1334 8.61554 
0.280176 0.1334 8.61554 0.286972 0.114554 8.60962 0.287987 0.121897 8.82701 
0.287987 0.121897 8.82701 0.286972 0.114554 8.60962 0.295717 0.0881263 8.56965 
0.287987 0.121897 8.82701 0.295717 0.0881263 8.56965 0.300117 0.0476115 8.59902 
0.306694 -0.0540435 8.77528 0.300117 0.0476115 8.59902 0.301002 0.0185994 8.55996 
0.310583 -0.191067 9.04454 0.306694 -0.0540435 8.77528 0.254711 -0.177202 8.75199 
-0.217337 -0.344863 9.10364 -0.072203 -0.328321 8.85077 -0.182371 -0.251011 8.74199 
-0.217337 -0.344863 9.10364 -0.182371 -0.251011 8.74199 -0.287987 -0.139007 8.78568 
-0.342425 -0.0652268 9.07933 -0.287987 -0.139007 8.78568 -0.306694 0.044309 8.79085 
-0.310583 0.0914185 9.08928 -0.306694 0.044309 8.79085 -0.254711 0.168637 8.80676 
0.217337 0.219423 9.19302 0.072203 0.281835 8.94741 0.182371 0.241923 8.82006 
0.217337 0.219423 9.19302 0.182371 0.241923 8.82006 0.287987 0.121897 8.82701 
0.342425 -0.0390129 9.08348 0.287987 0.121897 8.82701 0.306694 -0.0540435 8.77528 
0.109011 -0.434794 9.18461 0.193454 -0.303146 8.95213 0.0508787 -0.335955 8.86147 
0.109011 -0.434794 9.18461 0.0508787 -0.335955 8.86147 -0.072203 -0.328321 8.85077 
-0.109011 0.279934 9.29781 -0.193454 0.226568 9.03603 -0.0508787 0.285787 8.95995 
-0.109011 0.279934 9.29781 -0.0508787 0.285787 8.95995 0.072203 0.281835 8.94741 
0.408907 -0.240637 9.43337 0.342425 -0.0390129 9.08348 0.310583 -0.191067 9.04454 
0.291225 -0.355392 9.28279 0.310583 -0.191067 9.04454 0.193454 -0.303146 8.95213 
0.291225 -0.355392 9.28279 0.193454 -0.303146 8.95213 0.109011 -0.434794 9.18461 
-0.225113 -0.489066 9.41578 -0.0338038 -0.500636 9.32015 -0.217337 -0.344863 9.10364 
-0.422514 -0.182317 9.4304 -0.335559 -0.208921 9.17928 -0.342425 -0.0652268 9.07933 
-0.408907 0.0184085 9.4744 -0.342425 -0.0652268 9.07933 -0.310583 0.0914185 9.08928 
-0.291225 0.174078 9.36665 -0.310583 0.0914185 9.08928 -0.193454 0.226568 9.03603 
-0.291225 0.174078 9.36665 -0.193454 0.226568 9.03603 -0.109011 0.279934 9.29781 
0.225113 0.260114 9.53443 0.0338038 0.300669 9.44706 0.217337 0.219423 9.19302 
0.422514 -0.03614 9.45355 0.335559 0.0667612 9.22295 0.342425 -0.0390129 9.08348 
0.457084 -0.426792 9.69256 0.408907 -0.240637 9.43337 0.291225 -0.355392 9.28279 
0.289047 -0.514484 9.54669 0.291225 -0.355392 9.28279 0.109011 -0.434794 9.18461 
-0.38901 -0.406021 9.55417 -0.217337 -0.344863 9.10364 -0.335559 -0.208921 9.17928 
-0.457084 0.115356 9.77843 -0.408907 0.0184085 9.4744 -0.291225 0.174078 9.36665 
-0.289047 0.243833 9.6668 -0.291225 0.174078 9.36665 -0.109011 0.279934 9.29781 
0.38901 0.138368 9.64039 0.217337 0.219423 9.19302 0.335559 0.0667612 9.22295 
0.577802 -0.232612 9.82612 0.422514 -0.03614 9.45355 0.408907 -0.240637 9.43337 
0.083232 -0.717253 9.72166 0.13658 -0.562172 9.48141 -0.0338038 -0.500636 9.32015 
-0.140543 -0.686738 9.6847 -0.0338038 -0.500636 9.32015 -0.225113 -0.489066 9.41578 
-0.352382 -0.572887 9.70288 -0.225113 -0.489066 9.41578 -0.38901 -0.406021 9.55417 
-0.577802 -0.11059 9.84544 -0.422514 -0.182317 9.4304 -0.408907 0.0184085 9.4744 
-0.083232 0.38261 9.89586 -0.13658 0.309361 9.61945 0.0338038 0.300669 9.44706 
0.140543 0.36501 9.85128 0.0338038 0.300669 9.44706 0.225113 0.260114 9.53443 
0.352382 0.251112 9.83339 0.225113 0.260114 9.53443 0.38901 0.138368 9.64039 
0.577802 -0.232612 9.82612 0.408907 -0.240637 9.43337 0.457084 -0.426792 9.69256 
0.421764 -0.657933 9.87381 0.457084 -0.426792 9.69256 0.289047 -0.514484 9.54669 
0.421764 -0.657933 9.87381 0.289047 -0.514484 9.54669 0.13658 -0.562172 9.48141 
-0.572251 -0.602649 10.0078 -0.352382 -0.572887 9.70288 -0.38901 -0.406021 9.55417 
-0.572251 -0.602649 10.0078 -0.38901 -0.406021 9.55417 -0.533717 -0.354323 9.78213 
-0.577802 -0.11059 9.84544 -0.408907 0.0184085 9.4744 -0.457084 0.115356 9.77843 
-0.421764 0.279177 10.0222 -0.457084 0.115356 9.77843 -0.289047 0.243833 9.6668 
-0.421764 0.279177 10.0222 -0.289047 0.243833 9.6668 -0.13658 0.309361 9.61945 
0.572251 0.185184 10.1326 0.352382 0.251112 9.83339 0.38901 0.138368 9.64039 
0.572251 0.185184 10.1326 0.38901 0.138368 9.64039 0.533717 0.0187552 9.84122 
0.702439 -0.377549 10.0774 0.577802 -0.232612 9.82612 0.457084 -0.426792 9.69256 
0.613944 -0.596981 10.052 0.457084 -0.426792 9.69256 0.421764 -0.657933 9.87381 
-0.00746746 -0.926182 9.98879 0.083232 -0.717253 9.72166 -0.140543 -0.686738 9.6847 
-0.277071 -0.874229 10.0038 -0.140543 -0.686738 9.6847 -0.352382 -0.572887 9.70288 
-0.455145 -0.742717 9.99723 -0.352382 -0.572887 9.70288 -0.572251 -0.602649 10.0078 
-0.708694 -0.52143 10.1407 -0.572251 -0.602649 10.0078 -0.533717 -0.354323 9.78213 
-0.717215 -0.30254 10.0925 -0.533717 -0.354323 9.78213 -0.577802 -0.11059 9.84544 
-0.702439 -0.0504125 10.1293 -0.577802 -0.11059 9.84544 -0.457084 0.115356 9.77843 
-0.613944 0.166135 10.1729 -0.457084 0.115356 9.77843 -0.421764 0.279177 10.0222 
0.00587748 0.497703 10.2129 -0.083232 0.38261 9.89586 0.140543 0.36501 9.85128 
0.277071 0.444708 10.2127 0.140543 0.36501 9.85128 0.352382 0.251112 9.83339 
0.455145 0.321673 10.1658 0.352382 0.251112 9.83339 0.572251 0.185184 10.1326 
0.708694 0.0668793 10.2339 0.572251 0.185184 10.1326 0.533717 0.0187552 9.84122 
0.717215 -0.126402 10.1204 0.533717 0.0187552 9.84122 0.577802 -0.232612 9.82612 
0.558352 -0.957335 10.2664 0.421764 -0.657933 9.87381 0.289338 -0.757335 9.87783 
0.303439 -0.980458 10.1303 0.289338 -0.757335 9.87783 0.083232 -0.717253 9.72166 
-0.562689 0.448695 10.5029 -0.421764 0.279177 10.0222 -0.289338 0.372469 10.0568 
-0.303439 0.506643 10.3659 -0.289338 0.372469 10.0568 -0.083232 0.38261 9.89586 
0.925351 -0.321521 10.3991 0.717215 -0.126402 10.1204 0.702439 -0.377549 10.0774 
0.886552 -0.545972 10.3702 0.702439 -0.377549 10.0774 0.613944 -0.596981 10.052 
0.764084 -0.784 10.3253 0.613944 -0.596981 10.052 0.558352 -0.957335 10.2664 
0.134869 -1.18009 10.2729 0.303439 -0.980458 10.1303 -0.00746746 -0.926182 9.98879 
-0.099468 -1.17659 10.2669 -0.00746746 -0.926182 9.98879 -0.277071 -0.874229 10.0038 
-0.371856 -1.04838 10.2202 -0.277071 -0.874229 10.0038 -0.455145 -0.742717 9.99723 
-0.649845 -0.909989 10.302 -0.455145 -0.742717 9.99723 -0.572251 -0.602649 10.0078 
-0.786328 -0.742774 10.332 -0.572251 -0.602649 10.0078 -0.708694 -0.52143 10.1407 
-0.925351 -0.203107 10.4179 -0.717215 -0.30254 10.0925 -0.702439 -0.0504125 10.1293 
-0.886552 0.0193148 10.4597 -0.702439 -0.0504125 10.1293 -0.613944 0.166135 10.1729 
-0.773604 0.255295 10.4992 -0.613944 0.166135 10.1729 -0.562689 0.448695 10.5029 
-0.134872 0.652457 10.5631 -0.303439 0.506643 10.3659 0.00587748 0.497703 10.2129 
0.167782 0.64086 10.5484 0.00587748 0.497703 10.2129 0.277071 0.444708 10.2127 
0.417097 0.510763 10.4598 0.277071 0.444708 10.2127 0.455145 0.321673 10.1658 
0.649845 0.386586 10.5073 0.455145 0.321673 10.1658 0.572251 0.185184 10.1326 
0.786328 0.218282 10.4842 0.572251 0.185184 10.1326 0.708694 0.0668793 10.2339 
0.407972 -1.16994 10.3454 0.303439 -0.980458 10.1303 0.134869 -1.18009 10.2729 
-0.611877 -1.14877 10.4342 -0.371856 -1.04838 10.2202 -0.649845 -0.909989 10.302 
-0.991304 -0.639755 10.5042 -0.708694 -0.52143 10.1407 -0.866884 -0.382041 10.3181 
-1.10998 -0.479179 10.6071 -0.866884 -0.382041 10.3181 -0.925351 -0.203107 10.4179 
-0.407972 0.620404 10.6289 -0.303439 0.506643 10.3659 -0.134872 0.652457 10.5631 
0.522003 0.630478 10.7099 0.167782 0.64086 10.5484 0.417097 0.510763 10.4598 
0.522003 0.630478 10.7099 0.417097 0.510763 10.4598 0.649845 0.386586 10.5073 
0.991304 0.067087 10.6162 0.708694 0.0668793 10.2339 0.967778 -0.126972 10.4983 
1.20615 -0.422608 10.7014 0.925351 -0.321521 10.3991 0.886552 -0.545972 10.3702 
1.1164 -0.705525 10.6349 0.886552 -0.545972 10.3702 0.764084 -0.784 10.3253 
0.748115 -1.22765 10.5561 0.764084 -0.784 10.3253 0.558352 -0.957335 10.2664 
0.748115 -1.22765 10.5561 0.558352 -0.957335 10.2664 0.407972 -1.16994 10.3454 
0.266757 -1.44906 10.5138 0.407972 -1.16994 10.3454 0.134869 -1.18009 10.2729 
-0.0420285 -1.46226 10.5007 0.134869 -1.18009 10.2729 -0.099468 -1.17659 10.2669 
-0.345478 -1.3772 10.4791 -0.099468 -1.17659 10.2669 -0.371856 -1.04838 10.2202 
-0.886414 -1.10065 10.5764 -0.611877 -1.14877 10.4342 -0.649845 -0.909989 10.302 
-0.886414 -1.10065 10.5764 -0.649845 -0.909989 10.302 -0.786328 -0.742774 10.332 
-1.13894 -0.881482 10.694 -0.786328 -0.742774 10.332 -0.991304 -0.639755 10.5042 
-1.21905 -0.180364 10.7551 -0.925351 -0.203107 10.4179 -0.886552 0.0193148 10.4597 
-1.13525 0.201554 10.8426 -0.886552 0.0193148 10.4597 -0.773604 0.255295 10.4992 
-0.90044 0.457469 10.8179 -0.773604 0.255295 10.4992 -0.562689 0.448695 10.5029 
-0.687791 0.652443 10.8559 -0.562689 0.448695 10.5029 -0.407972 0.620404 10.6289 
-0.442499 0.787063 10.8769 -0.407972 0.620404 10.6289 -0.134872 0.652457 10.5631 
0.0416995 0.850759 10.8675 -0.134872 0.652457 10.5631 0.167782 0.64086 10.5484 
0.276886 0.816522 10.8583 0.167782 0.64086 10.5484 0.522003 0.630478 10.7099 
0.880799 0.481127 10.8216 0.522003 0.630478 10.7099 0.649845 0.386586 10.5073 
0.880799 0.481127 10.8216 0.649845 0.386586 10.5073 0.786328 0.218282 10.4842 
1.05232 0.233191 10.7834 0.786328 0.218282 10.4842 0.991304 0.067087 10.6162 
-0.548432 -1.52354 10.6382 -0.345478 -1.3772 10.4791 -0.611877 -1.14877 10.4342 
-0.783375 -1.41001 10.6709 -0.611877 -1.14877 10.4342 -0.886414 -1.10065 10.5764 
-1.27698 -0.690197 10.7738 -0.991304 -0.639755 10.5042 -1.10998 -0.479179 10.6071 
0.782863 0.743596 11.0079 0.522003 0.630478 10.7099 0.880799 0.481127 10.8216 
1.22249 -0.0534605 10.7952 0.991304 0.067087 10.6162 0.967778 -0.126972 10.4983 
1.22249 -0.0534605 10.7952 0.967778 -0.126972 10.4983 1.20615 -0.422608 10.7014 
1.33857 -0.931572 10.8417 1.1164 -0.705525 10.6349 0.987285 -0.9686 10.5956 
1.1278 -1.2651 10.7923 0.987285 -0.9686 10.5956 0.748115 -1.22765 10.5561 
0.83337 -1.53165 10.7448 0.748115 -1.22765 10.5561 0.538275 -1.36875 10.5432 
0.425414 -1.64939 10.6717 0.538275 -1.36875 10.5432 0.266757 -1.44906 10.5138 
0.0649912 -1.71395 10.6632 0.266757 -1.44906 10.5138 -0.0420285 -1.46226 10.5007 
-0.26671 -1.69 10.6649 -0.0420285 -1.46226 10.5007 -0.345478 -1.3772 10.4791 
-0.26671 -1.69 10.6649 -0.345478 -1.3772 10.4791 -0.548432 -1.52354 10.6382 
-1.05623 -1.24231 10.7379 -0.886414 -1.10065 10.5764 -1.13894 -0.881482 10.694 
-1.46371 -0.417667 10.9257 -1.10998 -0.479179 10.6071 -1.21905 -0.180364 10.7551 
-0.855728 0.83364 11.127 -0.90044 0.457469 10.8179 -0.687791 0.652443 10.8559 
-0.855728 0.83364 11.127 -0.687791 0.652443 10.8559 -0.442499 0.787063 10.8769 
-0.47629 1.02517 11.155 -0.442499 0.787063 10.8769 -0.187331 0.843894 10.8767 
-0.0510425 1.09401 11.1618 -0.187331 0.843894 10.8767 0.0416995 0.850759 10.8675 
0.267858 1.01981 11.0977 0.0416995 0.850759 10.8675 0.276886 0.816522 10.8583 
0.267858 1.01981 11.0977 0.276886 0.816522 10.8583 0.548432 0.866216 11.0167 
1.11541 0.579166 11.0764 0.880799 0.481127 10.8216 1.05232 0.233191 10.7834 
1.34656 0.299688 11.0685 1.05232 0.233191 10.7834 1.22249 -0.0534605 10.7952 
1.45933 -0.298488 10.9408 1.22249 -0.0534605 10.7952 1.20615 -0.422608 10.7014 
1.58345 -0.669129 10.9985 1.20615 -0.422608 10.7014 1.33857 -0.931572 10.8417 
0.298817 -1.93588 10.8001 0.425414 -1.64939 10.6717 0.0649912 -1.71395 10.6632 
-0.118773 -1.95904 10.7947 0.0649912 -1.71395 10.6632 -0.26671 -1.69 10.6649 
-0.489035 -1.87477 10.8036 -0.26671 -1.69 10.6649 -0.548432 -1.52354 10.6382 
-0.755903 -1.76741 10.8219 -0.548432 -1.52354 10.6382 -0.783375 -1.41001 10.6709 
-1.06242 -1.57077 10.8572 -0.783375 -1.41001 10.6709 -1.05623 -1.24231 10.7379 
-1.28718 -1.33296 10.8958 -1.05623 -1.24231 10.7379 -1.13894 -0.881482 10.694 
-1.46091 -1.07255 10.9406 -1.13894 -0.881482 10.694 -1.27698 -0.690197 10.7738 
-1.55994 -0.781706 10.9815 -1.27698 -0.690197 10.7738 -1.46371 -0.417667 10.9257 
-1.58467 -0.0584523 11.0959 -1.21905 -0.180364 10.7551 -1.13525 0.201554 10.8426 
-1.46823 0.31155 11.1522 -1.13525 0.201554 10.8426 -1.13746 0.574332 11.0906 
0.328316 1.21802 11.307 0.267858 1.01981 11.0977 0.548432 0.866216 11.0167 
0.747948 1.03814 11.2607 0.548432 0.866216 11.0167 0.782863 0.743596 11.0079 
1.06301 0.84788 11.2422 0.782863 0.743596 11.0079 1.11541 0.579166 11.0764 
1.77667 -0.451276 11.1387 1.45933 -0.298488 10.9408 1.58345 -0.669129 10.9985 
1.43103 -1.41946 10.9844 1.33857 -0.931572 10.8417 1.1278 -1.2651 10.7923 
1.20406 -1.67834 10.9472 1.1278 -1.2651 10.7923 0.83337 -1.53165 10.7448 
0.917228 -1.89068 10.9112 0.83337 -1.53165 10.7448 0.617445 -1.8665 10.826 
-1.77358 -0.452713 11.1315 -1.46371 -0.417667 10.9257 -1.58467 -0.0584523 11.0959 
-1.24302 0.874341 11.3479 -1.13746 0.574332 11.0906 -0.855728 0.83364 11.127 
-0.978754 1.09357 11.3873 -0.855728 0.83364 11.127 -0.47629 1.02517 11.155 
-0.429014 1.3428 11.4346 -0.47629 1.02517 11.155 -0.0510425 1.09401 11.1618 
-0.0999485 1.38432 11.4348 -0.0510425 1.09401 11.1618 0.328316 1.21802 11.307 
1.4756 0.615778 11.3121 1.11541 0.579166 11.0764 1.34656 0.299688 11.0685 
1.70876 0.160945 11.2438 1.42014 0.0378017 11.0068 1.45933 -0.298488 10.9408 
1.88857 -0.803398 11.1699 1.58345 -0.669129 10.9985 1.64073 -1.03904 11.0397 
0.562757 -2.13961 10.9163 0.617445 -1.8665 10.826 0.298817 -1.93588 10.8001 
0.238081 -2.25875 10.9262 0.298817 -1.93588 10.8001 -0.118773 -1.95904 10.7947 
-0.318243 -2.24705 10.9281 -0.118773 -1.95904 10.7947 -0.489035 -1.87477 10.8036 
-0.609714 -2.19629 10.9452 -0.489035 -1.87477 10.8036 -0.755903 -1.76741 10.8219 
-1.06601 -1.90407 10.9578 -0.755903 -1.76741 10.8219 -1.06242 -1.57077 10.8572 
-1.37877 -1.69976 11.0177 -1.06242 -1.57077 10.8572 -1.28718 -1.33296 10.8958 
-1.56332 -1.48002 11.053 -1.28718 -1.33296 10.8958 -1.46091 -1.07255 10.9406 
-1.69691 -1.1492 11.0747 -1.46091 -1.07255 10.9406 -1.55994 -0.781706 10.9815 
-1.84836 -0.860292 11.1489 -1.55994 -0.781706 10.9815 -1.77358 -0.452713 11.1315 
-1.82182 6.2543e-05 11.2564 -1.58467 -0.0584523 11.0959 -1.46823 0.31155 11.1522 
-1.68819 0.404189 11.322 -1.46823 0.31155 11.1522 -1.45401 0.673112 11.3321 
0.227119 1.4955 11.53 -0.0999485 1.38432 11.4348 0.328316 1.21802 11.307 
0.563004 1.36985 11.4738 0.328316 1.21802 11.307 0.747948 1.03814 11.2607 
0.920206 1.21349 11.4477 0.747948 1.03814 11.2607 1.06301 0.84788 11.2422 
1.27359 0.949788 11.4025 1.06301 0.84788 11.2422 1.4756 0.615778 11.3121 
2.00971 -0.696457 11.2333 2.02728 -0.549695 11.2571 1.77667 -0.451276 11.1387 
1.89174 -1.12388 11.164 1.93999 -0.986664 11.1858 1.64073 -1.03904 11.0397 
1.83384 -1.26857 11.1433 1.89174 -1.12388 11.164 1.64073 -1.03904 11.0397 
1.75737 -1.38946 11.1194 1.83384 -1.26857 11.1433 1.64073 -1.03904 11.0397 
1.68175 -1.51324 11.1003 1.75737 -1.38946 11.1194 1.43103 -1.41946 10.9844 
1.57828 -1.65886 11.0798 1.68175 -1.51324 11.1003 1.43103 -1.41946 10.9844 
0.394992 -2.36945 10.9685 0.541312 -2.33596 10.9742 0.562757 -2.13961 10.9163 
-0.0535005 -2.40437 10.9617 0.095385 -2.40767 10.9634 -0.000761073 -2.23148 10.9043 
-0.209214 -2.3898 10.9619 -0.0535005 -2.40437 10.9617 -0.000761073 -2.23148 10.9043 
-1.56332 -1.48002 11.053 -1.69691 -1.1492 11.0747 -1.74355 -1.42967 11.1169 
-1.81761 -1.30063 11.1382 -1.74355 -1.42967 11.1169 -1.69691 -1.1492 11.0747 
-1.88088 -1.16588 11.16 -1.81761 -1.30063 11.1382 -1.69691 -1.1492 11.0747 
-1.92961 -1.02534 11.1806 -1.88088 -1.16588 11.16 -1.69691 -1.1492 11.0747 
-2.01495 -0.586886 11.2466 -2.00026 -0.744947 11.2249 -1.77358 -0.452713 11.1315 
-2.02106 -0.357941 11.2814 -2.01495 -0.586886 11.2466 -1.77358 -0.452713 11.1315 
-1.97367 -0.0962417 11.3115 -2.02106 -0.357941 11.2814 -1.77358 -0.452713 11.1315 
-1.47069 0.986252 11.5004 -1.56928 0.87384 11.4819 -1.24302 0.874341 11.3479 
-1.36358 1.09025 11.5173 -1.47069 0.986252 11.5004 -1.24302 0.874341 11.3479 
-1.24612 1.1843 11.5309 -1.36358 1.09025 11.5173 -1.24302 0.874341 11.3479 
-1.12457 1.26961 11.544 -1.24612 1.1843 11.5309 -0.978754 1.09357 11.3873 
-0.99791 1.33967 11.5521 -1.12457 1.26961 11.544 -0.978754 1.09357 11.3873 
-0.834181 1.41398 11.56 -0.99791 1.33967 11.5521 -0.667326 1.23853 11.3998 
0.563004 1.36985 11.4738 0.920206 1.21349 11.4477 0.825732 1.43476 11.5715 
0.959018 1.36846 11.5601 0.825732 1.43476 11.5715 0.920206 1.21349 11.4477 
1.09116 1.29267 11.5483 0.959018 1.36846 11.5601 0.920206 1.21349 11.4477 
1.21236 1.20523 11.5324 1.09116 1.29267 11.5483 0.920206 1.21349 11.4477 
1.32553 1.11509 11.518 1.21236 1.20523 11.5324 1.27359 0.949788 11.4025 
1.43917 1.00743 11.4998 1.32553 1.11509 11.518 1.27359 0.949788 11.4025 
1.53859 0.845959 11.4566 1.43917 1.00743 11.4998 1.27359 0.949788 11.4025 
4.57933 -0.380488 12.4884 2.02725 -0.251248 11.3043 2.03315 -0.400479 11.2809 
2.03315 -0.400479 11.2809 4.58408 -0.586562 12.4557 4.57933 -0.380488 12.4884 
4.56651 -0.203146 12.5156 4.53998 0.0459819 12.5561 2.0097 -0.104313 11.3271 
2.0097 -0.104313 11.3271 2.02725 -0.251248 11.3043 4.56651 -0.203146 12.5156 
4.50827 0.233468 12.5856 4.47099 0.414859 12.6143 1.98348 0.0441579 11.3515 
2.0097 -0.104313 11.3271 4.53998 0.0459819 12.5561 4.50827 0.233468 12.5856 
1.98348 0.0441579 11.3515 2.0097 -0.104313 11.3271 4.50827 0.233468 12.5856 
4.40675 0.661707 12.6533 1.94186 0.18759 11.3728 1.98348 0.0441579 11.3515 
1.98348 0.0441579 11.3515 4.47099 0.414859 12.6143 4.40675 0.661707 12.6533 
4.40675 0.661707 12.6533 4.35323 0.832149 12.6804 1.94186 0.18759 11.3728 
4.35323 0.832149 12.6804 4.28596 1.01995 12.7102 1.89173 0.323623 11.3933 
1.89173 0.323623 11.3933 1.94186 0.18759 11.3728 4.35323 0.832149 12.6804 
4.28596 1.01995 12.7102 4.20457 1.21726 12.7414 1.89173 0.323623 11.3933 
4.20457 1.21726 12.7414 4.12941 1.38038 12.7672 1.82544 0.464503 11.4134 
1.82544 0.464503 11.4134 1.89173 0.323623 11.3933 4.20457 1.21726 12.7414 
4.01634 1.59649 12.8015 1.75207 0.587447 11.4296 1.82544 0.464503 11.4134 
1.82544 0.464503 11.4134 4.12941 1.38038 12.7672 4.01634 1.59649 12.8015 
4.01634 1.59649 12.8015 3.91673 1.76593 12.8283 1.75207 0.587447 11.4296 
3.91673 1.76593 12.8283 3.81648 1.91764 12.851 1.68829 0.717264 11.4573 
1.68829 0.717264 11.4573 1.75207 0.587447 11.4296 3.91673 1.76593 12.8283 
3.62588 2.17374 12.8891 1.53859 0.845959 11.4566 1.68829 0.717264 11.4573 
1.68829 0.717264 11.4573 3.81648 1.91764 12.851 3.62588 2.17374 12.8891 
1.53859 0.845959 11.4566 3.62588 2.17374 12.8891 3.42976 2.41788 12.9316 
3.42976 2.41788 12.9316 3.26084 2.60022 12.9618 1.43917 1.00743 11.4998 
3.12888 2.7224 12.9798 1.32553 1.11509 11.518 1.43917 1.00743 11.4998 
1.32553 1.11509 11.518 3.12888 2.7224 12.9798 2.97051 2.86198 13.0019 
2.81127 2.98972 13.0222 1.21236 1.20523 11.5324 1.32553 1.11509 11.518 
1.21236 1.20523 11.5324 2.81127 2.98972 13.0222 2.66726 3.09631 13.039 
2.66726 3.09631 13.039 2.45438 3.23781 13.0614 1.09116 1.29267 11.5483 
2.29204 3.33449 13.0768 0.959018 1.36846 11.5601 1.09116 1.29267 11.5483 
1.09116 1.29267 11.5483 2.45438 3.23781 13.0614 2.29204 3.33449 13.0768 
1.88305 3.54091 13.1087 0.825732 1.43476 11.5715 0.959018 1.36846 11.5601 
0.685361 1.48888 11.5795 1.88305 3.54091 13.1087 1.73012 3.60623 13.1198 
0.685361 1.48888 11.5795 1.73012 3.60623 13.1198 1.53848 3.67855 13.1313 
0.685361 1.48888 11.5795 0.825732 1.43476 11.5715 1.88305 3.54091 13.1087 
1.33693 3.74425 13.1417 0.541382 1.535 11.5873 0.685361 1.48888 11.5795 
0.685361 1.48888 11.5795 1.53848 3.67855 13.1313 1.33693 3.74425 13.1417 
1.16394 3.7925 13.1489 0.919594 3.84928 13.1583 0.394957 1.56862 11.5923 
0.394957 1.56862 11.5923 0.541382 1.535 11.5873 1.16394 3.7925 13.1489 
0.727414 3.88372 13.1638 0.227119 1.4955 11.53 0.394957 1.56862 11.5923 
0.394957 1.56862 11.5923 0.919594 3.84928 13.1583 0.727414 3.88372 13.1638 
0.727414 3.88372 13.1638 0.544466 3.90903 13.1675 0.227119 1.4955 11.53 
0.287115 3.93425 13.1725 0.0953936 1.60656 11.5992 0.227119 1.4955 11.53 
0.227119 1.4955 11.53 0.544466 3.90903 13.1675 0.287115 3.93425 13.1725 
0.287115 3.93425 13.1725 0.104348 3.93991 13.1727 0.0953936 1.60656 11.5992 
0.104348 3.93991 13.1727 -0.0940894 3.94033 13.1727 -0.0535274 1.60398 11.5966 
-0.0535274 1.60398 11.5966 0.0953936 1.60656 11.5992 0.104348 3.93991 13.1727 
-0.341367 3.93246 13.1732 -0.209479 1.59224 11.5938 -0.0535274 1.60398 11.5966 
-0.0535274 1.60398 11.5966 -0.0940894 3.94033 13.1727 -0.341367 3.93246 13.1732 
-0.734276 3.88279 13.1636 -0.351242 1.56965 11.5888 -0.209479 1.59224 11.5938 
-0.209479 1.59224 11.5938 -0.520661 3.91178 13.1682 -0.734276 3.88279 13.1636 
-0.734276 3.88279 13.1636 -0.932659 3.84638 13.1578 -0.351242 1.56965 11.5888 
-0.932659 3.84638 13.1578 -1.10939 3.80404 13.1496 -0.496443 1.53729 11.5827 
-0.496443 1.53729 11.5827 -0.351242 1.56965 11.5888 -0.932659 3.84638 13.1578 
-1.35829 3.7389 13.1411 -0.654576 1.49302 11.5768 -0.496443 1.53729 11.5827 
-0.496443 1.53729 11.5827 -1.10939 3.80404 13.1496 -1.35829 3.7389 13.1411 
-1.65544 3.6368 13.1246 -0.834181 1.41398 11.56 -0.654576 1.49302 11.5768 
-1.65544 3.6368 13.1246 -1.94931 3.51518 13.1069 -0.834181 1.41398 11.56 
-2.10898 3.43347 13.0924 -0.99791 1.33967 11.5521 -0.834181 1.41398 11.56 
-0.99791 1.33967 11.5521 -2.10898 3.43347 13.0924 -2.29204 3.33449 13.0768 
-2.47036 3.22739 13.0598 -1.12457 1.26961 11.544 -0.99791 1.33967 11.5521 
-1.12457 1.26961 11.544 -2.47036 3.22739 13.0598 -2.62072 3.13015 13.0449 
-2.62072 3.13015 13.0449 -2.82471 2.98046 13.0209 -1.24612 1.1843 11.5309 
-2.97315 2.85963 13.0016 -1.36358 1.09025 11.5173 -1.24612 1.1843 11.5309 
-1.36358 1.09025 11.5173 -2.97315 2.85963 13.0016 -3.11304 2.73705 12.9819 
-3.11304 2.73705 12.9819 -3.30557 2.55175 12.9528 -1.47069 0.986252 11.5004 
-1.56928 0.87384 11.4819 -3.30557 2.55175 12.9528 -3.49838 2.3181 12.9085 
-1.56928 0.87384 11.4819 -1.47069 0.986252 11.5004 -3.30557 2.55175 12.9528 
-3.68391 2.10797 12.8825 -1.66233 0.755471 11.4639 -1.56928 0.87384 11.4819 
-1.56928 0.87384 11.4819 -3.49838 2.3181 12.9085 -3.68391 2.10797 12.8825 
-3.78843 1.96296 12.8593 -3.92219 1.75738 12.827 -1.74411 0.630565 11.4438 
-1.74411 0.630565 11.4438 -1.66233 0.755471 11.4639 -3.78843 1.96296 12.8593 
-4.02108 1.58742 12.8001 -1.81719 0.498769 11.4228 -1.74411 0.630565 11.4438 
-1.74411 0.630565 11.4438 -3.92219 1.75738 12.827 -4.02108 1.58742 12.8001 
-4.02108 1.58742 12.8001 -4.10539 1.42733 12.7743 -1.81719 0.498769 11.4228 
-4.21571 1.1962 12.7387 -1.88091 0.364791 11.4024 -1.81719 0.498769 11.4228 
-1.81719 0.498769 11.4228 -4.10539 1.42733 12.7743 -4.21571 1.1962 12.7387 
-4.21571 1.1962 12.7387 -4.28334 1.02637 12.7112 -1.88091 0.364791 11.4024 
-4.28334 1.02637 12.7112 -4.34919 0.844783 12.6824 -1.92964 0.224784 11.3786 
-1.92964 0.224784 11.3786 -1.88091 0.364791 11.4024 -4.28334 1.02637 12.7112 
-4.4259 0.608398 12.6468 -1.96644 0.0821245 11.3538 -1.92964 0.224784 11.3786 
-1.92964 0.224784 11.3786 -4.34919 0.844783 12.6824 -4.4259 0.608398 12.6468 
-4.4259 0.608398 12.6468 -4.46581 0.435284 12.6176 -1.96644 0.0821245 11.3538 
-4.46581 0.435284 12.6176 -4.51822 0.151009 12.5699 -1.97367 -0.0962417 11.3115 
-1.97367 -0.0962417 11.3115 -1.96644 0.0821245 11.3538 -4.46581 0.435284 12.6176 
-4.51822 0.151009 12.5699 -4.56348 -0.146764 12.5256 -1.97367 -0.0962417 11.3115 
-4.56348 -0.146764 12.5256 -2.02106 -0.357941 11.2814 -1.97367 -0.0962417 11.3115 
-2.02106 -0.357941 11.2814 -4.56348 -0.146764 12.5256 -4.58065 -0.399649 12.4854 
-4.57322 -0.7066 12.4316 -4.56262 -1.02553 12.386 -2.01495 -0.586886 11.2466 
-4.54139 -1.20308 12.3581 -2.00026 -0.744947 11.2249 -2.01495 -0.586886 11.2466 
-2.00026 -0.744947 11.2249 -4.54139 -1.20308 12.3581 -4.50898 -1.4032 12.3264 
-4.46581 -1.60841 12.2939 -1.84836 -0.860292 11.1489 -2.00026 -0.744947 11.2249 
-1.84836 -0.860292 11.1489 -4.46581 -1.60841 12.2939 -4.42262 -1.78098 12.2667 
-4.42262 -1.78098 12.2667 -4.34928 -2.01789 12.229 -1.92961 -1.02534 11.1806 
-4.28334 -2.1995 12.2003 -1.88088 -1.16588 11.16 -1.92961 -1.02534 11.1806 
-1.88088 -1.16588 11.16 -4.28334 -2.1995 12.2003 -4.21424 -2.36841 12.1733 
-4.21424 -2.36841 12.1733 -4.10297 -2.60832 12.1357 -1.81761 -1.30063 11.1382 
-1.74355 -1.42967 11.1169 -4.10297 -2.60832 12.1357 -4.02108 -2.76054 12.1114 
-1.74355 -1.42967 11.1169 -4.02108 -2.76054 12.1114 -3.92442 -2.92548 12.085 
-1.74355 -1.42967 11.1169 -1.81761 -1.30063 11.1382 -4.10297 -2.60832 12.1357 
-1.56332 -1.48002 11.053 -3.92442 -2.92548 12.085 -3.78917 -3.13515 12.0519 
-1.56332 -1.48002 11.053 -1.74355 -1.42967 11.1169 -3.92442 -2.92548 12.085 
-3.68391 -3.28109 12.029 -3.55161 -3.44935 12.0023 -1.57074 -1.67494 11.0788 
-1.56332 -1.48002 11.053 -3.78917 -3.13515 12.0519 -3.68391 -3.28109 12.029 
-1.57074 -1.67494 11.0788 -1.56332 -1.48002 11.053 -3.68391 -3.28109 12.029 
-3.42057 -3.6008 11.9783 -1.37877 -1.69976 11.0177 -1.57074 -1.67494 11.0788 
-1.57074 -1.67494 11.0788 -3.55161 -3.44935 12.0023 -3.42057 -3.6008 11.9783 
-3.42057 -3.6008 11.9783 -3.2969 -3.73134 11.957 -1.37877 -1.69976 11.0177 
-3.11341 -3.91025 11.9293 -1.36358 -1.89127 11.045 -1.37877 -1.69976 11.0177 
-1.37877 -1.69976 11.0177 -3.2969 -3.73134 11.957 -3.11341 -3.91025 11.9293 
-3.11341 -3.91025 11.9293 -2.97315 -4.03276 11.9099 -1.36358 -1.89127 11.045 
-2.97315 -4.03276 11.9099 -2.82483 -4.1538 11.8911 -1.24612 -1.98497 11.0289 
-1.24612 -1.98497 11.0289 -1.36358 -1.89127 11.045 -2.97315 -4.03276 11.9099 
-2.62038 -4.30288 11.8674 -1.12456 -2.07013 11.015 -1.24612 -1.98497 11.0289 
-1.24612 -1.98497 11.0289 -2.82483 -4.1538 11.8911 -2.62038 -4.30288 11.8674 
-2.62038 -4.30288 11.8674 -2.47036 -4.40052 11.8517 -1.12456 -2.07013 11.015 
-2.47036 -4.40052 11.8517 -2.29204 -4.50762 11.8347 -0.997976 -2.13935 11.0011 
-0.997976 -2.13935 11.0011 -1.12456 -2.07013 11.015 -2.47036 -4.40052 11.8517 
-2.29204 -4.50762 11.8347 -2.10898 -4.60659 11.819 -0.997976 -2.13935 11.0011 
-2.10898 -4.60659 11.819 -1.9479 -4.68583 11.8065 -0.795108 -2.10623 10.952 
-0.795108 -2.10623 10.952 -0.997976 -2.13935 11.0011 -2.10898 -4.60659 11.819 
-0.795108 -2.10623 10.952 -1.9479 -4.68583 11.8065 -1.71488 -4.7859 11.7906 
-1.71488 -4.7859 11.7906 -1.53512 -4.85279 11.78 -0.609714 -2.19629 10.9452 
-1.53512 -4.85279 11.78 -1.35843 -4.91266 11.7711 -0.609714 -2.19629 10.9452 
-1.35843 -4.91266 11.7711 -1.10999 -4.97953 11.7597 -0.498536 -2.34615 10.9719 
-0.932659 -5.01951 11.7536 -0.318243 -2.24705 10.9281 -0.498536 -2.34615 10.9719 
-0.318243 -2.24705 10.9281 -0.932659 -5.01951 11.7536 -0.7343 -5.05589 11.7479 
-0.7343 -5.05589 11.7479 -0.493913 -5.0884 11.7427 -0.209214 -2.3898 10.9619 
-0.312829 -5.10365 11.7403 -0.0940996 -5.11346 11.7387 -0.0535005 -2.40437 10.9617 
-0.209214 -2.3898 10.9619 -0.493913 -5.0884 11.7427 -0.312829 -5.10365 11.7403 
0.104348 -5.11303 11.7388 0.095385 -2.40767 10.9634 -0.0535005 -2.40437 10.9617 
0.095385 -2.40767 10.9634 0.104348 -5.11303 11.7388 0.286778 -5.10268 11.739 
0.286778 -5.10268 11.739 0.544612 -5.08324 11.7438 0.238081 -2.25875 10.9262 
0.727414 -5.05684 11.7477 0.919586 -5.02231 11.7531 0.394992 -2.36945 10.9685 
0.238081 -2.25875 10.9262 0.544612 -5.08324 11.7438 0.727414 -5.05684 11.7477 
1.16479 -4.96886 11.7628 0.541312 -2.33596 10.9742 0.394992 -2.36945 10.9685 
1.33693 -4.91737 11.7698 1.53848 -4.85168 11.7802 0.68538 -2.29072 10.9813 
0.541312 -2.33596 10.9742 1.16479 -4.96886 11.7628 1.33693 -4.91737 11.7698 
0.68538 -2.29072 10.9813 0.541312 -2.33596 10.9742 1.33693 -4.91737 11.7698 
1.73012 -4.77935 11.7917 0.825782 -2.23507 10.99 0.68538 -2.29072 10.9813 
0.68538 -2.29072 10.9813 1.53848 -4.85168 11.7802 1.73012 -4.77935 11.7917 
1.73012 -4.77935 11.7917 1.89577 -4.70792 11.8023 0.825782 -2.23507 10.99 
1.89577 -4.70792 11.8023 2.12608 -4.59805 11.8203 0.959022 -2.16913 10.9998 
0.959022 -2.16913 10.9998 0.825782 -2.23507 10.99 1.89577 -4.70792 11.8023 
2.29204 -4.50762 11.8347 2.45485 -4.41181 11.8503 1.09237 -2.09634 11.0129 
0.959022 -2.16913 10.9998 2.12608 -4.59805 11.8203 2.29204 -4.50762 11.8347 
1.09237 -2.09634 11.0129 0.959022 -2.16913 10.9998 2.29204 -4.50762 11.8347 
2.6673 -4.26934 11.8723 1.21229 -2.00527 11.0239 1.09237 -2.09634 11.0129 
1.09237 -2.09634 11.0129 2.45485 -4.41181 11.8503 2.6673 -4.26934 11.8723 
2.6673 -4.26934 11.8723 2.81127 -4.16284 11.8893 1.21229 -2.00527 11.0239 
2.81127 -4.16284 11.8893 2.97052 -4.03509 11.9095 1.32557 -1.91514 11.0381 
1.32557 -1.91514 11.0381 1.21229 -2.00527 11.0239 2.81127 -4.16284 11.8893 
2.97052 -4.03509 11.9095 3.12888 -3.89553 11.9317 1.32557 -1.91514 11.0381 
3.12888 -3.89553 11.9317 3.25865 -3.77126 11.9511 1.44419 -1.81263 11.0565 
1.44419 -1.81263 11.0565 1.32557 -1.91514 11.0381 3.12888 -3.89553 11.9317 
3.47251 -3.54055 11.9867 1.57828 -1.65886 11.0798 1.44419 -1.81263 11.0565 
1.44419 -1.81263 11.0565 3.25865 -3.77126 11.9511 3.47251 -3.54055 11.9867 
3.47251 -3.54055 11.9867 3.66974 -3.30047 12.0258 1.57828 -1.65886 11.0798 
3.66974 -3.30047 12.0258 3.81919 -3.09229 12.059 1.68175 -1.51324 11.1003 
3.91673 -2.93905 12.0831 1.75737 -1.38946 11.1194 1.68175 -1.51324 11.1003 
1.75737 -1.38946 11.1194 3.91673 -2.93905 12.0831 4.01637 -2.7695 12.11 
4.01637 -2.7695 12.11 4.12995 -2.55373 12.1444 1.83384 -1.26857 11.1433 
4.20457 -2.39038 12.17 1.89174 -1.12388 11.164 1.83384 -1.26857 11.1433 
1.89174 -1.12388 11.164 4.20457 -2.39038 12.17 4.28599 -2.1931 12.2013 
4.35323 -2.00527 12.231 1.93999 -0.986664 11.1858 1.89174 -1.12388 11.164 
1.93999 -0.986664 11.1858 4.35323 -2.00527 12.231 4.40742 -1.83465 12.2582 
4.40742 -1.83465 12.2582 4.47048 -1.58743 12.2969 1.88857 -0.803398 11.1699 
4.50827 -1.40659 12.3259 2.00971 -0.696457 11.2333 1.88857 -0.803398 11.1699 
1.88857 -0.803398 11.1699 4.47048 -1.58743 12.2969 4.50827 -1.40659 12.3259 
4.56699 -0.969847 12.3944 2.02728 -0.549695 11.2571 2.00971 -0.696457 11.2333 
4.57933 -0.792636 12.4231 4.58408 -0.586562 12.4557 2.03315 -0.400479 11.2809 
2.02728 -0.549695 11.2571 4.56699 -0.969847 12.3944 4.57933 -0.792636 12.4231 
2.03315 -0.400479 11.2809 2.02728 -0.549695 11.2571 4.57933 -0.792636 12.4231 
2.00971 -0.696457 11.2333 4.54012 -1.21933 12.3558 4.56699 -0.969847 12.3944 
4.50827 -1.40659 12.3259 4.54012 -1.21933 12.3558 2.00971 -0.696457 11.2333 
1.88857 -0.803398 11.1699 1.93999 -0.986664 11.1858 4.40742 -1.83465 12.2582 
1.89174 -1.12388 11.164 4.28599 -2.1931 12.2013 4.35323 -2.00527 12.231 
1.83384 -1.26857 11.1433 4.12995 -2.55373 12.1444 4.20457 -2.39038 12.17 
1.83384 -1.26857 11.1433 1.75737 -1.38946 11.1194 4.01637 -2.7695 12.11 
1.68175 -1.51324 11.1003 3.81919 -3.09229 12.059 3.91673 -2.93905 12.0831 
1.68175 -1.51324 11.1003 1.57828 -1.65886 11.0798 3.66974 -3.30047 12.0258 
0.394992 -2.36945 10.9685 0.919586 -5.02231 11.7531 1.16479 -4.96886 11.7628 
0.394992 -2.36945 10.9685 0.238081 -2.25875 10.9262 0.727414 -5.05684 11.7477 
0.238081 -2.25875 10.9262 0.095385 -2.40767 10.9634 0.286778 -5.10268 11.739 
-0.0535005 -2.40437 10.9617 -0.0940996 -5.11346 11.7387 0.104348 -5.11303 11.7388 
-0.0535005 -2.40437 10.9617 -0.209214 -2.3898 10.9619 -0.312829 -5.10365 11.7403 
-0.209214 -2.3898 10.9619 -0.318243 -2.24705 10.9281 -0.7343 -5.05589 11.7479 
-0.498536 -2.34615 10.9719 -1.10999 -4.97953 11.7597 -0.932659 -5.01951 11.7536 
-0.498536 -2.34615 10.9719 -0.609714 -2.19629 10.9452 -1.35843 -4.91266 11.7711 
-0.609714 -2.19629 10.9452 -0.795108 -2.10623 10.952 -1.71488 -4.7859 11.7906 
-1.81761 -1.30063 11.1382 -1.88088 -1.16588 11.16 -4.21424 -2.36841 12.1733 
-1.92961 -1.02534 11.1806 -4.34928 -2.01789 12.229 -4.28334 -2.1995 12.2003 
-1.92961 -1.02534 11.1806 -1.84836 -0.860292 11.1489 -4.42262 -1.78098 12.2667 
-2.00026 -0.744947 11.2249 -4.50898 -1.4032 12.3264 -4.46581 -1.60841 12.2939 
-2.01495 -0.586886 11.2466 -4.56262 -1.02553 12.386 -4.54139 -1.20308 12.3581 
-2.01495 -0.586886 11.2466 -2.02106 -0.357941 11.2814 -4.57322 -0.7066 12.4316 
-2.02106 -0.357941 11.2814 -4.58065 -0.399649 12.4854 -4.57322 -0.7066 12.4316 
-3.68391 2.10797 12.8825 -3.78843 1.96296 12.8593 -1.66233 0.755471 11.4639 
-1.47069 0.986252 11.5004 -1.36358 1.09025 11.5173 -3.11304 2.73705 12.9819 
-1.24612 1.1843 11.5309 -2.82471 2.98046 13.0209 -2.97315 2.85963 13.0016 
-1.24612 1.1843 11.5309 -1.12457 1.26961 11.544 -2.62072 3.13015 13.0449 
-0.99791 1.33967 11.5521 -2.29204 3.33449 13.0768 -2.47036 3.22739 13.0598 
-0.834181 1.41398 11.56 -1.94931 3.51518 13.1069 -2.10898 3.43347 13.0924 
-0.654576 1.49302 11.5768 -1.35829 3.7389 13.1411 -1.65544 3.6368 13.1246 
-0.209479 1.59224 11.5938 -0.341367 3.93246 13.1732 -0.520661 3.91178 13.1682 
1.33693 3.74425 13.1417 1.16394 3.7925 13.1489 0.541382 1.535 11.5873 
0.959018 1.36846 11.5601 2.12602 3.42481 13.0909 1.88305 3.54091 13.1087 
2.29204 3.33449 13.0768 2.12602 3.42481 13.0909 0.959018 1.36846 11.5601 
1.09116 1.29267 11.5483 1.21236 1.20523 11.5324 2.66726 3.09631 13.039 
1.32553 1.11509 11.518 2.97051 2.86198 13.0019 2.81127 2.98972 13.0222 
1.43917 1.00743 11.4998 3.26084 2.60022 12.9618 3.12888 2.7224 12.9798 
1.43917 1.00743 11.4998 1.53859 0.845959 11.4566 3.42976 2.41788 12.9316 
4.57933 -0.380488 12.4884 4.56651 -0.203146 12.5156 2.02725 -0.251248 11.3043 
-4.78814 -0.500921 12.579 -4.57322 -0.7066 12.4316 -4.58065 -0.399649 12.4854 
-4.58065 -0.399649 12.4854 -4.56348 -0.146764 12.5256 -4.75437 -0.0608732 12.6453 
-4.51822 0.151009 12.5699 -4.67792 0.506148 12.7496 -4.75437 -0.0608732 12.6453 
-4.51822 0.151009 12.5699 -4.46581 0.435284 12.6176 -4.67792 0.506148 12.7496 
-4.67792 0.506148 12.7496 -4.46581 0.435284 12.6176 -4.4259 0.608398 12.6468 
-4.4259 0.608398 12.6468 -4.34919 0.844783 12.6824 -4.46846 1.07489 12.8214 
-4.46846 1.07489 12.8214 -4.28334 1.02637 12.7112 -4.21571 1.1962 12.7387 
-4.21571 1.1962 12.7387 -4.10539 1.42733 12.7743 -4.25578 1.56209 12.904 
-4.25578 1.56209 12.904 -4.02108 1.58742 12.8001 -3.92219 1.75738 12.827 
-3.92219 1.75738 12.827 -4.03966 1.94698 12.9699 -4.25578 1.56209 12.904 
-3.92219 1.75738 12.827 -3.78843 1.96296 12.8593 -4.03966 1.94698 12.9699 
-3.76359 2.32692 13.0279 -4.03966 1.94698 12.9699 -3.78843 1.96296 12.8593 
-3.68391 2.10797 12.8825 -3.49838 2.3181 12.9085 -3.76359 2.32692 13.0279 
-3.49094 2.63452 13.0753 -3.76359 2.32692 13.0279 -3.49838 2.3181 12.9085 
-3.49094 2.63452 13.0753 -3.49838 2.3181 12.9085 -3.30557 2.55175 12.9528 
-3.30557 2.55175 12.9528 -3.11304 2.73705 12.9819 -3.0917 3.01621 13.1369 
-3.0917 3.01621 13.1369 -2.97315 2.85963 13.0016 -2.82471 2.98046 13.0209 
-2.82471 2.98046 13.0209 -2.62072 3.13015 13.0449 -2.66673 3.32501 13.1843 
-2.47036 3.22739 13.0598 -2.29204 3.33449 13.0768 -2.19756 3.6029 13.2284 
-2.29204 3.33449 13.0768 -2.10898 3.43347 13.0924 -2.19756 3.6029 13.2284 
-2.19756 3.6029 13.2284 -2.10898 3.43347 13.0924 -1.94931 3.51518 13.1069 
-1.94931 3.51518 13.1069 -1.65544 3.6368 13.1246 -1.68797 3.82394 13.2639 
-1.68797 3.82394 13.2639 -1.65544 3.6368 13.1246 -1.35829 3.7389 13.1411 
-1.35829 3.7389 13.1411 -1.17228 3.98307 13.287 -1.68797 3.82394 13.2639 
-1.35829 3.7389 13.1411 -1.10939 3.80404 13.1496 -1.17228 3.98307 13.287 
-1.17228 3.98307 13.287 -0.932659 3.84638 13.1578 -0.734276 3.88279 13.1636 
-0.734276 3.88279 13.1636 -0.636799 4.09243 13.3115 -1.17228 3.98307 13.287 
-0.734276 3.88279 13.1636 -0.520661 3.91178 13.1682 -0.636799 4.09243 13.3115 
-0.636799 4.09243 13.3115 -0.520661 3.91178 13.1682 -0.341367 3.93246 13.1732 
-0.341367 3.93246 13.1732 -0.100402 4.133 13.316 -0.636799 4.09243 13.3115 
-0.341367 3.93246 13.1732 -0.0940894 3.94033 13.1727 -0.100402 4.133 13.316 
-0.100402 4.133 13.316 0.104348 3.93991 13.1727 0.287115 3.93425 13.1725 
0.287115 3.93425 13.1725 0.560501 4.09235 13.3021 -0.100402 4.133 13.316 
0.287115 3.93425 13.1725 0.544466 3.90903 13.1675 0.560501 4.09235 13.3021 
0.560501 4.09235 13.3021 0.727414 3.88372 13.1638 0.919594 3.84928 13.1583 
0.919594 3.84928 13.1583 1.32872 3.9321 13.2708 0.560501 4.09235 13.3021 
0.919594 3.84928 13.1583 1.16394 3.7925 13.1489 1.32872 3.9321 13.2708 
1.33693 3.74425 13.1417 1.53848 3.67855 13.1313 1.32872 3.9321 13.2708 
1.97 3.70335 13.2405 1.32872 3.9321 13.2708 1.53848 3.67855 13.1313 
1.97 3.70335 13.2405 1.73012 3.60623 13.1198 1.88305 3.54091 13.1087 
1.88305 3.54091 13.1087 2.12602 3.42481 13.0909 1.97 3.70335 13.2405 
2.49878 3.45056 13.2156 1.97 3.70335 13.2405 2.12602 3.42481 13.0909 
2.49878 3.45056 13.2156 2.29204 3.33449 13.0768 2.45438 3.23781 13.0614 
2.45438 3.23781 13.0614 2.66726 3.09631 13.039 2.87934 3.19179 13.1704 
2.87934 3.19179 13.1704 2.81127 2.98972 13.0222 2.97051 2.86198 13.0019 
2.97051 2.86198 13.0019 3.29173 2.92594 13.1662 2.87934 3.19179 13.1704 
2.97051 2.86198 13.0019 3.12888 2.7224 12.9798 3.29173 2.92594 13.1662 
3.29173 2.92594 13.1662 3.12888 2.7224 12.9798 3.26084 2.60022 12.9618 
3.26084 2.60022 12.9618 3.42976 2.41788 12.9316 3.65003 2.45381 13.0444 
3.62588 2.17374 12.8891 3.99076 2.01998 12.9786 3.65003 2.45381 13.0444 
3.62588 2.17374 12.8891 3.81648 1.91764 12.851 3.99076 2.01998 12.9786 
3.99076 2.01998 12.9786 3.91673 1.76593 12.8283 4.01634 1.59649 12.8015 
4.01634 1.59649 12.8015 4.25994 1.58585 12.9176 3.99076 2.01998 12.9786 
4.01634 1.59649 12.8015 4.12941 1.38038 12.7672 4.25994 1.58585 12.9176 
4.46128 1.14673 12.8457 4.25994 1.58585 12.9176 4.12941 1.38038 12.7672 
4.20457 1.21726 12.7414 4.28596 1.01995 12.7102 4.46128 1.14673 12.8457 
4.58419 0.763736 12.7788 4.46128 1.14673 12.8457 4.28596 1.01995 12.7102 
4.58419 0.763736 12.7788 4.35323 0.832149 12.6804 4.40675 0.661707 12.6533 
4.40675 0.661707 12.6533 4.47099 0.414859 12.6143 4.72598 0.187873 12.6879 
4.72598 0.187873 12.6879 4.50827 0.233468 12.5856 4.53998 0.0459819 12.5561 
4.53998 0.0459819 12.5561 4.56651 -0.203146 12.5156 4.79129 -0.418589 12.5931 
4.57933 -0.380488 12.4884 4.58408 -0.586562 12.4557 4.79129 -0.418589 12.5931 
4.58408 -0.586562 12.4557 4.57933 -0.792636 12.4231 4.76296 -1.03119 12.4894 
4.76296 -1.03119 12.4894 4.57933 -0.792636 12.4231 4.56699 -0.969847 12.3944 
4.56699 -0.969847 12.3944 4.54012 -1.21933 12.3558 4.76296 -1.03119 12.4894 
4.69774 -1.55121 12.4154 4.76296 -1.03119 12.4894 4.54012 -1.21933 12.3558 
4.69774 -1.55121 12.4154 4.50827 -1.40659 12.3259 4.47048 -1.58743 12.2969 
4.47048 -1.58743 12.2969 4.40742 -1.83465 12.2582 4.57835 -2.00045 12.3423 
4.57835 -2.00045 12.3423 4.35323 -2.00527 12.231 4.28599 -2.1931 12.2013 
4.28599 -2.1931 12.2013 4.33266 -2.64524 12.243 4.57835 -2.00045 12.3423 
4.28599 -2.1931 12.2013 4.20457 -2.39038 12.17 4.33266 -2.64524 12.243 
4.33266 -2.64524 12.243 4.20457 -2.39038 12.17 4.12995 -2.55373 12.1444 
4.12995 -2.55373 12.1444 4.01637 -2.7695 12.11 4.33266 -2.64524 12.243 
4.09687 -3.2207 12.2015 4.33266 -2.64524 12.243 4.01637 -2.7695 12.11 
4.09687 -3.2207 12.2015 3.91673 -2.93905 12.0831 3.81919 -3.09229 12.059 
3.81919 -3.09229 12.059 3.66974 -3.30047 12.0258 3.76225 -3.53259 12.0985 
3.47251 -3.54055 11.9867 3.3084 -4.0369 12.0212 3.76225 -3.53259 12.0985 
3.47251 -3.54055 11.9867 3.25865 -3.77126 11.9511 3.3084 -4.0369 12.0212 
3.12888 -3.89553 11.9317 2.97052 -4.03509 11.9095 3.3084 -4.0369 12.0212 
2.8437 -4.41341 11.9609 3.3084 -4.0369 12.0212 2.97052 -4.03509 11.9095 
2.8437 -4.41341 11.9609 2.81127 -4.16284 11.8893 2.6673 -4.26934 11.8723 
2.6673 -4.26934 11.8723 2.45485 -4.41181 11.8503 2.39922 -4.69547 11.9118 
2.39922 -4.69547 11.9118 2.29204 -4.50762 11.8347 2.12608 -4.59805 11.8203 
2.12608 -4.59805 11.8203 1.89577 -4.70792 11.8023 1.88831 -4.95143 11.8735 
1.88831 -4.95143 11.8735 1.73012 -4.77935 11.7917 1.53848 -4.85168 11.7802 
1.53848 -4.85168 11.7802 1.46023 -5.11917 11.8527 1.88831 -4.95143 11.8735 
1.53848 -4.85168 11.7802 1.33693 -4.91737 11.7698 1.46023 -5.11917 11.8527 
1.46023 -5.11917 11.8527 1.33693 -4.91737 11.7698 1.16479 -4.96886 11.7628 
1.16479 -4.96886 11.7628 0.930312 -5.25116 11.8289 1.46023 -5.11917 11.8527 
1.16479 -4.96886 11.7628 0.919586 -5.02231 11.7531 0.930312 -5.25116 11.8289 
0.930312 -5.25116 11.8289 0.727414 -5.05684 11.7477 0.544612 -5.08324 11.7438 
0.544612 -5.08324 11.7438 0.327826 -5.32539 11.8141 0.930312 -5.25116 11.8289 
0.544612 -5.08324 11.7438 0.286778 -5.10268 11.739 0.327826 -5.32539 11.8141 
0.327826 -5.32539 11.8141 0.104348 -5.11303 11.7388 -0.0940996 -5.11346 11.7387 
-0.0940996 -5.11346 11.7387 -0.467051 -5.33456 11.8215 0.327826 -5.32539 11.8141 
-0.0940996 -5.11346 11.7387 -0.312829 -5.10365 11.7403 -0.467051 -5.33456 11.8215 
-0.467051 -5.33456 11.8215 -0.312829 -5.10365 11.7403 -0.493913 -5.0884 11.7427 
-0.493913 -5.0884 11.7427 -0.7343 -5.05589 11.7479 -0.467051 -5.33456 11.8215 
-1.18718 -5.20148 11.8406 -0.467051 -5.33456 11.8215 -0.7343 -5.05589 11.7479 
-1.18718 -5.20148 11.8406 -0.932659 -5.01951 11.7536 -1.10999 -4.97953 11.7597 
-1.10999 -4.97953 11.7597 -1.35843 -4.91266 11.7711 -1.18718 -5.20148 11.8406 
-1.70931 -5.0219 11.8626 -1.18718 -5.20148 11.8406 -1.35843 -4.91266 11.7711 
-1.70931 -5.0219 11.8626 -1.53512 -4.85279 11.78 -1.71488 -4.7859 11.7906 
-1.71488 -4.7859 11.7906 -1.9479 -4.68583 11.8065 -2.19386 -4.80368 11.893 
-2.10898 -4.60659 11.819 -2.29204 -4.50762 11.8347 -2.19386 -4.80368 11.893 
-2.29204 -4.50762 11.8347 -2.47036 -4.40052 11.8517 -2.67893 -4.53339 11.9442 
-2.67893 -4.53339 11.9442 -2.47036 -4.40052 11.8517 -2.62038 -4.30288 11.8674 
-2.62038 -4.30288 11.8674 -2.82483 -4.1538 11.8911 -3.11932 -4.198 11.9933 
-3.11932 -4.198 11.9933 -2.97315 -4.03276 11.9099 -3.11341 -3.91025 11.9293 
-3.11341 -3.91025 11.9293 -3.2969 -3.73134 11.957 -3.51404 -3.80916 12.051 
-3.51404 -3.80916 12.051 -3.42057 -3.6008 11.9783 -3.55161 -3.44935 12.0023 
-3.55161 -3.44935 12.0023 -3.93969 -3.31205 12.1369 -3.51404 -3.80916 12.051 
-3.55161 -3.44935 12.0023 -3.68391 -3.28109 12.029 -3.93969 -3.31205 12.1369 
-3.93969 -3.31205 12.1369 -3.68391 -3.28109 12.029 -3.78917 -3.13515 12.0519 
-3.78917 -3.13515 12.0519 -3.92442 -2.92548 12.085 -3.93969 -3.31205 12.1369 
-4.25495 -2.77984 12.2195 -3.93969 -3.31205 12.1369 -3.92442 -2.92548 12.085 
-4.25495 -2.77984 12.2195 -4.02108 -2.76054 12.1114 -4.10297 -2.60832 12.1357 
-4.10297 -2.60832 12.1357 -4.21424 -2.36841 12.1733 -4.45889 -2.35622 12.2895 
-4.45889 -2.35622 12.2895 -4.28334 -2.1995 12.2003 -4.34928 -2.01789 12.229 
-4.34928 -2.01789 12.229 -4.66667 -1.70594 12.3898 -4.45889 -2.35622 12.2895 
-4.34928 -2.01789 12.229 -4.42262 -1.78098 12.2667 -4.66667 -1.70594 12.3898 
-4.46581 -1.60841 12.2939 -4.50898 -1.4032 12.3264 -4.66667 -1.70594 12.3898 
-4.77147 -1.03942 12.4933 -4.66667 -1.70594 12.3898 -4.50898 -1.4032 12.3264 
-4.77147 -1.03942 12.4933 -4.54139 -1.20308 12.3581 -4.56262 -1.02553 12.386 
-4.56262 -1.02553 12.386 -4.57322 -0.7066 12.4316 -4.77147 -1.03942 12.4933 
-4.78814 -0.500921 12.579 -4.77147 -1.03942 12.4933 -4.57322 -0.7066 12.4316 
-4.78814 -0.500921 12.579 -4.75437 -0.0608732 12.6453 -4.95914 -0.285482 12.7426 
-4.75437 -0.0608732 12.6453 -4.67792 0.506148 12.7496 -4.97154 0.136411 12.8565 
-4.67792 0.506148 12.7496 -4.46846 1.07489 12.8214 -4.77761 0.804982 12.9289 
-4.46846 1.07489 12.8214 -4.25578 1.56209 12.904 -4.51186 1.43252 13.0121 
-4.25578 1.56209 12.904 -4.03966 1.94698 12.9699 -4.23537 1.95291 13.0969 
-4.03966 1.94698 12.9699 -3.76359 2.32692 13.0279 -3.91122 2.40311 13.1656 
-3.76359 2.32692 13.0279 -3.49094 2.63452 13.0753 -3.54424 2.82551 13.2364 
-3.49094 2.63452 13.0753 -3.0917 3.01621 13.1369 -3.54424 2.82551 13.2364 
-3.0917 3.01621 13.1369 -2.66673 3.32501 13.1843 -2.77096 3.45268 13.3346 
-2.66673 3.32501 13.1843 -2.19756 3.6029 13.2284 -2.28373 3.72641 13.3661 
-2.19756 3.6029 13.2284 -1.68797 3.82394 13.2639 -1.78871 3.95445 13.4109 
-1.68797 3.82394 13.2639 -1.17228 3.98307 13.287 -1.45244 4.11946 13.4783 
-1.17228 3.98307 13.287 -0.636799 4.09243 13.3115 -0.89736 4.20557 13.4539 
-0.636799 4.09243 13.3115 -0.100402 4.133 13.316 -0.459311 4.30361 13.5029 
-0.100402 4.133 13.316 0.560501 4.09235 13.3021 0.151378 4.28577 13.4668 
0.560501 4.09235 13.3021 1.32872 3.9321 13.2708 1.10489 4.15688 13.4397 
1.32872 3.9321 13.2708 1.97 3.70335 13.2405 1.73037 4.01822 13.4538 
2.49878 3.45056 13.2156 2.87934 3.19179 13.1704 2.9229 3.41564 13.3744 
3.29173 2.92594 13.1662 3.65003 2.45381 13.0444 3.68758 2.66652 13.2069 
3.65003 2.45381 13.0444 3.99076 2.01998 12.9786 4.07 2.18083 13.1255 
3.99076 2.01998 12.9786 4.25994 1.58585 12.9176 4.37101 1.82522 13.1224 
4.25994 1.58585 12.9176 4.46128 1.14673 12.8457 4.60736 1.30745 13.0197 
4.46128 1.14673 12.8457 4.58419 0.763736 12.7788 4.78136 0.70296 12.8931 
4.58419 0.763736 12.7788 4.72598 0.187873 12.6879 4.78136 0.70296 12.8931 
4.72598 0.187873 12.6879 4.79129 -0.418589 12.5931 5.01856 -0.400837 12.7626 
4.79129 -0.418589 12.5931 4.76296 -1.03119 12.4894 4.95914 -0.961538 12.6355 
4.76296 -1.03119 12.4894 4.69774 -1.55121 12.4154 4.93297 -1.53908 12.5773 
4.69774 -1.55121 12.4154 4.57835 -2.00045 12.3423 4.74612 -2.07445 12.4564 
4.57835 -2.00045 12.3423 4.33266 -2.64524 12.243 4.60217 -2.47929 12.3951 
4.09687 -3.2207 12.2015 3.76225 -3.53259 12.0985 3.92561 -3.6377 12.2114 
3.76225 -3.53259 12.0985 3.3084 -4.0369 12.0212 3.55128 -4.05617 12.1419 
3.3084 -4.0369 12.0212 2.8437 -4.41341 11.9609 3.13292 -4.50698 12.1131 
2.8437 -4.41341 11.9609 2.39922 -4.69547 11.9118 2.69234 -4.81818 12.0628 
2.39922 -4.69547 11.9118 1.88831 -4.95143 11.8735 2.1832 -5.03439 11.9904 
1.88831 -4.95143 11.8735 1.46023 -5.11917 11.8527 1.72745 -5.30725 11.9982 
1.46023 -5.11917 11.8527 0.930312 -5.25116 11.8289 1.06616 -5.42017 11.9269 
0.930312 -5.25116 11.8289 0.327826 -5.32539 11.8141 0.449023 -5.51318 11.9146 
0.327826 -5.32539 11.8141 -0.467051 -5.33456 11.8215 -0.225675 -5.53172 11.9103 
-0.467051 -5.33456 11.8215 -1.18718 -5.20148 11.8406 -0.920531 -5.52033 11.9631 
-1.18718 -5.20148 11.8406 -1.70931 -5.0219 11.8626 -1.48689 -5.40178 11.9965 
-1.70931 -5.0219 11.8626 -2.19386 -4.80368 11.893 -1.9832 -5.1256 11.976 
-2.19386 -4.80368 11.893 -2.67893 -4.53339 11.9442 -2.48983 -4.87615 12.0158 
-2.67893 -4.53339 11.9442 -3.11932 -4.198 11.9933 -3.00259 -4.6125 12.0998 
-3.11932 -4.198 11.9933 -3.51404 -3.80916 12.051 -3.635 -3.9725 12.1586 
-3.51404 -3.80916 12.051 -3.93969 -3.31205 12.1369 -4.01281 -3.53519 12.2313 
-3.93969 -3.31205 12.1369 -4.25495 -2.77984 12.2195 -4.31963 -3.05634 12.3046 
-4.25495 -2.77984 12.2195 -4.45889 -2.35622 12.2895 -4.60522 -2.6374 12.4154 
-4.45889 -2.35622 12.2895 -4.66667 -1.70594 12.3898 -4.78404 -1.94749 12.4751 
-4.66667 -1.70594 12.3898 -4.77147 -1.03942 12.4933 -4.97301 -1.40331 12.6145 
-4.77147 -1.03942 12.4933 -4.78814 -0.500921 12.579 -5.01353 -0.857213 12.6871 
-5.01353 -0.857213 12.6871 -4.95914 -0.285482 12.7426 -5.13292 -0.305666 12.8913 
-4.97154 0.136411 12.8565 -4.77761 0.804982 12.9289 -5.04495 0.381445 13.0063 
-4.77761 0.804982 12.9289 -4.51186 1.43252 13.0121 -4.76057 1.27411 13.1397 
-4.51186 1.43252 13.0121 -4.23537 1.95291 13.0969 -4.56221 1.68389 13.1976 
-4.23537 1.95291 13.0969 -3.91122 2.40311 13.1656 -4.06554 2.46342 13.3275 
-3.91122 2.40311 13.1656 -3.54424 2.82551 13.2364 -3.68237 2.90982 13.4028 
-3.54424 2.82551 13.2364 -3.1115 3.20579 13.2952 -3.24193 3.29564 13.4585 
-3.1115 3.20579 13.2952 -2.77096 3.45268 13.3346 -2.84954 3.58273 13.5056 
-2.77096 3.45268 13.3346 -2.28373 3.72641 13.3661 -2.38905 3.84944 13.5437 
-2.28373 3.72641 13.3661 -1.78871 3.95445 13.4109 -1.94916 4.04984 13.577 
-1.45244 4.11946 13.4783 -0.89736 4.20557 13.4539 -1.03828 4.33872 13.6333 
-0.459311 4.30361 13.5029 0.151378 4.28577 13.4668 -0.197985 4.42605 13.6346 
0.151378 4.28577 13.4668 0.679877 4.2401 13.4593 0.370993 4.42954 13.6482 
0.679877 4.2401 13.4593 1.10489 4.15688 13.4397 0.934268 4.35253 13.6318 
1.10489 4.15688 13.4397 1.73037 4.01822 13.4538 1.39989 4.24816 13.6168 
1.73037 4.01822 13.4538 2.35317 3.72822 13.3956 2.16706 3.96352 13.5698 
2.9229 3.41564 13.3744 3.29173 2.92594 13.1662 3.49061 3.08936 13.4295 
3.29173 2.92594 13.1662 3.68758 2.66652 13.2069 3.49061 3.08936 13.4295 
3.68758 2.66652 13.2069 4.07 2.18083 13.1255 4.16511 2.33205 13.3039 
4.37101 1.82522 13.1224 4.60736 1.30745 13.0197 4.71228 1.40785 13.1666 
4.60736 1.30745 13.0197 4.78136 0.70296 12.8931 4.95373 0.716279 13.048 
5.01856 -0.400837 12.7626 4.95914 -0.961538 12.6355 5.15535 -0.849569 12.8187 
4.95914 -0.961538 12.6355 4.93297 -1.53908 12.5773 5.18386 -1.28484 12.8152 
4.93297 -1.53908 12.5773 4.74612 -2.07445 12.4564 4.92685 -2.15859 12.6106 
4.74612 -2.07445 12.4564 4.60217 -2.47929 12.3951 4.76231 -2.56132 12.5314 
4.60217 -2.47929 12.3951 4.41342 -2.88566 12.3306 4.56483 -2.96579 12.4593 
4.41342 -2.88566 12.3306 4.09687 -3.2207 12.2015 4.33438 -3.38207 12.4032 
4.09687 -3.2207 12.2015 3.92561 -3.6377 12.2114 4.06865 -3.74534 12.3393 
3.92561 -3.6377 12.2114 3.55128 -4.05617 12.1419 3.66912 -4.21365 12.2714 
2.69234 -4.81818 12.0628 2.1832 -5.03439 11.9904 2.26719 -5.20816 12.1148 
1.06616 -5.42017 11.9269 0.449023 -5.51318 11.9146 0.582276 -5.69261 12.0359 
0.449023 -5.51318 11.9146 -0.225675 -5.53172 11.9103 0.213184 -5.71974 12.0299 
-1.48689 -5.40178 11.9965 -1.9832 -5.1256 11.976 -2.05318 -5.30244 12.0971 
-1.9832 -5.1256 11.976 -2.48983 -4.87615 12.0158 -2.58278 -5.0344 12.1332 
-3.34424 -4.32809 12.1408 -3.635 -3.9725 12.1586 -3.83207 -4.04841 12.3011 
-3.635 -3.9725 12.1586 -4.01281 -3.53519 12.2313 -3.83207 -4.04841 12.3011 
-4.01281 -3.53519 12.2313 -4.31963 -3.05634 12.3046 -4.45173 -3.21733 12.4417 
-4.60522 -2.6374 12.4154 -4.78404 -1.94749 12.4751 -4.95511 -2.01153 12.6181 
-5.13292 -0.305666 12.8913 -4.97154 0.136411 12.8565 -5.2129 -0.0388918 13.0492 
-1.94916 4.04984 13.577 -1.45244 4.11946 13.4783 -1.68338 4.23924 13.7151 
-1.03828 4.33872 13.6333 -0.459311 4.30361 13.5029 -0.589889 4.44104 13.6977 
1.39989 4.24816 13.6168 1.73037 4.01822 13.4538 1.85278 4.13771 13.6491 
2.16706 3.96352 13.5698 2.35317 3.72822 13.3956 2.64292 3.77174 13.5995 
2.35317 3.72822 13.3956 2.9229 3.41564 13.3744 2.64292 3.77174 13.5995 
4.16511 2.33205 13.3039 4.37101 1.82522 13.1224 4.51539 1.95686 13.3484 
4.95373 0.716279 13.048 4.96386 0.141606 12.8508 5.12728 0.148483 13.0124 
4.96386 0.141606 12.8508 5.01856 -0.400837 12.7626 5.17529 -0.311335 12.936 
5.18386 -1.28484 12.8152 4.93297 -1.53908 12.5773 5.14065 -1.90981 12.7947 
3.66912 -4.21365 12.2714 3.13292 -4.50698 12.1131 3.25413 -4.65135 12.2543 
3.13292 -4.50698 12.1131 2.69234 -4.81818 12.0628 2.80739 -4.96536 12.1994 
2.26719 -5.20816 12.1148 1.72745 -5.30725 11.9982 2.05691 -5.43703 12.1942 
-0.395144 -5.71656 12.0352 -0.920531 -5.52033 11.9631 -1.05872 -5.74499 12.1391 
-0.920531 -5.52033 11.9631 -1.48689 -5.40178 11.9965 -1.05872 -5.74499 12.1391 
-2.58278 -5.0344 12.1332 -3.00259 -4.6125 12.0998 -3.12747 -4.82715 12.286 
-3.00259 -4.6125 12.0998 -3.34424 -4.32809 12.1408 -3.48748 -4.53832 12.331 
-4.45173 -3.21733 12.4417 -4.60522 -2.6374 12.4154 -4.67812 -3.02532 12.5782 
-4.95511 -2.01153 12.6181 -4.97301 -1.40331 12.6145 -5.12728 -1.45764 12.758 
-4.97301 -1.40331 12.6145 -5.01353 -0.857213 12.6871 -5.15729 -0.857802 12.8191 
-5.15729 -0.857802 12.8191 -5.13292 -0.305666 12.8913 -5.28765 -0.435273 13.0406 
-5.2129 -0.0388918 13.0492 -5.04495 0.381445 13.0063 -5.20623 0.508142 13.248 
-5.04495 0.381445 13.0063 -4.92327 0.86127 13.0845 -5.20623 0.508142 13.248 
-4.92327 0.86127 13.0845 -4.76057 1.27411 13.1397 -4.99576 1.20974 13.3692 
-4.76057 1.27411 13.1397 -4.56221 1.68389 13.1976 -4.66791 1.7945 13.3874 
-4.56221 1.68389 13.1976 -4.33518 2.0959 13.2763 -4.66791 1.7945 13.3874 
-4.33518 2.0959 13.2763 -4.06554 2.46342 13.3275 -4.32381 2.34404 13.4802 
-4.06554 2.46342 13.3275 -3.68237 2.90982 13.4028 -4.02812 2.71988 13.5397 
-3.68237 2.90982 13.4028 -3.24193 3.29564 13.4585 -3.67099 3.16549 13.6789 
-3.24193 3.29564 13.4585 -2.84954 3.58273 13.5056 -3.17243 3.56623 13.7359 
-2.84954 3.58273 13.5056 -2.38905 3.84944 13.5437 -2.63919 3.89893 13.772 
-2.38905 3.84944 13.5437 -1.94916 4.04984 13.577 -2.10714 4.12372 13.7621 
-1.68338 4.23924 13.7151 -1.03828 4.33872 13.6333 -1.42942 4.44273 13.9361 
-1.03828 4.33872 13.6333 -0.589889 4.44104 13.6977 -0.737467 4.5726 13.9404 
-0.589889 4.44104 13.6977 -0.197985 4.42605 13.6346 -0.131787 4.59945 13.9027 
-0.197985 4.42605 13.6346 0.370993 4.42954 13.6482 -0.131787 4.59945 13.9027 
0.370993 4.42954 13.6482 0.934268 4.35253 13.6318 0.853674 4.52405 13.8812 
0.934268 4.35253 13.6318 1.39989 4.24816 13.6168 1.2284 4.44555 13.861 
1.39989 4.24816 13.6168 1.85278 4.13771 13.6491 1.69422 4.36641 13.9282 
1.85278 4.13771 13.6491 2.16706 3.96352 13.5698 2.13891 4.14943 13.822 
2.16706 3.96352 13.5698 2.64292 3.77174 13.5995 2.66599 3.88489 13.7716 
2.64292 3.77174 13.5995 3.09251 3.45889 13.5331 3.08412 3.62074 13.7379 
3.09251 3.45889 13.5331 3.49061 3.08936 13.4295 3.50499 3.2992 13.6868 
3.49061 3.08936 13.4295 3.84082 2.73059 13.3721 3.8706 2.89426 13.5674 
3.84082 2.73059 13.3721 4.16511 2.33205 13.3039 4.24773 2.43448 13.479 
4.51539 1.95686 13.3484 4.71228 1.40785 13.1666 4.80485 1.63178 13.4267 
4.71228 1.40785 13.1666 4.95373 0.716279 13.048 4.98912 1.07585 13.2793 
4.95373 0.716279 13.048 5.12728 0.148483 13.0124 5.13333 0.575268 13.1888 
5.12728 0.148483 13.0124 5.17529 -0.311335 12.936 5.31717 -0.264211 13.1168 
5.17529 -0.311335 12.936 5.15535 -0.849569 12.8187 5.33491 -0.785004 13.0341 
4.92685 -2.15859 12.6106 4.76231 -2.56132 12.5314 4.99515 -2.57686 12.7685 
4.76231 -2.56132 12.5314 4.56483 -2.96579 12.4593 4.668 -3.13924 12.6062 
4.56483 -2.96579 12.4593 4.33438 -3.38207 12.4032 4.668 -3.13924 12.6062 
4.33438 -3.38207 12.4032 4.06865 -3.74534 12.3393 4.32381 -3.69031 12.5245 
4.06865 -3.74534 12.3393 3.66912 -4.21365 12.2714 4.02812 -4.06614 12.4649 
3.66912 -4.21365 12.2714 3.25413 -4.65135 12.2543 3.6715 -4.53094 12.4592 
3.25413 -4.65135 12.2543 2.80739 -4.96536 12.1994 3.17243 -4.93169 12.39 
2.80739 -4.96536 12.1994 2.26719 -5.20816 12.1148 2.64631 -5.26334 12.3298 
1.68 -5.56576 12.1614 1.10366 -5.6229 12.0572 1.21707 -5.76595 12.1988 
1.10366 -5.6229 12.0572 0.582276 -5.69261 12.0359 0.679264 -5.86652 12.188 
0.582276 -5.69261 12.0359 0.213184 -5.71974 12.0299 0.307554 -5.94602 12.2219 
0.213184 -5.71974 12.0299 -0.395144 -5.71656 12.0352 -0.336037 -5.90539 12.1828 
-1.65287 -5.58421 12.1661 -2.05318 -5.30244 12.0971 -2.09084 -5.46528 12.2311 
-2.05318 -5.30244 12.0971 -2.58278 -5.0344 12.1332 -2.65066 -5.19414 12.2776 
-3.48748 -4.53832 12.331 -3.83207 -4.04841 12.3011 -3.819 -4.36386 12.473 
-3.83207 -4.04841 12.3011 -4.21943 -3.5804 12.3855 -4.32579 -3.75655 12.5585 
-4.21943 -3.5804 12.3855 -4.45173 -3.21733 12.4417 -4.60924 -3.38216 12.6519 
-4.67812 -3.02532 12.5782 -4.91814 -2.49239 12.6614 -4.9373 -2.87412 12.802 
-4.95511 -2.01153 12.6181 -5.12728 -1.45764 12.758 -5.13334 -1.91806 12.7939 
-5.12728 -1.45764 12.758 -5.15729 -0.857802 12.8191 -5.33513 -0.945585 13.0145 
-5.33513 -0.945585 13.0145 -5.28765 -0.435273 13.0406 -5.43741 -0.677869 13.2 
-5.28765 -0.435273 13.0406 -5.2129 -0.0388918 13.0492 -5.39619 -0.0899134 13.283 
-4.99576 1.20974 13.3692 -4.66791 1.7945 13.3874 -4.8277 1.78147 13.6003 
-4.66791 1.7945 13.3874 -4.32381 2.34404 13.4802 -4.56596 2.20802 13.6528 
-4.32381 2.34404 13.4802 -4.02812 2.71988 13.5397 -4.21786 2.68345 13.7279 
-2.63919 3.89893 13.772 -2.10714 4.12372 13.7621 -2.27906 4.17902 13.9805 
-2.10714 4.12372 13.7621 -1.68338 4.23924 13.7151 -1.84129 4.3444 13.9868 
3.50499 3.2992 13.6868 3.8706 2.89426 13.5674 4.05388 2.87619 13.7597 
3.8706 2.89426 13.5674 4.24773 2.43448 13.479 4.05388 2.87619 13.7597 
4.24773 2.43448 13.479 4.51539 1.95686 13.3484 4.57199 2.19082 13.6409 
4.80485 1.63178 13.4267 4.98912 1.07585 13.2793 5.08314 1.20907 13.5066 
4.98912 1.07585 13.2793 5.13333 0.575268 13.1888 5.25966 0.67792 13.4196 
5.33491 -0.785004 13.0341 5.18386 -1.28484 12.8152 5.39317 -1.42685 13.084 
5.18386 -1.28484 12.8152 5.14065 -1.90981 12.7947 5.39317 -1.42685 13.084 
4.99515 -2.57686 12.7685 4.668 -3.13924 12.6062 4.8277 -3.19241 12.8126 
4.668 -3.13924 12.6062 4.32381 -3.69031 12.5245 4.56596 -3.61428 12.7306 
4.32381 -3.69031 12.5245 4.02812 -4.06614 12.4649 4.21193 -4.09467 12.652 
2.64631 -5.26334 12.3298 2.05691 -5.43703 12.1942 2.15676 -5.62372 12.404 
2.05691 -5.43703 12.1942 1.68 -5.56576 12.1614 1.81973 -5.75377 12.3829 
1.68 -5.56576 12.1614 1.21707 -5.76595 12.1988 1.46677 -5.87106 12.3723 
1.21707 -5.76595 12.1988 0.679264 -5.86652 12.188 0.87182 -6.0121 12.3637 
0.307554 -5.94602 12.2219 -0.336037 -5.90539 12.1828 -0.0152766 -6.07361 12.3455 
-0.336037 -5.90539 12.1828 -1.05872 -5.74499 12.1391 -0.65408 -6.04436 12.3599 
-1.05872 -5.74499 12.1391 -1.65287 -5.58421 12.1661 -1.47158 -5.87133 12.3742 
-1.65287 -5.58421 12.1661 -2.09084 -5.46528 12.2311 -1.95466 -5.71248 12.3991 
-2.09084 -5.46528 12.2311 -2.65066 -5.19414 12.2776 -2.41733 -5.52261 12.4417 
-2.65066 -5.19414 12.2776 -3.12747 -4.82715 12.286 -3.12842 -5.09449 12.5006 
-3.12747 -4.82715 12.286 -3.48748 -4.53832 12.331 -3.443 -4.85341 12.5311 
-4.9373 -2.87412 12.802 -4.91814 -2.49239 12.6614 -5.16799 -2.38663 12.9328 
-4.91814 -2.49239 12.6614 -5.13334 -1.91806 12.7939 -5.16799 -2.38663 12.9328 
-5.39619 -0.0899134 13.283 -5.20623 0.508142 13.248 -5.38993 0.490235 13.5449 
-5.20623 0.508142 13.248 -4.99576 1.20974 13.3692 -5.18983 0.979249 13.5163 
-4.21786 2.68345 13.7279 -3.67099 3.16549 13.6789 -3.93489 3.07809 13.9155 
-3.67099 3.16549 13.6789 -3.17243 3.56623 13.7359 -3.24751 3.62017 13.9118 
-3.17243 3.56623 13.7359 -2.63919 3.89893 13.772 -2.82993 3.90023 13.9645 
-0.737467 4.5726 13.9404 -0.131787 4.59945 13.9027 -0.374458 4.70082 14.1725 
0.465991 4.61944 13.9796 0.853674 4.52405 13.8812 0.874436 4.64437 14.1636 
0.853674 4.52405 13.8812 1.2284 4.44555 13.861 1.239 4.54066 14.066 
1.69422 4.36641 13.9282 2.13891 4.14943 13.822 2.18132 4.23218 14.0171 
2.13891 4.14943 13.822 2.66599 3.88489 13.7716 2.73472 3.94889 13.9504 
2.66599 3.88489 13.7716 3.08412 3.62074 13.7379 3.24517 3.62889 13.9273 
3.08412 3.62074 13.7379 3.50499 3.2992 13.6868 3.24517 3.62889 13.9273 
4.57199 2.19082 13.6409 4.80485 1.63178 13.4267 4.91269 1.66476 13.6284 
5.34313 0.119406 13.2759 5.31717 -0.264211 13.1168 5.52129 -0.282808 13.4504 
5.31717 -0.264211 13.1168 5.33491 -0.785004 13.0341 5.44863 -0.717791 13.2135 
5.39317 -1.42685 13.084 5.14065 -1.90981 12.7947 5.25979 -2.22303 13.0235 
5.14065 -1.90981 12.7947 4.99515 -2.57686 12.7685 5.25979 -2.22303 13.0235 
4.21193 -4.09467 12.652 3.6715 -4.53094 12.4592 3.93489 -4.52294 12.7116 
3.6715 -4.53094 12.4592 3.17243 -4.93169 12.39 3.24751 -5.03736 12.5406 
3.17243 -4.93169 12.39 2.64631 -5.26334 12.3298 2.69039 -5.39173 12.4747 
0.87182 -6.0121 12.3637 0.307554 -5.94602 12.2219 0.374458 -6.14567 12.4546 
-0.0152766 -6.07361 12.3455 -0.336037 -5.90539 12.1828 -0.65408 -6.04436 12.3599 
-4.1181 -4.13749 12.5846 -4.32579 -3.75655 12.5585 -4.50461 -3.76199 12.7551 
-4.32579 -3.75655 12.5585 -4.60924 -3.38216 12.6519 -4.50461 -3.76199 12.7551 
-5.33943 -1.49854 13.0111 -5.33513 -0.945585 13.0145 -5.44241 -1.20295 13.1707 
-5.43741 -0.677869 13.2 -5.39619 -0.0899134 13.283 -5.55723 -0.365492 13.5029 
-5.39619 -0.0899134 13.283 -5.38993 0.490235 13.5449 -5.50133 0.144211 13.5973 
-5.38993 0.490235 13.5449 -5.18983 0.979249 13.5163 -5.36571 0.859635 13.7876 
-5.18983 0.979249 13.5163 -5.05203 1.33152 13.5577 -5.15428 1.33959 13.7714 
-5.05203 1.33152 13.5577 -4.8277 1.78147 13.6003 -4.94485 1.79098 13.8445 
-4.8277 1.78147 13.6003 -4.56596 2.20802 13.6528 -4.68719 2.22719 13.912 
-4.56596 2.20802 13.6528 -4.21786 2.68345 13.7279 -4.47556 2.53098 13.9665 
-3.93489 3.07809 13.9155 -3.6285 3.31776 13.8723 -3.7228 3.35233 14.0999 
-3.6285 3.31776 13.8723 -3.24751 3.62017 13.9118 -3.41509 3.60217 14.1361 
-3.24751 3.62017 13.9118 -2.82993 3.90023 13.9645 -3.10845 3.82346 14.1729 
-2.82993 3.90023 13.9645 -2.27906 4.17902 13.9805 -2.67419 4.09008 14.2282 
-2.27906 4.17902 13.9805 -1.84129 4.3444 13.9868 -1.86439 4.44024 14.2689 
-1.84129 4.3444 13.9868 -1.42942 4.44273 13.9361 -1.35152 4.59498 14.2836 
-1.42942 4.44273 13.9361 -1.07132 4.5312 13.9634 -1.35152 4.59498 14.2836 
-1.07132 4.5312 13.9634 -0.737467 4.5726 13.9404 -0.741509 4.70709 14.2991 
-0.374458 4.70082 14.1725 0.00725762 4.68137 14.0882 -0.0166685 4.76047 14.3229 
0.00725762 4.68137 14.0882 0.465991 4.61944 13.9796 0.487217 4.73687 14.3098 
0.874436 4.64437 14.1636 1.239 4.54066 14.066 1.24258 4.61968 14.2939 
1.239 4.54066 14.066 1.69422 4.36641 13.9282 1.62528 4.51816 14.2812 
1.69422 4.36641 13.9282 2.18132 4.23218 14.0171 1.98539 4.39823 14.264 
2.18132 4.23218 14.0171 2.73472 3.94889 13.9504 2.46353 4.19686 14.2418 
2.73472 3.94889 13.9504 3.24517 3.62889 13.9273 3.21275 3.75017 14.1596 
3.24517 3.62889 13.9273 3.63933 3.30821 13.8707 3.51675 3.52482 14.1256 
3.63933 3.30821 13.8707 4.05388 2.87619 13.7597 3.90678 3.188 14.0856 
4.05388 2.87619 13.7597 4.37179 2.49262 13.7099 4.47663 2.52956 13.9662 
4.37179 2.49262 13.7099 4.57199 2.19082 13.6409 4.69475 2.21552 13.9102 
4.57199 2.19082 13.6409 4.91269 1.66476 13.6284 4.97942 1.70091 13.7982 
4.91269 1.66476 13.6284 5.08314 1.20907 13.5066 5.20475 1.21526 13.7581 
5.08314 1.20907 13.5066 5.25966 0.67792 13.4196 5.37565 0.71639 13.6813 
5.25966 0.67792 13.4196 5.34313 0.119406 13.2759 5.49933 0.123237 13.5788 
5.52129 -0.282808 13.4504 5.44863 -0.717791 13.2135 5.56749 -0.624435 13.4604 
5.44863 -0.717791 13.2135 5.39317 -1.42685 13.084 5.55672 -1.12588 13.3817 
5.39317 -1.42685 13.084 5.25979 -2.22303 13.0235 5.47536 -1.78082 13.2861 
5.25979 -2.22303 13.0235 5.05203 -2.75128 12.911 5.15428 -2.82501 13.1118 
5.05203 -2.75128 12.911 4.8277 -3.19241 12.8126 4.94485 -3.2769 13.0419 
4.8277 -3.19241 12.8126 4.56596 -3.61428 12.7306 4.68719 -3.71261 12.9712 
4.56596 -3.61428 12.7306 4.21193 -4.09467 12.652 4.47556 -4.01837 12.9292 
3.93489 -4.52294 12.7116 3.6285 -4.73752 12.5964 3.7228 -4.84075 12.8022 
3.6285 -4.73752 12.5964 3.24751 -5.03736 12.5406 3.41509 -5.08956 12.7595 
3.24751 -5.03736 12.5406 2.69039 -5.39173 12.4747 3.10845 -5.31139 12.7261 
2.69039 -5.39173 12.4747 2.15676 -5.62372 12.404 2.21218 -5.79033 12.6422 
2.15676 -5.62372 12.404 1.81973 -5.75377 12.3829 1.86439 -5.92762 12.6268 
1.81973 -5.75377 12.3829 1.46677 -5.87106 12.3723 1.49568 -6.04083 12.6025 
1.46677 -5.87106 12.3723 0.87182 -6.0121 12.3637 1.13234 -6.13008 12.5947 
0.374458 -6.14567 12.4546 -0.0152766 -6.07361 12.3455 0.255641 -6.27298 12.6261 
-0.0152766 -6.07361 12.3455 -0.65408 -6.04436 12.3599 -0.271007 -6.24354 12.5841 
-0.65408 -6.04436 12.3599 -1.09599 -5.96425 12.3659 -1.25499 -6.10547 12.5975 
-1.09599 -5.96425 12.3659 -1.47158 -5.87133 12.3742 -1.25499 -6.10547 12.5975 
-1.47158 -5.87133 12.3742 -1.95466 -5.71248 12.3991 -1.76158 -5.96975 12.6305 
-1.95466 -5.71248 12.3991 -2.41733 -5.52261 12.4417 -2.20258 -5.80201 12.6531 
-2.41733 -5.52261 12.4417 -2.82808 -5.28991 12.4692 -2.89944 -5.4386 12.6979 
-2.82808 -5.28991 12.4692 -3.12842 -5.09449 12.5006 -3.21275 -5.23756 12.7361 
-3.12842 -5.09449 12.5006 -3.443 -4.85341 12.5311 -3.51982 -5.00492 12.7666 
-3.443 -4.85341 12.5311 -3.81451 -4.55956 12.6144 -3.89782 -4.67916 12.826 
-3.81451 -4.55956 12.6144 -4.1181 -4.13749 12.5846 -4.2432 -4.30478 12.8774 
-4.1181 -4.13749 12.5846 -4.50461 -3.76199 12.7551 -4.47663 -4.01694 12.9294 
-4.8282 -3.33151 12.9003 -4.9373 -2.87412 12.802 -5.05303 -3.06658 13.0832 
-4.9373 -2.87412 12.802 -5.16799 -2.38663 12.9328 -5.27375 -2.49078 13.1464 
-5.16799 -2.38663 12.9328 -5.29998 -1.9182 13.012 -5.42634 -1.98441 13.2513 
-5.29998 -1.9182 13.012 -5.33943 -1.49854 13.0111 -5.51477 -1.46381 13.3107 
-5.33943 -1.49854 13.0111 -5.44241 -1.20295 13.1707 -5.51477 -1.46381 13.3107 
-5.44241 -1.20295 13.1707 -5.43741 -0.677869 13.2 -5.56749 -0.860986 13.4229 
-4.21921 2.84419 14.0035 -3.93489 3.07809 13.9155 -4.02247 3.11879 14.2019 
-0.741509 4.70709 14.2991 -0.374458 4.70082 14.1725 -0.383217 4.77779 14.4646 
0.487217 4.73687 14.3098 0.874436 4.64437 14.1636 0.92186 4.73541 14.5485 
4.21921 -4.3277 12.8676 3.93489 -4.52294 12.7116 4.02247 -4.65015 12.9714 
0.741674 -6.19058 12.5729 0.374458 -6.14567 12.4546 0.255641 -6.27298 12.6261 
-4.6977 -3.69105 12.9689 -4.8282 -3.33151 12.9003 -4.93505 -3.43301 13.1642 
-5.56749 -0.860986 13.4229 -5.55723 -0.365492 13.5029 -5.6682 -0.554928 13.753 
-5.55723 -0.365492 13.5029 -5.50133 0.144211 13.5973 -5.59542 -0.0173004 13.7778 
-5.50133 0.144211 13.5973 -5.38993 0.490235 13.5449 -5.54094 0.428244 13.9289 
-5.36571 0.859635 13.7876 -5.15428 1.33959 13.7714 -5.26584 1.28775 14.0431 
-5.15428 1.33959 13.7714 -4.94485 1.79098 13.8445 -5.06171 1.75095 14.1377 
-4.94485 1.79098 13.8445 -4.68719 2.22719 13.912 -4.77187 2.23952 14.1942 
-4.68719 2.22719 13.912 -4.47556 2.53098 13.9665 -4.43373 2.71092 14.2741 
-4.47556 2.53098 13.9665 -4.21921 2.84419 14.0035 -4.43373 2.71092 14.2741 
-4.02247 3.11879 14.2019 -3.7228 3.35233 14.0999 -3.65338 3.50439 14.4169 
-3.7228 3.35233 14.0999 -3.41509 3.60217 14.1361 -3.65338 3.50439 14.4169 
-3.41509 3.60217 14.1361 -3.10845 3.82346 14.1729 -3.19179 3.8442 14.4569 
-3.10845 3.82346 14.1729 -2.67419 4.09008 14.2282 -2.81956 4.07059 14.4833 
-2.67419 4.09008 14.2282 -2.21218 4.30491 14.2411 -2.53366 4.23351 14.5702 
-2.21218 4.30491 14.2411 -1.86439 4.44024 14.2689 -2.06918 4.42591 14.5355 
-1.86439 4.44024 14.2689 -1.35152 4.59498 14.2836 -1.79859 4.5342 14.6293 
-1.35152 4.59498 14.2836 -0.741509 4.70709 14.2991 -1.14315 4.70507 14.6127 
-0.383217 4.77779 14.4646 -0.0166685 4.76047 14.3229 -0.0597739 4.82457 14.6868 
-0.0166685 4.76047 14.3229 0.487217 4.73687 14.3098 0.476249 4.79536 14.6037 
0.92186 4.73541 14.5485 1.24258 4.61968 14.2939 1.28171 4.67041 14.5944 
1.24258 4.61968 14.2939 1.62528 4.51816 14.2812 1.69887 4.56455 14.6213 
1.62528 4.51816 14.2812 1.98539 4.39823 14.264 2.11749 4.41013 14.5463 
1.98539 4.39823 14.264 2.46353 4.19686 14.2418 2.47054 4.2384 14.4327 
2.46353 4.19686 14.2418 2.89944 3.95318 14.1854 2.91765 4.01382 14.4698 
2.89944 3.95318 14.1854 3.21275 3.75017 14.1596 3.19685 3.84376 14.4784 
3.21275 3.75017 14.1596 3.51675 3.52482 14.1256 3.60663 3.54207 14.4237 
3.51675 3.52482 14.1256 3.90678 3.188 14.0856 3.92118 3.23461 14.2724 
3.90678 3.188 14.0856 4.2432 2.81936 14.0058 4.24536 2.92702 14.3156 
4.2432 2.81936 14.0058 4.47663 2.52956 13.9662 4.48359 2.64608 14.2705 
4.47663 2.52956 13.9662 4.69475 2.21552 13.9102 4.70807 2.33612 14.2223 
4.69475 2.21552 13.9102 4.97942 1.70091 13.7982 4.91073 2.0195 14.1742 
4.97942 1.70091 13.7982 5.20475 1.21526 13.7581 5.18476 1.49405 14.0894 
5.20475 1.21526 13.7581 5.37565 0.71639 13.6813 5.39382 0.964304 14.0314 
5.37565 0.71639 13.6813 5.49933 0.123237 13.5788 5.57585 0.119909 13.7992 
5.49933 0.123237 13.5788 5.52129 -0.282808 13.4504 5.66301 -0.408547 13.7921 
5.52129 -0.282808 13.4504 5.56749 -0.624435 13.4604 5.66301 -0.408547 13.7921 
5.56749 -0.624435 13.4604 5.55672 -1.12588 13.3817 5.669 -1.01465 13.6836 
5.55672 -1.12588 13.3817 5.47536 -1.78082 13.2861 5.62125 -1.57727 13.6224 
5.3658 -2.37954 13.2797 5.15428 -2.82501 13.1118 5.26584 -2.85966 13.3862 
5.15428 -2.82501 13.1118 4.94485 -3.2769 13.0419 5.06171 -3.32942 13.333 
4.94485 -3.2769 13.0419 4.68719 -3.71261 12.9712 4.77187 -3.81152 13.2358 
4.68719 -3.71261 12.9712 4.47556 -4.01837 12.9292 4.43373 -4.28457 13.1662 
4.47556 -4.01837 12.9292 4.21921 -4.3277 12.8676 4.43373 -4.28457 13.1662 
4.02247 -4.65015 12.9714 3.7228 -4.84075 12.8022 3.65338 -5.08333 13.0568 
3.7228 -4.84075 12.8022 3.41509 -5.08956 12.7595 3.65338 -5.08333 13.0568 
3.41509 -5.08956 12.7595 3.10845 -5.31139 12.7261 3.19179 -5.41886 12.9898 
3.10845 -5.31139 12.7261 2.66905 -5.58392 12.6946 2.81916 -5.64233 12.9444 
2.66905 -5.58392 12.6946 2.21218 -5.79033 12.6422 2.5337 -5.82409 12.9772 
2.21218 -5.79033 12.6422 1.86439 -5.92762 12.6268 2.06918 -5.9964 12.8848 
1.86439 -5.92762 12.6268 1.49568 -6.04083 12.6025 1.79859 -6.12836 12.9405 
1.49568 -6.04083 12.6025 1.13234 -6.13008 12.5947 1.33269 -6.23247 12.8629 
1.13234 -6.13008 12.5947 0.741674 -6.19058 12.5729 0.992613 -6.30838 12.8626 
0.255641 -6.27298 12.6261 -0.271007 -6.24354 12.5841 0.0592456 -6.41928 12.897 
-0.271007 -6.24354 12.5841 -0.765239 -6.19075 12.5787 -0.496743 -6.36781 12.8382 
-0.765239 -6.19075 12.5787 -1.25499 -6.10547 12.5975 -0.965678 -6.30711 12.8477 
-1.25499 -6.10547 12.5975 -1.76158 -5.96975 12.6305 -1.52391 -6.1443 12.7942 
-1.76158 -5.96975 12.6305 -2.20258 -5.80201 12.6531 -2.10758 -5.9898 12.9015 
-2.20258 -5.80201 12.6531 -2.56329 -5.62778 12.6742 -2.57177 -5.78363 12.9384 
-2.56329 -5.62778 12.6742 -2.89944 -5.4386 12.6979 -2.91765 -5.58417 12.9497 
-2.89944 -5.4386 12.6979 -3.21275 -5.23756 12.7361 -3.19685 -5.42509 13.0104 
-3.21275 -5.23756 12.7361 -3.51982 -5.00492 12.7666 -3.60586 -5.12186 13.0514 
-3.51982 -5.00492 12.7666 -3.89782 -4.67916 12.826 -3.97776 -4.76785 13.0691 
-3.89782 -4.67916 12.826 -4.2432 -4.30478 12.8774 -4.2932 -4.43945 13.1309 
-4.2432 -4.30478 12.8774 -4.47663 -4.01694 12.9294 -4.50807 -4.19732 13.202 
-4.47663 -4.01694 12.9294 -4.6977 -3.69105 12.9689 -4.78018 -3.80851 13.2495 
-4.93505 -3.43301 13.1642 -5.05303 -3.06658 13.0832 -5.21549 -2.99035 13.3731 
-5.05303 -3.06658 13.0832 -5.27375 -2.49078 13.1464 -5.21549 -2.99035 13.3731 
-5.27375 -2.49078 13.1464 -5.42634 -1.98441 13.2513 -5.5022 -2.16225 13.5154 
-5.42634 -1.98441 13.2513 -5.51477 -1.46381 13.3107 -5.57585 -1.67362 13.5152 
-5.51477 -1.46381 13.3107 -5.56749 -0.860986 13.4229 -5.66108 -1.17871 13.6668 
-5.6682 -0.554928 13.753 -5.59542 -0.0173004 13.7778 -5.6604 -0.0276239 14.0618 
-4.43373 2.71092 14.2741 -4.02247 3.11879 14.2019 -4.08347 3.11934 14.468 
-0.666966 4.77555 14.6123 -0.383217 4.77779 14.4646 -0.0597739 4.82457 14.6868 
5.5022 0.584556 13.9504 5.57585 0.119909 13.7992 5.63851 0.099287 14.0603 
4.43373 -4.28457 13.1662 4.02247 -4.65015 12.9714 4.08347 -4.73289 13.2243 
0.666966 -6.35265 12.8498 0.255641 -6.27298 12.6261 0.0592456 -6.41928 12.897 
-0.965678 -6.30711 12.8477 -1.52391 -6.1443 12.7942 -1.26367 -6.33555 13.0807 
-1.52391 -6.1443 12.7942 -2.10758 -5.9898 12.9015 -1.761 -6.16752 13.0119 
-4.78018 -3.80851 13.2495 -4.93505 -3.43301 13.1642 -5.07544 -3.42041 13.5146 
-4.93505 -3.43301 13.1642 -5.21549 -2.99035 13.3731 -5.07544 -3.42041 13.5146 
-5.5022 -2.16225 13.5154 -5.57585 -1.67362 13.5152 -5.63836 -1.73507 13.7695 
-5.6604 -0.0276239 14.0618 -5.54094 0.428244 13.9289 -5.611 0.307418 14.2024 
-5.42106 0.934446 14.1374 -5.26584 1.28775 14.0431 -5.323 1.26552 14.3761 
-5.26584 1.28775 14.0431 -5.06171 1.75095 14.1377 -5.323 1.26552 14.3761 
-5.06171 1.75095 14.1377 -4.77187 2.23952 14.1942 -4.89932 2.09482 14.4828 
-4.77187 2.23952 14.1942 -4.43373 2.71092 14.2741 -4.7052 2.39304 14.5266 
-4.08347 3.11934 14.468 -3.65338 3.50439 14.4169 -3.80983 3.39156 14.6903 
-3.65338 3.50439 14.4169 -3.19179 3.8442 14.4569 -3.43682 3.69164 14.7423 
-3.19179 3.8442 14.4569 -2.81956 4.07059 14.4833 -3.00873 3.98177 14.7843 
-2.53366 4.23351 14.5702 -2.06918 4.42591 14.5355 -2.26117 4.36453 14.8493 
-1.79859 4.5342 14.6293 -1.14315 4.70507 14.6127 -1.43536 4.6417 14.8867 
-1.14315 4.70507 14.6127 -0.666966 4.77555 14.6123 -0.524763 4.80116 14.913 
-0.666966 4.77555 14.6123 -0.0597739 4.82457 14.6868 -0.524763 4.80116 14.913 
-0.0597739 4.82457 14.6868 0.476249 4.79536 14.6037 0.376066 4.81003 14.9131 
0.476249 4.79536 14.6037 0.92186 4.73541 14.5485 0.73477 4.77723 14.9049 
0.92186 4.73541 14.5485 1.28171 4.67041 14.5944 1.26621 4.68492 14.8976 
1.69887 4.56455 14.6213 2.11749 4.41013 14.5463 2.0323 4.45578 14.8598 
2.60327 4.2006 14.6547 2.91765 4.01382 14.4698 2.95415 4.01289 14.8014 
2.91765 4.01382 14.4698 3.19685 3.84376 14.4784 2.95415 4.01289 14.8014 
3.19685 3.84376 14.4784 3.60663 3.54207 14.4237 3.59896 3.56784 14.7096 
4.01327 3.20403 14.6171 4.24536 2.92702 14.3156 4.35095 2.84632 14.6136 
4.24536 2.92702 14.3156 4.48359 2.64608 14.2705 4.35095 2.84632 14.6136 
4.48359 2.64608 14.2705 4.70807 2.33612 14.2223 4.80122 2.25198 14.5078 
4.70807 2.33612 14.2223 4.91073 2.0195 14.1742 4.80122 2.25198 14.5078 
4.91073 2.0195 14.1742 5.18476 1.49405 14.0894 5.19075 1.55822 14.3905 
5.39382 0.964304 14.0314 5.5022 0.584556 13.9504 5.55156 0.560243 14.2327 
5.63851 0.099287 14.0603 5.66301 -0.408547 13.7921 5.71585 -0.407723 14.1071 
5.66301 -0.408547 13.7921 5.669 -1.01465 13.6836 5.72748 -0.932827 13.9997 
5.62125 -1.57727 13.6224 5.54094 -2.00692 13.5432 5.611 -1.97655 13.8407 
5.42106 -2.55277 13.585 5.26584 -2.85966 13.3862 5.323 -2.94142 13.7098 
5.26584 -2.85966 13.3862 5.06171 -3.32942 13.333 5.323 -2.94142 13.7098 
5.06171 -3.32942 13.333 4.77187 -3.81152 13.2358 4.89932 -3.76311 13.555 
4.77187 -3.81152 13.2358 4.43373 -4.28457 13.1662 4.7052 -4.06027 13.5045 
4.08347 -4.73289 13.2243 3.65338 -5.08333 13.0568 3.80983 -5.06049 13.3516 
3.65338 -5.08333 13.0568 3.19179 -5.41886 12.9898 3.43682 -5.36197 13.3084 
3.19179 -5.41886 12.9898 2.81916 -5.64233 12.9444 3.00873 -5.65086 13.2586 
2.5337 -5.82409 12.9772 2.06918 -5.9964 12.8848 2.26117 -6.03498 13.2022 
1.79859 -6.12836 12.9405 1.33269 -6.23247 12.8629 1.43536 -6.31014 13.1521 
1.33269 -6.23247 12.8629 0.992613 -6.30838 12.8626 1.0207 -6.40178 13.1356 
0.992613 -6.30838 12.8626 0.666966 -6.35265 12.8498 0.524763 -6.46992 13.1278 
0.666966 -6.35265 12.8498 0.0592456 -6.41928 12.897 0.524763 -6.46992 13.1278 
0.0592456 -6.41928 12.897 -0.496743 -6.36781 12.8382 -0.376066 -6.4784 13.1252 
-0.496743 -6.36781 12.8382 -0.965678 -6.30711 12.8477 -0.73477 -6.44465 13.1275 
-1.761 -6.16752 13.0119 -2.10758 -5.9898 12.9015 -2.0323 -6.125 13.1839 
-2.57177 -5.78363 12.9384 -2.91765 -5.58417 12.9497 -2.95415 -5.68574 13.2653 
-2.91765 -5.58417 12.9497 -3.19685 -5.42509 13.0104 -2.95415 -5.68574 13.2653 
-3.19685 -5.42509 13.0104 -3.60586 -5.12186 13.0514 -3.59896 -5.23412 13.3155 
-3.97776 -4.76785 13.0691 -4.2932 -4.43945 13.1309 -4.2345 -4.6471 13.4249 
-4.2932 -4.43945 13.1309 -4.50807 -4.19732 13.202 -4.53339 -4.29247 13.4653 
-4.50807 -4.19732 13.202 -4.78018 -3.80851 13.2495 -4.80534 -3.91383 13.5289 
-5.07544 -3.42041 13.5146 -5.21549 -2.99035 13.3731 -5.19879 -3.20808 13.6395 
-5.39614 -2.53926 13.475 -5.5022 -2.16225 13.5154 -5.55156 -2.22636 13.7914 
-5.63836 -1.73507 13.7695 -5.66108 -1.17871 13.6668 -5.69607 -1.44469 13.937 
-5.66108 -1.17871 13.6668 -5.6682 -0.554928 13.753 -5.72945 -0.948324 14.0044 
-5.51399 0.694704 14.2631 -5.42106 0.934446 14.1374 -5.323 1.26552 14.3761 
-4.38943 2.80304 14.6002 -4.08347 3.11934 14.468 -4.11224 3.09907 14.777 
-3.00873 3.98177 14.7843 -2.53366 4.23351 14.5702 -2.64564 4.17495 14.9485 
-2.26117 4.36453 14.8493 -1.79859 4.5342 14.6293 -1.80932 4.52756 14.9505 
-0.524763 4.80116 14.913 -0.0597739 4.82457 14.6868 -0.0095616 4.8169 14.996 
1.26621 4.68492 14.8976 1.69887 4.56455 14.6213 1.67204 4.5699 14.9546 
5.51399 -2.36362 13.7787 5.42106 -2.55277 13.585 5.323 -2.94142 13.7098 
4.38943 -4.47293 13.4478 4.08347 -4.73289 13.2243 4.11224 -4.80913 13.5245 
3.00873 -5.65086 13.2586 2.5337 -5.82409 12.9772 2.64564 -5.88534 13.3551 
2.26117 -6.03498 13.2022 1.79859 -6.12836 12.9405 1.80932 -6.2213 13.248 
0.524763 -6.46992 13.1278 0.0592456 -6.41928 12.897 0.0095616 -6.51053 13.2019 
-1.26367 -6.33555 13.0807 -1.761 -6.16752 13.0119 -1.67204 -6.26285 13.2389 
-3.91148 -4.96638 13.3663 -3.97776 -4.76785 13.0691 -4.2345 -4.6471 13.4249 
-5.72945 -0.948324 14.0044 -5.71325 -0.435768 14.0717 -5.7329 -0.612132 14.2869 
-5.71325 -0.435768 14.0717 -5.71507 -0.354681 14.3277 -5.72706 -0.506955 14.3036 
-5.71325 -0.435768 14.0717 -5.6604 -0.0276239 14.0618 -5.68882 -0.119326 14.3641 
-5.6604 -0.0276239 14.0618 -5.611 0.307418 14.2024 -5.63985 0.180855 14.4164 
-5.611 0.307418 14.2024 -5.59078 0.409139 14.4487 -5.63985 0.180855 14.4164 
-5.611 0.307418 14.2024 -5.51399 0.694704 14.2631 -5.53648 0.625691 14.4762 
-5.51399 0.694704 14.2631 -5.323 1.26552 14.3761 -5.44816 0.910977 14.5281 
-5.323 1.26552 14.3761 -5.36234 1.14913 14.5659 -5.44816 0.910977 14.5281 
-5.323 1.26552 14.3761 -5.26374 1.3881 14.6037 -5.31943 1.25697 14.5829 
-5.323 1.26552 14.3761 -5.09707 1.74763 14.431 -5.16218 1.60704 14.6393 
-4.89932 2.09482 14.4828 -4.90338 2.07498 14.7125 -5.02031 1.87647 14.6876 
-5.02031 1.87647 14.6876 -5.09707 1.74763 14.431 -4.89932 2.09482 14.4828 
-4.89932 2.09482 14.4828 -4.7052 2.39304 14.5266 -4.78239 2.26416 14.744 
-4.38943 2.80304 14.6002 -4.45169 2.70701 14.8126 -4.60602 2.51141 14.7818 
-4.60602 2.51141 14.7818 -4.7052 2.39304 14.5266 -4.38943 2.80304 14.6002 
-4.38943 2.80304 14.6002 -4.28223 2.90343 14.8437 -4.36982 2.80417 14.828 
-4.11224 3.09907 14.777 -3.80983 3.39156 14.6903 -3.89332 3.29404 14.9128 
-3.80983 3.39156 14.6903 -3.72211 3.4442 14.9294 -3.89332 3.29404 14.9128 
-3.80983 3.39156 14.6903 -3.43682 3.69164 14.7423 -3.54466 3.58837 14.953 
-3.00873 3.98177 14.7843 -3.09266 3.9046 15.0023 -3.29739 3.76939 14.9813 
-3.29739 3.76939 14.9813 -3.43682 3.69164 14.7423 -3.00873 3.98177 14.7843 
-3.00873 3.98177 14.7843 -2.86942 4.03868 15.0235 -2.97498 3.977 15.0137 
-2.64564 4.17495 14.9485 -2.26117 4.36453 14.8493 -2.37433 4.28888 15.0773 
-2.26117 4.36453 14.8493 -2.16595 4.37887 15.0774 -2.37433 4.28888 15.0773 
-2.26117 4.36453 14.8493 -1.80932 4.52756 14.9505 -1.94818 4.46168 15.0936 
-1.43536 4.6417 14.8867 -1.42213 4.62128 15.1158 -1.63286 4.5638 15.1067 
-1.63286 4.5638 15.1067 -1.80932 4.52756 14.9505 -1.43536 4.6417 14.8867 
-1.43536 4.6417 14.8867 -1.0207 4.73395 14.8993 -1.27701 4.65596 15.1213 
-1.0207 4.73395 14.8993 -1.1676 4.67952 15.125 -1.27701 4.65596 15.1213 
-1.0207 4.73395 14.8993 -0.524763 4.80116 14.913 -0.616074 4.76607 15.139 
-0.524763 4.80116 14.913 -0.391633 4.78486 15.1417 -0.616074 4.76607 15.139 
-0.524763 4.80116 14.913 -0.0095616 4.8169 14.996 -0.183939 4.79516 15.1433 
-0.0095616 4.8169 14.996 -0.130635 4.79661 15.1436 -0.183939 4.79516 15.1433 
0.376066 4.81003 14.9131 0.391633 4.78486 15.1417 0.183939 4.79516 15.1433 
0.183939 4.79516 15.1433 -0.0095616 4.8169 14.996 0.376066 4.81003 14.9131 
0.376066 4.81003 14.9131 0.73477 4.77723 14.9049 0.614585 4.76637 15.1378 
1.26621 4.68492 14.8976 1.1676 4.67952 15.125 0.913282 4.7259 15.1324 
0.913282 4.7259 15.1324 0.73477 4.77723 14.9049 1.26621 4.68492 14.8976 
1.26621 4.68492 14.8976 1.42213 4.62128 15.1158 1.27701 4.65596 15.1213 
1.26621 4.68492 14.8976 1.67204 4.5699 14.9546 1.63286 4.5638 15.1067 
1.67204 4.5699 14.9546 1.67371 4.55166 15.1048 1.63286 4.5638 15.1067 
1.67204 4.5699 14.9546 2.0323 4.45578 14.8598 1.94819 4.46155 15.0944 
2.0323 4.45578 14.8598 2.16595 4.37887 15.0774 1.94819 4.46155 15.0944 
2.0323 4.45578 14.8598 2.47481 4.26811 14.8462 2.37379 4.29214 15.0579 
2.95415 4.01289 14.8014 2.86942 4.03868 15.0235 2.64734 4.15894 15.0426 
2.64734 4.15894 15.0426 2.47481 4.26811 14.8462 2.95415 4.01289 14.8014 
2.95415 4.01289 14.8014 3.09266 3.9046 15.0023 2.97498 3.977 15.0137 
2.95415 4.01289 14.8014 3.30492 3.78627 14.7528 3.29739 3.76937 14.9815 
3.30492 3.78627 14.7528 3.59896 3.56784 14.7096 3.54467 3.5882 14.954 
3.59896 3.56784 14.7096 3.72211 3.4442 14.9294 3.54467 3.5882 14.954 
3.59896 3.56784 14.7096 4.01327 3.20403 14.6171 3.89323 3.29592 14.9015 
4.35095 2.84632 14.6136 4.28223 2.90343 14.8437 4.1132 3.08258 14.8721 
4.1132 3.08258 14.8721 4.01327 3.20403 14.6171 4.35095 2.84632 14.6136 
4.35095 2.84632 14.6136 4.45169 2.70701 14.8126 4.36982 2.80417 14.828 
4.35095 2.84632 14.6136 4.60449 2.53057 14.5531 4.60656 2.51118 14.7787 
4.60449 2.53057 14.5531 4.80122 2.25198 14.5078 4.78189 2.26467 14.746 
4.80122 2.25198 14.5078 4.90338 2.07498 14.7125 4.78189 2.26467 14.746 
4.80122 2.25198 14.5078 5.02678 1.87769 14.4499 5.02033 1.87816 14.6768 
5.02678 1.87769 14.4499 5.19075 1.55822 14.3905 5.16218 1.60709 14.639 
5.19075 1.55822 14.3905 5.26374 1.3881 14.6037 5.16218 1.60709 14.639 
5.19075 1.55822 14.3905 5.39137 1.08549 14.3507 5.31943 1.25697 14.5829 
5.39137 1.08549 14.3507 5.36234 1.14913 14.5659 5.31943 1.25697 14.5829 
5.39137 1.08549 14.3507 5.55156 0.560243 14.2327 5.53616 0.625867 14.4841 
5.55156 0.560243 14.2327 5.59078 0.409139 14.4487 5.53616 0.625867 14.4841 
5.55156 0.560243 14.2327 5.63851 0.099287 14.0603 5.63985 0.181843 14.4099 
5.63851 0.099287 14.0603 5.71585 -0.407723 14.1071 5.68882 -0.119392 14.3644 
5.71585 -0.407723 14.1071 5.71507 -0.354681 14.3277 5.68882 -0.119392 14.3644 
5.71585 -0.407723 14.1071 5.7329 -0.612132 14.2869 5.72706 -0.506955 14.3036 
5.71585 -0.407723 14.1071 5.72748 -0.932827 13.9997 5.73885 -0.870117 14.246 
5.69873 -1.44794 13.9439 5.71507 -1.38555 14.1644 5.72706 -1.23328 14.1885 
5.72706 -1.23328 14.1885 5.72748 -0.932827 13.9997 5.69873 -1.44794 13.9439 
5.69873 -1.44794 13.9439 5.611 -1.97655 13.8407 5.63985 -1.9223 14.0833 
5.611 -1.97655 13.8407 5.59078 -2.14937 14.0434 5.63985 -1.9223 14.0833 
5.611 -1.97655 13.8407 5.51399 -2.36362 13.7787 5.53648 -2.36383 14.0027 
5.51399 -2.36362 13.7787 5.323 -2.94142 13.7098 5.44816 -2.65121 13.9639 
5.323 -2.94142 13.7098 5.36234 -2.88936 13.9262 5.44816 -2.65121 13.9639 
5.323 -2.94142 13.7098 5.26374 -3.12833 13.8884 5.31943 -2.9972 13.9091 
5.323 -2.94142 13.7098 5.09707 -3.4169 13.613 5.16218 -3.34755 13.8546 
4.89932 -3.76311 13.555 4.90338 -3.81522 13.7796 5.02031 -3.61873 13.8172 
5.02031 -3.61873 13.8172 5.09707 -3.4169 13.613 4.89932 -3.76311 13.555 
4.89932 -3.76311 13.555 4.7052 -4.06027 13.5045 4.78239 -4.00487 13.7511 
4.38943 -4.47293 13.4478 4.45169 -4.44724 13.6795 4.60602 -4.25169 13.7106 
4.60602 -4.25169 13.7106 4.7052 -4.06027 13.5045 4.38943 -4.47293 13.4478 
4.38943 -4.47293 13.4478 4.28223 -4.64366 13.6484 4.36982 -4.5444 13.6641 
4.11224 -4.80913 13.5245 3.80983 -5.06049 13.3516 3.89332 -5.03652 13.5934 
3.80983 -5.06049 13.3516 3.72211 -5.18443 13.5627 3.89332 -5.03652 13.5934 
3.80983 -5.06049 13.3516 3.43682 -5.36197 13.3084 3.54466 -5.32885 13.5406 
3.00873 -5.65086 13.2586 3.09266 -5.64484 13.4898 3.29739 -5.50976 13.5116 
3.29739 -5.50976 13.5116 3.43682 -5.36197 13.3084 3.00873 -5.65086 13.2586 
3.00873 -5.65086 13.2586 2.86942 -5.77892 13.4686 2.97498 -5.71723 13.4783 
2.64564 -5.88534 13.3551 2.26117 -6.03498 13.2022 2.37433 -6.03349 13.4424 
2.26117 -6.03498 13.2022 2.16595 -6.1191 13.4147 2.37433 -6.03349 13.4424 
2.26117 -6.03498 13.2022 1.80932 -6.2213 13.248 1.94818 -6.20287 13.4045 
1.43536 -6.31014 13.1521 1.42213 -6.36151 13.3763 1.63286 -6.30403 13.3854 
1.63286 -6.30403 13.3854 1.80932 -6.2213 13.248 1.43536 -6.31014 13.1521 
1.43536 -6.31014 13.1521 1.0207 -6.40178 13.1356 1.27701 -6.3962 13.3708 
1.0207 -6.40178 13.1356 1.1676 -6.41975 13.3671 1.27701 -6.3962 13.3708 
1.0207 -6.40178 13.1356 0.524763 -6.46992 13.1278 0.616074 -6.50641 13.3537 
0.524763 -6.46992 13.1278 0.391633 -6.5251 13.3504 0.616074 -6.50641 13.3537 
0.524763 -6.46992 13.1278 0.0095616 -6.51053 13.2019 0.183939 -6.5354 13.3487 
0.0095616 -6.51053 13.2019 0.130635 -6.53684 13.3485 0.183939 -6.5354 13.3487 
-0.376066 -6.4784 13.1252 -0.391633 -6.5251 13.3504 -0.183939 -6.5354 13.3487 
-0.183939 -6.5354 13.3487 0.0095616 -6.51053 13.2019 -0.376066 -6.4784 13.1252 
-0.376066 -6.4784 13.1252 -0.73477 -6.44465 13.1275 -0.614585 -6.50629 13.3523 
-1.26367 -6.33555 13.0807 -1.1676 -6.41975 13.3671 -0.913282 -6.46614 13.3597 
-0.913282 -6.46614 13.3597 -0.73477 -6.44465 13.1275 -1.26367 -6.33555 13.0807 
-1.26367 -6.33555 13.0807 -1.42213 -6.36151 13.3763 -1.27701 -6.3962 13.3708 
-1.26367 -6.33555 13.0807 -1.67204 -6.26285 13.2389 -1.63286 -6.30403 13.3854 
-1.67204 -6.26285 13.2389 -1.67371 -6.29189 13.3873 -1.63286 -6.30403 13.3854 
-1.67204 -6.26285 13.2389 -2.0323 -6.125 13.1839 -1.94819 -6.203 13.4053 
-2.0323 -6.125 13.1839 -2.16595 -6.1191 13.4147 -1.94819 -6.203 13.4053 
-2.0323 -6.125 13.1839 -2.47481 -5.94232 13.229 -2.37379 -6.03061 13.423 
-2.95415 -5.68574 13.2653 -2.86942 -5.77892 13.4686 -2.64734 -5.89918 13.4495 
-2.64734 -5.89918 13.4495 -2.47481 -5.94232 13.229 -2.95415 -5.68574 13.2653 
-2.95415 -5.68574 13.2653 -3.09266 -5.64484 13.4898 -2.97498 -5.71723 13.4783 
-2.95415 -5.68574 13.2653 -3.30492 -5.45521 13.2891 -3.29739 -5.50979 13.5118 
-3.30492 -5.45521 13.2891 -3.59896 -5.23412 13.3155 -3.54467 -5.32901 13.5417 
-3.59896 -5.23412 13.3155 -3.72211 -5.18443 13.5627 -3.54467 -5.32901 13.5417 
-3.59896 -5.23412 13.3155 -3.91148 -4.96638 13.3663 -3.89377 -5.03416 13.5812 
-3.91148 -4.96638 13.3663 -4.2345 -4.6471 13.4249 -4.1132 -4.82282 13.62 
-4.2345 -4.6471 13.4249 -4.28223 -4.64366 13.6484 -4.1132 -4.82282 13.62 
-4.2345 -4.6471 13.4249 -4.53339 -4.29247 13.4653 -4.36982 -4.5444 13.6641 
-4.53339 -4.29247 13.4653 -4.45169 -4.44724 13.6795 -4.36982 -4.5444 13.6641 
-4.53339 -4.29247 13.4653 -4.80534 -3.91383 13.5289 -4.78186 -4.00544 13.7492 
-4.80534 -3.91383 13.5289 -4.90338 -3.81522 13.7796 -4.78186 -4.00544 13.7492 
-4.80534 -3.91383 13.5289 -5.07544 -3.42041 13.5146 -5.02033 -3.61706 13.8069 
-5.07544 -3.42041 13.5146 -5.19879 -3.20808 13.6395 -5.16218 -3.34751 13.8543 
-5.19879 -3.20808 13.6395 -5.26374 -3.12833 13.8884 -5.16218 -3.34751 13.8543 
-5.19879 -3.20808 13.6395 -5.39215 -2.75987 13.7415 -5.31943 -2.9972 13.9091 
-5.39215 -2.75987 13.7415 -5.36234 -2.88936 13.9262 -5.31943 -2.9972 13.9091 
-5.39215 -2.75987 13.7415 -5.55156 -2.22636 13.7914 -5.53616 -2.36647 14.0102 
-5.55156 -2.22636 13.7914 -5.59078 -2.14937 14.0434 -5.53616 -2.36647 14.0102 
-5.55156 -2.22636 13.7914 -5.63836 -1.73507 13.7695 -5.63985 -1.92124 14.0768 
-5.63836 -1.73507 13.7695 -5.69607 -1.44469 13.937 -5.68882 -1.62066 14.1266 
-5.69607 -1.44469 13.937 -5.71507 -1.38555 14.1644 -5.68882 -1.62066 14.1266 
-5.69607 -1.44469 13.937 -5.72945 -0.948324 14.0044 -5.72706 -1.23328 14.1885 
-5.72945 -0.948324 14.0044 -5.7329 -1.1281 14.2052 -5.72706 -1.23328 14.1885 
-5.73885 -0.870117 14.246 -5.7329 -1.1281 14.2052 -5.72945 -0.948324 14.0044 
-5.72706 -1.23328 14.1885 -5.71507 -1.38555 14.1644 -5.69607 -1.44469 13.937 
-5.68882 -1.62066 14.1266 -5.63985 -1.92124 14.0768 -5.63836 -1.73507 13.7695 
-5.63985 -1.92124 14.0768 -5.59078 -2.14937 14.0434 -5.55156 -2.22636 13.7914 
-5.53616 -2.36647 14.0102 -5.44816 -2.65121 13.9639 -5.39215 -2.75987 13.7415 
-5.44816 -2.65121 13.9639 -5.36234 -2.88936 13.9262 -5.39215 -2.75987 13.7415 
-5.31943 -2.9972 13.9091 -5.26374 -3.12833 13.8884 -5.19879 -3.20808 13.6395 
-5.16218 -3.34751 13.8543 -5.02033 -3.61706 13.8069 -5.07544 -3.42041 13.5146 
-5.02033 -3.61706 13.8069 -4.90338 -3.81522 13.7796 -4.80534 -3.91383 13.5289 
-4.78186 -4.00544 13.7492 -4.60656 -4.25052 13.7078 -4.53339 -4.29247 13.4653 
-4.60656 -4.25052 13.7078 -4.45169 -4.44724 13.6795 -4.53339 -4.29247 13.4653 
-4.36982 -4.5444 13.6641 -4.28223 -4.64366 13.6484 -4.2345 -4.6471 13.4249 
-4.1132 -4.82282 13.62 -3.89377 -5.03416 13.5812 -3.91148 -4.96638 13.3663 
-3.89377 -5.03416 13.5812 -3.72211 -5.18443 13.5627 -3.59896 -5.23412 13.3155 
-3.54467 -5.32901 13.5417 -3.29739 -5.50979 13.5118 -3.30492 -5.45521 13.2891 
-3.29739 -5.50979 13.5118 -3.09266 -5.64484 13.4898 -2.95415 -5.68574 13.2653 
-2.97498 -5.71723 13.4783 -2.86942 -5.77892 13.4686 -2.95415 -5.68574 13.2653 
-2.64734 -5.89918 13.4495 -2.37379 -6.03061 13.423 -2.47481 -5.94232 13.229 
-2.37379 -6.03061 13.423 -2.16595 -6.1191 13.4147 -2.0323 -6.125 13.1839 
-1.94819 -6.203 13.4053 -1.67371 -6.29189 13.3873 -1.67204 -6.26285 13.2389 
-1.63286 -6.30403 13.3854 -1.42213 -6.36151 13.3763 -1.26367 -6.33555 13.0807 
-1.27701 -6.3962 13.3708 -1.1676 -6.41975 13.3671 -1.26367 -6.33555 13.0807 
-0.913282 -6.46614 13.3597 -0.614585 -6.50629 13.3523 -0.73477 -6.44465 13.1275 
-0.614585 -6.50629 13.3523 -0.391633 -6.5251 13.3504 -0.376066 -6.4784 13.1252 
-0.183939 -6.5354 13.3487 -0.130635 -6.53684 13.3485 0.0095616 -6.51053 13.2019 
-0.130635 -6.53684 13.3485 0.130635 -6.53684 13.3485 0.0095616 -6.51053 13.2019 
0.183939 -6.5354 13.3487 0.391633 -6.5251 13.3504 0.524763 -6.46992 13.1278 
0.616074 -6.50641 13.3537 0.912935 -6.46593 13.358 1.0207 -6.40178 13.1356 
0.912935 -6.46593 13.358 1.1676 -6.41975 13.3671 1.0207 -6.40178 13.1356 
1.27701 -6.3962 13.3708 1.42213 -6.36151 13.3763 1.43536 -6.31014 13.1521 
1.63286 -6.30403 13.3854 1.67371 -6.29189 13.3873 1.80932 -6.2213 13.248 
1.67371 -6.29189 13.3873 1.94818 -6.20287 13.4045 1.80932 -6.2213 13.248 
1.94818 -6.20287 13.4045 2.16595 -6.1191 13.4147 2.26117 -6.03498 13.2022 
2.64564 -5.88534 13.3551 2.86942 -5.77892 13.4686 3.00873 -5.65086 13.2586 
2.97498 -5.71723 13.4783 3.09266 -5.64484 13.4898 3.00873 -5.65086 13.2586 
3.29739 -5.50976 13.5116 3.54466 -5.32885 13.5406 3.43682 -5.36197 13.3084 
3.54466 -5.32885 13.5406 3.72211 -5.18443 13.5627 3.80983 -5.06049 13.3516 
4.11224 -4.80913 13.5245 4.28223 -4.64366 13.6484 4.38943 -4.47293 13.4478 
4.36982 -4.5444 13.6641 4.45169 -4.44724 13.6795 4.38943 -4.47293 13.4478 
4.60602 -4.25169 13.7106 4.78239 -4.00487 13.7511 4.7052 -4.06027 13.5045 
4.78239 -4.00487 13.7511 4.90338 -3.81522 13.7796 4.89932 -3.76311 13.555 
5.02031 -3.61873 13.8172 5.16218 -3.34755 13.8546 5.09707 -3.4169 13.613 
5.16218 -3.34755 13.8546 5.26374 -3.12833 13.8884 5.323 -2.94142 13.7098 
5.31943 -2.9972 13.9091 5.36234 -2.88936 13.9262 5.323 -2.94142 13.7098 
5.44816 -2.65121 13.9639 5.53648 -2.36383 14.0027 5.51399 -2.36362 13.7787 
5.53648 -2.36383 14.0027 5.59078 -2.14937 14.0434 5.611 -1.97655 13.8407 
5.63985 -1.9223 14.0833 5.68882 -1.62063 14.1263 5.69873 -1.44794 13.9439 
5.68882 -1.62063 14.1263 5.71507 -1.38555 14.1644 5.69873 -1.44794 13.9439 
5.72706 -1.23328 14.1885 5.7329 -1.1281 14.2052 5.72748 -0.932827 13.9997 
5.7329 -1.1281 14.2052 5.73885 -0.870117 14.246 5.72748 -0.932827 13.9997 
5.73885 -0.870117 14.246 5.7329 -0.612132 14.2869 5.71585 -0.407723 14.1071 
5.72706 -0.506955 14.3036 5.71507 -0.354681 14.3277 5.71585 -0.407723 14.1071 
5.68882 -0.119392 14.3644 5.63985 0.181843 14.4099 5.63851 0.099287 14.0603 
5.63985 0.181843 14.4099 5.59078 0.409139 14.4487 5.55156 0.560243 14.2327 
5.53616 0.625867 14.4841 5.44816 0.910977 14.5281 5.39137 1.08549 14.3507 
5.44816 0.910977 14.5281 5.36234 1.14913 14.5659 5.39137 1.08549 14.3507 
5.31943 1.25697 14.5829 5.26374 1.3881 14.6037 5.19075 1.55822 14.3905 
5.16218 1.60709 14.639 5.02033 1.87816 14.6768 5.02678 1.87769 14.4499 
5.02033 1.87816 14.6768 4.90338 2.07498 14.7125 4.80122 2.25198 14.5078 
4.78189 2.26467 14.746 4.60656 2.51118 14.7787 4.60449 2.53057 14.5531 
4.60656 2.51118 14.7787 4.45169 2.70701 14.8126 4.35095 2.84632 14.6136 
4.36982 2.80417 14.828 4.28223 2.90343 14.8437 4.35095 2.84632 14.6136 
4.1132 3.08258 14.8721 3.89323 3.29592 14.9015 4.01327 3.20403 14.6171 
3.89323 3.29592 14.9015 3.72211 3.4442 14.9294 3.59896 3.56784 14.7096 
3.54467 3.5882 14.954 3.29739 3.76937 14.9815 3.30492 3.78627 14.7528 
3.29739 3.76937 14.9815 3.09266 3.9046 15.0023 2.95415 4.01289 14.8014 
2.97498 3.977 15.0137 2.86942 4.03868 15.0235 2.95415 4.01289 14.8014 
2.64734 4.15894 15.0426 2.37379 4.29214 15.0579 2.47481 4.26811 14.8462 
2.37379 4.29214 15.0579 2.16595 4.37887 15.0774 2.0323 4.45578 14.8598 
1.94819 4.46155 15.0944 1.67371 4.55166 15.1048 1.67204 4.5699 14.9546 
1.63286 4.5638 15.1067 1.42213 4.62128 15.1158 1.26621 4.68492 14.8976 
1.27701 4.65596 15.1213 1.1676 4.67952 15.125 1.26621 4.68492 14.8976 
0.913282 4.7259 15.1324 0.614585 4.76637 15.1378 0.73477 4.77723 14.9049 
0.614585 4.76637 15.1378 0.391633 4.78486 15.1417 0.376066 4.81003 14.9131 
0.183939 4.79516 15.1433 0.130635 4.79661 15.1436 -0.0095616 4.8169 14.996 
0.130635 4.79661 15.1436 -0.130635 4.79661 15.1436 -0.0095616 4.8169 14.996 
-0.183939 4.79516 15.1433 -0.391633 4.78486 15.1417 -0.524763 4.80116 14.913 
-0.616074 4.76607 15.139 -0.912935 4.72623 15.1307 -1.0207 4.73395 14.8993 
-0.912935 4.72623 15.1307 -1.1676 4.67952 15.125 -1.0207 4.73395 14.8993 
-1.27701 4.65596 15.1213 -1.42213 4.62128 15.1158 -1.43536 4.6417 14.8867 
-1.63286 4.5638 15.1067 -1.67371 4.55166 15.1048 -1.80932 4.52756 14.9505 
-1.67371 4.55166 15.1048 -1.94818 4.46168 15.0936 -1.80932 4.52756 14.9505 
-1.94818 4.46168 15.0936 -2.16595 4.37887 15.0774 -2.26117 4.36453 14.8493 
-2.64564 4.17495 14.9485 -2.86942 4.03868 15.0235 -3.00873 3.98177 14.7843 
-2.97498 3.977 15.0137 -3.09266 3.9046 15.0023 -3.00873 3.98177 14.7843 
-3.29739 3.76939 14.9813 -3.54466 3.58837 14.953 -3.43682 3.69164 14.7423 
-3.54466 3.58837 14.953 -3.72211 3.4442 14.9294 -3.80983 3.39156 14.6903 
-4.11224 3.09907 14.777 -4.28223 2.90343 14.8437 -4.38943 2.80304 14.6002 
-4.36982 2.80417 14.828 -4.45169 2.70701 14.8126 -4.38943 2.80304 14.6002 
-4.60602 2.51141 14.7818 -4.78239 2.26416 14.744 -4.7052 2.39304 14.5266 
-4.78239 2.26416 14.744 -4.90338 2.07498 14.7125 -4.89932 2.09482 14.4828 
-5.02031 1.87647 14.6876 -5.16218 1.60704 14.6393 -5.09707 1.74763 14.431 
-5.16218 1.60704 14.6393 -5.26374 1.3881 14.6037 -5.323 1.26552 14.3761 
-5.31943 1.25697 14.5829 -5.36234 1.14913 14.5659 -5.323 1.26552 14.3761 
-5.44816 0.910977 14.5281 -5.53648 0.625691 14.4762 -5.51399 0.694704 14.2631 
-5.53648 0.625691 14.4762 -5.59078 0.409139 14.4487 -5.611 0.307418 14.2024 
-5.63985 0.180855 14.4164 -5.68882 -0.119326 14.3641 -5.6604 -0.0276239 14.0618 
-5.68882 -0.119326 14.3641 -5.71507 -0.354681 14.3277 -5.71325 -0.435768 14.0717 
-5.72706 -0.506955 14.3036 -5.7329 -0.612132 14.2869 -5.71325 -0.435768 14.0717 
-5.7329 -0.612132 14.2869 -5.73885 -0.870117 14.246 -5.72945 -0.948324 14.0044 
-5.55156 -2.22636 13.7914 -5.39215 -2.75987 13.7415 -5.39614 -2.53926 13.475 
-2.95415 -5.68574 13.2653 -2.47481 -5.94232 13.229 -2.57177 -5.78363 12.9384 
-2.0323 -6.125 13.1839 -1.67204 -6.26285 13.2389 -1.761 -6.16752 13.0119 
-0.376066 -6.4784 13.1252 0.0095616 -6.51053 13.2019 0.0592456 -6.41928 12.897 
1.43536 -6.31014 13.1521 1.80932 -6.2213 13.248 1.79859 -6.12836 12.9405 
2.26117 -6.03498 13.2022 2.64564 -5.88534 13.3551 2.5337 -5.82409 12.9772 
3.80983 -5.06049 13.3516 4.11224 -4.80913 13.5245 4.08347 -4.73289 13.2243 
5.611 -1.97655 13.8407 5.69873 -1.44794 13.9439 5.62125 -1.57727 13.6224 
5.55156 0.560243 14.2327 5.39137 1.08549 14.3507 5.39382 0.964304 14.0314 
2.95415 4.01289 14.8014 2.47481 4.26811 14.8462 2.60327 4.2006 14.6547 
2.0323 4.45578 14.8598 1.67204 4.5699 14.9546 1.69887 4.56455 14.6213 
0.376066 4.81003 14.9131 -0.0095616 4.8169 14.996 -0.0597739 4.82457 14.6868 
-1.43536 4.6417 14.8867 -1.80932 4.52756 14.9505 -1.79859 4.5342 14.6293 
-2.26117 4.36453 14.8493 -2.64564 4.17495 14.9485 -2.53366 4.23351 14.5702 
-3.80983 3.39156 14.6903 -4.11224 3.09907 14.777 -4.08347 3.11934 14.468 
-5.72945 -0.948324 14.0044 -5.69607 -1.44469 13.937 -5.66108 -1.17871 13.6668 
-5.63836 -1.73507 13.7695 -5.55156 -2.22636 13.7914 -5.5022 -2.16225 13.5154 
-5.39614 -2.53926 13.475 -5.39215 -2.75987 13.7415 -5.21549 -2.99035 13.3731 
-5.39215 -2.75987 13.7415 -5.19879 -3.20808 13.6395 -5.21549 -2.99035 13.3731 
-5.07544 -3.42041 13.5146 -4.80534 -3.91383 13.5289 -4.78018 -3.80851 13.2495 
-4.80534 -3.91383 13.5289 -4.53339 -4.29247 13.4653 -4.50807 -4.19732 13.202 
-4.53339 -4.29247 13.4653 -4.2345 -4.6471 13.4249 -4.2932 -4.43945 13.1309 
-3.97776 -4.76785 13.0691 -3.91148 -4.96638 13.3663 -3.60586 -5.12186 13.0514 
-3.91148 -4.96638 13.3663 -3.59896 -5.23412 13.3155 -3.60586 -5.12186 13.0514 
-3.59896 -5.23412 13.3155 -3.30492 -5.45521 13.2891 -3.19685 -5.42509 13.0104 
-3.30492 -5.45521 13.2891 -2.95415 -5.68574 13.2653 -3.19685 -5.42509 13.0104 
-2.57177 -5.78363 12.9384 -2.47481 -5.94232 13.229 -2.10758 -5.9898 12.9015 
-2.47481 -5.94232 13.229 -2.0323 -6.125 13.1839 -2.10758 -5.9898 12.9015 
-1.26367 -6.33555 13.0807 -0.73477 -6.44465 13.1275 -0.965678 -6.30711 12.8477 
-0.73477 -6.44465 13.1275 -0.376066 -6.4784 13.1252 -0.496743 -6.36781 12.8382 
0.524763 -6.46992 13.1278 1.0207 -6.40178 13.1356 0.992613 -6.30838 12.8626 
1.0207 -6.40178 13.1356 1.43536 -6.31014 13.1521 1.33269 -6.23247 12.8629 
1.79859 -6.12836 12.9405 2.26117 -6.03498 13.2022 2.06918 -5.9964 12.8848 
2.5337 -5.82409 12.9772 3.00873 -5.65086 13.2586 2.81916 -5.64233 12.9444 
3.00873 -5.65086 13.2586 3.43682 -5.36197 13.3084 3.19179 -5.41886 12.9898 
3.43682 -5.36197 13.3084 3.80983 -5.06049 13.3516 3.65338 -5.08333 13.0568 
4.08347 -4.73289 13.2243 4.38943 -4.47293 13.4478 4.43373 -4.28457 13.1662 
4.38943 -4.47293 13.4478 4.7052 -4.06027 13.5045 4.43373 -4.28457 13.1662 
4.7052 -4.06027 13.5045 4.89932 -3.76311 13.555 4.77187 -3.81152 13.2358 
4.89932 -3.76311 13.555 5.09707 -3.4169 13.613 5.06171 -3.32942 13.333 
5.09707 -3.4169 13.613 5.323 -2.94142 13.7098 5.06171 -3.32942 13.333 
5.42106 -2.55277 13.585 5.51399 -2.36362 13.7787 5.54094 -2.00692 13.5432 
5.51399 -2.36362 13.7787 5.611 -1.97655 13.8407 5.54094 -2.00692 13.5432 
5.62125 -1.57727 13.6224 5.69873 -1.44794 13.9439 5.669 -1.01465 13.6836 
5.69873 -1.44794 13.9439 5.72748 -0.932827 13.9997 5.669 -1.01465 13.6836 
5.72748 -0.932827 13.9997 5.71585 -0.407723 14.1071 5.66301 -0.408547 13.7921 
5.63851 0.099287 14.0603 5.55156 0.560243 14.2327 5.5022 0.584556 13.9504 
5.39382 0.964304 14.0314 5.39137 1.08549 14.3507 5.18476 1.49405 14.0894 
5.39137 1.08549 14.3507 5.19075 1.55822 14.3905 5.18476 1.49405 14.0894 
5.19075 1.55822 14.3905 5.02678 1.87769 14.4499 4.91073 2.0195 14.1742 
5.02678 1.87769 14.4499 4.80122 2.25198 14.5078 4.91073 2.0195 14.1742 
4.80122 2.25198 14.5078 4.60449 2.53057 14.5531 4.48359 2.64608 14.2705 
4.60449 2.53057 14.5531 4.35095 2.84632 14.6136 4.48359 2.64608 14.2705 
4.01327 3.20403 14.6171 3.59896 3.56784 14.7096 3.60663 3.54207 14.4237 
3.59896 3.56784 14.7096 3.30492 3.78627 14.7528 3.19685 3.84376 14.4784 
3.30492 3.78627 14.7528 2.95415 4.01289 14.8014 3.19685 3.84376 14.4784 
2.60327 4.2006 14.6547 2.47481 4.26811 14.8462 2.11749 4.41013 14.5463 
2.47481 4.26811 14.8462 2.0323 4.45578 14.8598 2.11749 4.41013 14.5463 
1.69887 4.56455 14.6213 1.26621 4.68492 14.8976 1.28171 4.67041 14.5944 
1.26621 4.68492 14.8976 0.73477 4.77723 14.9049 0.92186 4.73541 14.5485 
0.73477 4.77723 14.9049 0.376066 4.81003 14.9131 0.476249 4.79536 14.6037 
-0.524763 4.80116 14.913 -1.0207 4.73395 14.8993 -1.14315 4.70507 14.6127 
-1.0207 4.73395 14.8993 -1.43536 4.6417 14.8867 -1.14315 4.70507 14.6127 
-1.79859 4.5342 14.6293 -2.26117 4.36453 14.8493 -2.06918 4.42591 14.5355 
-2.53366 4.23351 14.5702 -3.00873 3.98177 14.7843 -2.81956 4.07059 14.4833 
-3.00873 3.98177 14.7843 -3.43682 3.69164 14.7423 -3.19179 3.8442 14.4569 
-3.43682 3.69164 14.7423 -3.80983 3.39156 14.6903 -3.65338 3.50439 14.4169 
-4.08347 3.11934 14.468 -4.38943 2.80304 14.6002 -4.43373 2.71092 14.2741 
-4.38943 2.80304 14.6002 -4.7052 2.39304 14.5266 -4.43373 2.71092 14.2741 
-4.7052 2.39304 14.5266 -4.89932 2.09482 14.4828 -4.77187 2.23952 14.1942 
-4.89932 2.09482 14.4828 -5.09707 1.74763 14.431 -5.06171 1.75095 14.1377 
-5.09707 1.74763 14.431 -5.323 1.26552 14.3761 -5.06171 1.75095 14.1377 
-5.42106 0.934446 14.1374 -5.51399 0.694704 14.2631 -5.54094 0.428244 13.9289 
-5.51399 0.694704 14.2631 -5.611 0.307418 14.2024 -5.54094 0.428244 13.9289 
-5.6604 -0.0276239 14.0618 -5.71325 -0.435768 14.0717 -5.6682 -0.554928 13.753 
-5.71325 -0.435768 14.0717 -5.72945 -0.948324 14.0044 -5.6682 -0.554928 13.753 
-5.66108 -1.17871 13.6668 -5.63836 -1.73507 13.7695 -5.57585 -1.67362 13.5152 
-1.761 -6.16752 13.0119 -1.26367 -6.33555 13.0807 -1.52391 -6.1443 12.7942 
3.65338 -5.08333 13.0568 4.08347 -4.73289 13.2243 4.02247 -4.65015 12.9714 
5.26584 -2.85966 13.3862 5.42106 -2.55277 13.585 5.3658 -2.37954 13.2797 
5.42106 -2.55277 13.585 5.54094 -2.00692 13.5432 5.3658 -2.37954 13.2797 
5.66301 -0.408547 13.7921 5.63851 0.099287 14.0603 5.57585 0.119909 13.7992 
4.24536 2.92702 14.3156 4.01327 3.20403 14.6171 3.92118 3.23461 14.2724 
4.01327 3.20403 14.6171 3.60663 3.54207 14.4237 3.92118 3.23461 14.2724 
2.91765 4.01382 14.4698 2.60327 4.2006 14.6547 2.47054 4.2384 14.4327 
2.60327 4.2006 14.6547 2.11749 4.41013 14.5463 2.47054 4.2384 14.4327 
-3.65338 3.50439 14.4169 -4.08347 3.11934 14.468 -4.02247 3.11879 14.2019 
-5.26584 1.28775 14.0431 -5.42106 0.934446 14.1374 -5.36571 0.859635 13.7876 
-5.42106 0.934446 14.1374 -5.54094 0.428244 13.9289 -5.36571 0.859635 13.7876 
-5.54094 0.428244 13.9289 -5.6604 -0.0276239 14.0618 -5.59542 -0.0173004 13.7778 
-5.6682 -0.554928 13.753 -5.66108 -1.17871 13.6668 -5.56749 -0.860986 13.4229 
-5.66108 -1.17871 13.6668 -5.57585 -1.67362 13.5152 -5.51477 -1.46381 13.3107 
-5.57585 -1.67362 13.5152 -5.5022 -2.16225 13.5154 -5.42634 -1.98441 13.2513 
-5.5022 -2.16225 13.5154 -5.39614 -2.53926 13.475 -5.27375 -2.49078 13.1464 
-5.39614 -2.53926 13.475 -5.21549 -2.99035 13.3731 -5.27375 -2.49078 13.1464 
-4.93505 -3.43301 13.1642 -4.78018 -3.80851 13.2495 -4.6977 -3.69105 12.9689 
-4.78018 -3.80851 13.2495 -4.50807 -4.19732 13.202 -4.47663 -4.01694 12.9294 
-4.50807 -4.19732 13.202 -4.2932 -4.43945 13.1309 -4.2432 -4.30478 12.8774 
-4.2932 -4.43945 13.1309 -3.97776 -4.76785 13.0691 -3.89782 -4.67916 12.826 
-3.97776 -4.76785 13.0691 -3.60586 -5.12186 13.0514 -3.51982 -5.00492 12.7666 
-3.60586 -5.12186 13.0514 -3.19685 -5.42509 13.0104 -3.21275 -5.23756 12.7361 
-3.19685 -5.42509 13.0104 -2.91765 -5.58417 12.9497 -2.89944 -5.4386 12.6979 
-2.91765 -5.58417 12.9497 -2.57177 -5.78363 12.9384 -2.56329 -5.62778 12.6742 
-2.57177 -5.78363 12.9384 -2.10758 -5.9898 12.9015 -2.20258 -5.80201 12.6531 
-2.10758 -5.9898 12.9015 -1.52391 -6.1443 12.7942 -1.76158 -5.96975 12.6305 
-1.52391 -6.1443 12.7942 -0.965678 -6.30711 12.8477 -1.25499 -6.10547 12.5975 
-0.965678 -6.30711 12.8477 -0.496743 -6.36781 12.8382 -0.765239 -6.19075 12.5787 
-0.496743 -6.36781 12.8382 0.0592456 -6.41928 12.897 -0.271007 -6.24354 12.5841 
0.255641 -6.27298 12.6261 0.666966 -6.35265 12.8498 0.741674 -6.19058 12.5729 
0.666966 -6.35265 12.8498 0.992613 -6.30838 12.8626 0.741674 -6.19058 12.5729 
0.992613 -6.30838 12.8626 1.33269 -6.23247 12.8629 1.13234 -6.13008 12.5947 
1.33269 -6.23247 12.8629 1.79859 -6.12836 12.9405 1.49568 -6.04083 12.6025 
1.79859 -6.12836 12.9405 2.06918 -5.9964 12.8848 1.86439 -5.92762 12.6268 
2.06918 -5.9964 12.8848 2.5337 -5.82409 12.9772 2.21218 -5.79033 12.6422 
2.5337 -5.82409 12.9772 2.81916 -5.64233 12.9444 2.66905 -5.58392 12.6946 
2.81916 -5.64233 12.9444 3.19179 -5.41886 12.9898 3.10845 -5.31139 12.7261 
3.19179 -5.41886 12.9898 3.65338 -5.08333 13.0568 3.41509 -5.08956 12.7595 
4.02247 -4.65015 12.9714 4.43373 -4.28457 13.1662 4.21921 -4.3277 12.8676 
4.43373 -4.28457 13.1662 4.77187 -3.81152 13.2358 4.68719 -3.71261 12.9712 
4.77187 -3.81152 13.2358 5.06171 -3.32942 13.333 4.94485 -3.2769 13.0419 
5.06171 -3.32942 13.333 5.26584 -2.85966 13.3862 5.15428 -2.82501 13.1118 
5.3658 -2.37954 13.2797 5.54094 -2.00692 13.5432 5.47536 -1.78082 13.2861 
5.54094 -2.00692 13.5432 5.62125 -1.57727 13.6224 5.47536 -1.78082 13.2861 
5.62125 -1.57727 13.6224 5.669 -1.01465 13.6836 5.55672 -1.12588 13.3817 
5.669 -1.01465 13.6836 5.66301 -0.408547 13.7921 5.56749 -0.624435 13.4604 
5.66301 -0.408547 13.7921 5.57585 0.119909 13.7992 5.49933 0.123237 13.5788 
5.57585 0.119909 13.7992 5.5022 0.584556 13.9504 5.37565 0.71639 13.6813 
5.5022 0.584556 13.9504 5.39382 0.964304 14.0314 5.37565 0.71639 13.6813 
5.39382 0.964304 14.0314 5.18476 1.49405 14.0894 5.20475 1.21526 13.7581 
5.18476 1.49405 14.0894 4.91073 2.0195 14.1742 4.97942 1.70091 13.7982 
4.91073 2.0195 14.1742 4.70807 2.33612 14.2223 4.69475 2.21552 13.9102 
4.70807 2.33612 14.2223 4.48359 2.64608 14.2705 4.47663 2.52956 13.9662 
4.48359 2.64608 14.2705 4.24536 2.92702 14.3156 4.2432 2.81936 14.0058 
4.24536 2.92702 14.3156 3.92118 3.23461 14.2724 3.90678 3.188 14.0856 
3.92118 3.23461 14.2724 3.60663 3.54207 14.4237 3.51675 3.52482 14.1256 
3.60663 3.54207 14.4237 3.19685 3.84376 14.4784 3.21275 3.75017 14.1596 
3.19685 3.84376 14.4784 2.91765 4.01382 14.4698 2.89944 3.95318 14.1854 
2.91765 4.01382 14.4698 2.47054 4.2384 14.4327 2.46353 4.19686 14.2418 
2.47054 4.2384 14.4327 2.11749 4.41013 14.5463 1.98539 4.39823 14.264 
2.11749 4.41013 14.5463 1.69887 4.56455 14.6213 1.62528 4.51816 14.2812 
1.69887 4.56455 14.6213 1.28171 4.67041 14.5944 1.24258 4.61968 14.2939 
0.92186 4.73541 14.5485 0.476249 4.79536 14.6037 0.487217 4.73687 14.3098 
0.476249 4.79536 14.6037 -0.0597739 4.82457 14.6868 -0.0166685 4.76047 14.3229 
-0.383217 4.77779 14.4646 -0.666966 4.77555 14.6123 -0.741509 4.70709 14.2991 
-0.666966 4.77555 14.6123 -1.14315 4.70507 14.6127 -0.741509 4.70709 14.2991 
-1.14315 4.70507 14.6127 -1.79859 4.5342 14.6293 -1.35152 4.59498 14.2836 
-1.79859 4.5342 14.6293 -2.06918 4.42591 14.5355 -1.86439 4.44024 14.2689 
-2.06918 4.42591 14.5355 -2.53366 4.23351 14.5702 -2.21218 4.30491 14.2411 
-2.53366 4.23351 14.5702 -2.81956 4.07059 14.4833 -2.67419 4.09008 14.2282 
-2.81956 4.07059 14.4833 -3.19179 3.8442 14.4569 -3.10845 3.82346 14.1729 
-3.19179 3.8442 14.4569 -3.65338 3.50439 14.4169 -3.41509 3.60217 14.1361 
-4.02247 3.11879 14.2019 -4.43373 2.71092 14.2741 -4.21921 2.84419 14.0035 
-4.43373 2.71092 14.2741 -4.77187 2.23952 14.1942 -4.68719 2.22719 13.912 
-4.77187 2.23952 14.1942 -5.06171 1.75095 14.1377 -4.94485 1.79098 13.8445 
-5.06171 1.75095 14.1377 -5.26584 1.28775 14.0431 -5.15428 1.33959 13.7714 
-5.36571 0.859635 13.7876 -5.54094 0.428244 13.9289 -5.38993 0.490235 13.5449 
-5.54094 0.428244 13.9289 -5.59542 -0.0173004 13.7778 -5.50133 0.144211 13.5973 
-5.59542 -0.0173004 13.7778 -5.6682 -0.554928 13.753 -5.55723 -0.365492 13.5029 
-5.05303 -3.06658 13.0832 -4.93505 -3.43301 13.1642 -4.8282 -3.33151 12.9003 
3.7228 -4.84075 12.8022 4.02247 -4.65015 12.9714 3.93489 -4.52294 12.7116 
1.24258 4.61968 14.2939 0.92186 4.73541 14.5485 0.874436 4.64437 14.1636 
-0.0166685 4.76047 14.3229 -0.383217 4.77779 14.4646 -0.374458 4.70082 14.1725 
-3.7228 3.35233 14.0999 -4.02247 3.11879 14.2019 -3.93489 3.07809 13.9155 
-5.56749 -0.860986 13.4229 -5.51477 -1.46381 13.3107 -5.44241 -1.20295 13.1707 
-5.51477 -1.46381 13.3107 -5.42634 -1.98441 13.2513 -5.29998 -1.9182 13.012 
-5.42634 -1.98441 13.2513 -5.27375 -2.49078 13.1464 -5.16799 -2.38663 12.9328 
-5.27375 -2.49078 13.1464 -5.05303 -3.06658 13.0832 -4.9373 -2.87412 12.802 
-4.8282 -3.33151 12.9003 -4.6977 -3.69105 12.9689 -4.50461 -3.76199 12.7551 
-4.6977 -3.69105 12.9689 -4.47663 -4.01694 12.9294 -4.50461 -3.76199 12.7551 
-4.47663 -4.01694 12.9294 -4.2432 -4.30478 12.8774 -4.1181 -4.13749 12.5846 
-4.2432 -4.30478 12.8774 -3.89782 -4.67916 12.826 -3.81451 -4.55956 12.6144 
-3.89782 -4.67916 12.826 -3.51982 -5.00492 12.7666 -3.443 -4.85341 12.5311 
-3.51982 -5.00492 12.7666 -3.21275 -5.23756 12.7361 -3.12842 -5.09449 12.5006 
-3.21275 -5.23756 12.7361 -2.89944 -5.4386 12.6979 -2.82808 -5.28991 12.4692 
-2.89944 -5.4386 12.6979 -2.56329 -5.62778 12.6742 -2.41733 -5.52261 12.4417 
-2.56329 -5.62778 12.6742 -2.20258 -5.80201 12.6531 -2.41733 -5.52261 12.4417 
-2.20258 -5.80201 12.6531 -1.76158 -5.96975 12.6305 -1.95466 -5.71248 12.3991 
-1.76158 -5.96975 12.6305 -1.25499 -6.10547 12.5975 -1.47158 -5.87133 12.3742 
-1.25499 -6.10547 12.5975 -0.765239 -6.19075 12.5787 -0.65408 -6.04436 12.3599 
-0.765239 -6.19075 12.5787 -0.271007 -6.24354 12.5841 -0.65408 -6.04436 12.3599 
-0.271007 -6.24354 12.5841 0.255641 -6.27298 12.6261 -0.0152766 -6.07361 12.3455 
0.374458 -6.14567 12.4546 0.741674 -6.19058 12.5729 0.87182 -6.0121 12.3637 
0.741674 -6.19058 12.5729 1.13234 -6.13008 12.5947 0.87182 -6.0121 12.3637 
1.13234 -6.13008 12.5947 1.49568 -6.04083 12.6025 1.46677 -5.87106 12.3723 
1.49568 -6.04083 12.6025 1.86439 -5.92762 12.6268 1.81973 -5.75377 12.3829 
1.86439 -5.92762 12.6268 2.21218 -5.79033 12.6422 2.15676 -5.62372 12.404 
2.21218 -5.79033 12.6422 2.66905 -5.58392 12.6946 2.69039 -5.39173 12.4747 
2.66905 -5.58392 12.6946 3.10845 -5.31139 12.7261 2.69039 -5.39173 12.4747 
3.10845 -5.31139 12.7261 3.41509 -5.08956 12.7595 3.24751 -5.03736 12.5406 
3.41509 -5.08956 12.7595 3.7228 -4.84075 12.8022 3.6285 -4.73752 12.5964 
3.93489 -4.52294 12.7116 4.21921 -4.3277 12.8676 4.21193 -4.09467 12.652 
4.21921 -4.3277 12.8676 4.47556 -4.01837 12.9292 4.21193 -4.09467 12.652 
4.47556 -4.01837 12.9292 4.68719 -3.71261 12.9712 4.56596 -3.61428 12.7306 
4.68719 -3.71261 12.9712 4.94485 -3.2769 13.0419 4.8277 -3.19241 12.8126 
4.94485 -3.2769 13.0419 5.15428 -2.82501 13.1118 5.05203 -2.75128 12.911 
5.15428 -2.82501 13.1118 5.3658 -2.37954 13.2797 5.25979 -2.22303 13.0235 
5.3658 -2.37954 13.2797 5.47536 -1.78082 13.2861 5.25979 -2.22303 13.0235 
5.47536 -1.78082 13.2861 5.55672 -1.12588 13.3817 5.39317 -1.42685 13.084 
5.55672 -1.12588 13.3817 5.56749 -0.624435 13.4604 5.44863 -0.717791 13.2135 
5.52129 -0.282808 13.4504 5.49933 0.123237 13.5788 5.34313 0.119406 13.2759 
5.49933 0.123237 13.5788 5.37565 0.71639 13.6813 5.25966 0.67792 13.4196 
5.37565 0.71639 13.6813 5.20475 1.21526 13.7581 5.08314 1.20907 13.5066 
5.20475 1.21526 13.7581 4.97942 1.70091 13.7982 4.91269 1.66476 13.6284 
4.97942 1.70091 13.7982 4.69475 2.21552 13.9102 4.57199 2.19082 13.6409 
4.69475 2.21552 13.9102 4.47663 2.52956 13.9662 4.37179 2.49262 13.7099 
4.47663 2.52956 13.9662 4.2432 2.81936 14.0058 4.05388 2.87619 13.7597 
4.2432 2.81936 14.0058 3.90678 3.188 14.0856 4.05388 2.87619 13.7597 
3.90678 3.188 14.0856 3.51675 3.52482 14.1256 3.63933 3.30821 13.8707 
3.51675 3.52482 14.1256 3.21275 3.75017 14.1596 3.24517 3.62889 13.9273 
3.21275 3.75017 14.1596 2.89944 3.95318 14.1854 2.73472 3.94889 13.9504 
2.89944 3.95318 14.1854 2.46353 4.19686 14.2418 2.73472 3.94889 13.9504 
2.46353 4.19686 14.2418 1.98539 4.39823 14.264 2.18132 4.23218 14.0171 
1.98539 4.39823 14.264 1.62528 4.51816 14.2812 1.69422 4.36641 13.9282 
1.62528 4.51816 14.2812 1.24258 4.61968 14.2939 1.239 4.54066 14.066 
0.874436 4.64437 14.1636 0.487217 4.73687 14.3098 0.465991 4.61944 13.9796 
0.487217 4.73687 14.3098 -0.0166685 4.76047 14.3229 0.00725762 4.68137 14.0882 
-0.374458 4.70082 14.1725 -0.741509 4.70709 14.2991 -0.737467 4.5726 13.9404 
-0.741509 4.70709 14.2991 -1.35152 4.59498 14.2836 -1.07132 4.5312 13.9634 
-1.35152 4.59498 14.2836 -1.86439 4.44024 14.2689 -1.84129 4.3444 13.9868 
-1.86439 4.44024 14.2689 -2.21218 4.30491 14.2411 -2.27906 4.17902 13.9805 
-2.21218 4.30491 14.2411 -2.67419 4.09008 14.2282 -2.27906 4.17902 13.9805 
-2.67419 4.09008 14.2282 -3.10845 3.82346 14.1729 -2.82993 3.90023 13.9645 
-3.10845 3.82346 14.1729 -3.41509 3.60217 14.1361 -3.24751 3.62017 13.9118 
-3.41509 3.60217 14.1361 -3.7228 3.35233 14.0999 -3.6285 3.31776 13.8723 
-3.93489 3.07809 13.9155 -4.21921 2.84419 14.0035 -4.21786 2.68345 13.7279 
-4.21921 2.84419 14.0035 -4.47556 2.53098 13.9665 -4.21786 2.68345 13.7279 
-4.47556 2.53098 13.9665 -4.68719 2.22719 13.912 -4.56596 2.20802 13.6528 
-4.68719 2.22719 13.912 -4.94485 1.79098 13.8445 -4.8277 1.78147 13.6003 
-4.94485 1.79098 13.8445 -5.15428 1.33959 13.7714 -5.05203 1.33152 13.5577 
-5.15428 1.33959 13.7714 -5.36571 0.859635 13.7876 -5.18983 0.979249 13.5163 
-5.50133 0.144211 13.5973 -5.55723 -0.365492 13.5029 -5.39619 -0.0899134 13.283 
-5.55723 -0.365492 13.5029 -5.56749 -0.860986 13.4229 -5.43741 -0.677869 13.2 
-5.43741 -0.677869 13.2 -5.44241 -1.20295 13.1707 -5.33513 -0.945585 13.0145 
-4.9373 -2.87412 12.802 -4.8282 -3.33151 12.9003 -4.60924 -3.38216 12.6519 
-4.8282 -3.33151 12.9003 -4.50461 -3.76199 12.7551 -4.60924 -3.38216 12.6519 
-4.1181 -4.13749 12.5846 -3.81451 -4.55956 12.6144 -3.819 -4.36386 12.473 
-0.0152766 -6.07361 12.3455 0.374458 -6.14567 12.4546 0.307554 -5.94602 12.2219 
2.69039 -5.39173 12.4747 3.24751 -5.03736 12.5406 3.17243 -4.93169 12.39 
3.24751 -5.03736 12.5406 3.6285 -4.73752 12.5964 3.6715 -4.53094 12.4592 
3.6285 -4.73752 12.5964 3.93489 -4.52294 12.7116 3.6715 -4.53094 12.4592 
4.8277 -3.19241 12.8126 5.05203 -2.75128 12.911 4.99515 -2.57686 12.7685 
5.05203 -2.75128 12.911 5.25979 -2.22303 13.0235 4.99515 -2.57686 12.7685 
5.39317 -1.42685 13.084 5.44863 -0.717791 13.2135 5.33491 -0.785004 13.0341 
5.44863 -0.717791 13.2135 5.52129 -0.282808 13.4504 5.31717 -0.264211 13.1168 
5.08314 1.20907 13.5066 4.91269 1.66476 13.6284 4.80485 1.63178 13.4267 
4.05388 2.87619 13.7597 3.63933 3.30821 13.8707 3.50499 3.2992 13.6868 
3.63933 3.30821 13.8707 3.24517 3.62889 13.9273 3.50499 3.2992 13.6868 
3.24517 3.62889 13.9273 2.73472 3.94889 13.9504 2.66599 3.88489 13.7716 
2.73472 3.94889 13.9504 2.18132 4.23218 14.0171 2.13891 4.14943 13.822 
1.69422 4.36641 13.9282 1.239 4.54066 14.066 1.2284 4.44555 13.861 
1.239 4.54066 14.066 0.874436 4.64437 14.1636 0.853674 4.52405 13.8812 
0.465991 4.61944 13.9796 0.00725762 4.68137 14.0882 -0.131787 4.59945 13.9027 
0.00725762 4.68137 14.0882 -0.374458 4.70082 14.1725 -0.131787 4.59945 13.9027 
-2.27906 4.17902 13.9805 -2.82993 3.90023 13.9645 -2.63919 3.89893 13.772 
-2.82993 3.90023 13.9645 -3.24751 3.62017 13.9118 -3.17243 3.56623 13.7359 
-3.24751 3.62017 13.9118 -3.6285 3.31776 13.8723 -3.67099 3.16549 13.6789 
-3.6285 3.31776 13.8723 -3.93489 3.07809 13.9155 -3.67099 3.16549 13.6789 
-4.8277 1.78147 13.6003 -5.05203 1.33152 13.5577 -4.99576 1.20974 13.3692 
-5.05203 1.33152 13.5577 -5.18983 0.979249 13.5163 -4.99576 1.20974 13.3692 
-5.18983 0.979249 13.5163 -5.38993 0.490235 13.5449 -5.20623 0.508142 13.248 
-5.33943 -1.49854 13.0111 -5.29998 -1.9182 13.012 -5.13334 -1.91806 12.7939 
-5.29998 -1.9182 13.012 -5.16799 -2.38663 12.9328 -5.13334 -1.91806 12.7939 
-4.9373 -2.87412 12.802 -4.60924 -3.38216 12.6519 -4.67812 -3.02532 12.5782 
-3.819 -4.36386 12.473 -3.81451 -4.55956 12.6144 -3.48748 -4.53832 12.331 
-3.81451 -4.55956 12.6144 -3.443 -4.85341 12.5311 -3.48748 -4.53832 12.331 
-3.443 -4.85341 12.5311 -3.12842 -5.09449 12.5006 -3.12747 -4.82715 12.286 
-3.12842 -5.09449 12.5006 -2.82808 -5.28991 12.4692 -2.65066 -5.19414 12.2776 
-2.82808 -5.28991 12.4692 -2.41733 -5.52261 12.4417 -2.65066 -5.19414 12.2776 
-2.41733 -5.52261 12.4417 -1.95466 -5.71248 12.3991 -2.09084 -5.46528 12.2311 
-1.95466 -5.71248 12.3991 -1.47158 -5.87133 12.3742 -1.65287 -5.58421 12.1661 
-1.47158 -5.87133 12.3742 -1.09599 -5.96425 12.3659 -1.05872 -5.74499 12.1391 
-1.09599 -5.96425 12.3659 -0.65408 -6.04436 12.3599 -1.05872 -5.74499 12.1391 
0.307554 -5.94602 12.2219 0.87182 -6.0121 12.3637 0.679264 -5.86652 12.188 
0.87182 -6.0121 12.3637 1.46677 -5.87106 12.3723 1.21707 -5.76595 12.1988 
1.46677 -5.87106 12.3723 1.81973 -5.75377 12.3829 1.68 -5.56576 12.1614 
1.81973 -5.75377 12.3829 2.15676 -5.62372 12.404 2.05691 -5.43703 12.1942 
2.15676 -5.62372 12.404 2.69039 -5.39173 12.4747 2.64631 -5.26334 12.3298 
3.6715 -4.53094 12.4592 4.21193 -4.09467 12.652 4.02812 -4.06614 12.4649 
4.21193 -4.09467 12.652 4.56596 -3.61428 12.7306 4.32381 -3.69031 12.5245 
4.56596 -3.61428 12.7306 4.8277 -3.19241 12.8126 4.668 -3.13924 12.6062 
5.34313 0.119406 13.2759 5.25966 0.67792 13.4196 5.13333 0.575268 13.1888 
5.25966 0.67792 13.4196 5.08314 1.20907 13.5066 4.98912 1.07585 13.2793 
4.80485 1.63178 13.4267 4.57199 2.19082 13.6409 4.51539 1.95686 13.3484 
4.57199 2.19082 13.6409 4.37179 2.49262 13.7099 4.24773 2.43448 13.479 
4.37179 2.49262 13.7099 4.05388 2.87619 13.7597 4.24773 2.43448 13.479 
-1.42942 4.44273 13.9361 -1.84129 4.3444 13.9868 -1.68338 4.23924 13.7151 
-1.84129 4.3444 13.9868 -2.27906 4.17902 13.9805 -2.10714 4.12372 13.7621 
-3.67099 3.16549 13.6789 -4.21786 2.68345 13.7279 -4.02812 2.71988 13.5397 
-4.21786 2.68345 13.7279 -4.56596 2.20802 13.6528 -4.32381 2.34404 13.4802 
-4.56596 2.20802 13.6528 -4.8277 1.78147 13.6003 -4.66791 1.7945 13.3874 
-5.20623 0.508142 13.248 -5.39619 -0.0899134 13.283 -5.2129 -0.0388918 13.0492 
-5.39619 -0.0899134 13.283 -5.43741 -0.677869 13.2 -5.28765 -0.435273 13.0406 
-5.33513 -0.945585 13.0145 -5.33943 -1.49854 13.0111 -5.12728 -1.45764 12.758 
-5.33943 -1.49854 13.0111 -5.13334 -1.91806 12.7939 -5.12728 -1.45764 12.758 
-5.13334 -1.91806 12.7939 -4.91814 -2.49239 12.6614 -4.95511 -2.01153 12.6181 
-4.67812 -3.02532 12.5782 -4.60924 -3.38216 12.6519 -4.45173 -3.21733 12.4417 
-4.60924 -3.38216 12.6519 -4.32579 -3.75655 12.5585 -4.21943 -3.5804 12.3855 
-4.32579 -3.75655 12.5585 -4.1181 -4.13749 12.5846 -3.83207 -4.04841 12.3011 
-4.1181 -4.13749 12.5846 -3.819 -4.36386 12.473 -3.83207 -4.04841 12.3011 
-3.12747 -4.82715 12.286 -2.65066 -5.19414 12.2776 -2.58278 -5.0344 12.1332 
-2.65066 -5.19414 12.2776 -2.09084 -5.46528 12.2311 -2.05318 -5.30244 12.0971 
-1.05872 -5.74499 12.1391 -0.336037 -5.90539 12.1828 -0.395144 -5.71656 12.0352 
-0.336037 -5.90539 12.1828 0.307554 -5.94602 12.2219 0.213184 -5.71974 12.0299 
0.307554 -5.94602 12.2219 0.679264 -5.86652 12.188 0.582276 -5.69261 12.0359 
0.679264 -5.86652 12.188 1.21707 -5.76595 12.1988 1.10366 -5.6229 12.0572 
2.05691 -5.43703 12.1942 2.64631 -5.26334 12.3298 2.26719 -5.20816 12.1148 
2.64631 -5.26334 12.3298 3.17243 -4.93169 12.39 2.80739 -4.96536 12.1994 
3.17243 -4.93169 12.39 3.6715 -4.53094 12.4592 3.25413 -4.65135 12.2543 
3.6715 -4.53094 12.4592 4.02812 -4.06614 12.4649 3.66912 -4.21365 12.2714 
4.02812 -4.06614 12.4649 4.32381 -3.69031 12.5245 4.06865 -3.74534 12.3393 
4.32381 -3.69031 12.5245 4.668 -3.13924 12.6062 4.33438 -3.38207 12.4032 
4.668 -3.13924 12.6062 4.99515 -2.57686 12.7685 4.76231 -2.56132 12.5314 
4.99515 -2.57686 12.7685 5.14065 -1.90981 12.7947 4.92685 -2.15859 12.6106 
5.18386 -1.28484 12.8152 5.33491 -0.785004 13.0341 5.15535 -0.849569 12.8187 
5.33491 -0.785004 13.0341 5.31717 -0.264211 13.1168 5.17529 -0.311335 12.936 
5.31717 -0.264211 13.1168 5.34313 0.119406 13.2759 5.12728 0.148483 13.0124 
5.34313 0.119406 13.2759 5.13333 0.575268 13.1888 5.12728 0.148483 13.0124 
5.13333 0.575268 13.1888 4.98912 1.07585 13.2793 4.95373 0.716279 13.048 
4.98912 1.07585 13.2793 4.80485 1.63178 13.4267 4.71228 1.40785 13.1666 
4.51539 1.95686 13.3484 4.24773 2.43448 13.479 4.16511 2.33205 13.3039 
4.24773 2.43448 13.479 3.8706 2.89426 13.5674 3.84082 2.73059 13.3721 
3.8706 2.89426 13.5674 3.50499 3.2992 13.6868 3.49061 3.08936 13.4295 
3.50499 3.2992 13.6868 3.08412 3.62074 13.7379 3.09251 3.45889 13.5331 
3.08412 3.62074 13.7379 2.66599 3.88489 13.7716 2.64292 3.77174 13.5995 
2.66599 3.88489 13.7716 2.13891 4.14943 13.822 2.16706 3.96352 13.5698 
2.13891 4.14943 13.822 1.69422 4.36641 13.9282 1.85278 4.13771 13.6491 
1.69422 4.36641 13.9282 1.2284 4.44555 13.861 1.39989 4.24816 13.6168 
1.2284 4.44555 13.861 0.853674 4.52405 13.8812 0.934268 4.35253 13.6318 
0.853674 4.52405 13.8812 0.465991 4.61944 13.9796 0.370993 4.42954 13.6482 
0.465991 4.61944 13.9796 -0.131787 4.59945 13.9027 0.370993 4.42954 13.6482 
-0.131787 4.59945 13.9027 -0.737467 4.5726 13.9404 -0.589889 4.44104 13.6977 
-0.737467 4.5726 13.9404 -1.07132 4.5312 13.9634 -1.03828 4.33872 13.6333 
-1.07132 4.5312 13.9634 -1.42942 4.44273 13.9361 -1.03828 4.33872 13.6333 
-1.68338 4.23924 13.7151 -2.10714 4.12372 13.7621 -1.94916 4.04984 13.577 
-2.10714 4.12372 13.7621 -2.63919 3.89893 13.772 -2.38905 3.84944 13.5437 
-2.63919 3.89893 13.772 -3.17243 3.56623 13.7359 -2.84954 3.58273 13.5056 
-3.17243 3.56623 13.7359 -3.67099 3.16549 13.6789 -3.24193 3.29564 13.4585 
-3.67099 3.16549 13.6789 -4.02812 2.71988 13.5397 -3.68237 2.90982 13.4028 
-4.02812 2.71988 13.5397 -4.32381 2.34404 13.4802 -4.06554 2.46342 13.3275 
-4.32381 2.34404 13.4802 -4.66791 1.7945 13.3874 -4.33518 2.0959 13.2763 
-4.66791 1.7945 13.3874 -4.99576 1.20974 13.3692 -4.76057 1.27411 13.1397 
-4.99576 1.20974 13.3692 -5.20623 0.508142 13.248 -4.92327 0.86127 13.0845 
-5.2129 -0.0388918 13.0492 -5.28765 -0.435273 13.0406 -5.13292 -0.305666 12.8913 
-5.28765 -0.435273 13.0406 -5.33513 -0.945585 13.0145 -5.15729 -0.857802 12.8191 
-5.15729 -0.857802 12.8191 -5.12728 -1.45764 12.758 -4.97301 -1.40331 12.6145 
-4.95511 -2.01153 12.6181 -4.91814 -2.49239 12.6614 -4.60522 -2.6374 12.4154 
-4.91814 -2.49239 12.6614 -4.67812 -3.02532 12.5782 -4.60522 -2.6374 12.4154 
-3.83207 -4.04841 12.3011 -3.48748 -4.53832 12.331 -3.34424 -4.32809 12.1408 
-3.48748 -4.53832 12.331 -3.12747 -4.82715 12.286 -3.00259 -4.6125 12.0998 
-2.05318 -5.30244 12.0971 -1.65287 -5.58421 12.1661 -1.48689 -5.40178 11.9965 
-1.65287 -5.58421 12.1661 -1.05872 -5.74499 12.1391 -1.48689 -5.40178 11.9965 
1.10366 -5.6229 12.0572 1.68 -5.56576 12.1614 1.72745 -5.30725 11.9982 
1.68 -5.56576 12.1614 2.05691 -5.43703 12.1942 1.72745 -5.30725 11.9982 
2.26719 -5.20816 12.1148 2.80739 -4.96536 12.1994 2.69234 -4.81818 12.0628 
2.80739 -4.96536 12.1994 3.25413 -4.65135 12.2543 3.13292 -4.50698 12.1131 
4.92685 -2.15859 12.6106 5.14065 -1.90981 12.7947 4.93297 -1.53908 12.5773 
5.15535 -0.849569 12.8187 5.17529 -0.311335 12.936 5.01856 -0.400837 12.7626 
5.17529 -0.311335 12.936 5.12728 0.148483 13.0124 4.96386 0.141606 12.8508 
4.95373 0.716279 13.048 4.71228 1.40785 13.1666 4.60736 1.30745 13.0197 
4.71228 1.40785 13.1666 4.51539 1.95686 13.3484 4.37101 1.82522 13.1224 
3.49061 3.08936 13.4295 3.09251 3.45889 13.5331 2.9229 3.41564 13.3744 
3.09251 3.45889 13.5331 2.64292 3.77174 13.5995 2.9229 3.41564 13.3744 
2.16706 3.96352 13.5698 1.85278 4.13771 13.6491 1.73037 4.01822 13.4538 
-0.197985 4.42605 13.6346 -0.589889 4.44104 13.6977 -0.459311 4.30361 13.5029 
-1.03828 4.33872 13.6333 -1.68338 4.23924 13.7151 -1.45244 4.11946 13.4783 
-5.04495 0.381445 13.0063 -5.2129 -0.0388918 13.0492 -4.97154 0.136411 12.8565 
-4.97301 -1.40331 12.6145 -4.95511 -2.01153 12.6181 -4.78404 -1.94749 12.4751 
-4.60522 -2.6374 12.4154 -4.45173 -3.21733 12.4417 -4.31963 -3.05634 12.3046 
-4.45173 -3.21733 12.4417 -4.21943 -3.5804 12.3855 -4.01281 -3.53519 12.2313 
-4.21943 -3.5804 12.3855 -3.83207 -4.04841 12.3011 -4.01281 -3.53519 12.2313 
-3.00259 -4.6125 12.0998 -2.58278 -5.0344 12.1332 -2.48983 -4.87615 12.0158 
-2.58278 -5.0344 12.1332 -2.05318 -5.30244 12.0971 -1.9832 -5.1256 11.976 
-0.920531 -5.52033 11.9631 -0.395144 -5.71656 12.0352 -0.225675 -5.53172 11.9103 
-0.395144 -5.71656 12.0352 0.213184 -5.71974 12.0299 -0.225675 -5.53172 11.9103 
0.213184 -5.71974 12.0299 0.582276 -5.69261 12.0359 0.449023 -5.51318 11.9146 
0.582276 -5.69261 12.0359 1.10366 -5.6229 12.0572 1.06616 -5.42017 11.9269 
1.10366 -5.6229 12.0572 1.72745 -5.30725 11.9982 1.06616 -5.42017 11.9269 
1.72745 -5.30725 11.9982 2.26719 -5.20816 12.1148 2.1832 -5.03439 11.9904 
3.13292 -4.50698 12.1131 3.66912 -4.21365 12.2714 3.55128 -4.05617 12.1419 
3.66912 -4.21365 12.2714 4.06865 -3.74534 12.3393 3.92561 -3.6377 12.2114 
4.06865 -3.74534 12.3393 4.33438 -3.38207 12.4032 4.09687 -3.2207 12.2015 
4.33438 -3.38207 12.4032 4.56483 -2.96579 12.4593 4.41342 -2.88566 12.3306 
4.56483 -2.96579 12.4593 4.76231 -2.56132 12.5314 4.60217 -2.47929 12.3951 
4.76231 -2.56132 12.5314 4.92685 -2.15859 12.6106 4.74612 -2.07445 12.4564 
5.18386 -1.28484 12.8152 5.15535 -0.849569 12.8187 4.95914 -0.961538 12.6355 
4.96386 0.141606 12.8508 4.95373 0.716279 13.048 4.78136 0.70296 12.8931 
4.37101 1.82522 13.1224 4.16511 2.33205 13.3039 4.07 2.18083 13.1255 
4.16511 2.33205 13.3039 3.84082 2.73059 13.3721 3.68758 2.66652 13.2069 
3.84082 2.73059 13.3721 3.49061 3.08936 13.4295 3.68758 2.66652 13.2069 
1.39989 4.24816 13.6168 0.934268 4.35253 13.6318 1.10489 4.15688 13.4397 
0.934268 4.35253 13.6318 0.370993 4.42954 13.6482 0.679877 4.2401 13.4593 
0.370993 4.42954 13.6482 -0.197985 4.42605 13.6346 0.151378 4.28577 13.4668 
-0.459311 4.30361 13.5029 -1.03828 4.33872 13.6333 -0.89736 4.20557 13.4539 
-1.45244 4.11946 13.4783 -1.94916 4.04984 13.577 -1.78871 3.95445 13.4109 
-1.94916 4.04984 13.577 -2.38905 3.84944 13.5437 -2.28373 3.72641 13.3661 
-2.38905 3.84944 13.5437 -2.84954 3.58273 13.5056 -2.77096 3.45268 13.3346 
-2.84954 3.58273 13.5056 -3.24193 3.29564 13.4585 -3.1115 3.20579 13.2952 
-3.24193 3.29564 13.4585 -3.68237 2.90982 13.4028 -3.54424 2.82551 13.2364 
-3.68237 2.90982 13.4028 -4.06554 2.46342 13.3275 -3.91122 2.40311 13.1656 
-4.06554 2.46342 13.3275 -4.33518 2.0959 13.2763 -4.23537 1.95291 13.0969 
-4.33518 2.0959 13.2763 -4.56221 1.68389 13.1976 -4.23537 1.95291 13.0969 
-4.56221 1.68389 13.1976 -4.76057 1.27411 13.1397 -4.51186 1.43252 13.0121 
-4.76057 1.27411 13.1397 -4.92327 0.86127 13.0845 -4.77761 0.804982 12.9289 
-4.92327 0.86127 13.0845 -5.04495 0.381445 13.0063 -4.77761 0.804982 12.9289 
-4.97154 0.136411 12.8565 -5.13292 -0.305666 12.8913 -4.95914 -0.285482 12.7426 
-5.13292 -0.305666 12.8913 -5.15729 -0.857802 12.8191 -5.01353 -0.857213 12.6871 
-5.01353 -0.857213 12.6871 -4.97301 -1.40331 12.6145 -4.77147 -1.03942 12.4933 
-4.97301 -1.40331 12.6145 -4.78404 -1.94749 12.4751 -4.66667 -1.70594 12.3898 
-4.78404 -1.94749 12.4751 -4.60522 -2.6374 12.4154 -4.45889 -2.35622 12.2895 
-4.60522 -2.6374 12.4154 -4.31963 -3.05634 12.3046 -4.25495 -2.77984 12.2195 
-4.31963 -3.05634 12.3046 -4.01281 -3.53519 12.2313 -3.93969 -3.31205 12.1369 
-4.01281 -3.53519 12.2313 -3.635 -3.9725 12.1586 -3.51404 -3.80916 12.051 
-3.635 -3.9725 12.1586 -3.34424 -4.32809 12.1408 -3.11932 -4.198 11.9933 
-3.34424 -4.32809 12.1408 -3.00259 -4.6125 12.0998 -3.11932 -4.198 11.9933 
-3.00259 -4.6125 12.0998 -2.48983 -4.87615 12.0158 -2.67893 -4.53339 11.9442 
-2.48983 -4.87615 12.0158 -1.9832 -5.1256 11.976 -2.19386 -4.80368 11.893 
-1.9832 -5.1256 11.976 -1.48689 -5.40178 11.9965 -1.70931 -5.0219 11.8626 
-1.48689 -5.40178 11.9965 -0.920531 -5.52033 11.9631 -1.18718 -5.20148 11.8406 
-0.920531 -5.52033 11.9631 -0.225675 -5.53172 11.9103 -0.467051 -5.33456 11.8215 
-0.225675 -5.53172 11.9103 0.449023 -5.51318 11.9146 0.327826 -5.32539 11.8141 
0.449023 -5.51318 11.9146 1.06616 -5.42017 11.9269 0.930312 -5.25116 11.8289 
1.06616 -5.42017 11.9269 1.72745 -5.30725 11.9982 1.46023 -5.11917 11.8527 
1.72745 -5.30725 11.9982 2.1832 -5.03439 11.9904 1.88831 -4.95143 11.8735 
2.1832 -5.03439 11.9904 2.69234 -4.81818 12.0628 2.39922 -4.69547 11.9118 
2.69234 -4.81818 12.0628 3.13292 -4.50698 12.1131 2.8437 -4.41341 11.9609 
3.13292 -4.50698 12.1131 3.55128 -4.05617 12.1419 3.3084 -4.0369 12.0212 
3.55128 -4.05617 12.1419 3.92561 -3.6377 12.2114 3.76225 -3.53259 12.0985 
4.09687 -3.2207 12.2015 4.41342 -2.88566 12.3306 4.33266 -2.64524 12.243 
4.41342 -2.88566 12.3306 4.60217 -2.47929 12.3951 4.33266 -2.64524 12.243 
4.60217 -2.47929 12.3951 4.74612 -2.07445 12.4564 4.57835 -2.00045 12.3423 
4.74612 -2.07445 12.4564 4.93297 -1.53908 12.5773 4.69774 -1.55121 12.4154 
4.93297 -1.53908 12.5773 4.95914 -0.961538 12.6355 4.76296 -1.03119 12.4894 
4.95914 -0.961538 12.6355 5.01856 -0.400837 12.7626 4.79129 -0.418589 12.5931 
5.01856 -0.400837 12.7626 4.96386 0.141606 12.8508 4.72598 0.187873 12.6879 
4.96386 0.141606 12.8508 4.78136 0.70296 12.8931 4.72598 0.187873 12.6879 
4.78136 0.70296 12.8931 4.60736 1.30745 13.0197 4.46128 1.14673 12.8457 
4.60736 1.30745 13.0197 4.37101 1.82522 13.1224 4.25994 1.58585 12.9176 
4.37101 1.82522 13.1224 4.07 2.18083 13.1255 3.99076 2.01998 12.9786 
4.07 2.18083 13.1255 3.68758 2.66652 13.2069 3.65003 2.45381 13.0444 
3.29173 2.92594 13.1662 2.9229 3.41564 13.3744 2.87934 3.19179 13.1704 
2.9229 3.41564 13.3744 2.35317 3.72822 13.3956 2.49878 3.45056 13.2156 
2.35317 3.72822 13.3956 1.73037 4.01822 13.4538 1.97 3.70335 13.2405 
1.73037 4.01822 13.4538 1.10489 4.15688 13.4397 1.32872 3.9321 13.2708 
1.10489 4.15688 13.4397 0.679877 4.2401 13.4593 0.560501 4.09235 13.3021 
0.679877 4.2401 13.4593 0.151378 4.28577 13.4668 0.560501 4.09235 13.3021 
0.151378 4.28577 13.4668 -0.459311 4.30361 13.5029 -0.100402 4.133 13.316 
-0.459311 4.30361 13.5029 -0.89736 4.20557 13.4539 -0.636799 4.09243 13.3115 
-0.89736 4.20557 13.4539 -1.45244 4.11946 13.4783 -1.17228 3.98307 13.287 
-1.45244 4.11946 13.4783 -1.78871 3.95445 13.4109 -1.68797 3.82394 13.2639 
-1.78871 3.95445 13.4109 -2.28373 3.72641 13.3661 -2.19756 3.6029 13.2284 
-2.28373 3.72641 13.3661 -2.77096 3.45268 13.3346 -2.66673 3.32501 13.1843 
-2.77096 3.45268 13.3346 -3.1115 3.20579 13.2952 -3.0917 3.01621 13.1369 
-3.1115 3.20579 13.2952 -3.54424 2.82551 13.2364 -3.0917 3.01621 13.1369 
-3.54424 2.82551 13.2364 -3.91122 2.40311 13.1656 -3.76359 2.32692 13.0279 
-3.91122 2.40311 13.1656 -4.23537 1.95291 13.0969 -4.03966 1.94698 12.9699 
-4.23537 1.95291 13.0969 -4.51186 1.43252 13.0121 -4.25578 1.56209 12.904 
-4.51186 1.43252 13.0121 -4.77761 0.804982 12.9289 -4.46846 1.07489 12.8214 
-4.77761 0.804982 12.9289 -4.97154 0.136411 12.8565 -4.67792 0.506148 12.7496 
-4.97154 0.136411 12.8565 -4.95914 -0.285482 12.7426 -4.75437 -0.0608732 12.6453 
-4.95914 -0.285482 12.7426 -5.01353 -0.857213 12.6871 -4.78814 -0.500921 12.579 
2.49878 3.45056 13.2156 2.35317 3.72822 13.3956 1.97 3.70335 13.2405 
-4.50898 -1.4032 12.3264 -4.54139 -1.20308 12.3581 -4.77147 -1.03942 12.4933 
-4.42262 -1.78098 12.2667 -4.46581 -1.60841 12.2939 -4.66667 -1.70594 12.3898 
-4.21424 -2.36841 12.1733 -4.28334 -2.1995 12.2003 -4.45889 -2.35622 12.2895 
-4.45889 -2.35622 12.2895 -4.25495 -2.77984 12.2195 -4.10297 -2.60832 12.1357 
-3.92442 -2.92548 12.085 -4.02108 -2.76054 12.1114 -4.25495 -2.77984 12.2195 
-3.2969 -3.73134 11.957 -3.42057 -3.6008 11.9783 -3.51404 -3.80916 12.051 
-3.51404 -3.80916 12.051 -3.11932 -4.198 11.9933 -3.11341 -3.91025 11.9293 
-2.82483 -4.1538 11.8911 -2.97315 -4.03276 11.9099 -3.11932 -4.198 11.9933 
-3.11932 -4.198 11.9933 -2.67893 -4.53339 11.9442 -2.62038 -4.30288 11.8674 
-2.67893 -4.53339 11.9442 -2.19386 -4.80368 11.893 -2.29204 -4.50762 11.8347 
-1.9479 -4.68583 11.8065 -2.10898 -4.60659 11.819 -2.19386 -4.80368 11.893 
-2.19386 -4.80368 11.893 -1.70931 -5.0219 11.8626 -1.71488 -4.7859 11.7906 
-1.35843 -4.91266 11.7711 -1.53512 -4.85279 11.78 -1.70931 -5.0219 11.8626 
-0.7343 -5.05589 11.7479 -0.932659 -5.01951 11.7536 -1.18718 -5.20148 11.8406 
0.286778 -5.10268 11.739 0.104348 -5.11303 11.7388 0.327826 -5.32539 11.8141 
0.919586 -5.02231 11.7531 0.727414 -5.05684 11.7477 0.930312 -5.25116 11.8289 
1.89577 -4.70792 11.8023 1.73012 -4.77935 11.7917 1.88831 -4.95143 11.8735 
1.88831 -4.95143 11.8735 2.39922 -4.69547 11.9118 2.12608 -4.59805 11.8203 
2.45485 -4.41181 11.8503 2.29204 -4.50762 11.8347 2.39922 -4.69547 11.9118 
2.39922 -4.69547 11.9118 2.8437 -4.41341 11.9609 2.6673 -4.26934 11.8723 
2.97052 -4.03509 11.9095 2.81127 -4.16284 11.8893 2.8437 -4.41341 11.9609 
3.25865 -3.77126 11.9511 3.12888 -3.89553 11.9317 3.3084 -4.0369 12.0212 
3.66974 -3.30047 12.0258 3.47251 -3.54055 11.9867 3.76225 -3.53259 12.0985 
3.76225 -3.53259 12.0985 4.09687 -3.2207 12.2015 3.81919 -3.09229 12.059 
4.01637 -2.7695 12.11 3.91673 -2.93905 12.0831 4.09687 -3.2207 12.2015 
4.40742 -1.83465 12.2582 4.35323 -2.00527 12.231 4.57835 -2.00045 12.3423 
4.57835 -2.00045 12.3423 4.69774 -1.55121 12.4154 4.47048 -1.58743 12.2969 
4.54012 -1.21933 12.3558 4.50827 -1.40659 12.3259 4.69774 -1.55121 12.4154 
4.76296 -1.03119 12.4894 4.79129 -0.418589 12.5931 4.58408 -0.586562 12.4557 
4.56651 -0.203146 12.5156 4.57933 -0.380488 12.4884 4.79129 -0.418589 12.5931 
4.79129 -0.418589 12.5931 4.72598 0.187873 12.6879 4.53998 0.0459819 12.5561 
4.47099 0.414859 12.6143 4.50827 0.233468 12.5856 4.72598 0.187873 12.6879 
4.72598 0.187873 12.6879 4.58419 0.763736 12.7788 4.40675 0.661707 12.6533 
4.28596 1.01995 12.7102 4.35323 0.832149 12.6804 4.58419 0.763736 12.7788 
4.12941 1.38038 12.7672 4.20457 1.21726 12.7414 4.46128 1.14673 12.8457 
3.81648 1.91764 12.851 3.91673 1.76593 12.8283 3.99076 2.01998 12.9786 
3.42976 2.41788 12.9316 3.62588 2.17374 12.8891 3.65003 2.45381 13.0444 
3.65003 2.45381 13.0444 3.29173 2.92594 13.1662 3.26084 2.60022 12.9618 
2.66726 3.09631 13.039 2.81127 2.98972 13.0222 2.87934 3.19179 13.1704 
2.87934 3.19179 13.1704 2.49878 3.45056 13.2156 2.45438 3.23781 13.0614 
2.12602 3.42481 13.0909 2.29204 3.33449 13.0768 2.49878 3.45056 13.2156 
1.53848 3.67855 13.1313 1.73012 3.60623 13.1198 1.97 3.70335 13.2405 
1.16394 3.7925 13.1489 1.33693 3.74425 13.1417 1.32872 3.9321 13.2708 
0.544466 3.90903 13.1675 0.727414 3.88372 13.1638 0.560501 4.09235 13.3021 
-0.0940894 3.94033 13.1727 0.104348 3.93991 13.1727 -0.100402 4.133 13.316 
-1.10939 3.80404 13.1496 -0.932659 3.84638 13.1578 -1.17228 3.98307 13.287 
-1.68797 3.82394 13.2639 -2.19756 3.6029 13.2284 -1.94931 3.51518 13.1069 
-2.19756 3.6029 13.2284 -2.66673 3.32501 13.1843 -2.47036 3.22739 13.0598 
-2.62072 3.13015 13.0449 -2.47036 3.22739 13.0598 -2.66673 3.32501 13.1843 
-2.66673 3.32501 13.1843 -3.0917 3.01621 13.1369 -2.82471 2.98046 13.0209 
-3.11304 2.73705 12.9819 -2.97315 2.85963 13.0016 -3.0917 3.01621 13.1369 
-3.0917 3.01621 13.1369 -3.49094 2.63452 13.0753 -3.30557 2.55175 12.9528 
-3.78843 1.96296 12.8593 -3.68391 2.10797 12.8825 -3.76359 2.32692 13.0279 
-4.10539 1.42733 12.7743 -4.02108 1.58742 12.8001 -4.25578 1.56209 12.904 
-4.25578 1.56209 12.904 -4.46846 1.07489 12.8214 -4.21571 1.1962 12.7387 
-4.34919 0.844783 12.6824 -4.28334 1.02637 12.7112 -4.46846 1.07489 12.8214 
-4.46846 1.07489 12.8214 -4.67792 0.506148 12.7496 -4.4259 0.608398 12.6468 
-4.56348 -0.146764 12.5256 -4.51822 0.151009 12.5699 -4.75437 -0.0608732 12.6453 
-4.75437 -0.0608732 12.6453 -4.78814 -0.500921 12.579 -4.58065 -0.399649 12.4854 
-5.73885 -1.6094 18.9137 -5.72706 -1.97257 18.8562 -5.7329 -1.1281 14.2052 
-5.72706 -1.97257 18.8562 -5.72706 -1.23328 14.1885 -5.7329 -1.1281 14.2052 
-5.69173 -2.33424 18.7989 -5.68882 -1.62066 14.1266 -5.71507 -1.38555 14.1644 
-5.71507 -1.38555 14.1644 -5.72706 -1.97257 18.8562 -5.69173 -2.33424 18.7989 
-5.69173 -2.33424 18.7989 -5.63302 -2.69293 18.7421 -5.63985 -1.92124 14.0768 
-5.63985 -1.92124 14.0768 -5.68882 -1.62066 14.1266 -5.69173 -2.33424 18.7989 
-5.63302 -2.69293 18.7421 -5.55116 -3.04717 18.686 -5.59078 -2.14937 14.0434 
-5.55116 -3.04717 18.686 -5.53616 -2.36647 14.0102 -5.59078 -2.14937 14.0434 
-5.55116 -3.04717 18.686 -5.44816 -2.65121 13.9639 -5.53616 -2.36647 14.0102 
-5.44816 -2.65121 13.9639 -5.55116 -3.04717 18.686 -5.44649 -3.3955 18.6308 
-5.44649 -3.3955 18.6308 -5.31943 -3.73649 18.5768 -5.36234 -2.88936 13.9262 
-5.31943 -3.73649 18.5768 -5.31943 -2.9972 13.9091 -5.36234 -2.88936 13.9262 
-5.17052 -4.06874 18.5242 -5.16218 -3.34751 13.8543 -5.26374 -3.12833 13.8884 
-5.26374 -3.12833 13.8884 -5.31943 -3.73649 18.5768 -5.17052 -4.06874 18.5242 
-5.17052 -4.06874 18.5242 -5.00036 -4.39089 18.4732 -5.02033 -3.61706 13.8069 
-5.02033 -3.61706 13.8069 -5.16218 -3.34751 13.8543 -5.17052 -4.06874 18.5242 
-5.00036 -4.39089 18.4732 -4.80966 -4.7016 18.424 -4.90338 -3.81522 13.7796 
-4.80966 -4.7016 18.424 -4.78186 -4.00544 13.7492 -4.90338 -3.81522 13.7796 
-4.80966 -4.7016 18.424 -4.60656 -4.25052 13.7078 -4.78186 -4.00544 13.7492 
-4.60656 -4.25052 13.7078 -4.80966 -4.7016 18.424 -4.59919 -4.99961 18.3768 
-4.59919 -4.99961 18.3768 -4.36982 -5.28369 18.3318 -4.45169 -4.44724 13.6795 
-4.36982 -5.28369 18.3318 -4.36982 -4.5444 13.6641 -4.45169 -4.44724 13.6795 
-4.1225 -5.55267 18.2892 -4.1132 -4.82282 13.62 -4.28223 -4.64366 13.6484 
-4.28223 -4.64366 13.6484 -4.36982 -5.28369 18.3318 -4.1225 -5.55267 18.2892 
-4.1225 -5.55267 18.2892 -3.85823 -5.80544 18.2491 -3.89377 -5.03416 13.5812 
-3.89377 -5.03416 13.5812 -4.1132 -4.82282 13.62 -4.1225 -5.55267 18.2892 
-3.57811 -6.04098 18.2118 -3.54467 -5.32901 13.5417 -3.72211 -5.18443 13.5627 
-3.72211 -5.18443 13.5627 -3.85823 -5.80544 18.2491 -3.57811 -6.04098 18.2118 
-3.28329 -6.2583 18.1774 -3.29739 -5.50979 13.5118 -3.54467 -5.32901 13.5417 
-3.54467 -5.32901 13.5417 -3.57811 -6.04098 18.2118 -3.28329 -6.2583 18.1774 
-3.28329 -6.2583 18.1774 -2.97498 -6.45652 18.146 -3.09266 -5.64484 13.4898 
-2.97498 -6.45652 18.146 -2.97498 -5.71723 13.4783 -3.09266 -5.64484 13.4898 
-2.65444 -6.63482 18.1178 -2.64734 -5.89918 13.4495 -2.86942 -5.77892 13.4686 
-2.86942 -5.77892 13.4686 -2.97498 -6.45652 18.146 -2.65444 -6.63482 18.1178 
-2.65444 -6.63482 18.1178 -2.32299 -6.79247 18.0928 -2.37379 -6.03061 13.423 
-2.37379 -6.03061 13.423 -2.64734 -5.89918 13.4495 -2.65444 -6.63482 18.1178 
-1.982 -6.92882 18.0712 -1.94819 -6.203 13.4053 -2.16595 -6.1191 13.4147 
-2.16595 -6.1191 13.4147 -2.32299 -6.79247 18.0928 -1.982 -6.92882 18.0712 
-1.63286 -7.04332 18.0531 -1.67371 -6.29189 13.3873 -1.94819 -6.203 13.4053 
-1.94819 -6.203 13.4053 -1.982 -6.92882 18.0712 -1.63286 -7.04332 18.0531 
-1.63286 -7.04332 18.0531 -1.63286 -6.30403 13.3854 -1.67371 -6.29189 13.3873 
-1.63286 -7.04332 18.0531 -1.27701 -7.13548 18.0385 -1.42213 -6.36151 13.3763 
-1.27701 -7.13548 18.0385 -1.27701 -6.3962 13.3708 -1.42213 -6.36151 13.3763 
-0.915919 -7.20494 18.0275 -0.913282 -6.46614 13.3597 -1.1676 -6.41975 13.3671 
-1.1676 -6.41975 13.3671 -1.27701 -7.13548 18.0385 -0.915919 -7.20494 18.0275 
-0.915919 -7.20494 18.0275 -0.551061 -7.2514 18.0201 -0.614585 -6.50629 13.3523 
-0.614585 -6.50629 13.3523 -0.913282 -6.46614 13.3597 -0.915919 -7.20494 18.0275 
-0.183939 -7.27468 18.0164 -0.183939 -6.5354 13.3487 -0.391633 -6.5251 13.3504 
-0.391633 -6.5251 13.3504 -0.551061 -7.2514 18.0201 -0.183939 -7.27468 18.0164 
0.183939 -7.27468 18.0164 0.130635 -6.53684 13.3485 -0.130635 -6.53684 13.3485 
-0.130635 -6.53684 13.3485 -0.183939 -7.27468 18.0164 0.183939 -7.27468 18.0164 
0.183939 -7.27468 18.0164 0.183939 -6.5354 13.3487 0.130635 -6.53684 13.3485 
0.183939 -7.27468 18.0164 0.551061 -7.2514 18.0201 0.391633 -6.5251 13.3504 
0.551061 -7.2514 18.0201 0.616074 -6.50641 13.3537 0.391633 -6.5251 13.3504 
0.551061 -7.2514 18.0201 0.912935 -6.46593 13.358 0.616074 -6.50641 13.3537 
0.912935 -6.46593 13.358 0.551061 -7.2514 18.0201 0.915919 -7.20494 18.0275 
0.915919 -7.20494 18.0275 1.27701 -7.13548 18.0385 1.1676 -6.41975 13.3671 
1.27701 -7.13548 18.0385 1.27701 -6.3962 13.3708 1.1676 -6.41975 13.3671 
1.63286 -7.04332 18.0531 1.63286 -6.30403 13.3854 1.42213 -6.36151 13.3763 
1.42213 -6.36151 13.3763 1.27701 -7.13548 18.0385 1.63286 -7.04332 18.0531 
1.63286 -7.04332 18.0531 1.982 -6.92882 18.0712 1.94818 -6.20287 13.4045 
1.94818 -6.20287 13.4045 1.67371 -6.29189 13.3873 1.63286 -7.04332 18.0531 
1.982 -6.92882 18.0712 2.32299 -6.79247 18.0928 2.16595 -6.1191 13.4147 
2.32299 -6.79247 18.0928 2.37433 -6.03349 13.4424 2.16595 -6.1191 13.4147 
2.32299 -6.79247 18.0928 2.64564 -5.88534 13.3551 2.37433 -6.03349 13.4424 
2.64564 -5.88534 13.3551 2.32299 -6.79247 18.0928 2.65444 -6.63482 18.1178 
2.65444 -6.63482 18.1178 2.97498 -6.45652 18.146 2.86942 -5.77892 13.4686 
2.97498 -6.45652 18.146 2.97498 -5.71723 13.4783 2.86942 -5.77892 13.4686 
3.28329 -6.2583 18.1774 3.29739 -5.50976 13.5116 3.09266 -5.64484 13.4898 
3.09266 -5.64484 13.4898 2.97498 -6.45652 18.146 3.28329 -6.2583 18.1774 
3.28329 -6.2583 18.1774 3.57811 -6.04098 18.2118 3.54466 -5.32885 13.5406 
3.54466 -5.32885 13.5406 3.29739 -5.50976 13.5116 3.28329 -6.2583 18.1774 
3.57811 -6.04098 18.2118 3.85823 -5.80544 18.2491 3.72211 -5.18443 13.5627 
3.85823 -5.80544 18.2491 3.89332 -5.03652 13.5934 3.72211 -5.18443 13.5627 
4.1225 -5.55267 18.2892 4.11224 -4.80913 13.5245 3.89332 -5.03652 13.5934 
3.89332 -5.03652 13.5934 3.85823 -5.80544 18.2491 4.1225 -5.55267 18.2892 
4.1225 -5.55267 18.2892 4.36982 -5.28369 18.3318 4.28223 -4.64366 13.6484 
4.36982 -5.28369 18.3318 4.36982 -4.5444 13.6641 4.28223 -4.64366 13.6484 
4.59919 -4.99961 18.3768 4.60602 -4.25169 13.7106 4.45169 -4.44724 13.6795 
4.45169 -4.44724 13.6795 4.36982 -5.28369 18.3318 4.59919 -4.99961 18.3768 
4.59919 -4.99961 18.3768 4.80966 -4.7016 18.424 4.78239 -4.00487 13.7511 
4.78239 -4.00487 13.7511 4.60602 -4.25169 13.7106 4.59919 -4.99961 18.3768 
5.00036 -4.39089 18.4732 5.02031 -3.61873 13.8172 4.90338 -3.81522 13.7796 
4.90338 -3.81522 13.7796 4.80966 -4.7016 18.424 5.00036 -4.39089 18.4732 
5.17052 -4.06874 18.5242 5.16218 -3.34755 13.8546 5.02031 -3.61873 13.8172 
5.02031 -3.61873 13.8172 5.00036 -4.39089 18.4732 5.17052 -4.06874 18.5242 
5.17052 -4.06874 18.5242 5.31943 -3.73649 18.5768 5.26374 -3.12833 13.8884 
5.31943 -3.73649 18.5768 5.31943 -2.9972 13.9091 5.26374 -3.12833 13.8884 
5.44649 -3.3955 18.6308 5.44816 -2.65121 13.9639 5.36234 -2.88936 13.9262 
5.36234 -2.88936 13.9262 5.31943 -3.73649 18.5768 5.44649 -3.3955 18.6308 
5.44649 -3.3955 18.6308 5.55116 -3.04717 18.686 5.53648 -2.36383 14.0027 
5.53648 -2.36383 14.0027 5.44816 -2.65121 13.9639 5.44649 -3.3955 18.6308 
5.63302 -2.69293 18.7421 5.63985 -1.9223 14.0833 5.59078 -2.14937 14.0434 
5.59078 -2.14937 14.0434 5.55116 -3.04717 18.686 5.63302 -2.69293 18.7421 
5.69173 -2.33424 18.7989 5.68882 -1.62063 14.1263 5.63985 -1.9223 14.0833 
5.63985 -1.9223 14.0833 5.63302 -2.69293 18.7421 5.69173 -2.33424 18.7989 
5.69173 -2.33424 18.7989 5.72706 -1.97257 18.8562 5.71507 -1.38555 14.1644 
5.72706 -1.97257 18.8562 5.72706 -1.23328 14.1885 5.71507 -1.38555 14.1644 
5.73885 -1.6094 18.9137 5.73885 -0.870117 14.246 5.7329 -1.1281 14.2052 
5.7329 -1.1281 14.2052 5.72706 -1.97257 18.8562 5.73885 -1.6094 18.9137 
5.73885 -1.6094 18.9137 5.72706 -1.24624 18.9712 5.7329 -0.612132 14.2869 
5.72706 -1.24624 18.9712 5.72706 -0.506955 14.3036 5.7329 -0.612132 14.2869 
5.69173 -0.884572 19.0285 5.68882 -0.119392 14.3644 5.71507 -0.354681 14.3277 
5.71507 -0.354681 14.3277 5.72706 -1.24624 18.9712 5.69173 -0.884572 19.0285 
5.69173 -0.884572 19.0285 5.63302 -0.525881 19.0853 5.63985 0.181843 14.4099 
5.63985 0.181843 14.4099 5.68882 -0.119392 14.3644 5.69173 -0.884572 19.0285 
5.63302 -0.525881 19.0853 5.55116 -0.171642 19.1414 5.59078 0.409139 14.4487 
5.55116 -0.171642 19.1414 5.53616 0.625867 14.4841 5.59078 0.409139 14.4487 
5.55116 -0.171642 19.1414 5.44816 0.910977 14.5281 5.53616 0.625867 14.4841 
5.44816 0.910977 14.5281 5.55116 -0.171642 19.1414 5.44649 0.176689 19.1966 
5.44649 0.176689 19.1966 5.31943 0.517681 19.2506 5.36234 1.14913 14.5659 
5.31943 0.517681 19.2506 5.31943 1.25697 14.5829 5.36234 1.14913 14.5659 
5.17052 0.849932 19.3032 5.16218 1.60709 14.639 5.26374 1.3881 14.6037 
5.26374 1.3881 14.6037 5.31943 0.517681 19.2506 5.17052 0.849932 19.3032 
5.17052 0.849932 19.3032 5.00036 1.17208 19.3543 5.02033 1.87816 14.6768 
5.02033 1.87816 14.6768 5.16218 1.60709 14.639 5.17052 0.849932 19.3032 
5.00036 1.17208 19.3543 4.80966 1.48279 19.4035 4.90338 2.07498 14.7125 
4.80966 1.48279 19.4035 4.78189 2.26467 14.746 4.90338 2.07498 14.7125 
4.80966 1.48279 19.4035 4.60656 2.51118 14.7787 4.78189 2.26467 14.746 
4.60656 2.51118 14.7787 4.80966 1.48279 19.4035 4.59919 1.7808 19.4507 
4.59919 1.7808 19.4507 4.36982 2.06488 19.4957 4.45169 2.70701 14.8126 
4.36982 2.06488 19.4957 4.36982 2.80417 14.828 4.45169 2.70701 14.8126 
4.1225 2.33386 19.5383 4.1132 3.08258 14.8721 4.28223 2.90343 14.8437 
4.28223 2.90343 14.8437 4.36982 2.06488 19.4957 4.1225 2.33386 19.5383 
4.1225 2.33386 19.5383 3.85823 2.58663 19.5783 3.89323 3.29592 14.9015 
3.89323 3.29592 14.9015 4.1132 3.08258 14.8721 4.1225 2.33386 19.5383 
3.57811 2.82217 19.6156 3.54467 3.5882 14.954 3.72211 3.4442 14.9294 
3.72211 3.4442 14.9294 3.85823 2.58663 19.5783 3.57811 2.82217 19.6156 
3.28329 3.03949 19.65 3.29739 3.76937 14.9815 3.54467 3.5882 14.954 
3.54467 3.5882 14.954 3.57811 2.82217 19.6156 3.28329 3.03949 19.65 
3.28329 3.03949 19.65 2.97498 3.23771 19.6814 3.09266 3.9046 15.0023 
2.97498 3.23771 19.6814 2.97498 3.977 15.0137 3.09266 3.9046 15.0023 
2.65444 3.41601 19.7097 2.64734 4.15894 15.0426 2.86942 4.03868 15.0235 
2.86942 4.03868 15.0235 2.97498 3.23771 19.6814 2.65444 3.41601 19.7097 
2.65444 3.41601 19.7097 2.32299 3.57366 19.7346 2.37379 4.29214 15.0579 
2.37379 4.29214 15.0579 2.64734 4.15894 15.0426 2.65444 3.41601 19.7097 
1.982 3.71001 19.7562 1.94819 4.46155 15.0944 2.16595 4.37887 15.0774 
2.16595 4.37887 15.0774 2.32299 3.57366 19.7346 1.982 3.71001 19.7562 
1.63286 3.82451 19.7744 1.67371 4.55166 15.1048 1.94819 4.46155 15.0944 
1.94819 4.46155 15.0944 1.982 3.71001 19.7562 1.63286 3.82451 19.7744 
1.63286 3.82451 19.7744 1.63286 4.5638 15.1067 1.67371 4.55166 15.1048 
1.63286 3.82451 19.7744 1.27701 3.91667 19.789 1.42213 4.62128 15.1158 
1.27701 3.91667 19.789 1.27701 4.65596 15.1213 1.42213 4.62128 15.1158 
0.915919 3.98613 19.8 0.913282 4.7259 15.1324 1.1676 4.67952 15.125 
1.1676 4.67952 15.125 1.27701 3.91667 19.789 0.915919 3.98613 19.8 
0.915919 3.98613 19.8 0.551061 4.0326 19.8073 0.614585 4.76637 15.1378 
0.614585 4.76637 15.1378 0.913282 4.7259 15.1324 0.915919 3.98613 19.8 
0.183939 4.05588 19.811 0.183939 4.79516 15.1433 0.391633 4.78486 15.1417 
0.391633 4.78486 15.1417 0.551061 4.0326 19.8073 0.183939 4.05588 19.811 
0.183939 4.05588 19.811 -0.183939 4.05588 19.811 -0.130635 4.79661 15.1436 
-0.130635 4.79661 15.1436 0.130635 4.79661 15.1436 0.183939 4.05588 19.811 
-0.183939 4.05588 19.811 -0.183939 4.79516 15.1433 -0.130635 4.79661 15.1436 
-0.183939 4.05588 19.811 -0.551061 4.0326 19.8073 -0.391633 4.78486 15.1417 
-0.551061 4.0326 19.8073 -0.616074 4.76607 15.139 -0.391633 4.78486 15.1417 
-0.551061 4.0326 19.8073 -0.912935 4.72623 15.1307 -0.616074 4.76607 15.139 
-0.912935 4.72623 15.1307 -0.551061 4.0326 19.8073 -0.915919 3.98613 19.8 
-0.915919 3.98613 19.8 -1.27701 3.91667 19.789 -1.1676 4.67952 15.125 
-1.27701 3.91667 19.789 -1.27701 4.65596 15.1213 -1.1676 4.67952 15.125 
-1.63286 3.82451 19.7744 -1.63286 4.5638 15.1067 -1.42213 4.62128 15.1158 
-1.42213 4.62128 15.1158 -1.27701 3.91667 19.789 -1.63286 3.82451 19.7744 
-1.63286 3.82451 19.7744 -1.982 3.71001 19.7562 -1.94818 4.46168 15.0936 
-1.94818 4.46168 15.0936 -1.67371 4.55166 15.1048 -1.63286 3.82451 19.7744 
-1.982 3.71001 19.7562 -2.32299 3.57366 19.7346 -2.16595 4.37887 15.0774 
-2.32299 3.57366 19.7346 -2.37433 4.28888 15.0773 -2.16595 4.37887 15.0774 
-2.32299 3.57366 19.7346 -2.64564 4.17495 14.9485 -2.37433 4.28888 15.0773 
-2.64564 4.17495 14.9485 -2.32299 3.57366 19.7346 -2.65444 3.41601 19.7097 
-2.65444 3.41601 19.7097 -2.97498 3.23771 19.6814 -2.86942 4.03868 15.0235 
-2.97498 3.23771 19.6814 -2.97498 3.977 15.0137 -2.86942 4.03868 15.0235 
-3.28329 3.03949 19.65 -3.29739 3.76939 14.9813 -3.09266 3.9046 15.0023 
-3.09266 3.9046 15.0023 -2.97498 3.23771 19.6814 -3.28329 3.03949 19.65 
-3.28329 3.03949 19.65 -3.57811 2.82217 19.6156 -3.54466 3.58837 14.953 
-3.54466 3.58837 14.953 -3.29739 3.76939 14.9813 -3.28329 3.03949 19.65 
-3.57811 2.82217 19.6156 -3.85823 2.58663 19.5783 -3.72211 3.4442 14.9294 
-3.85823 2.58663 19.5783 -3.89332 3.29404 14.9128 -3.72211 3.4442 14.9294 
-4.1225 2.33386 19.5383 -4.11224 3.09907 14.777 -3.89332 3.29404 14.9128 
-3.89332 3.29404 14.9128 -3.85823 2.58663 19.5783 -4.1225 2.33386 19.5383 
-4.1225 2.33386 19.5383 -4.36982 2.06488 19.4957 -4.28223 2.90343 14.8437 
-4.36982 2.06488 19.4957 -4.36982 2.80417 14.828 -4.28223 2.90343 14.8437 
-4.59919 1.7808 19.4507 -4.60602 2.51141 14.7818 -4.45169 2.70701 14.8126 
-4.45169 2.70701 14.8126 -4.36982 2.06488 19.4957 -4.59919 1.7808 19.4507 
-4.59919 1.7808 19.4507 -4.80966 1.48279 19.4035 -4.78239 2.26416 14.744 
-4.78239 2.26416 14.744 -4.60602 2.51141 14.7818 -4.59919 1.7808 19.4507 
-5.00036 1.17208 19.3543 -5.02031 1.87647 14.6876 -4.90338 2.07498 14.7125 
-4.90338 2.07498 14.7125 -4.80966 1.48279 19.4035 -5.00036 1.17208 19.3543 
-5.17052 0.849932 19.3032 -5.16218 1.60704 14.6393 -5.02031 1.87647 14.6876 
-5.02031 1.87647 14.6876 -5.00036 1.17208 19.3543 -5.17052 0.849932 19.3032 
-5.17052 0.849932 19.3032 -5.31943 0.517681 19.2506 -5.26374 1.3881 14.6037 
-5.31943 0.517681 19.2506 -5.31943 1.25697 14.5829 -5.26374 1.3881 14.6037 
-5.44649 0.176689 19.1966 -5.44816 0.910977 14.5281 -5.36234 1.14913 14.5659 
-5.36234 1.14913 14.5659 -5.31943 0.517681 19.2506 -5.44649 0.176689 19.1966 
-5.44649 0.176689 19.1966 -5.55116 -0.171642 19.1414 -5.53648 0.625691 14.4762 
-5.53648 0.625691 14.4762 -5.44816 0.910977 14.5281 -5.44649 0.176689 19.1966 
-5.63302 -0.525881 19.0853 -5.63985 0.180855 14.4164 -5.59078 0.409139 14.4487 
-5.59078 0.409139 14.4487 -5.55116 -0.171642 19.1414 -5.63302 -0.525881 19.0853 
-5.69173 -0.884572 19.0285 -5.68882 -0.119326 14.3641 -5.63985 0.180855 14.4164 
-5.63985 0.180855 14.4164 -5.63302 -0.525881 19.0853 -5.69173 -0.884572 19.0285 
-5.69173 -0.884572 19.0285 -5.72706 -1.24624 18.9712 -5.71507 -0.354681 14.3277 
-5.72706 -1.24624 18.9712 -5.72706 -0.506955 14.3036 -5.71507 -0.354681 14.3277 
-5.73885 -1.6094 18.9137 -5.73885 -0.870117 14.246 -5.7329 -0.612132 14.2869 
-5.7329 -0.612132 14.2869 -5.72706 -1.24624 18.9712 -5.73885 -1.6094 18.9137 
-5.7329 -0.612132 14.2869 -5.72706 -0.506955 14.3036 -5.72706 -1.24624 18.9712 
-5.71507 -0.354681 14.3277 -5.68882 -0.119326 14.3641 -5.69173 -0.884572 19.0285 
-5.59078 0.409139 14.4487 -5.53648 0.625691 14.4762 -5.55116 -0.171642 19.1414 
-5.36234 1.14913 14.5659 -5.31943 1.25697 14.5829 -5.31943 0.517681 19.2506 
-5.26374 1.3881 14.6037 -5.16218 1.60704 14.6393 -5.17052 0.849932 19.3032 
-4.90338 2.07498 14.7125 -4.78239 2.26416 14.744 -4.80966 1.48279 19.4035 
-4.45169 2.70701 14.8126 -4.36982 2.80417 14.828 -4.36982 2.06488 19.4957 
-4.28223 2.90343 14.8437 -4.11224 3.09907 14.777 -4.1225 2.33386 19.5383 
-3.72211 3.4442 14.9294 -3.54466 3.58837 14.953 -3.57811 2.82217 19.6156 
-3.09266 3.9046 15.0023 -2.97498 3.977 15.0137 -2.97498 3.23771 19.6814 
-2.86942 4.03868 15.0235 -2.64564 4.17495 14.9485 -2.65444 3.41601 19.7097 
-2.16595 4.37887 15.0774 -1.94818 4.46168 15.0936 -1.982 3.71001 19.7562 
-1.67371 4.55166 15.1048 -1.63286 4.5638 15.1067 -1.63286 3.82451 19.7744 
-1.42213 4.62128 15.1158 -1.27701 4.65596 15.1213 -1.27701 3.91667 19.789 
-1.1676 4.67952 15.125 -0.912935 4.72623 15.1307 -0.915919 3.98613 19.8 
-0.391633 4.78486 15.1417 -0.183939 4.79516 15.1433 -0.183939 4.05588 19.811 
0.130635 4.79661 15.1436 0.183939 4.79516 15.1433 0.183939 4.05588 19.811 
0.391633 4.78486 15.1417 0.614585 4.76637 15.1378 0.551061 4.0326 19.8073 
1.1676 4.67952 15.125 1.27701 4.65596 15.1213 1.27701 3.91667 19.789 
1.42213 4.62128 15.1158 1.63286 4.5638 15.1067 1.63286 3.82451 19.7744 
2.16595 4.37887 15.0774 2.37379 4.29214 15.0579 2.32299 3.57366 19.7346 
2.86942 4.03868 15.0235 2.97498 3.977 15.0137 2.97498 3.23771 19.6814 
3.09266 3.9046 15.0023 3.29739 3.76937 14.9815 3.28329 3.03949 19.65 
3.72211 3.4442 14.9294 3.89323 3.29592 14.9015 3.85823 2.58663 19.5783 
4.28223 2.90343 14.8437 4.36982 2.80417 14.828 4.36982 2.06488 19.4957 
4.45169 2.70701 14.8126 4.60656 2.51118 14.7787 4.59919 1.7808 19.4507 
4.90338 2.07498 14.7125 5.02033 1.87816 14.6768 5.00036 1.17208 19.3543 
5.26374 1.3881 14.6037 5.31943 1.25697 14.5829 5.31943 0.517681 19.2506 
5.36234 1.14913 14.5659 5.44816 0.910977 14.5281 5.44649 0.176689 19.1966 
5.59078 0.409139 14.4487 5.63985 0.181843 14.4099 5.63302 -0.525881 19.0853 
5.71507 -0.354681 14.3277 5.72706 -0.506955 14.3036 5.72706 -1.24624 18.9712 
5.7329 -0.612132 14.2869 5.73885 -0.870117 14.246 5.73885 -1.6094 18.9137 
5.7329 -1.1281 14.2052 5.72706 -1.23328 14.1885 5.72706 -1.97257 18.8562 
5.71507 -1.38555 14.1644 5.68882 -1.62063 14.1263 5.69173 -2.33424 18.7989 
5.59078 -2.14937 14.0434 5.53648 -2.36383 14.0027 5.55116 -3.04717 18.686 
5.36234 -2.88936 13.9262 5.31943 -2.9972 13.9091 5.31943 -3.73649 18.5768 
5.26374 -3.12833 13.8884 5.16218 -3.34755 13.8546 5.17052 -4.06874 18.5242 
4.90338 -3.81522 13.7796 4.78239 -4.00487 13.7511 4.80966 -4.7016 18.424 
4.45169 -4.44724 13.6795 4.36982 -4.5444 13.6641 4.36982 -5.28369 18.3318 
4.28223 -4.64366 13.6484 4.11224 -4.80913 13.5245 4.1225 -5.55267 18.2892 
3.72211 -5.18443 13.5627 3.54466 -5.32885 13.5406 3.57811 -6.04098 18.2118 
3.09266 -5.64484 13.4898 2.97498 -5.71723 13.4783 2.97498 -6.45652 18.146 
2.86942 -5.77892 13.4686 2.64564 -5.88534 13.3551 2.65444 -6.63482 18.1178 
2.16595 -6.1191 13.4147 1.94818 -6.20287 13.4045 1.982 -6.92882 18.0712 
1.67371 -6.29189 13.3873 1.63286 -6.30403 13.3854 1.63286 -7.04332 18.0531 
1.42213 -6.36151 13.3763 1.27701 -6.3962 13.3708 1.27701 -7.13548 18.0385 
1.1676 -6.41975 13.3671 0.912935 -6.46593 13.358 0.915919 -7.20494 18.0275 
0.391633 -6.5251 13.3504 0.183939 -6.5354 13.3487 0.183939 -7.27468 18.0164 
-0.130635 -6.53684 13.3485 -0.183939 -6.5354 13.3487 -0.183939 -7.27468 18.0164 
-0.391633 -6.5251 13.3504 -0.614585 -6.50629 13.3523 -0.551061 -7.2514 18.0201 
-1.1676 -6.41975 13.3671 -1.27701 -6.3962 13.3708 -1.27701 -7.13548 18.0385 
-1.42213 -6.36151 13.3763 -1.63286 -6.30403 13.3854 -1.63286 -7.04332 18.0531 
-2.16595 -6.1191 13.4147 -2.37379 -6.03061 13.423 -2.32299 -6.79247 18.0928 
-2.86942 -5.77892 13.4686 -2.97498 -5.71723 13.4783 -2.97498 -6.45652 18.146 
-3.09266 -5.64484 13.4898 -3.29739 -5.50979 13.5118 -3.28329 -6.2583 18.1774 
-3.72211 -5.18443 13.5627 -3.89377 -5.03416 13.5812 -3.85823 -5.80544 18.2491 
-4.28223 -4.64366 13.6484 -4.36982 -4.5444 13.6641 -4.36982 -5.28369 18.3318 
-4.45169 -4.44724 13.6795 -4.60656 -4.25052 13.7078 -4.59919 -4.99961 18.3768 
-4.90338 -3.81522 13.7796 -5.02033 -3.61706 13.8069 -5.00036 -4.39089 18.4732 
-5.26374 -3.12833 13.8884 -5.31943 -2.9972 13.9091 -5.31943 -3.73649 18.5768 
-5.36234 -2.88936 13.9262 -5.44816 -2.65121 13.9639 -5.44649 -3.3955 18.6308 
-5.59078 -2.14937 14.0434 -5.63985 -1.92124 14.0768 -5.63302 -2.69293 18.7421 
-5.71507 -1.38555 14.1644 -5.72706 -1.23328 14.1885 -5.72706 -1.97257 18.8562 
-5.7329 -1.1281 14.2052 -5.73885 -0.870117 14.246 -5.73885 -1.6094 18.9137 
1.27701 3.91667 19.789 5.72706 -1.97257 18.8562 5.69173 -2.33424 18.7989 
5.69173 -2.33424 18.7989 5.63302 -2.69293 18.7421 1.27701 3.91667 19.789 
5.63302 -2.69293 18.7421 5.55116 -3.04717 18.686 1.27701 3.91667 19.789 
5.55116 -3.04717 18.686 5.44649 -3.3955 18.6308 1.27701 3.91667 19.789 
5.44649 -3.3955 18.6308 5.31943 -3.73649 18.5768 1.27701 3.91667 19.789 
5.31943 -3.73649 18.5768 5.17052 -4.06874 18.5242 1.27701 3.91667 19.789 
5.17052 -4.06874 18.5242 5.00036 -4.39089 18.4732 1.27701 3.91667 19.789 
5.00036 -4.39089 18.4732 4.80966 -4.7016 18.424 1.27701 3.91667 19.789 
4.80966 -4.7016 18.424 4.59919 -4.99961 18.3768 1.27701 3.91667 19.789 
4.59919 -4.99961 18.3768 4.36982 -5.28369 18.3318 1.27701 3.91667 19.789 
4.36982 -5.28369 18.3318 4.1225 -5.55267 18.2892 1.27701 3.91667 19.789 
4.1225 -5.55267 18.2892 3.85823 -5.80544 18.2491 1.27701 3.91667 19.789 
3.85823 -5.80544 18.2491 3.57811 -6.04098 18.2118 1.27701 3.91667 19.789 
3.57811 -6.04098 18.2118 3.28329 -6.2583 18.1774 1.27701 3.91667 19.789 
3.28329 -6.2583 18.1774 2.97498 -6.45652 18.146 1.27701 3.91667 19.789 
2.97498 -6.45652 18.146 2.65444 -6.63482 18.1178 1.27701 3.91667 19.789 
2.65444 -6.63482 18.1178 2.32299 -6.79247 18.0928 1.27701 3.91667 19.789 
2.32299 -6.79247 18.0928 1.982 -6.92882 18.0712 1.27701 3.91667 19.789 
1.982 -6.92882 18.0712 1.63286 -7.04332 18.0531 1.27701 3.91667 19.789 
1.63286 -7.04332 18.0531 1.27701 -7.13548 18.0385 1.27701 3.91667 19.789 
1.27701 -7.13548 18.0385 0.915919 -7.20494 18.0275 1.27701 3.91667 19.789 
0.915919 -7.20494 18.0275 0.551061 -7.2514 18.0201 1.27701 3.91667 19.789 
0.551061 -7.2514 18.0201 0.183939 -7.27468 18.0164 1.27701 3.91667 19.789 
0.183939 -7.27468 18.0164 -0.183939 -7.27468 18.0164 1.27701 3.91667 19.789 
-0.183939 -7.27468 18.0164 -0.551061 -7.2514 18.0201 1.27701 3.91667 19.789 
-0.551061 -7.2514 18.0201 -0.915919 -7.20494 18.0275 1.27701 3.91667 19.789 
-0.915919 -7.20494 18.0275 -1.27701 -7.13548 18.0385 1.27701 3.91667 19.789 
-1.27701 -7.13548 18.0385 -1.63286 -7.04332 18.0531 1.27701 3.91667 19.789 
-1.63286 -7.04332 18.0531 -1.982 -6.92882 18.0712 1.27701 3.91667 19.789 
-1.982 -6.92882 18.0712 -2.32299 -6.79247 18.0928 1.27701 3.91667 19.789 
-2.32299 -6.79247 18.0928 -2.65444 -6.63482 18.1178 1.27701 3.91667 19.789 
-2.65444 -6.63482 18.1178 -2.97498 -6.45652 18.146 1.27701 3.91667 19.789 
-2.97498 -6.45652 18.146 -3.28329 -6.2583 18.1774 1.27701 3.91667 19.789 
-3.28329 -6.2583 18.1774 -3.57811 -6.04098 18.2118 1.27701 3.91667 19.789 
-3.57811 -6.04098 18.2118 -3.85823 -5.80544 18.2491 1.27701 3.91667 19.789 
-3.85823 -5.80544 18.2491 -4.1225 -5.55267 18.2892 1.27701 3.91667 19.789 
-4.1225 -5.55267 18.2892 -4.36982 -5.28369 18.3318 1.27701 3.91667 19.789 
-4.36982 -5.28369 18.3318 -4.59919 -4.99961 18.3768 1.27701 3.91667 19.789 
-4.59919 -4.99961 18.3768 -4.80966 -4.7016 18.424 1.27701 3.91667 19.789 
-4.80966 -4.7016 18.424 -5.00036 -4.39089 18.4732 1.27701 3.91667 19.789 
-5.00036 -4.39089 18.4732 -5.17052 -4.06874 18.5242 1.27701 3.91667 19.789 
-5.17052 -4.06874 18.5242 -5.31943 -3.73649 18.5768 1.27701 3.91667 19.789 
-5.31943 -3.73649 18.5768 -5.44649 -3.3955 18.6308 1.27701 3.91667 19.789 
-5.44649 -3.3955 18.6308 -5.55116 -3.04717 18.686 1.27701 3.91667 19.789 
-5.55116 -3.04717 18.686 -5.63302 -2.69293 18.7421 1.27701 3.91667 19.789 
-5.63302 -2.69293 18.7421 -5.69173 -2.33424 18.7989 1.27701 3.91667 19.789 
-5.69173 -2.33424 18.7989 -5.72706 -1.97257 18.8562 1.27701 3.91667 19.789 
-5.72706 -1.97257 18.8562 -5.73885 -1.6094 18.9137 1.27701 3.91667 19.789 
-5.73885 -1.6094 18.9137 -5.72706 -1.24624 18.9712 1.27701 3.91667 19.789 
-5.72706 -1.24624 18.9712 -5.69173 -0.884572 19.0285 1.27701 3.91667 19.789 
-5.69173 -0.884572 19.0285 -5.63302 -0.525881 19.0853 1.27701 3.91667 19.789 
-5.63302 -0.525881 19.0853 -5.55116 -0.171642 19.1414 1.27701 3.91667 19.789 
-5.55116 -0.171642 19.1414 -5.44649 0.176689 19.1966 1.27701 3.91667 19.789 
-5.44649 0.176689 19.1966 -5.31943 0.517681 19.2506 1.27701 3.91667 19.789 
-5.31943 0.517681 19.2506 -5.17052 0.849932 19.3032 1.27701 3.91667 19.789 
-5.17052 0.849932 19.3032 -5.00036 1.17208 19.3543 1.27701 3.91667 19.789 
-5.00036 1.17208 19.3543 -4.80966 1.48279 19.4035 1.27701 3.91667 19.789 
-4.80966 1.48279 19.4035 -4.59919 1.7808 19.4507 1.27701 3.91667 19.789 
-4.59919 1.7808 19.4507 -4.36982 2.06488 19.4957 1.27701 3.91667 19.789 
-4.36982 2.06488 19.4957 -4.1225 2.33386 19.5383 1.27701 3.91667 19.789 
-4.1225 2.33386 19.5383 -3.85823 2.58663 19.5783 1.27701 3.91667 19.789 
-3.85823 2.58663 19.5783 -3.57811 2.82217 19.6156 1.27701 3.91667 19.789 
-3.57811 2.82217 19.6156 -3.28329 3.03949 19.65 1.27701 3.91667 19.789 
-3.28329 3.03949 19.65 -2.97498 3.23771 19.6814 1.27701 3.91667 19.789 
-2.97498 3.23771 19.6814 -2.65444 3.41601 19.7097 1.27701 3.91667 19.789 
-2.65444 3.41601 19.7097 -2.32299 3.57366 19.7346 1.27701 3.91667 19.789 
-2.32299 3.57366 19.7346 -1.982 3.71001 19.7562 1.27701 3.91667 19.789 
-1.982 3.71001 19.7562 -1.63286 3.82451 19.7744 1.27701 3.91667 19.789 
-1.63286 3.82451 19.7744 -1.27701 3.91667 19.789 1.27701 3.91667 19.789 
-1.27701 3.91667 19.789 -0.915919 3.98613 19.8 1.27701 3.91667 19.789 
-0.915919 3.98613 19.8 -0.551061 4.0326 19.8073 1.27701 3.91667 19.789 
-0.551061 4.0326 19.8073 -0.183939 4.05588 19.811 1.27701 3.91667 19.789 
-0.183939 4.05588 19.811 0.183939 4.05588 19.811 1.27701 3.91667 19.789 
0.183939 4.05588 19.811 0.551061 4.0326 19.8073 1.27701 3.91667 19.789 
0.551061 4.0326 19.8073 0.915919 3.98613 19.8 1.27701 3.91667 19.789 
1.63286 3.82451 19.7744 1.982 3.71001 19.7562 1.27701 3.91667 19.789 
1.982 3.71001 19.7562 2.32299 3.57366 19.7346 1.27701 3.91667 19.789 
2.32299 3.57366 19.7346 2.65444 3.41601 19.7097 1.27701 3.91667 19.789 
2.65444 3.41601 19.7097 2.97498 3.23771 19.6814 1.27701 3.91667 19.789 
2.97498 3.23771 19.6814 3.28329 3.03949 19.65 1.27701 3.91667 19.789 
3.28329 3.03949 19.65 3.57811 2.82217 19.6156 1.27701 3.91667 19.789 
3.57811 2.82217 19.6156 3.85823 2.58663 19.5783 1.27701 3.91667 19.789 
3.85823 2.58663 19.5783 4.1225 2.33386 19.5383 1.27701 3.91667 19.789 
4.1225 2.33386 19.5383 4.36982 2.06488 19.4957 1.27701 3.91667 19.789 
4.36982 2.06488 19.4957 4.59919 1.7808 19.4507 1.27701 3.91667 19.789 
4.59919 1.7808 19.4507 4.80966 1.48279 19.4035 1.27701 3.91667 19.789 
4.80966 1.48279 19.4035 5.00036 1.17208 19.3543 1.27701 3.91667 19.789 
5.00036 1.17208 19.3543 5.17052 0.849932 19.3032 1.27701 3.91667 19.789 
5.17052 0.849932 19.3032 5.31943 0.517681 19.2506 1.27701 3.91667 19.789 
5.31943 0.517681 19.2506 5.44649 0.176689 19.1966 1.27701 3.91667 19.789 
5.44649 0.176689 19.1966 5.55116 -0.171642 19.1414 1.27701 3.91667 19.789 
5.55116 -0.171642 19.1414 5.63302 -0.525881 19.0853 1.27701 3.91667 19.789 
5.63302 -0.525881 19.0853 5.69173 -0.884572 19.0285 1.27701 3.91667 19.789 
5.69173 -0.884572 19.0285 5.72706 -1.24624 18.9712 1.27701 3.91667 19.789 
5.72706 -1.24624 18.9712 5.73885 -1.6094 18.9137 1.27701 3.91667 19.789 
5.73885 -1.6094 18.9137 5.72706 -1.97257 18.8562 1.27701 3.91667 19.789 

POLYGONS 5744 22976
3 0 1 2 
3 3 4 5 
3 6 7 8 
3 9 10 11 
3 12 13 14 
3 15 16 17 
3 18 19 20 
3 21 22 23 
3 24 25 26 
3 27 28 29 
3 30 31 32 
3 33 34 35 
3 36 37 38 
3 39 40 41 
3 42 43 44 
3 45 46 47 
3 48 49 50 
3 51 52 53 
3 54 55 56 
3 57 58 59 
3 60 61 62 
3 63 64 65 
3 66 67 68 
3 69 70 71 
3 72 73 74 
3 75 76 77 
3 78 79 80 
3 81 82 83 
3 84 85 86 
3 87 88 89 
3 90 91 92 
3 93 94 95 
3 96 97 98 
3 99 100 101 
3 102 103 104 
3 105 106 107 
3 108 109 110 
3 111 112 113 
3 114 115 116 
3 117 118 119 
3 120 121 122 
3 123 124 125 
3 126 127 128 
3 129 130 131 
3 132 133 134 
3 135 136 137 
3 138 139 140 
3 141 142 143 
3 144 145 146 
3 147 148 149 
3 150 151 152 
3 153 154 155 
3 156 157 158 
3 159 160 161 
3 162 163 164 
3 165 166 167 
3 168 169 170 
3 171 172 173 
3 174 175 176 
3 177 178 179 
3 180 181 182 
3 183 184 185 
3 186 187 188 
3 189 190 191 
3 192 193 194 
3 195 196 197 
3 198 199 200 
3 201 202 203 
3 204 205 206 
3 207 208 209 
3 210 211 212 
3 213 214 215 
3 216 217 218 
3 219 220 221 
3 222 223 224 
3 225 226 227 
3 228 229 230 
3 231 232 233 
3 234 235 236 
3 237 238 239 
3 240 241 242 
3 243 244 245 
3 246 247 248 
3 249 250 251 
3 252 253 254 
3 255 256 257 
3 258 259 260 
3 261 262 263 
3 264 265 266 
3 267 268 269 
3 270 271 272 
3 273 274 275 
3 276 277 278 
3 279 280 281 
3 282 283 284 
3 285 286 287 
3 288 289 290 
3 291 292 293 
3 294 295 296 
3 297 298 299 
3 300 301 302 
3 303 304 305 
3 306 307 308 
3 309 310 311 
3 312 313 314 
3 315 316 317 
3 318 319 320 
3 321 322 323 
3 324 325 326 
3 327 328 329 
3 330 331 332 
3 333 334 335 
3 336 337 338 
3 339 340 341 
3 342 343 344 
3 345 346 347 
3 348 349 350 
3 351 352 353 
3 354 355 356 
3 357 358 359 
3 360 361 362 
3 363 364 365 
3 366 367 368 
3 369 370 371 
3 372 373 374 
3 375 376 377 
3 378 379 380 
3 381 382 383 
3 384 385 386 
3 387 388 389 
3 390 391 392 
3 393 394 395 
3 396 397 398 
3 399 400 401 
3 402 403 404 
3 405 406 407 
3 408 409 410 
3 411 412 413 
3 414 415 416 
3 417 418 419 
3 420 421 422 
3 423 424 425 
3 426 427 428 
3 429 430 431 
3 432 433 434 
3 435 436 437 
3 438 439 440 
3 441 442 443 
3 444 445 446 
3 447 448 449 
3 450 451 452 
3 453 454 455 
3 456 457 458 
3 459 460 461 
3 462 463 464 
3 465 466 467 
3 468 469 470 
3 471 472 473 
3 474 475 476 
3 477 478 479 
3 480 481 482 
3 483 484 485 
3 486 487 488 
3 489 490 491 
3 492 493 494 
3 495 496 497 
3 498 499 500 
3 501 502 503 
3 504 505 506 
3 507 508 509 
3 510 511 512 
3 513 514 515 
3 516 517 518 
3 519 520 521 
3 522 523 524 
3 525 526 527 
3 528 529 530 
3 531 532 533 
3 534 535 536 
3 537 538 539 
3 540 541 542 
3 543 544 545 
3 546 547 548 
3 549 550 551 
3 552 553 554 
3 555 556 557 
3 558 559 560 
3 561 562 563 
3 564 565 566 
3 567 568 569 
3 570 571 572 
3 573 574 575 
3 576 577 578 
3 579 580 581 
3 582 583 584 
3 585 586 587 
3 588 589 590 
3 591 592 593 
3 594 595 596 
3 597 598 599 
3 600 601 602 
3 603 604 605 
3 606 607 608 
3 609 610 611 
3 612 613 614 
3 615 616 617 
3 618 619 620 
3 621 622 623 
3 624 625 626 
3 627 628 629 
3 630 631 632 
3 633 634 635 
3 636 637 638 
3 639 640 641 
3 642 643 644 
3 645 646 647 
3 648 649 650 
3 651 652 653 
3 654 655 656 
3 657 658 659 
3 660 661 662 
3 663 664 665 
3 666 667 668 
3 669 670 671 
3 672 673 674 
3 675 676 677 
3 678 679 680 
3 681 682 683 
3 684 685 686 
3 687 688 689 
3 690 691 692 
3 693 694 695 
3 696 697 698 
3 699 700 701 
3 702 703 704 
3 705 706 707 
3 708 709 710 
3 711 712 713 
3 714 715 716 
3 717 718 719 
3 720 721 722 
3 723 724 725 
3 726 727 728 
3 729 730 731 
3 732 733 734 
3 735 736 737 
3 738 739 740 
3 741 742 743 
3 744 745 746 
3 747 748 749 
3 750 751 752 
3 753 754 755 
3 756 757 758 
3 759 760 761 
3 762 763 764 
3 765 766 767 
3 768 769 770 
3 771 772 773 
3 774 775 776 
3 777 778 779 
3 780 781 782 
3 783 784 785 
3 786 787 788 
3 789 790 791 
3 792 793 794 
3 795 796 797 
3 798 799 800 
3 801 802 803 
3 804 805 806 
3 807 808 809 
3 810 811 812 
3 813 814 815 
3 816 817 818 
3 819 820 821 
3 822 823 824 
3 825 826 827 
3 828 829 830 
3 831 832 833 
3 834 835 836 
3 837 838 839 
3 840 841 842 
3 843 844 845 
3 846 847 848 
3 849 850 851 
3 852 853 854 
3 855 856 857 
3 858 859 860 
3 861 862 863 
3 864 865 866 
3 867 868 869 
3 870 871 872 
3 873 874 875 
3 876 877 878 
3 879 880 881 
3 882 883 884 
3 885 886 887 
3 888 889 890 
3 891 892 893 
3 894 895 896 
3 897 898 899 
3 900 901 902 
3 903 904 905 
3 906 907 908 
3 909 910 911 
3 912 913 914 
3 915 916 917 
3 918 919 920 
3 921 922 923 
3 924 925 926 
3 927 928 929 
3 930 931 932 
3 933 934 935 
3 936 937 938 
3 939 940 941 
3 942 943 944 
3 945 946 947 
3 948 949 950 
3 951 952 953 
3 954 955 956 
3 957 958 959 
3 960 961 962 
3 963 964 965 
3 966 967 968 
3 969 970 971 
3 972 973 974 
3 975 976 977 
3 978 979 980 
3 981 982 983 
3 984 985 986 
3 987 988 989 
3 990 991 992 
3 993 994 995 
3 996 997 998 
3 999 1000 1001 
3 1002 1003 1004 
3 1005 1006 1007 
3 1008 1009 1010 
3 1011 1012 1013 
3 1014 1015 1016 
3 1017 1018 1019 
3 1020 1021 1022 
3 1023 1024 1025 
3 1026 1027 1028 
3 1029 1030 1031 
3 1032 1033 1034 
3 1035 1036 1037 
3 1038 1039 1040 
3 1041 1042 1043 
3 1044 1045 1046 
3 1047 1048 1049 
3 1050 1051 1052 
3 1053 1054 1055 
3 1056 1057 1058 
3 1059 1060 1061 
3 1062 1063 1064 
3 1065 1066 1067 
3 1068 1069 1070 
3 1071 1072 1073 
3 1074 1075 1076 
3 1077 1078 1079 
3 1080 1081 1082 
3 1083 1084 1085 
3 1086 1087 1088 
3 1089 1090 1091 
3 1092 1093 1094 
3 1095 1096 1097 
3 1098 1099 1100 
3 1101 1102 1103 
3 1104 1105 1106 
3 1107 1108 1109 
3 1110 1111 1112 
3 1113 1114 1115 
3 1116 1117 1118 
3 1119 1120 1121 
3 1122 1123 1124 
3 1125 1126 1127 
3 1128 1129 1130 
3 1131 1132 1133 
3 1134 1135 1136 
3 1137 1138 1139 
3 1140 1141 1142 
3 1143 1144 1145 
3 1146 1147 1148 
3 1149 1150 1151 
3 1152 1153 1154 
3 1155 1156 1157 
3 1158 1159 1160 
3 1161 1162 1163 
3 1164 1165 1166 
3 1167 1168 1169 
3 1170 1171 1172 
3 1173 1174 1175 
3 1176 1177 1178 
3 1179 1180 1181 
3 1182 1183 1184 
3 1185 1186 1187 
3 1188 1189 1190 
3 1191 1192 1193 
3 1194 1195 1196 
3 1197 1198 1199 
3 1200 1201 1202 
3 1203 1204 1205 
3 1206 1207 1208 
3 1209 1210 1211 
3 1212 1213 1214 
3 1215 1216 1217 
3 1218 1219 1220 
3 1221 1222 1223 
3 1224 1225 1226 
3 1227 1228 1229 
3 1230 1231 1232 
3 1233 1234 1235 
3 1236 1237 1238 
3 1239 1240 1241 
3 1242 1243 1244 
3 1245 1246 1247 
3 1248 1249 1250 
3 1251 1252 1253 
3 1254 1255 1256 
3 1257 1258 1259 
3 1260 1261 1262 
3 1263 1264 1265 
3 1266 1267 1268 
3 1269 1270 1271 
3 1272 1273 1274 
3 1275 1276 1277 
3 1278 1279 1280 
3 1281 1282 1283 
3 1284 1285 1286 
3 1287 1288 1289 
3 1290 1291 1292 
3 1293 1294 1295 
3 1296 1297 1298 
3 1299 1300 1301 
3 1302 1303 1304 
3 1305 1306 1307 
3 1308 1309 1310 
3 1311 1312 1313 
3 1314 1315 1316 
3 1317 1318 1319 
3 1320 1321 1322 
3 1323 1324 1325 
3 1326 1327 1328 
3 1329 1330 1331 
3 1332 1333 1334 
3 1335 1336 1337 
3 1338 1339 1340 
3 1341 1342 1343 
3 1344 1345 1346 
3 1347 1348 1349 
3 1350 1351 1352 
3 1353 1354 1355 
3 1356 1357 1358 
3 1359 1360 1361 
3 1362 1363 1364 
3 1365 1366 1367 
3 1368 1369 1370 
3 1371 1372 1373 
3 1374 1375 1376 
3 1377 1378 1379 
3 1380 1381 1382 
3 1383 1384 1385 
3 1386 1387 1388 
3 1389 1390 1391 
3 1392 1393 1394 
3 1395 1396 1397 
3 1398 1399 1400 
3 1401 1402 1403 
3 1404 1405 1406 
3 1407 1408 1409 
3 1410 1411 1412 
3 1413 1414 1415 
3 1416 1417 1418 
3 1419 1420 1421 
3 1422 1423 1424 
3 1425 1426 1427 
3 1428 1429 1430 
3 1431 1432 1433 
3 1434 1435 1436 
3 1437 1438 1439 
3 1440 1441 1442 
3 1443 1444 1445 
3 1446 1447 1448 
3 1449 1450 1451 
3 1452 1453 1454 
3 1455 1456 1457 
3 1458 1459 1460 
3 1461 1462 1463 
3 1464 1465 1466 
3 1467 1468 1469 
3 1470 1471 1472 
3 1473 1474 1475 
3 1476 1477 1478 
3 1479 1480 1481 
3 1482 1483 1484 
3 1485 1486 1487 
3 1488 1489 1490 
3 1491 1492 1493 
3 1494 1495 1496 
3 1497 1498 1499 
3 1500 1501 1502 
3 1503 1504 1505 
3 1506 1507 1508 
3 1509 1510 1511 
3 1512 1513 1514 
3 1515 1516 1517 
3 1518 1519 1520 
3 1521 1522 1523 
3 1524 1525 1526 
3 1527 1528 1529 
3 1530 1531 1532 
3 1533 1534 1535 
3 1536 1537 1538 
3 1539 1540 1541 
3 1542 1543 1544 
3 1545 1546 1547 
3 1548 1549 1550 
3 1551 1552 1553 
3 1554 1555 1556 
3 1557 1558 1559 
3 1560 1561 1562 
3 1563 1564 1565 
3 1566 1567 1568 
3 1569 1570 1571 
3 1572 1573 1574 
3 1575 1576 1577 
3 1578 1579 1580 
3 1581 1582 1583 
3 1584 1585 1586 
3 1587 1588 1589 
3 1590 1591 1592 
3 1593 1594 1595 
3 1596 1597 1598 
3 1599 1600 1601 
3 1602 1603 1604 
3 1605 1606 1607 
3 1608 1609 1610 
3 1611 1612 1613 
3 1614 1615 1616 
3 1617 1618 1619 
3 1620 1621 1622 
3 1623 1624 1625 
3 1626 1627 1628 
3 1629 1630 1631 
3 1632 1633 1634 
3 1635 1636 1637 
3 1638 1639 1640 
3 1641 1642 1643 
3 1644 1645 1646 
3 1647 1648 1649 
3 1650 1651 1652 
3 1653 1654 1655 
3 1656 1657 1658 
3 1659 1660 1661 
3 1662 1663 1664 
3 1665 1666 1667 
3 1668 1669 1670 
3 1671 1672 1673 
3 1674 1675 1676 
3 1677 1678 1679 
3 1680 1681 1682 
3 1683 1684 1685 
3 1686 1687 1688 
3 1689 1690 1691 
3 1692 1693 1694 
3 1695 1696 1697 
3 1698 1699 1700 
3 1701 1702 1703 
3 1704 1705 1706 
3 1707 1708 1709 
3 1710 1711 1712 
3 1713 1714 1715 
3 1716 1717 1718 
3 1719 1720 1721 
3 1722 1723 1724 
3 1725 1726 1727 
3 1728 1729 1730 
3 1731 1732 1733 
3 1734 1735 1736 
3 1737 1738 1739 
3 1740 1741 1742 
3 1743 1744 1745 
3 1746 1747 1748 
3 1749 1750 1751 
3 1752 1753 1754 
3 1755 1756 1757 
3 1758 1759 1760 
3 1761 1762 1763 
3 1764 1765 1766 
3 1767 1768 1769 
3 1770 1771 1772 
3 1773 1774 1775 
3 1776 1777 1778 
3 1779 1780 1781 
3 1782 1783 1784 
3 1785 1786 1787 
3 1788 1789 1790 
3 1791 1792 1793 
3 1794 1795 1796 
3 1797 1798 1799 
3 1800 1801 1802 
3 1803 1804 1805 
3 1806 1807 1808 
3 1809 1810 1811 
3 1812 1813 1814 
3 1815 1816 1817 
3 1818 1819 1820 
3 1821 1822 1823 
3 1824 1825 1826 
3 1827 1828 1829 
3 1830 1831 1832 
3 1833 1834 1835 
3 1836 1837 1838 
3 1839 1840 1841 
3 1842 1843 1844 
3 1845 1846 1847 
3 1848 1849 1850 
3 1851 1852 1853 
3 1854 1855 1856 
3 1857 1858 1859 
3 1860 1861 1862 
3 1863 1864 1865 
3 1866 1867 1868 
3 1869 1870 1871 
3 1872 1873 1874 
3 1875 1876 1877 
3 1878 1879 1880 
3 1881 1882 1883 
3 1884 1885 1886 
3 1887 1888 1889 
3 1890 1891 1892 
3 1893 1894 1895 
3 1896 1897 1898 
3 1899 1900 1901 
3 1902 1903 1904 
3 1905 1906 1907 
3 1908 1909 1910 
3 1911 1912 1913 
3 1914 1915 1916 
3 1917 1918 1919 
3 1920 1921 1922 
3 1923 1924 1925 
3 1926 1927 1928 
3 1929 1930 1931 
3 1932 1933 1934 
3 1935 1936 1937 
3 1938 1939 1940 
3 1941 1942 1943 
3 1944 1945 1946 
3 1947 1948 1949 
3 1950 1951 1952 
3 1953 1954 1955 
3 1956 1957 1958 
3 1959 1960 1961 
3 1962 1963 1964 
3 1965 1966 1967 
3 1968 1969 1970 
3 1971 1972 1973 
3 1974 1975 1976 
3 1977 1978 1979 
3 1980 1981 1982 
3 1983 1984 1985 
3 1986 1987 1988 
3 1989 1990 1991 
3 1992 1993 1994 
3 1995 1996 1997 
3 1998 1999 2000 
3 2001 2002 2003 
3 2004 2005 2006 
3 2007 2008 2009 
3 2010 2011 2012 
3 2013 2014 2015 
3 2016 2017 2018 
3 2019 2020 2021 
3 2022 2023 2024 
3 2025 2026 2027 
3 2028 2029 2030 
3 2031 2032 2033 
3 2034 2035 2036 
3 2037 2038 2039 
3 2040 2041 2042 
3 2043 2044 2045 
3 2046 2047 2048 
3 2049 2050 2051 
3 2052 2053 2054 
3 2055 2056 2057 
3 2058 2059 2060 
3 2061 2062 2063 
3 2064 2065 2066 
3 2067 2068 2069 
3 2070 2071 2072 
3 2073 2074 2075 
3 2076 2077 2078 
3 2079 2080 2081 
3 2082 2083 2084 
3 2085 2086 2087 
3 2088 2089 2090 
3 2091 2092 2093 
3 2094 2095 2096 
3 2097 2098 2099 
3 2100 2101 2102 
3 2103 2104 2105 
3 2106 2107 2108 
3 2109 2110 2111 
3 2112 2113 2114 
3 2115 2116 2117 
3 2118 2119 2120 
3 2121 2122 2123 
3 2124 2125 2126 
3 2127 2128 2129 
3 2130 2131 2132 
3 2133 2134 2135 
3 2136 2137 2138 
3 2139 2140 2141 
3 2142 2143 2144 
3 2145 2146 2147 
3 2148 2149 2150 
3 2151 2152 2153 
3 2154 2155 2156 
3 2157 2158 2159 
3 2160 2161 2162 
3 2163 2164 2165 
3 2166 2167 2168 
3 2169 2170 2171 
3 2172 2173 2174 
3 2175 2176 2177 
3 2178 2179 2180 
3 2181 2182 2183 
3 2184 2185 2186 
3 2187 2188 2189 
3 2190 2191 2192 
3 2193 2194 2195 
3 2196 2197 2198 
3 2199 2200 2201 
3 2202 2203 2204 
3 2205 2206 2207 
3 2208 2209 2210 
3 2211 2212 2213 
3 2214 2215 2216 
3 2217 2218 2219 
3 2220 2221 2222 
3 2223 2224 2225 
3 2226 2227 2228 
3 2229 2230 2231 
3 2232 2233 2234 
3 2235 2236 2237 
3 2238 2239 2240 
3 2241 2242 2243 
3 2244 2245 2246 
3 2247 2248 2249 
3 2250 2251 2252 
3 2253 2254 2255 
3 2256 2257 2258 
3 2259 2260 2261 
3 2262 2263 2264 
3 2265 2266 2267 
3 2268 2269 2270 
3 2271 2272 2273 
3 2274 2275 2276 
3 2277 2278 2279 
3 2280 2281 2282 
3 2283 2284 2285 
3 2286 2287 2288 
3 2289 2290 2291 
3 2292 2293 2294 
3 2295 2296 2297 
3 2298 2299 2300 
3 2301 2302 2303 
3 2304 2305 2306 
3 2307 2308 2309 
3 2310 2311 2312 
3 2313 2314 2315 
3 2316 2317 2318 
3 2319 2320 2321 
3 2322 2323 2324 
3 2325 2326 2327 
3 2328 2329 2330 
3 2331 2332 2333 
3 2334 2335 2336 
3 2337 2338 2339 
3 2340 2341 2342 
3 2343 2344 2345 
3 2346 2347 2348 
3 2349 2350 2351 
3 2352 2353 2354 
3 2355 2356 2357 
3 2358 2359 2360 
3 2361 2362 2363 
3 2364 2365 2366 
3 2367 2368 2369 
3 2370 2371 2372 
3 2373 2374 2375 
3 2376 2377 2378 
3 2379 2380 2381 
3 2382 2383 2384 
3 2385 2386 2387 
3 2388 2389 2390 
3 2391 2392 2393 
3 2394 2395 2396 
3 2397 2398 2399 
3 2400 2401 2402 
3 2403 2404 2405 
3 2406 2407 2408 
3 2409 2410 2411 
3 2412 2413 2414 
3 2415 2416 2417 
3 2418 2419 2420 
3 2421 2422 2423 
3 2424 2425 2426 
3 2427 2428 2429 
3 2430 2431 2432 
3 2433 2434 2435 
3 2436 2437 2438 
3 2439 2440 2441 
3 2442 2443 2444 
3 2445 2446 2447 
3 2448 2449 2450 
3 2451 2452 2453 
3 2454 2455 2456 
3 2457 2458 2459 
3 2460 2461 2462 
3 2463 2464 2465 
3 2466 2467 2468 
3 2469 2470 2471 
3 2472 2473 2474 
3 2475 2476 2477 
3 2478 2479 2480 
3 2481 2482 2483 
3 2484 2485 2486 
3 2487 2488 2489 
3 2490 2491 2492 
3 2493 2494 2495 
3 2496 2497 2498 
3 2499 2500 2501 
3 2502 2503 2504 
3 2505 2506 2507 
3 2508 2509 2510 
3 2511 2512 2513 
3 2514 2515 2516 
3 2517 2518 2519 
3 2520 2521 2522 
3 2523 2524 2525 
3 2526 2527 2528 
3 2529 2530 2531 
3 2532 2533 2534 
3 2535 2536 2537 
3 2538 2539 2540 
3 2541 2542 2543 
3 2544 2545 2546 
3 2547 2548 2549 
3 2550 2551 2552 
3 2553 2554 2555 
3 2556 2557 2558 
3 2559 2560 2561 
3 2562 2563 2564 
3 2565 2566 2567 
3 2568 2569 2570 
3 2571 2572 2573 
3 2574 2575 2576 
3 2577 2578 2579 
3 2580 2581 2582 
3 2583 2584 2585 
3 2586 2587 2588 
3 2589 2590 2591 
3 2592 2593 2594 
3 2595 2596 2597 
3 2598 2599 2600 
3 2601 2602 2603 
3 2604 2605 2606 
3 2607 2608 2609 
3 2610 2611 2612 
3 2613 2614 2615 
3 2616 2617 2618 
3 2619 2620 2621 
3 2622 2623 2624 
3 2625 2626 2627 
3 2628 2629 2630 
3 2631 2632 2633 
3 2634 2635 2636 
3 2637 2638 2639 
3 2640 2641 2642 
3 2643 2644 2645 
3 2646 2647 2648 
3 2649 2650 2651 
3 2652 2653 2654 
3 2655 2656 2657 
3 2658 2659 2660 
3 2661 2662 2663 
3 2664 2665 2666 
3 2667 2668 2669 
3 2670 2671 2672 
3 2673 2674 2675 
3 2676 2677 2678 
3 2679 2680 2681 
3 2682 2683 2684 
3 2685 2686 2687 
3 2688 2689 2690 
3 2691 2692 2693 
3 2694 2695 2696 
3 2697 2698 2699 
3 2700 2701 2702 
3 2703 2704 2705 
3 2706 2707 2708 
3 2709 2710 2711 
3 2712 2713 2714 
3 2715 2716 2717 
3 2718 2719 2720 
3 2721 2722 2723 
3 2724 2725 2726 
3 2727 2728 2729 
3 2730 2731 2732 
3 2733 2734 2735 
3 2736 2737 2738 
3 2739 2740 2741 
3 2742 2743 2744 
3 2745 2746 2747 
3 2748 2749 2750 
3 2751 2752 2753 
3 2754 2755 2756 
3 2757 2758 2759 
3 2760 2761 2762 
3 2763 2764 2765 
3 2766 2767 2768 
3 2769 2770 2771 
3 2772 2773 2774 
3 2775 2776 2777 
3 2778 2779 2780 
3 2781 2782 2783 
3 2784 2785 2786 
3 2787 2788 2789 
3 2790 2791 2792 
3 2793 2794 2795 
3 2796 2797 2798 
3 2799 2800 2801 
3 2802 2803 2804 
3 2805 2806 2807 
3 2808 2809 2810 
3 2811 2812 2813 
3 2814 2815 2816 
3 2817 2818 2819 
3 2820 2821 2822 
3 2823 2824 2825 
3 2826 2827 2828 
3 2829 2830 2831 
3 2832 2833 2834 
3 2835 2836 2837 
3 2838 2839 2840 
3 2841 2842 2843 
3 2844 2845 2846 
3 2847 2848 2849 
3 2850 2851 2852 
3 2853 2854 2855 
3 2856 2857 2858 
3 2859 2860 2861 
3 2862 2863 2864 
3 2865 2866 2867 
3 2868 2869 2870 
3 2871 2872 2873 
3 2874 2875 2876 
3 2877 2878 2879 
3 2880 2881 2882 
3 2883 2884 2885 
3 2886 2887 2888 
3 2889 2890 2891 
3 2892 2893 2894 
3 2895 2896 2897 
3 2898 2899 2900 
3 2901 2902 2903 
3 2904 2905 2906 
3 2907 2908 2909 
3 2910 2911 2912 
3 2913 2914 2915 
3 2916 2917 2918 
3 2919 2920 2921 
3 2922 2923 2924 
3 2925 2926 2927 
3 2928 2929 2930 
3 2931 2932 2933 
3 2934 2935 2936 
3 2937 2938 2939 
3 2940 2941 2942 
3 2943 2944 2945 
3 2946 2947 2948 
3 2949 2950 2951 
3 2952 2953 2954 
3 2955 2956 2957 
3 2958 2959 2960 
3 2961 2962 2963 
3 2964 2965 2966 
3 2967 2968 2969 
3 2970 2971 2972 
3 2973 2974 2975 
3 2976 2977 2978 
3 2979 2980 2981 
3 2982 2983 2984 
3 2985 2986 2987 
3 2988 2989 2990 
3 2991 2992 2993 
3 2994 2995 2996 
3 2997 2998 2999 
3 3000 3001 3002 
3 3003 3004 3005 
3 3006 3007 3008 
3 3009 3010 3011 
3 3012 3013 3014 
3 3015 3016 3017 
3 3018 3019 3020 
3 3021 3022 3023 
3 3024 3025 3026 
3 3027 3028 3029 
3 3030 3031 3032 
3 3033 3034 3035 
3 3036 3037 3038 
3 3039 3040 3041 
3 3042 3043 3044 
3 3045 3046 3047 
3 3048 3049 3050 
3 3051 3052 3053 
3 3054 3055 3056 
3 3057 3058 3059 
3 3060 3061 3062 
3 3063 3064 3065 
3 3066 3067 3068 
3 3069 3070 3071 
3 3072 3073 3074 
3 3075 3076 3077 
3 3078 3079 3080 
3 3081 3082 3083 
3 3084 3085 3086 
3 3087 3088 3089 
3 3090 3091 3092 
3 3093 3094 3095 
3 3096 3097 3098 
3 3099 3100 3101 
3 3102 3103 3104 
3 3105 3106 3107 
3 3108 3109 3110 
3 3111 3112 3113 
3 3114 3115 3116 
3 3117 3118 3119 
3 3120 3121 3122 
3 3123 3124 3125 
3 3126 3127 3128 
3 3129 3130 3131 
3 3132 3133 3134 
3 3135 3136 3137 
3 3138 3139 3140 
3 3141 3142 3143 
3 3144 3145 3146 
3 3147 3148 3149 
3 3150 3151 3152 
3 3153 3154 3155 
3 3156 3157 3158 
3 3159 3160 3161 
3 3162 3163 3164 
3 3165 3166 3167 
3 3168 3169 3170 
3 3171 3172 3173 
3 3174 3175 3176 
3 3177 3178 3179 
3 3180 3181 3182 
3 3183 3184 3185 
3 3186 3187 3188 
3 3189 3190 3191 
3 3192 3193 3194 
3 3195 3196 3197 
3 3198 3199 3200 
3 3201 3202 3203 
3 3204 3205 3206 
3 3207 3208 3209 
3 3210 3211 3212 
3 3213 3214 3215 
3 3216 3217 3218 
3 3219 3220 3221 
3 3222 3223 3224 
3 3225 3226 3227 
3 3228 3229 3230 
3 3231 3232 3233 
3 3234 3235 3236 
3 3237 3238 3239 
3 3240 3241 3242 
3 3243 3244 3245 
3 3246 3247 3248 
3 3249 3250 3251 
3 3252 3253 3254 
3 3255 3256 3257 
3 3258 3259 3260 
3 3261 3262 3263 
3 3264 3265 3266 
3 3267 3268 3269 
3 3270 3271 3272 
3 3273 3274 3275 
3 3276 3277 3278 
3 3279 3280 3281 
3 3282 3283 3284 
3 3285 3286 3287 
3 3288 3289 3290 
3 3291 3292 3293 
3 3294 3295 3296 
3 3297 3298 3299 
3 3300 3301 3302 
3 3303 3304 3305 
3 3306 3307 3308 
3 3309 3310 3311 
3 3312 3313 3314 
3 3315 3316 3317 
3 3318 3319 3320 
3 3321 3322 3323 
3 3324 3325 3326 
3 3327 3328 3329 
3 3330 3331 3332 
3 3333 3334 3335 
3 3336 3337 3338 
3 3339 3340 3341 
3 3342 3343 3344 
3 3345 3346 3347 
3 3348 3349 3350 
3 3351 3352 3353 
3 3354 3355 3356 
3 3357 3358 3359 
3 3360 3361 3362 
3 3363 3364 3365 
3 3366 3367 3368 
3 3369 3370 3371 
3 3372 3373 3374 
3 3375 3376 3377 
3 3378 3379 3380 
3 3381 3382 3383 
3 3384 3385 3386 
3 3387 3388 3389 
3 3390 3391 3392 
3 3393 3394 3395 
3 3396 3397 3398 
3 3399 3400 3401 
3 3402 3403 3404 
3 3405 3406 3407 
3 3408 3409 3410 
3 3411 3412 3413 
3 3414 3415 3416 
3 3417 3418 3419 
3 3420 3421 3422 
3 3423 3424 3425 
3 3426 3427 3428 
3 3429 3430 3431 
3 3432 3433 3434 
3 3435 3436 3437 
3 3438 3439 3440 
3 3441 3442 3443 
3 3444 3445 3446 
3 3447 3448 3449 
3 3450 3451 3452 
3 3453 3454 3455 
3 3456 3457 3458 
3 3459 3460 3461 
3 3462 3463 3464 
3 3465 3466 3467 
3 3468 3469 3470 
3 3471 3472 3473 
3 3474 3475 3476 
3 3477 3478 3479 
3 3480 3481 3482 
3 3483 3484 3485 
3 3486 3487 3488 
3 3489 3490 3491 
3 3492 3493 3494 
3 3495 3496 3497 
3 3498 3499 3500 
3 3501 3502 3503 
3 3504 3505 3506 
3 3507 3508 3509 
3 3510 3511 3512 
3 3513 3514 3515 
3 3516 3517 3518 
3 3519 3520 3521 
3 3522 3523 3524 
3 3525 3526 3527 
3 3528 3529 3530 
3 3531 3532 3533 
3 3534 3535 3536 
3 3537 3538 3539 
3 3540 3541 3542 
3 3543 3544 3545 
3 3546 3547 3548 
3 3549 3550 3551 
3 3552 3553 3554 
3 3555 3556 3557 
3 3558 3559 3560 
3 3561 3562 3563 
3 3564 3565 3566 
3 3567 3568 3569 
3 3570 3571 3572 
3 3573 3574 3575 
3 3576 3577 3578 
3 3579 3580 3581 
3 3582 3583 3584 
3 3585 3586 3587 
3 3588 3589 3590 
3 3591 3592 3593 
3 3594 3595 3596 
3 3597 3598 3599 
3 3600 3601 3602 
3 3603 3604 3605 
3 3606 3607 3608 
3 3609 3610 3611 
3 3612 3613 3614 
3 3615 3616 3617 
3 3618 3619 3620 
3 3621 3622 3623 
3 3624 3625 3626 
3 3627 3628 3629 
3 3630 3631 3632 
3 3633 3634 3635 
3 3636 3637 3638 
3 3639 3640 3641 
3 3642 3643 3644 
3 3645 3646 3647 
3 3648 3649 3650 
3 3651 3652 3653 
3 3654 3655 3656 
3 3657 3658 3659 
3 3660 3661 3662 
3 3663 3664 3665 
3 3666 3667 3668 
3 3669 3670 3671 
3 3672 3673 3674 
3 3675 3676 3677 
3 3678 3679 3680 
3 3681 3682 3683 
3 3684 3685 3686 
3 3687 3688 3689 
3 3690 3691 3692 
3 3693 3694 3695 
3 3696 3697 3698 
3 3699 3700 3701 
3 3702 3703 3704 
3 3705 3706 3707 
3 3708 3709 3710 
3 3711 3712 3713 
3 3714 3715 3716 
3 3717 3718 3719 
3 3720 3721 3722 
3 3723 3724 3725 
3 3726 3727 3728 
3 3729 3730 3731 
3 3732 3733 3734 
3 3735 3736 3737 
3 3738 3739 3740 
3 3741 3742 3743 
3 3744 3745 3746 
3 3747 3748 3749 
3 3750 3751 3752 
3 3753 3754 3755 
3 3756 3757 3758 
3 3759 3760 3761 
3 3762 3763 3764 
3 3765 3766 3767 
3 3768 3769 3770 
3 3771 3772 3773 
3 3774 3775 3776 
3 3777 3778 3779 
3 3780 3781 3782 
3 3783 3784 3785 
3 3786 3787 3788 
3 3789 3790 3791 
3 3792 3793 3794 
3 3795 3796 3797 
3 3798 3799 3800 
3 3801 3802 3803 
3 3804 3805 3806 
3 3807 3808 3809 
3 3810 3811 3812 
3 3813 3814 3815 
3 3816 3817 3818 
3 3819 3820 3821 
3 3822 3823 3824 
3 3825 3826 3827 
3 3828 3829 3830 
3 3831 3832 3833 
3 3834 3835 3836 
3 3837 3838 3839 
3 3840 3841 3842 
3 3843 3844 3845 
3 3846 3847 3848 
3 3849 3850 3851 
3 3852 3853 3854 
3 3855 3856 3857 
3 3858 3859 3860 
3 3861 3862 3863 
3 3864 3865 3866 
3 3867 3868 3869 
3 3870 3871 3872 
3 3873 3874 3875 
3 3876 3877 3878 
3 3879 3880 3881 
3 3882 3883 3884 
3 3885 3886 3887 
3 3888 3889 3890 
3 3891 3892 3893 
3 3894 3895 3896 
3 3897 3898 3899 
3 3900 3901 3902 
3 3903 3904 3905 
3 3906 3907 3908 
3 3909 3910 3911 
3 3912 3913 3914 
3 3915 3916 3917 
3 3918 3919 3920 
3 3921 3922 3923 
3 3924 3925 3926 
3 3927 3928 3929 
3 3930 3931 3932 
3 3933 3934 3935 
3 3936 3937 3938 
3 3939 3940 3941 
3 3942 3943 3944 
3 3945 3946 3947 
3 3948 3949 3950 
3 3951 3952 3953 
3 3954 3955 3956 
3 3957 3958 3959 
3 3960 3961 3962 
3 3963 3964 3965 
3 3966 3967 3968 
3 3969 3970 3971 
3 3972 3973 3974 
3 3975 3976 3977 
3 3978 3979 3980 
3 3981 3982 3983 
3 3984 3985 3986 
3 3987 3988 3989 
3 3990 3991 3992 
3 3993 3994 3995 
3 3996 3997 3998 
3 3999 4000 4001 
3 4002 4003 4004 
3 4005 4006 4007 
3 4008 4009 4010 
3 4011 4012 4013 
3 4014 4015 4016 
3 4017 4018 4019 
3 4020 4021 4022 
3 4023 4024 4025 
3 4026 4027 4028 
3 4029 4030 4031 
3 4032 4033 4034 
3 4035 4036 4037 
3 4038 4039 4040 
3 4041 4042 4043 
3 4044 4045 4046 
3 4047 4048 4049 
3 4050 4051 4052 
3 4053 4054 4055 
3 4056 4057 4058 
3 4059 4060 4061 
3 4062 4063 4064 
3 4065 4066 4067 
3 4068 4069 4070 
3 4071 4072 4073 
3 4074 4075 4076 
3 4077 4078 4079 
3 4080 4081 4082 
3 4083 4084 4085 
3 4086 4087 4088 
3 4089 4090 4091 
3 4092 4093 4094 
3 4095 4096 4097 
3 4098 4099 4100 
3 4101 4102 4103 
3 4104 4105 4106 
3 4107 4108 4109 
3 4110 4111 4112 
3 4113 4114 4115 
3 4116 4117 4118 
3 4119 4120 4121 
3 4122 4123 4124 
3 4125 4126 4127 
3 4128 4129 4130 
3 4131 4132 4133 
3 4134 4135 4136 
3 4137 4138 4139 
3 4140 4141 4142 
3 4143 4144 4145 
3 4146 4147 4148 
3 4149 4150 4151 
3 4152 4153 4154 
3 4155 4156 4157 
3 4158 4159 4160 
3 4161 4162 4163 
3 4164 4165 4166 
3 4167 4168 4169 
3 4170 4171 4172 
3 4173 4174 4175 
3 4176 4177 4178 
3 4179 4180 4181 
3 4182 4183 4184 
3 4185 4186 4187 
3 4188 4189 4190 
3 4191 4192 4193 
3 4194 4195 4196 
3 4197 4198 4199 
3 4200 4201 4202 
3 4203 4204 4205 
3 4206 4207 4208 
3 4209 4210 4211 
3 4212 4213 4214 
3 4215 4216 4217 
3 4218 4219 4220 
3 4221 4222 4223 
3 4224 4225 4226 
3 4227 4228 4229 
3 4230 4231 4232 
3 4233 4234 4235 
3 4236 4237 4238 
3 4239 4240 4241 
3 4242 4243 4244 
3 4245 4246 4247 
3 4248 4249 4250 
3 4251 4252 4253 
3 4254 4255 4256 
3 4257 4258 4259 
3 4260 4261 4262 
3 4263 4264 4265 
3 4266 4267 4268 
3 4269 4270 4271 
3 4272 4273 4274 
3 4275 4276 4277 
3 4278 4279 4280 
3 4281 4282 4283 
3 4284 4285 4286 
3 4287 4288 4289 
3 4290 4291 4292 
3 4293 4294 4295 
3 4296 4297 4298 
3 4299 4300 4301 
3 4302 4303 4304 
3 4305 4306 4307 
3 4308 4309 4310 
3 4311 4312 4313 
3 4314 4315 4316 
3 4317 4318 4319 
3 4320 4321 4322 
3 4323 4324 4325 
3 4326 4327 4328 
3 4329 4330 4331 
3 4332 4333 4334 
3 4335 4336 4337 
3 4338 4339 4340 
3 4341 4342 4343 
3 4344 4345 4346 
3 4347 4348 4349 
3 4350 4351 4352 
3 4353 4354 4355 
3 4356 4357 4358 
3 4359 4360 4361 
3 4362 4363 4364 
3 4365 4366 4367 
3 4368 4369 4370 
3 4371 4372 4373 
3 4374 4375 4376 
3 4377 4378 4379 
3 4380 4381 4382 
3 4383 4384 4385 
3 4386 4387 4388 
3 4389 4390 4391 
3 4392 4393 4394 
3 4395 4396 4397 
3 4398 4399 4400 
3 4401 4402 4403 
3 4404 4405 4406 
3 4407 4408 4409 
3 4410 4411 4412 
3 4413 4414 4415 
3 4416 4417 4418 
3 4419 4420 4421 
3 4422 4423 4424 
3 4425 4426 4427 
3 4428 4429 4430 
3 4431 4432 4433 
3 4434 4435 4436 
3 4437 4438 4439 
3 4440 4441 4442 
3 4443 4444 4445 
3 4446 4447 4448 
3 4449 4450 4451 
3 4452 4453 4454 
3 4455 4456 4457 
3 4458 4459 4460 
3 4461 4462 4463 
3 4464 4465 4466 
3 4467 4468 4469 
3 4470 4471 4472 
3 4473 4474 4475 
3 4476 4477 4478 
3 4479 4480 4481 
3 4482 4483 4484 
3 4485 4486 4487 
3 4488 4489 4490 
3 4491 4492 4493 
3 4494 4495 4496 
3 4497 4498 4499 
3 4500 4501 4502 
3 4503 4504 4505 
3 4506 4507 4508 
3 4509 4510 4511 
3 4512 4513 4514 
3 4515 4516 4517 
3 4518 4519 4520 
3 4521 4522 4523 
3 4524 4525 4526 
3 4527 4528 4529 
3 4530 4531 4532 
3 4533 4534 4535 
3 4536 4537 4538 
3 4539 4540 4541 
3 4542 4543 4544 
3 4545 4546 4547 
3 4548 4549 4550 
3 4551 4552 4553 
3 4554 4555 4556 
3 4557 4558 4559 
3 4560 4561 4562 
3 4563 4564 4565 
3 4566 4567 4568 
3 4569 4570 4571 
3 4572 4573 4574 
3 4575 4576 4577 
3 4578 4579 4580 
3 4581 4582 4583 
3 4584 4585 4586 
3 4587 4588 4589 
3 4590 4591 4592 
3 4593 4594 4595 
3 4596 4597 4598 
3 4599 4600 4601 
3 4602 4603 4604 
3 4605 4606 4607 
3 4608 4609 4610 
3 4611 4612 4613 
3 4614 4615 4616 
3 4617 4618 4619 
3 4620 4621 4622 
3 4623 4624 4625 
3 4626 4627 4628 
3 4629 4630 4631 
3 4632 4633 4634 
3 4635 4636 4637 
3 4638 4639 4640 
3 4641 4642 4643 
3 4644 4645 4646 
3 4647 4648 4649 
3 4650 4651 4652 
3 4653 4654 4655 
3 4656 4657 4658 
3 4659 4660 4661 
3 4662 4663 4664 
3 4665 4666 4667 
3 4668 4669 4670 
3 4671 4672 4673 
3 4674 4675 4676 
3 4677 4678 4679 
3 4680 4681 4682 
3 4683 4684 4685 
3 4686 4687 4688 
3 4689 4690 4691 
3 4692 4693 4694 
3 4695 4696 4697 
3 4698 4699 4700 
3 4701 4702 4703 
3 4704 4705 4706 
3 4707 4708 4709 
3 4710 4711 4712 
3 4713 4714 4715 
3 4716 4717 4718 
3 4719 4720 4721 
3 4722 4723 4724 
3 4725 4726 4727 
3 4728 4729 4730 
3 4731 4732 4733 
3 4734 4735 4736 
3 4737 4738 4739 
3 4740 4741 4742 
3 4743 4744 4745 
3 4746 4747 4748 
3 4749 4750 4751 
3 4752 4753 4754 
3 4755 4756 4757 
3 4758 4759 4760 
3 4761 4762 4763 
3 4764 4765 4766 
3 4767 4768 4769 
3 4770 4771 4772 
3 4773 4774 4775 
3 4776 4777 4778 
3 4779 4780 4781 
3 4782 4783 4784 
3 4785 4786 4787 
3 4788 4789 4790 
3 4791 4792 4793 
3 4794 4795 4796 
3 4797 4798 4799 
3 4800 4801 4802 
3 4803 4804 4805 
3 4806 4807 4808 
3 4809 4810 4811 
3 4812 4813 4814 
3 4815 4816 4817 
3 4818 4819 4820 
3 4821 4822 4823 
3 4824 4825 4826 
3 4827 4828 4829 
3 4830 4831 4832 
3 4833 4834 4835 
3 4836 4837 4838 
3 4839 4840 4841 
3 4842 4843 4844 
3 4845 4846 4847 
3 4848 4849 4850 
3 4851 4852 4853 
3 4854 4855 4856 
3 4857 4858 4859 
3 4860 4861 4862 
3 4863 4864 4865 
3 4866 4867 4868 
3 4869 4870 4871 
3 4872 4873 4874 
3 4875 4876 4877 
3 4878 4879 4880 
3 4881 4882 4883 
3 4884 4885 4886 
3 4887 4888 4889 
3 4890 4891 4892 
3 4893 4894 4895 
3 4896 4897 4898 
3 4899 4900 4901 
3 4902 4903 4904 
3 4905 4906 4907 
3 4908 4909 4910 
3 4911 4912 4913 
3 4914 4915 4916 
3 4917 4918 4919 
3 4920 4921 4922 
3 4923 4924 4925 
3 4926 4927 4928 
3 4929 4930 4931 
3 4932 4933 4934 
3 4935 4936 4937 
3 4938 4939 4940 
3 4941 4942 4943 
3 4944 4945 4946 
3 4947 4948 4949 
3 4950 4951 4952 
3 4953 4954 4955 
3 4956 4957 4958 
3 4959 4960 4961 
3 4962 4963 4964 
3 4965 4966 4967 
3 4968 4969 4970 
3 4971 4972 4973 
3 4974 4975 4976 
3 4977 4978 4979 
3 4980 4981 4982 
3 4983 4984 4985 
3 4986 4987 4988 
3 4989 4990 4991 
3 4992 4993 4994 
3 4995 4996 4997 
3 4998 4999 5000 
3 5001 5002 5003 
3 5004 5005 5006 
3 5007 5008 5009 
3 5010 5011 5012 
3 5013 5014 5015 
3 5016 5017 5018 
3 5019 5020 5021 
3 5022 5023 5024 
3 5025 5026 5027 
3 5028 5029 5030 
3 5031 5032 5033 
3 5034 5035 5036 
3 5037 5038 5039 
3 5040 5041 5042 
3 5043 5044 5045 
3 5046 5047 5048 
3 5049 5050 5051 
3 5052 5053 5054 
3 5055 5056 5057 
3 5058 5059 5060 
3 5061 5062 5063 
3 5064 5065 5066 
3 5067 5068 5069 
3 5070 5071 5072 
3 5073 5074 5075 
3 5076 5077 5078 
3 5079 5080 5081 
3 5082 5083 5084 
3 5085 5086 5087 
3 5088 5089 5090 
3 5091 5092 5093 
3 5094 5095 5096 
3 5097 5098 5099 
3 5100 5101 5102 
3 5103 5104 5105 
3 5106 5107 5108 
3 5109 5110 5111 
3 5112 5113 5114 
3 5115 5116 5117 
3 5118 5119 5120 
3 5121 5122 5123 
3 5124 5125 5126 
3 5127 5128 5129 
3 5130 5131 5132 
3 5133 5134 5135 
3 5136 5137 5138 
3 5139 5140 5141 
3 5142 5143 5144 
3 5145 5146 5147 
3 5148 5149 5150 
3 5151 5152 5153 
3 5154 5155 5156 
3 5157 5158 5159 
3 5160 5161 5162 
3 5163 5164 5165 
3 5166 5167 5168 
3 5169 5170 5171 
3 5172 5173 5174 
3 5175 5176 5177 
3 5178 5179 5180 
3 5181 5182 5183 
3 5184 5185 5186 
3 5187 5188 5189 
3 5190 5191 5192 
3 5193 5194 5195 
3 5196 5197 5198 
3 5199 5200 5201 
3 5202 5203 5204 
3 5205 5206 5207 
3 5208 5209 5210 
3 5211 5212 5213 
3 5214 5215 5216 
3 5217 5218 5219 
3 5220 5221 5222 
3 5223 5224 5225 
3 5226 5227 5228 
3 5229 5230 5231 
3 5232 5233 5234 
3 5235 5236 5237 
3 5238 5239 5240 
3 5241 5242 5243 
3 5244 5245 5246 
3 5247 5248 5249 
3 5250 5251 5252 
3 5253 5254 5255 
3 5256 5257 5258 
3 5259 5260 5261 
3 5262 5263 5264 
3 5265 5266 5267 
3 5268 5269 5270 
3 5271 5272 5273 
3 5274 5275 5276 
3 5277 5278 5279 
3 5280 5281 5282 
3 5283 5284 5285 
3 5286 5287 5288 
3 5289 5290 5291 
3 5292 5293 5294 
3 5295 5296 5297 
3 5298 5299 5300 
3 5301 5302 5303 
3 5304 5305 5306 
3 5307 5308 5309 
3 5310 5311 5312 
3 5313 5314 5315 
3 5316 5317 5318 
3 5319 5320 5321 
3 5322 5323 5324 
3 5325 5326 5327 
3 5328 5329 5330 
3 5331 5332 5333 
3 5334 5335 5336 
3 5337 5338 5339 
3 5340 5341 5342 
3 5343 5344 5345 
3 5346 5347 5348 
3 5349 5350 5351 
3 5352 5353 5354 
3 5355 5356 5357 
3 5358 5359 5360 
3 5361 5362 5363 
3 5364 5365 5366 
3 5367 5368 5369 
3 5370 5371 5372 
3 5373 5374 5375 
3 5376 5377 5378 
3 5379 5380 5381 
3 5382 5383 5384 
3 5385 5386 5387 
3 5388 5389 5390 
3 5391 5392 5393 
3 5394 5395 5396 
3 5397 5398 5399 
3 5400 5401 5402 
3 5403 5404 5405 
3 5406 5407 5408 
3 5409 5410 5411 
3 5412 5413 5414 
3 5415 5416 5417 
3 5418 5419 5420 
3 5421 5422 5423 
3 5424 5425 5426 
3 5427 5428 5429 
3 5430 5431 5432 
3 5433 5434 5435 
3 5436 5437 5438 
3 5439 5440 5441 
3 5442 5443 5444 
3 5445 5446 5447 
3 5448 5449 5450 
3 5451 5452 5453 
3 5454 5455 5456 
3 5457 5458 5459 
3 5460 5461 5462 
3 5463 5464 5465 
3 5466 5467 5468 
3 5469 5470 5471 
3 5472 5473 5474 
3 5475 5476 5477 
3 5478 5479 5480 
3 5481 5482 5483 
3 5484 5485 5486 
3 5487 5488 5489 
3 5490 5491 5492 
3 5493 5494 5495 
3 5496 5497 5498 
3 5499 5500 5501 
3 5502 5503 5504 
3 5505 5506 5507 
3 5508 5509 5510 
3 5511 5512 5513 
3 5514 5515 5516 
3 5517 5518 5519 
3 5520 5521 5522 
3 5523 5524 5525 
3 5526 5527 5528 
3 5529 5530 5531 
3 5532 5533 5534 
3 5535 5536 5537 
3 5538 5539 5540 
3 5541 5542 5543 
3 5544 5545 5546 
3 5547 5548 5549 
3 5550 5551 5552 
3 5553 5554 5555 
3 5556 5557 5558 
3 5559 5560 5561 
3 5562 5563 5564 
3 5565 5566 5567 
3 5568 5569 5570 
3 5571 5572 5573 
3 5574 5575 5576 
3 5577 5578 5579 
3 5580 5581 5582 
3 5583 5584 5585 
3 5586 5587 5588 
3 5589 5590 5591 
3 5592 5593 5594 
3 5595 5596 5597 
3 5598 5599 5600 
3 5601 5602 5603 
3 5604 5605 5606 
3 5607 5608 5609 
3 5610 5611 5612 
3 5613 5614 5615 
3 5616 5617 5618 
3 5619 5620 5621 
3 5622 5623 5624 
3 5625 5626 5627 
3 5628 5629 5630 
3 5631 5632 5633 
3 5634 5635 5636 
3 5637 5638 5639 
3 5640 5641 5642 
3 5643 5644 5645 
3 5646 5647 5648 
3 5649 5650 5651 
3 5652 5653 5654 
3 5655 5656 5657 
3 5658 5659 5660 
3 5661 5662 5663 
3 5664 5665 5666 
3 5667 5668 5669 
3 5670 5671 5672 
3 5673 5674 5675 
3 5676 5677 5678 
3 5679 5680 5681 
3 5682 5683 5684 
3 5685 5686 5687 
3 5688 5689 5690 
3 5691 5692 5693 
3 5694 5695 5696 
3 5697 5698 5699 
3 5700 5701 5702 
3 5703 5704 5705 
3 5706 5707 5708 
3 5709 5710 5711 
3 5712 5713 5714 
3 5715 5716 5717 
3 5718 5719 5720 
3 5721 5722 5723 
3 5724 5725 5726 
3 5727 5728 5729 
3 5730 5731 5732 
3 5733 5734 5735 
3 5736 5737 5738 
3 5739 5740 5741 
3 5742 5743 5744 
3 5745 5746 5747 
3 5748 5749 5750 
3 5751 5752 5753 
3 5754 5755 5756 
3 5757 5758 5759 
3 5760 5761 5762 
3 5763 5764 5765 
3 5766 5767 5768 
3 5769 5770 5771 
3 5772 5773 5774 
3 5775 5776 5777 
3 5778 5779 5780 
3 5781 5782 5783 
3 5784 5785 5786 
3 5787 5788 5789 
3 5790 5791 5792 
3 5793 5794 5795 
3 5796 5797 5798 
3 5799 5800 5801 
3 5802 5803 5804 
3 5805 5806 5807 
3 5808 5809 5810 
3 5811 5812 5813 
3 5814 5815 5816 
3 5817 5818 5819 
3 5820 5821 5822 
3 5823 5824 5825 
3 5826 5827 5828 
3 5829 5830 5831 
3 5832 5833 5834 
3 5835 5836 5837 
3 5838 5839 5840 
3 5841 5842 5843 
3 5844 5845 5846 
3 5847 5848 5849 
3 5850 5851 5852 
3 5853 5854 5855 
3 5856 5857 5858 
3 5859 5860 5861 
3 5862 5863 5864 
3 5865 5866 5867 
3 5868 5869 5870 
3 5871 5872 5873 
3 5874 5875 5876 
3 5877 5878 5879 
3 5880 5881 5882 
3 5883 5884 5885 
3 5886 5887 5888 
3 5889 5890 5891 
3 5892 5893 5894 
3 5895 5896 5897 
3 5898 5899 5900 
3 5901 5902 5903 
3 5904 5905 5906 
3 5907 5908 5909 
3 5910 5911 5912 
3 5913 5914 5915 
3 5916 5917 5918 
3 5919 5920 5921 
3 5922 5923 5924 
3 5925 5926 5927 
3 5928 5929 5930 
3 5931 5932 5933 
3 5934 5935 5936 
3 5937 5938 5939 
3 5940 5941 5942 
3 5943 5944 5945 
3 5946 5947 5948 
3 5949 5950 5951 
3 5952 5953 5954 
3 5955 5956 5957 
3 5958 5959 5960 
3 5961 5962 5963 
3 5964 5965 5966 
3 5967 5968 5969 
3 5970 5971 5972 
3 5973 5974 5975 
3 5976 5977 5978 
3 5979 5980 5981 
3 5982 5983 5984 
3 5985 5986 5987 
3 5988 5989 5990 
3 5991 5992 5993 
3 5994 5995 5996 
3 5997 5998 5999 
3 6000 6001 6002 
3 6003 6004 6005 
3 6006 6007 6008 
3 6009 6010 6011 
3 6012 6013 6014 
3 6015 6016 6017 
3 6018 6019 6020 
3 6021 6022 6023 
3 6024 6025 6026 
3 6027 6028 6029 
3 6030 6031 6032 
3 6033 6034 6035 
3 6036 6037 6038 
3 6039 6040 6041 
3 6042 6043 6044 
3 6045 6046 6047 
3 6048 6049 6050 
3 6051 6052 6053 
3 6054 6055 6056 
3 6057 6058 6059 
3 6060 6061 6062 
3 6063 6064 6065 
3 6066 6067 6068 
3 6069 6070 6071 
3 6072 6073 6074 
3 6075 6076 6077 
3 6078 6079 6080 
3 6081 6082 6083 
3 6084 6085 6086 
3 6087 6088 6089 
3 6090 6091 6092 
3 6093 6094 6095 
3 6096 6097 6098 
3 6099 6100 6101 
3 6102 6103 6104 
3 6105 6106 6107 
3 6108 6109 6110 
3 6111 6112 6113 
3 6114 6115 6116 
3 6117 6118 6119 
3 6120 6121 6122 
3 6123 6124 6125 
3 6126 6127 6128 
3 6129 6130 6131 
3 6132 6133 6134 
3 6135 6136 6137 
3 6138 6139 6140 
3 6141 6142 6143 
3 6144 6145 6146 
3 6147 6148 6149 
3 6150 6151 6152 
3 6153 6154 6155 
3 6156 6157 6158 
3 6159 6160 6161 
3 6162 6163 6164 
3 6165 6166 6167 
3 6168 6169 6170 
3 6171 6172 6173 
3 6174 6175 6176 
3 6177 6178 6179 
3 6180 6181 6182 
3 6183 6184 6185 
3 6186 6187 6188 
3 6189 6190 6191 
3 6192 6193 6194 
3 6195 6196 6197 
3 6198 6199 6200 
3 6201 6202 6203 
3 6204 6205 6206 
3 6207 6208 6209 
3 6210 6211 6212 
3 6213 6214 6215 
3 6216 6217 6218 
3 6219 6220 6221 
3 6222 6223 6224 
3 6225 6226 6227 
3 6228 6229 6230 
3 6231 6232 6233 
3 6234 6235 6236 
3 6237 6238 6239 
3 6240 6241 6242 
3 6243 6244 6245 
3 6246 6247 6248 
3 6249 6250 6251 
3 6252 6253 6254 
3 6255 6256 6257 
3 6258 6259 6260 
3 6261 6262 6263 
3 6264 6265 6266 
3 6267 6268 6269 
3 6270 6271 6272 
3 6273 6274 6275 
3 6276 6277 6278 
3 6279 6280 6281 
3 6282 6283 6284 
3 6285 6286 6287 
3 6288 6289 6290 
3 6291 6292 6293 
3 6294 6295 6296 
3 6297 6298 6299 
3 6300 6301 6302 
3 6303 6304 6305 
3 6306 6307 6308 
3 6309 6310 6311 
3 6312 6313 6314 
3 6315 6316 6317 
3 6318 6319 6320 
3 6321 6322 6323 
3 6324 6325 6326 
3 6327 6328 6329 
3 6330 6331 6332 
3 6333 6334 6335 
3 6336 6337 6338 
3 6339 6340 6341 
3 6342 6343 6344 
3 6345 6346 6347 
3 6348 6349 6350 
3 6351 6352 6353 
3 6354 6355 6356 
3 6357 6358 6359 
3 6360 6361 6362 
3 6363 6364 6365 
3 6366 6367 6368 
3 6369 6370 6371 
3 6372 6373 6374 
3 6375 6376 6377 
3 6378 6379 6380 
3 6381 6382 6383 
3 6384 6385 6386 
3 6387 6388 6389 
3 6390 6391 6392 
3 6393 6394 6395 
3 6396 6397 6398 
3 6399 6400 6401 
3 6402 6403 6404 
3 6405 6406 6407 
3 6408 6409 6410 
3 6411 6412 6413 
3 6414 6415 6416 
3 6417 6418 6419 
3 6420 6421 6422 
3 6423 6424 6425 
3 6426 6427 6428 
3 6429 6430 6431 
3 6432 6433 6434 
3 6435 6436 6437 
3 6438 6439 6440 
3 6441 6442 6443 
3 6444 6445 6446 
3 6447 6448 6449 
3 6450 6451 6452 
3 6453 6454 6455 
3 6456 6457 6458 
3 6459 6460 6461 
3 6462 6463 6464 
3 6465 6466 6467 
3 6468 6469 6470 
3 6471 6472 6473 
3 6474 6475 6476 
3 6477 6478 6479 
3 6480 6481 6482 
3 6483 6484 6485 
3 6486 6487 6488 
3 6489 6490 6491 
3 6492 6493 6494 
3 6495 6496 6497 
3 6498 6499 6500 
3 6501 6502 6503 
3 6504 6505 6506 
3 6507 6508 6509 
3 6510 6511 6512 
3 6513 6514 6515 
3 6516 6517 6518 
3 6519 6520 6521 
3 6522 6523 6524 
3 6525 6526 6527 
3 6528 6529 6530 
3 6531 6532 6533 
3 6534 6535 6536 
3 6537 6538 6539 
3 6540 6541 6542 
3 6543 6544 6545 
3 6546 6547 6548 
3 6549 6550 6551 
3 6552 6553 6554 
3 6555 6556 6557 
3 6558 6559 6560 
3 6561 6562 6563 
3 6564 6565 6566 
3 6567 6568 6569 
3 6570 6571 6572 
3 6573 6574 6575 
3 6576 6577 6578 
3 6579 6580 6581 
3 6582 6583 6584 
3 6585 6586 6587 
3 6588 6589 6590 
3 6591 6592 6593 
3 6594 6595 6596 
3 6597 6598 6599 
3 6600 6601 6602 
3 6603 6604 6605 
3 6606 6607 6608 
3 6609 6610 6611 
3 6612 6613 6614 
3 6615 6616 6617 
3 6618 6619 6620 
3 6621 6622 6623 
3 6624 6625 6626 
3 6627 6628 6629 
3 6630 6631 6632 
3 6633 6634 6635 
3 6636 6637 6638 
3 6639 6640 6641 
3 6642 6643 6644 
3 6645 6646 6647 
3 6648 6649 6650 
3 6651 6652 6653 
3 6654 6655 6656 
3 6657 6658 6659 
3 6660 6661 6662 
3 6663 6664 6665 
3 6666 6667 6668 
3 6669 6670 6671 
3 6672 6673 6674 
3 6675 6676 6677 
3 6678 6679 6680 
3 6681 6682 6683 
3 6684 6685 6686 
3 6687 6688 6689 
3 6690 6691 6692 
3 6693 6694 6695 
3 6696 6697 6698 
3 6699 6700 6701 
3 6702 6703 6704 
3 6705 6706 6707 
3 6708 6709 6710 
3 6711 6712 6713 
3 6714 6715 6716 
3 6717 6718 6719 
3 6720 6721 6722 
3 6723 6724 6725 
3 6726 6727 6728 
3 6729 6730 6731 
3 6732 6733 6734 
3 6735 6736 6737 
3 6738 6739 6740 
3 6741 6742 6743 
3 6744 6745 6746 
3 6747 6748 6749 
3 6750 6751 6752 
3 6753 6754 6755 
3 6756 6757 6758 
3 6759 6760 6761 
3 6762 6763 6764 
3 6765 6766 6767 
3 6768 6769 6770 
3 6771 6772 6773 
3 6774 6775 6776 
3 6777 6778 6779 
3 6780 6781 6782 
3 6783 6784 6785 
3 6786 6787 6788 
3 6789 6790 6791 
3 6792 6793 6794 
3 6795 6796 6797 
3 6798 6799 6800 
3 6801 6802 6803 
3 6804 6805 6806 
3 6807 6808 6809 
3 6810 6811 6812 
3 6813 6814 6815 
3 6816 6817 6818 
3 6819 6820 6821 
3 6822 6823 6824 
3 6825 6826 6827 
3 6828 6829 6830 
3 6831 6832 6833 
3 6834 6835 6836 
3 6837 6838 6839 
3 6840 6841 6842 
3 6843 6844 6845 
3 6846 6847 6848 
3 6849 6850 6851 
3 6852 6853 6854 
3 6855 6856 6857 
3 6858 6859 6860 
3 6861 6862 6863 
3 6864 6865 6866 
3 6867 6868 6869 
3 6870 6871 6872 
3 6873 6874 6875 
3 6876 6877 6878 
3 6879 6880 6881 
3 6882 6883 6884 
3 6885 6886 6887 
3 6888 6889 6890 
3 6891 6892 6893 
3 6894 6895 6896 
3 6897 6898 6899 
3 6900 6901 6902 
3 6903 6904 6905 
3 6906 6907 6908 
3 6909 6910 6911 
3 6912 6913 6914 
3 6915 6916 6917 
3 6918 6919 6920 
3 6921 6922 6923 
3 6924 6925 6926 
3 6927 6928 6929 
3 6930 6931 6932 
3 6933 6934 6935 
3 6936 6937 6938 
3 6939 6940 6941 
3 6942 6943 6944 
3 6945 6946 6947 
3 6948 6949 6950 
3 6951 6952 6953 
3 6954 6955 6956 
3 6957 6958 6959 
3 6960 6961 6962 
3 6963 6964 6965 
3 6966 6967 6968 
3 6969 6970 6971 
3 6972 6973 6974 
3 6975 6976 6977 
3 6978 6979 6980 
3 6981 6982 6983 
3 6984 6985 6986 
3 6987 6988 6989 
3 6990 6991 6992 
3 6993 6994 6995 
3 6996 6997 6998 
3 6999 7000 7001 
3 7002 7003 7004 
3 7005 7006 7007 
3 7008 7009 7010 
3 7011 7012 7013 
3 7014 7015 7016 
3 7017 7018 7019 
3 7020 7021 7022 
3 7023 7024 7025 
3 7026 7027 7028 
3 7029 7030 7031 
3 7032 7033 7034 
3 7035 7036 7037 
3 7038 7039 7040 
3 7041 7042 7043 
3 7044 7045 7046 
3 7047 7048 7049 
3 7050 7051 7052 
3 7053 7054 7055 
3 7056 7057 7058 
3 7059 7060 7061 
3 7062 7063 7064 
3 7065 7066 7067 
3 7068 7069 7070 
3 7071 7072 7073 
3 7074 7075 7076 
3 7077 7078 7079 
3 7080 7081 7082 
3 7083 7084 7085 
3 7086 7087 7088 
3 7089 7090 7091 
3 7092 7093 7094 
3 7095 7096 7097 
3 7098 7099 7100 
3 7101 7102 7103 
3 7104 7105 7106 
3 7107 7108 7109 
3 7110 7111 7112 
3 7113 7114 7115 
3 7116 7117 7118 
3 7119 7120 7121 
3 7122 7123 7124 
3 7125 7126 7127 
3 7128 7129 7130 
3 7131 7132 7133 
3 7134 7135 7136 
3 7137 7138 7139 
3 7140 7141 7142 
3 7143 7144 7145 
3 7146 7147 7148 
3 7149 7150 7151 
3 7152 7153 7154 
3 7155 7156 7157 
3 7158 7159 7160 
3 7161 7162 7163 
3 7164 7165 7166 
3 7167 7168 7169 
3 7170 7171 7172 
3 7173 7174 7175 
3 7176 7177 7178 
3 7179 7180 7181 
3 7182 7183 7184 
3 7185 7186 7187 
3 7188 7189 7190 
3 7191 7192 7193 
3 7194 7195 7196 
3 7197 7198 7199 
3 7200 7201 7202 
3 7203 7204 7205 
3 7206 7207 7208 
3 7209 7210 7211 
3 7212 7213 7214 
3 7215 7216 7217 
3 7218 7219 7220 
3 7221 7222 7223 
3 7224 7225 7226 
3 7227 7228 7229 
3 7230 7231 7232 
3 7233 7234 7235 
3 7236 7237 7238 
3 7239 7240 7241 
3 7242 7243 7244 
3 7245 7246 7247 
3 7248 7249 7250 
3 7251 7252 7253 
3 7254 7255 7256 
3 7257 7258 7259 
3 7260 7261 7262 
3 7263 7264 7265 
3 7266 7267 7268 
3 7269 7270 7271 
3 7272 7273 7274 
3 7275 7276 7277 
3 7278 7279 7280 
3 7281 7282 7283 
3 7284 7285 7286 
3 7287 7288 7289 
3 7290 7291 7292 
3 7293 7294 7295 
3 7296 7297 7298 
3 7299 7300 7301 
3 7302 7303 7304 
3 7305 7306 7307 
3 7308 7309 7310 
3 7311 7312 7313 
3 7314 7315 7316 
3 7317 7318 7319 
3 7320 7321 7322 
3 7323 7324 7325 
3 7326 7327 7328 
3 7329 7330 7331 
3 7332 7333 7334 
3 7335 7336 7337 
3 7338 7339 7340 
3 7341 7342 7343 
3 7344 7345 7346 
3 7347 7348 7349 
3 7350 7351 7352 
3 7353 7354 7355 
3 7356 7357 7358 
3 7359 7360 7361 
3 7362 7363 7364 
3 7365 7366 7367 
3 7368 7369 7370 
3 7371 7372 7373 
3 7374 7375 7376 
3 7377 7378 7379 
3 7380 7381 7382 
3 7383 7384 7385 
3 7386 7387 7388 
3 7389 7390 7391 
3 7392 7393 7394 
3 7395 7396 7397 
3 7398 7399 7400 
3 7401 7402 7403 
3 7404 7405 7406 
3 7407 7408 7409 
3 7410 7411 7412 
3 7413 7414 7415 
3 7416 7417 7418 
3 7419 7420 7421 
3 7422 7423 7424 
3 7425 7426 7427 
3 7428 7429 7430 
3 7431 7432 7433 
3 7434 7435 7436 
3 7437 7438 7439 
3 7440 7441 7442 
3 7443 7444 7445 
3 7446 7447 7448 
3 7449 7450 7451 
3 7452 7453 7454 
3 7455 7456 7457 
3 7458 7459 7460 
3 7461 7462 7463 
3 7464 7465 7466 
3 7467 7468 7469 
3 7470 7471 7472 
3 7473 7474 7475 
3 7476 7477 7478 
3 7479 7480 7481 
3 7482 7483 7484 
3 7485 7486 7487 
3 7488 7489 7490 
3 7491 7492 7493 
3 7494 7495 7496 
3 7497 7498 7499 
3 7500 7501 7502 
3 7503 7504 7505 
3 7506 7507 7508 
3 7509 7510 7511 
3 7512 7513 7514 
3 7515 7516 7517 
3 7518 7519 7520 
3 7521 7522 7523 
3 7524 7525 7526 
3 7527 7528 7529 
3 7530 7531 7532 
3 7533 7534 7535 
3 7536 7537 7538 
3 7539 7540 7541 
3 7542 7543 7544 
3 7545 7546 7547 
3 7548 7549 7550 
3 7551 7552 7553 
3 7554 7555 7556 
3 7557 7558 7559 
3 7560 7561 7562 
3 7563 7564 7565 
3 7566 7567 7568 
3 7569 7570 7571 
3 7572 7573 7574 
3 7575 7576 7577 
3 7578 7579 7580 
3 7581 7582 7583 
3 7584 7585 7586 
3 7587 7588 7589 
3 7590 7591 7592 
3 7593 7594 7595 
3 7596 7597 7598 
3 7599 7600 7601 
3 7602 7603 7604 
3 7605 7606 7607 
3 7608 7609 7610 
3 7611 7612 7613 
3 7614 7615 7616 
3 7617 7618 7619 
3 7620 7621 7622 
3 7623 7624 7625 
3 7626 7627 7628 
3 7629 7630 7631 
3 7632 7633 7634 
3 7635 7636 7637 
3 7638 7639 7640 
3 7641 7642 7643 
3 7644 7645 7646 
3 7647 7648 7649 
3 7650 7651 7652 
3 7653 7654 7655 
3 7656 7657 7658 
3 7659 7660 7661 
3 7662 7663 7664 
3 7665 7666 7667 
3 7668 7669 7670 
3 7671 7672 7673 
3 7674 7675 7676 
3 7677 7678 7679 
3 7680 7681 7682 
3 7683 7684 7685 
3 7686 7687 7688 
3 7689 7690 7691 
3 7692 7693 7694 
3 7695 7696 7697 
3 7698 7699 7700 
3 7701 7702 7703 
3 7704 7705 7706 
3 7707 7708 7709 
3 7710 7711 7712 
3 7713 7714 7715 
3 7716 7717 7718 
3 7719 7720 7721 
3 7722 7723 7724 
3 7725 7726 7727 
3 7728 7729 7730 
3 7731 7732 7733 
3 7734 7735 7736 
3 7737 7738 7739 
3 7740 7741 7742 
3 7743 7744 7745 
3 7746 7747 7748 
3 7749 7750 7751 
3 7752 7753 7754 
3 7755 7756 7757 
3 7758 7759 7760 
3 7761 7762 7763 
3 7764 7765 7766 
3 7767 7768 7769 
3 7770 7771 7772 
3 7773 7774 7775 
3 7776 7777 7778 
3 7779 7780 7781 
3 7782 7783 7784 
3 7785 7786 7787 
3 7788 7789 7790 
3 7791 7792 7793 
3 7794 7795 7796 
3 7797 7798 7799 
3 7800 7801 7802 
3 7803 7804 7805 
3 7806 7807 7808 
3 7809 7810 7811 
3 7812 7813 7814 
3 7815 7816 7817 
3 7818 7819 7820 
3 7821 7822 7823 
3 7824 7825 7826 
3 7827 7828 7829 
3 7830 7831 7832 
3 7833 7834 7835 
3 7836 7837 7838 
3 7839 7840 7841 
3 7842 7843 7844 
3 7845 7846 7847 
3 7848 7849 7850 
3 7851 7852 7853 
3 7854 7855 7856 
3 7857 7858 7859 
3 7860 7861 7862 
3 7863 7864 7865 
3 7866 7867 7868 
3 7869 7870 7871 
3 7872 7873 7874 
3 7875 7876 7877 
3 7878 7879 7880 
3 7881 7882 7883 
3 7884 7885 7886 
3 7887 7888 7889 
3 7890 7891 7892 
3 7893 7894 7895 
3 7896 7897 7898 
3 7899 7900 7901 
3 7902 7903 7904 
3 7905 7906 7907 
3 7908 7909 7910 
3 7911 7912 7913 
3 7914 7915 7916 
3 7917 7918 7919 
3 7920 7921 7922 
3 7923 7924 7925 
3 7926 7927 7928 
3 7929 7930 7931 
3 7932 7933 7934 
3 7935 7936 7937 
3 7938 7939 7940 
3 7941 7942 7943 
3 7944 7945 7946 
3 7947 7948 7949 
3 7950 7951 7952 
3 7953 7954 7955 
3 7956 7957 7958 
3 7959 7960 7961 
3 7962 7963 7964 
3 7965 7966 7967 
3 7968 7969 7970 
3 7971 7972 7973 
3 7974 7975 7976 
3 7977 7978 7979 
3 7980 7981 7982 
3 7983 7984 7985 
3 7986 7987 7988 
3 7989 7990 7991 
3 7992 7993 7994 
3 7995 7996 7997 
3 7998 7999 8000 
3 8001 8002 8003 
3 8004 8005 8006 
3 8007 8008 8009 
3 8010 8011 8012 
3 8013 8014 8015 
3 8016 8017 8018 
3 8019 8020 8021 
3 8022 8023 8024 
3 8025 8026 8027 
3 8028 8029 8030 
3 8031 8032 8033 
3 8034 8035 8036 
3 8037 8038 8039 
3 8040 8041 8042 
3 8043 8044 8045 
3 8046 8047 8048 
3 8049 8050 8051 
3 8052 8053 8054 
3 8055 8056 8057 
3 8058 8059 8060 
3 8061 8062 8063 
3 8064 8065 8066 
3 8067 8068 8069 
3 8070 8071 8072 
3 8073 8074 8075 
3 8076 8077 8078 
3 8079 8080 8081 
3 8082 8083 8084 
3 8085 8086 8087 
3 8088 8089 8090 
3 8091 8092 8093 
3 8094 8095 8096 
3 8097 8098 8099 
3 8100 8101 8102 
3 8103 8104 8105 
3 8106 8107 8108 
3 8109 8110 8111 
3 8112 8113 8114 
3 8115 8116 8117 
3 8118 8119 8120 
3 8121 8122 8123 
3 8124 8125 8126 
3 8127 8128 8129 
3 8130 8131 8132 
3 8133 8134 8135 
3 8136 8137 8138 
3 8139 8140 8141 
3 8142 8143 8144 
3 8145 8146 8147 
3 8148 8149 8150 
3 8151 8152 8153 
3 8154 8155 8156 
3 8157 8158 8159 
3 8160 8161 8162 
3 8163 8164 8165 
3 8166 8167 8168 
3 8169 8170 8171 
3 8172 8173 8174 
3 8175 8176 8177 
3 8178 8179 8180 
3 8181 8182 8183 
3 8184 8185 8186 
3 8187 8188 8189 
3 8190 8191 8192 
3 8193 8194 8195 
3 8196 8197 8198 
3 8199 8200 8201 
3 8202 8203 8204 
3 8205 8206 8207 
3 8208 8209 8210 
3 8211 8212 8213 
3 8214 8215 8216 
3 8217 8218 8219 
3 8220 8221 8222 
3 8223 8224 8225 
3 8226 8227 8228 
3 8229 8230 8231 
3 8232 8233 8234 
3 8235 8236 8237 
3 8238 8239 8240 
3 8241 8242 8243 
3 8244 8245 8246 
3 8247 8248 8249 
3 8250 8251 8252 
3 8253 8254 8255 
3 8256 8257 8258 
3 8259 8260 8261 
3 8262 8263 8264 
3 8265 8266 8267 
3 8268 8269 8270 
3 8271 8272 8273 
3 8274 8275 8276 
3 8277 8278 8279 
3 8280 8281 8282 
3 8283 8284 8285 
3 8286 8287 8288 
3 8289 8290 8291 
3 8292 8293 8294 
3 8295 8296 8297 
3 8298 8299 8300 
3 8301 8302 8303 
3 8304 8305 8306 
3 8307 8308 8309 
3 8310 8311 8312 
3 8313 8314 8315 
3 8316 8317 8318 
3 8319 8320 8321 
3 8322 8323 8324 
3 8325 8326 8327 
3 8328 8329 8330 
3 8331 8332 8333 
3 8334 8335 8336 
3 8337 8338 8339 
3 8340 8341 8342 
3 8343 8344 8345 
3 8346 8347 8348 
3 8349 8350 8351 
3 8352 8353 8354 
3 8355 8356 8357 
3 8358 8359 8360 
3 8361 8362 8363 
3 8364 8365 8366 
3 8367 8368 8369 
3 8370 8371 8372 
3 8373 8374 8375 
3 8376 8377 8378 
3 8379 8380 8381 
3 8382 8383 8384 
3 8385 8386 8387 
3 8388 8389 8390 
3 8391 8392 8393 
3 8394 8395 8396 
3 8397 8398 8399 
3 8400 8401 8402 
3 8403 8404 8405 
3 8406 8407 8408 
3 8409 8410 8411 
3 8412 8413 8414 
3 8415 8416 8417 
3 8418 8419 8420 
3 8421 8422 8423 
3 8424 8425 8426 
3 8427 8428 8429 
3 8430 8431 8432 
3 8433 8434 8435 
3 8436 8437 8438 
3 8439 8440 8441 
3 8442 8443 8444 
3 8445 8446 8447 
3 8448 8449 8450 
3 8451 8452 8453 
3 8454 8455 8456 
3 8457 8458 8459 
3 8460 8461 8462 
3 8463 8464 8465 
3 8466 8467 8468 
3 8469 8470 8471 
3 8472 8473 8474 
3 8475 8476 8477 
3 8478 8479 8480 
3 8481 8482 8483 
3 8484 8485 8486 
3 8487 8488 8489 
3 8490 8491 8492 
3 8493 8494 8495 
3 8496 8497 8498 
3 8499 8500 8501 
3 8502 8503 8504 
3 8505 8506 8507 
3 8508 8509 8510 
3 8511 8512 8513 
3 8514 8515 8516 
3 8517 8518 8519 
3 8520 8521 8522 
3 8523 8524 8525 
3 8526 8527 8528 
3 8529 8530 8531 
3 8532 8533 8534 
3 8535 8536 8537 
3 8538 8539 8540 
3 8541 8542 8543 
3 8544 8545 8546 
3 8547 8548 8549 
3 8550 8551 8552 
3 8553 8554 8555 
3 8556 8557 8558 
3 8559 8560 8561 
3 8562 8563 8564 
3 8565 8566 8567 
3 8568 8569 8570 
3 8571 8572 8573 
3 8574 8575 8576 
3 8577 8578 8579 
3 8580 8581 8582 
3 8583 8584 8585 
3 8586 8587 8588 
3 8589 8590 8591 
3 8592 8593 8594 
3 8595 8596 8597 
3 8598 8599 8600 
3 8601 8602 8603 
3 8604 8605 8606 
3 8607 8608 8609 
3 8610 8611 8612 
3 8613 8614 8615 
3 8616 8617 8618 
3 8619 8620 8621 
3 8622 8623 8624 
3 8625 8626 8627 
3 8628 8629 8630 
3 8631 8632 8633 
3 8634 8635 8636 
3 8637 8638 8639 
3 8640 8641 8642 
3 8643 8644 8645 
3 8646 8647 8648 
3 8649 8650 8651 
3 8652 8653 8654 
3 8655 8656 8657 
3 8658 8659 8660 
3 8661 8662 8663 
3 8664 8665 8666 
3 8667 8668 8669 
3 8670 8671 8672 
3 8673 8674 8675 
3 8676 8677 8678 
3 8679 8680 8681 
3 8682 8683 8684 
3 8685 8686 8687 
3 8688 8689 8690 
3 8691 8692 8693 
3 8694 8695 8696 
3 8697 8698 8699 
3 8700 8701 8702 
3 8703 8704 8705 
3 8706 8707 8708 
3 8709 8710 8711 
3 8712 8713 8714 
3 8715 8716 8717 
3 8718 8719 8720 
3 8721 8722 8723 
3 8724 8725 8726 
3 8727 8728 8729 
3 8730 8731 8732 
3 8733 8734 8735 
3 8736 8737 8738 
3 8739 8740 8741 
3 8742 8743 8744 
3 8745 8746 8747 
3 8748 8749 8750 
3 8751 8752 8753 
3 8754 8755 8756 
3 8757 8758 8759 
3 8760 8761 8762 
3 8763 8764 8765 
3 8766 8767 8768 
3 8769 8770 8771 
3 8772 8773 8774 
3 8775 8776 8777 
3 8778 8779 8780 
3 8781 8782 8783 
3 8784 8785 8786 
3 8787 8788 8789 
3 8790 8791 8792 
3 8793 8794 8795 
3 8796 8797 8798 
3 8799 8800 8801 
3 8802 8803 8804 
3 8805 8806 8807 
3 8808 8809 8810 
3 8811 8812 8813 
3 8814 8815 8816 
3 8817 8818 8819 
3 8820 8821 8822 
3 8823 8824 8825 
3 8826 8827 8828 
3 8829 8830 8831 
3 8832 8833 8834 
3 8835 8836 8837 
3 8838 8839 8840 
3 8841 8842 8843 
3 8844 8845 8846 
3 8847 8848 8849 
3 8850 8851 8852 
3 8853 8854 8855 
3 8856 8857 8858 
3 8859 8860 8861 
3 8862 8863 8864 
3 8865 8866 8867 
3 8868 8869 8870 
3 8871 8872 8873 
3 8874 8875 8876 
3 8877 8878 8879 
3 8880 8881 8882 
3 8883 8884 8885 
3 8886 8887 8888 
3 8889 8890 8891 
3 8892 8893 8894 
3 8895 8896 8897 
3 8898 8899 8900 
3 8901 8902 8903 
3 8904 8905 8906 
3 8907 8908 8909 
3 8910 8911 8912 
3 8913 8914 8915 
3 8916 8917 8918 
3 8919 8920 8921 
3 8922 8923 8924 
3 8925 8926 8927 
3 8928 8929 8930 
3 8931 8932 8933 
3 8934 8935 8936 
3 8937 8938 8939 
3 8940 8941 8942 
3 8943 8944 8945 
3 8946 8947 8948 
3 8949 8950 8951 
3 8952 8953 8954 
3 8955 8956 8957 
3 8958 8959 8960 
3 8961 8962 8963 
3 8964 8965 8966 
3 8967 8968 8969 
3 8970 8971 8972 
3 8973 8974 8975 
3 8976 8977 8978 
3 8979 8980 8981 
3 8982 8983 8984 
3 8985 8986 8987 
3 8988 8989 8990 
3 8991 8992 8993 
3 8994 8995 8996 
3 8997 8998 8999 
3 9000 9001 9002 
3 9003 9004 9005 
3 9006 9007 9008 
3 9009 9010 9011 
3 9012 9013 9014 
3 9015 9016 9017 
3 9018 9019 9020 
3 9021 9022 9023 
3 9024 9025 9026 
3 9027 9028 9029 
3 9030 9031 9032 
3 9033 9034 9035 
3 9036 9037 9038 
3 9039 9040 9041 
3 9042 9043 9044 
3 9045 9046 9047 
3 9048 9049 9050 
3 9051 9052 9053 
3 9054 9055 9056 
3 9057 9058 9059 
3 9060 9061 9062 
3 9063 9064 9065 
3 9066 9067 9068 
3 9069 9070 9071 
3 9072 9073 9074 
3 9075 9076 9077 
3 9078 9079 9080 
3 9081 9082 9083 
3 9084 9085 9086 
3 9087 9088 9089 
3 9090 9091 9092 
3 9093 9094 9095 
3 9096 9097 9098 
3 9099 9100 9101 
3 9102 9103 9104 
3 9105 9106 9107 
3 9108 9109 9110 
3 9111 9112 9113 
3 9114 9115 9116 
3 9117 9118 9119 
3 9120 9121 9122 
3 9123 9124 9125 
3 9126 9127 9128 
3 9129 9130 9131 
3 9132 9133 9134 
3 9135 9136 9137 
3 9138 9139 9140 
3 9141 9142 9143 
3 9144 9145 9146 
3 9147 9148 9149 
3 9150 9151 9152 
3 9153 9154 9155 
3 9156 9157 9158 
3 9159 9160 9161 
3 9162 9163 9164 
3 9165 9166 9167 
3 9168 9169 9170 
3 9171 9172 9173 
3 9174 9175 9176 
3 9177 9178 9179 
3 9180 9181 9182 
3 9183 9184 9185 
3 9186 9187 9188 
3 9189 9190 9191 
3 9192 9193 9194 
3 9195 9196 9197 
3 9198 9199 9200 
3 9201 9202 9203 
3 9204 9205 9206 
3 9207 9208 9209 
3 9210 9211 9212 
3 9213 9214 9215 
3 9216 9217 9218 
3 9219 9220 9221 
3 9222 9223 9224 
3 9225 9226 9227 
3 9228 9229 9230 
3 9231 9232 9233 
3 9234 9235 9236 
3 9237 9238 9239 
3 9240 9241 9242 
3 9243 9244 9245 
3 9246 9247 9248 
3 9249 9250 9251 
3 9252 9253 9254 
3 9255 9256 9257 
3 9258 9259 9260 
3 9261 9262 9263 
3 9264 9265 9266 
3 9267 9268 9269 
3 9270 9271 9272 
3 9273 9274 9275 
3 9276 9277 9278 
3 9279 9280 9281 
3 9282 9283 9284 
3 9285 9286 9287 
3 9288 9289 9290 
3 9291 9292 9293 
3 9294 9295 9296 
3 9297 9298 9299 
3 9300 9301 9302 
3 9303 9304 9305 
3 9306 9307 9308 
3 9309 9310 9311 
3 9312 9313 9314 
3 9315 9316 9317 
3 9318 9319 9320 
3 9321 9322 9323 
3 9324 9325 9326 
3 9327 9328 9329 
3 9330 9331 9332 
3 9333 9334 9335 
3 9336 9337 9338 
3 9339 9340 9341 
3 9342 9343 9344 
3 9345 9346 9347 
3 9348 9349 9350 
3 9351 9352 9353 
3 9354 9355 9356 
3 9357 9358 9359 
3 9360 9361 9362 
3 9363 9364 9365 
3 9366 9367 9368 
3 9369 9370 9371 
3 9372 9373 9374 
3 9375 9376 9377 
3 9378 9379 9380 
3 9381 9382 9383 
3 9384 9385 9386 
3 9387 9388 9389 
3 9390 9391 9392 
3 9393 9394 9395 
3 9396 9397 9398 
3 9399 9400 9401 
3 9402 9403 9404 
3 9405 9406 9407 
3 9408 9409 9410 
3 9411 9412 9413 
3 9414 9415 9416 
3 9417 9418 9419 
3 9420 9421 9422 
3 9423 9424 9425 
3 9426 9427 9428 
3 9429 9430 9431 
3 9432 9433 9434 
3 9435 9436 9437 
3 9438 9439 9440 
3 9441 9442 9443 
3 9444 9445 9446 
3 9447 9448 9449 
3 9450 9451 9452 
3 9453 9454 9455 
3 9456 9457 9458 
3 9459 9460 9461 
3 9462 9463 9464 
3 9465 9466 9467 
3 9468 9469 9470 
3 9471 9472 9473 
3 9474 9475 9476 
3 9477 9478 9479 
3 9480 9481 9482 
3 9483 9484 9485 
3 9486 9487 9488 
3 9489 9490 9491 
3 9492 9493 9494 
3 9495 9496 9497 
3 9498 9499 9500 
3 9501 9502 9503 
3 9504 9505 9506 
3 9507 9508 9509 
3 9510 9511 9512 
3 9513 9514 9515 
3 9516 9517 9518 
3 9519 9520 9521 
3 9522 9523 9524 
3 9525 9526 9527 
3 9528 9529 9530 
3 9531 9532 9533 
3 9534 9535 9536 
3 9537 9538 9539 
3 9540 9541 9542 
3 9543 9544 9545 
3 9546 9547 9548 
3 9549 9550 9551 
3 9552 9553 9554 
3 9555 9556 9557 
3 9558 9559 9560 
3 9561 9562 9563 
3 9564 9565 9566 
3 9567 9568 9569 
3 9570 9571 9572 
3 9573 9574 9575 
3 9576 9577 9578 
3 9579 9580 9581 
3 9582 9583 9584 
3 9585 9586 9587 
3 9588 9589 9590 
3 9591 9592 9593 
3 9594 9595 9596 
3 9597 9598 9599 
3 9600 9601 9602 
3 9603 9604 9605 
3 9606 9607 9608 
3 9609 9610 9611 
3 9612 9613 9614 
3 9615 9616 9617 
3 9618 9619 9620 
3 9621 9622 9623 
3 9624 9625 9626 
3 9627 9628 9629 
3 9630 9631 9632 
3 9633 9634 9635 
3 9636 9637 9638 
3 9639 9640 9641 
3 9642 9643 9644 
3 9645 9646 9647 
3 9648 9649 9650 
3 9651 9652 9653 
3 9654 9655 9656 
3 9657 9658 9659 
3 9660 9661 9662 
3 9663 9664 9665 
3 9666 9667 9668 
3 9669 9670 9671 
3 9672 9673 9674 
3 9675 9676 9677 
3 9678 9679 9680 
3 9681 9682 9683 
3 9684 9685 9686 
3 9687 9688 9689 
3 9690 9691 9692 
3 9693 9694 9695 
3 9696 9697 9698 
3 9699 9700 9701 
3 9702 9703 9704 
3 9705 9706 9707 
3 9708 9709 9710 
3 9711 9712 9713 
3 9714 9715 9716 
3 9717 9718 9719 
3 9720 9721 9722 
3 9723 9724 9725 
3 9726 9727 9728 
3 9729 9730 9731 
3 9732 9733 9734 
3 9735 9736 9737 
3 9738 9739 9740 
3 9741 9742 9743 
3 9744 9745 9746 
3 9747 9748 9749 
3 9750 9751 9752 
3 9753 9754 9755 
3 9756 9757 9758 
3 9759 9760 9761 
3 9762 9763 9764 
3 9765 9766 9767 
3 9768 9769 9770 
3 9771 9772 9773 
3 9774 9775 9776 
3 9777 9778 9779 
3 9780 9781 9782 
3 9783 9784 9785 
3 9786 9787 9788 
3 9789 9790 9791 
3 9792 9793 9794 
3 9795 9796 9797 
3 9798 9799 9800 
3 9801 9802 9803 
3 9804 9805 9806 
3 9807 9808 9809 
3 9810 9811 9812 
3 9813 9814 9815 
3 9816 9817 9818 
3 9819 9820 9821 
3 9822 9823 9824 
3 9825 9826 9827 
3 9828 9829 9830 
3 9831 9832 9833 
3 9834 9835 9836 
3 9837 9838 9839 
3 9840 9841 9842 
3 9843 9844 9845 
3 9846 9847 9848 
3 9849 9850 9851 
3 9852 9853 9854 
3 9855 9856 9857 
3 9858 9859 9860 
3 9861 9862 9863 
3 9864 9865 9866 
3 9867 9868 9869 
3 9870 9871 9872 
3 9873 9874 9875 
3 9876 9877 9878 
3 9879 9880 9881 
3 9882 9883 9884 
3 9885 9886 9887 
3 9888 9889 9890 
3 9891 9892 9893 
3 9894 9895 9896 
3 9897 9898 9899 
3 9900 9901 9902 
3 9903 9904 9905 
3 9906 9907 9908 
3 9909 9910 9911 
3 9912 9913 9914 
3 9915 9916 9917 
3 9918 9919 9920 
3 9921 9922 9923 
3 9924 9925 9926 
3 9927 9928 9929 
3 9930 9931 9932 
3 9933 9934 9935 
3 9936 9937 9938 
3 9939 9940 9941 
3 9942 9943 9944 
3 9945 9946 9947 
3 9948 9949 9950 
3 9951 9952 9953 
3 9954 9955 9956 
3 9957 9958 9959 
3 9960 9961 9962 
3 9963 9964 9965 
3 9966 9967 9968 
3 9969 9970 9971 
3 9972 9973 9974 
3 9975 9976 9977 
3 9978 9979 9980 
3 9981 9982 9983 
3 9984 9985 9986 
3 9987 9988 9989 
3 9990 9991 9992 
3 9993 9994 9995 
3 9996 9997 9998 
3 9999 10000 10001 
3 10002 10003 10004 
3 10005 10006 10007 
3 10008 10009 10010 
3 10011 10012 10013 
3 10014 10015 10016 
3 10017 10018 10019 
3 10020 10021 10022 
3 10023 10024 10025 
3 10026 10027 10028 
3 10029 10030 10031 
3 10032 10033 10034 
3 10035 10036 10037 
3 10038 10039 10040 
3 10041 10042 10043 
3 10044 10045 10046 
3 10047 10048 10049 
3 10050 10051 10052 
3 10053 10054 10055 
3 10056 10057 10058 
3 10059 10060 10061 
3 10062 10063 10064 
3 10065 10066 10067 
3 10068 10069 10070 
3 10071 10072 10073 
3 10074 10075 10076 
3 10077 10078 10079 
3 10080 10081 10082 
3 10083 10084 10085 
3 10086 10087 10088 
3 10089 10090 10091 
3 10092 10093 10094 
3 10095 10096 10097 
3 10098 10099 10100 
3 10101 10102 10103 
3 10104 10105 10106 
3 10107 10108 10109 
3 10110 10111 10112 
3 10113 10114 10115 
3 10116 10117 10118 
3 10119 10120 10121 
3 10122 10123 10124 
3 10125 10126 10127 
3 10128 10129 10130 
3 10131 10132 10133 
3 10134 10135 10136 
3 10137 10138 10139 
3 10140 10141 10142 
3 10143 10144 10145 
3 10146 10147 10148 
3 10149 10150 10151 
3 10152 10153 10154 
3 10155 10156 10157 
3 10158 10159 10160 
3 10161 10162 10163 
3 10164 10165 10166 
3 10167 10168 10169 
3 10170 10171 10172 
3 10173 10174 10175 
3 10176 10177 10178 
3 10179 10180 10181 
3 10182 10183 10184 
3 10185 10186 10187 
3 10188 10189 10190 
3 10191 10192 10193 
3 10194 10195 10196 
3 10197 10198 10199 
3 10200 10201 10202 
3 10203 10204 10205 
3 10206 10207 10208 
3 10209 10210 10211 
3 10212 10213 10214 
3 10215 10216 10217 
3 10218 10219 10220 
3 10221 10222 10223 
3 10224 10225 10226 
3 10227 10228 10229 
3 10230 10231 10232 
3 10233 10234 10235 
3 10236 10237 10238 
3 10239 10240 10241 
3 10242 10243 10244 
3 10245 10246 10247 
3 10248 10249 10250 
3 10251 10252 10253 
3 10254 10255 10256 
3 10257 10258 10259 
3 10260 10261 10262 
3 10263 10264 10265 
3 10266 10267 10268 
3 10269 10270 10271 
3 10272 10273 10274 
3 10275 10276 10277 
3 10278 10279 10280 
3 10281 10282 10283 
3 10284 10285 10286 
3 10287 10288 10289 
3 10290 10291 10292 
3 10293 10294 10295 
3 10296 10297 10298 
3 10299 10300 10301 
3 10302 10303 10304 
3 10305 10306 10307 
3 10308 10309 10310 
3 10311 10312 10313 
3 10314 10315 10316 
3 10317 10318 10319 
3 10320 10321 10322 
3 10323 10324 10325 
3 10326 10327 10328 
3 10329 10330 10331 
3 10332 10333 10334 
3 10335 10336 10337 
3 10338 10339 10340 
3 10341 10342 10343 
3 10344 10345 10346 
3 10347 10348 10349 
3 10350 10351 10352 
3 10353 10354 10355 
3 10356 10357 10358 
3 10359 10360 10361 
3 10362 10363 10364 
3 10365 10366 10367 
3 10368 10369 10370 
3 10371 10372 10373 
3 10374 10375 10376 
3 10377 10378 10379 
3 10380 10381 10382 
3 10383 10384 10385 
3 10386 10387 10388 
3 10389 10390 10391 
3 10392 10393 10394 
3 10395 10396 10397 
3 10398 10399 10400 
3 10401 10402 10403 
3 10404 10405 10406 
3 10407 10408 10409 
3 10410 10411 10412 
3 10413 10414 10415 
3 10416 10417 10418 
3 10419 10420 10421 
3 10422 10423 10424 
3 10425 10426 10427 
3 10428 10429 10430 
3 10431 10432 10433 
3 10434 10435 10436 
3 10437 10438 10439 
3 10440 10441 10442 
3 10443 10444 10445 
3 10446 10447 10448 
3 10449 10450 10451 
3 10452 10453 10454 
3 10455 10456 10457 
3 10458 10459 10460 
3 10461 10462 10463 
3 10464 10465 10466 
3 10467 10468 10469 
3 10470 10471 10472 
3 10473 10474 10475 
3 10476 10477 10478 
3 10479 10480 10481 
3 10482 10483 10484 
3 10485 10486 10487 
3 10488 10489 10490 
3 10491 10492 10493 
3 10494 10495 10496 
3 10497 10498 10499 
3 10500 10501 10502 
3 10503 10504 10505 
3 10506 10507 10508 
3 10509 10510 10511 
3 10512 10513 10514 
3 10515 10516 10517 
3 10518 10519 10520 
3 10521 10522 10523 
3 10524 10525 10526 
3 10527 10528 10529 
3 10530 10531 10532 
3 10533 10534 10535 
3 10536 10537 10538 
3 10539 10540 10541 
3 10542 10543 10544 
3 10545 10546 10547 
3 10548 10549 10550 
3 10551 10552 10553 
3 10554 10555 10556 
3 10557 10558 10559 
3 10560 10561 10562 
3 10563 10564 10565 
3 10566 10567 10568 
3 10569 10570 10571 
3 10572 10573 10574 
3 10575 10576 10577 
3 10578 10579 10580 
3 10581 10582 10583 
3 10584 10585 10586 
3 10587 10588 10589 
3 10590 10591 10592 
3 10593 10594 10595 
3 10596 10597 10598 
3 10599 10600 10601 
3 10602 10603 10604 
3 10605 10606 10607 
3 10608 10609 10610 
3 10611 10612 10613 
3 10614 10615 10616 
3 10617 10618 10619 
3 10620 10621 10622 
3 10623 10624 10625 
3 10626 10627 10628 
3 10629 10630 10631 
3 10632 10633 10634 
3 10635 10636 10637 
3 10638 10639 10640 
3 10641 10642 10643 
3 10644 10645 10646 
3 10647 10648 10649 
3 10650 10651 10652 
3 10653 10654 10655 
3 10656 10657 10658 
3 10659 10660 10661 
3 10662 10663 10664 
3 10665 10666 10667 
3 10668 10669 10670 
3 10671 10672 10673 
3 10674 10675 10676 
3 10677 10678 10679 
3 10680 10681 10682 
3 10683 10684 10685 
3 10686 10687 10688 
3 10689 10690 10691 
3 10692 10693 10694 
3 10695 10696 10697 
3 10698 10699 10700 
3 10701 10702 10703 
3 10704 10705 10706 
3 10707 10708 10709 
3 10710 10711 10712 
3 10713 10714 10715 
3 10716 10717 10718 
3 10719 10720 10721 
3 10722 10723 10724 
3 10725 10726 10727 
3 10728 10729 10730 
3 10731 10732 10733 
3 10734 10735 10736 
3 10737 10738 10739 
3 10740 10741 10742 
3 10743 10744 10745 
3 10746 10747 10748 
3 10749 10750 10751 
3 10752 10753 10754 
3 10755 10756 10757 
3 10758 10759 10760 
3 10761 10762 10763 
3 10764 10765 10766 
3 10767 10768 10769 
3 10770 10771 10772 
3 10773 10774 10775 
3 10776 10777 10778 
3 10779 10780 10781 
3 10782 10783 10784 
3 10785 10786 10787 
3 10788 10789 10790 
3 10791 10792 10793 
3 10794 10795 10796 
3 10797 10798 10799 
3 10800 10801 10802 
3 10803 10804 10805 
3 10806 10807 10808 
3 10809 10810 10811 
3 10812 10813 10814 
3 10815 10816 10817 
3 10818 10819 10820 
3 10821 10822 10823 
3 10824 10825 10826 
3 10827 10828 10829 
3 10830 10831 10832 
3 10833 10834 10835 
3 10836 10837 10838 
3 10839 10840 10841 
3 10842 10843 10844 
3 10845 10846 10847 
3 10848 10849 10850 
3 10851 10852 10853 
3 10854 10855 10856 
3 10857 10858 10859 
3 10860 10861 10862 
3 10863 10864 10865 
3 10866 10867 10868 
3 10869 10870 10871 
3 10872 10873 10874 
3 10875 10876 10877 
3 10878 10879 10880 
3 10881 10882 10883 
3 10884 10885 10886 
3 10887 10888 10889 
3 10890 10891 10892 
3 10893 10894 10895 
3 10896 10897 10898 
3 10899 10900 10901 
3 10902 10903 10904 
3 10905 10906 10907 
3 10908 10909 10910 
3 10911 10912 10913 
3 10914 10915 10916 
3 10917 10918 10919 
3 10920 10921 10922 
3 10923 10924 10925 
3 10926 10927 10928 
3 10929 10930 10931 
3 10932 10933 10934 
3 10935 10936 10937 
3 10938 10939 10940 
3 10941 10942 10943 
3 10944 10945 10946 
3 10947 10948 10949 
3 10950 10951 10952 
3 10953 10954 10955 
3 10956 10957 10958 
3 10959 10960 10961 
3 10962 10963 10964 
3 10965 10966 10967 
3 10968 10969 10970 
3 10971 10972 10973 
3 10974 10975 10976 
3 10977 10978 10979 
3 10980 10981 10982 
3 10983 10984 10985 
3 10986 10987 10988 
3 10989 10990 10991 
3 10992 10993 10994 
3 10995 10996 10997 
3 10998 10999 11000 
3 11001 11002 11003 
3 11004 11005 11006 
3 11007 11008 11009 
3 11010 11011 11012 
3 11013 11014 11015 
3 11016 11017 11018 
3 11019 11020 11021 
3 11022 11023 11024 
3 11025 11026 11027 
3 11028 11029 11030 
3 11031 11032 11033 
3 11034 11035 11036 
3 11037 11038 11039 
3 11040 11041 11042 
3 11043 11044 11045 
3 11046 11047 11048 
3 11049 11050 11051 
3 11052 11053 11054 
3 11055 11056 11057 
3 11058 11059 11060 
3 11061 11062 11063 
3 11064 11065 11066 
3 11067 11068 11069 
3 11070 11071 11072 
3 11073 11074 11075 
3 11076 11077 11078 
3 11079 11080 11081 
3 11082 11083 11084 
3 11085 11086 11087 
3 11088 11089 11090 
3 11091 11092 11093 
3 11094 11095 11096 
3 11097 11098 11099 
3 11100 11101 11102 
3 11103 11104 11105 
3 11106 11107 11108 
3 11109 11110 11111 
3 11112 11113 11114 
3 11115 11116 11117 
3 11118 11119 11120 
3 11121 11122 11123 
3 11124 11125 11126 
3 11127 11128 11129 
3 11130 11131 11132 
3 11133 11134 11135 
3 11136 11137 11138 
3 11139 11140 11141 
3 11142 11143 11144 
3 11145 11146 11147 
3 11148 11149 11150 
3 11151 11152 11153 
3 11154 11155 11156 
3 11157 11158 11159 
3 11160 11161 11162 
3 11163 11164 11165 
3 11166 11167 11168 
3 11169 11170 11171 
3 11172 11173 11174 
3 11175 11176 11177 
3 11178 11179 11180 
3 11181 11182 11183 
3 11184 11185 11186 
3 11187 11188 11189 
3 11190 11191 11192 
3 11193 11194 11195 
3 11196 11197 11198 
3 11199 11200 11201 
3 11202 11203 11204 
3 11205 11206 11207 
3 11208 11209 11210 
3 11211 11212 11213 
3 11214 11215 11216 
3 11217 11218 11219 
3 11220 11221 11222 
3 11223 11224 11225 
3 11226 11227 11228 
3 11229 11230 11231 
3 11232 11233 11234 
3 11235 11236 11237 
3 11238 11239 11240 
3 11241 11242 11243 
3 11244 11245 11246 
3 11247 11248 11249 
3 11250 11251 11252 
3 11253 11254 11255 
3 11256 11257 11258 
3 11259 11260 11261 
3 11262 11263 11264 
3 11265 11266 11267 
3 11268 11269 11270 
3 11271 11272 11273 
3 11274 11275 11276 
3 11277 11278 11279 
3 11280 11281 11282 
3 11283 11284 11285 
3 11286 11287 11288 
3 11289 11290 11291 
3 11292 11293 11294 
3 11295 11296 11297 
3 11298 11299 11300 
3 11301 11302 11303 
3 11304 11305 11306 
3 11307 11308 11309 
3 11310 11311 11312 
3 11313 11314 11315 
3 11316 11317 11318 
3 11319 11320 11321 
3 11322 11323 11324 
3 11325 11326 11327 
3 11328 11329 11330 
3 11331 11332 11333 
3 11334 11335 11336 
3 11337 11338 11339 
3 11340 11341 11342 
3 11343 11344 11345 
3 11346 11347 11348 
3 11349 11350 11351 
3 11352 11353 11354 
3 11355 11356 11357 
3 11358 11359 11360 
3 11361 11362 11363 
3 11364 11365 11366 
3 11367 11368 11369 
3 11370 11371 11372 
3 11373 11374 11375 
3 11376 11377 11378 
3 11379 11380 11381 
3 11382 11383 11384 
3 11385 11386 11387 
3 11388 11389 11390 
3 11391 11392 11393 
3 11394 11395 11396 
3 11397 11398 11399 
3 11400 11401 11402 
3 11403 11404 11405 
3 11406 11407 11408 
3 11409 11410 11411 
3 11412 11413 11414 
3 11415 11416 11417 
3 11418 11419 11420 
3 11421 11422 11423 
3 11424 11425 11426 
3 11427 11428 11429 
3 11430 11431 11432 
3 11433 11434 11435 
3 11436 11437 11438 
3 11439 11440 11441 
3 11442 11443 11444 
3 11445 11446 11447 
3 11448 11449 11450 
3 11451 11452 11453 
3 11454 11455 11456 
3 11457 11458 11459 
3 11460 11461 11462 
3 11463 11464 11465 
3 11466 11467 11468 
3 11469 11470 11471 
3 11472 11473 11474 
3 11475 11476 11477 
3 11478 11479 11480 
3 11481 11482 11483 
3 11484 11485 11486 
3 11487 11488 11489 
3 11490 11491 11492 
3 11493 11494 11495 
3 11496 11497 11498 
3 11499 11500 11501 
3 11502 11503 11504 
3 11505 11506 11507 
3 11508 11509 11510 
3 11511 11512 11513 
3 11514 11515 11516 
3 11517 11518 11519 
3 11520 11521 11522 
3 11523 11524 11525 
3 11526 11527 11528 
3 11529 11530 11531 
3 11532 11533 11534 
3 11535 11536 11537 
3 11538 11539 11540 
3 11541 11542 11543 
3 11544 11545 11546 
3 11547 11548 11549 
3 11550 11551 11552 
3 11553 11554 11555 
3 11556 11557 11558 
3 11559 11560 11561 
3 11562 11563 11564 
3 11565 11566 11567 
3 11568 11569 11570 
3 11571 11572 11573 
3 11574 11575 11576 
3 11577 11578 11579 
3 11580 11581 11582 
3 11583 11584 11585 
3 11586 11587 11588 
3 11589 11590 11591 
3 11592 11593 11594 
3 11595 11596 11597 
3 11598 11599 11600 
3 11601 11602 11603 
3 11604 11605 11606 
3 11607 11608 11609 
3 11610 11611 11612 
3 11613 11614 11615 
3 11616 11617 11618 
3 11619 11620 11621 
3 11622 11623 11624 
3 11625 11626 11627 
3 11628 11629 11630 
3 11631 11632 11633 
3 11634 11635 11636 
3 11637 11638 11639 
3 11640 11641 11642 
3 11643 11644 11645 
3 11646 11647 11648 
3 11649 11650 11651 
3 11652 11653 11654 
3 11655 11656 11657 
3 11658 11659 11660 
3 11661 11662 11663 
3 11664 11665 11666 
3 11667 11668 11669 
3 11670 11671 11672 
3 11673 11674 11675 
3 11676 11677 11678 
3 11679 11680 11681 
3 11682 11683 11684 
3 11685 11686 11687 
3 11688 11689 11690 
3 11691 11692 11693 
3 11694 11695 11696 
3 11697 11698 11699 
3 11700 11701 11702 
3 11703 11704 11705 
3 11706 11707 11708 
3 11709 11710 11711 
3 11712 11713 11714 
3 11715 11716 11717 
3 11718 11719 11720 
3 11721 11722 11723 
3 11724 11725 11726 
3 11727 11728 11729 
3 11730 11731 11732 
3 11733 11734 11735 
3 11736 11737 11738 
3 11739 11740 11741 
3 11742 11743 11744 
3 11745 11746 11747 
3 11748 11749 11750 
3 11751 11752 11753 
3 11754 11755 11756 
3 11757 11758 11759 
3 11760 11761 11762 
3 11763 11764 11765 
3 11766 11767 11768 
3 11769 11770 11771 
3 11772 11773 11774 
3 11775 11776 11777 
3 11778 11779 11780 
3 11781 11782 11783 
3 11784 11785 11786 
3 11787 11788 11789 
3 11790 11791 11792 
3 11793 11794 11795 
3 11796 11797 11798 
3 11799 11800 11801 
3 11802 11803 11804 
3 11805 11806 11807 
3 11808 11809 11810 
3 11811 11812 11813 
3 11814 11815 11816 
3 11817 11818 11819 
3 11820 11821 11822 
3 11823 11824 11825 
3 11826 11827 11828 
3 11829 11830 11831 
3 11832 11833 11834 
3 11835 11836 11837 
3 11838 11839 11840 
3 11841 11842 11843 
3 11844 11845 11846 
3 11847 11848 11849 
3 11850 11851 11852 
3 11853 11854 11855 
3 11856 11857 11858 
3 11859 11860 11861 
3 11862 11863 11864 
3 11865 11866 11867 
3 11868 11869 11870 
3 11871 11872 11873 
3 11874 11875 11876 
3 11877 11878 11879 
3 11880 11881 11882 
3 11883 11884 11885 
3 11886 11887 11888 
3 11889 11890 11891 
3 11892 11893 11894 
3 11895 11896 11897 
3 11898 11899 11900 
3 11901 11902 11903 
3 11904 11905 11906 
3 11907 11908 11909 
3 11910 11911 11912 
3 11913 11914 11915 
3 11916 11917 11918 
3 11919 11920 11921 
3 11922 11923 11924 
3 11925 11926 11927 
3 11928 11929 11930 
3 11931 11932 11933 
3 11934 11935 11936 
3 11937 11938 11939 
3 11940 11941 11942 
3 11943 11944 11945 
3 11946 11947 11948 
3 11949 11950 11951 
3 11952 11953 11954 
3 11955 11956 11957 
3 11958 11959 11960 
3 11961 11962 11963 
3 11964 11965 11966 
3 11967 11968 11969 
3 11970 11971 11972 
3 11973 11974 11975 
3 11976 11977 11978 
3 11979 11980 11981 
3 11982 11983 11984 
3 11985 11986 11987 
3 11988 11989 11990 
3 11991 11992 11993 
3 11994 11995 11996 
3 11997 11998 11999 
3 12000 12001 12002 
3 12003 12004 12005 
3 12006 12007 12008 
3 12009 12010 12011 
3 12012 12013 12014 
3 12015 12016 12017 
3 12018 12019 12020 
3 12021 12022 12023 
3 12024 12025 12026 
3 12027 12028 12029 
3 12030 12031 12032 
3 12033 12034 12035 
3 12036 12037 12038 
3 12039 12040 12041 
3 12042 12043 12044 
3 12045 12046 12047 
3 12048 12049 12050 
3 12051 12052 12053 
3 12054 12055 12056 
3 12057 12058 12059 
3 12060 12061 12062 
3 12063 12064 12065 
3 12066 12067 12068 
3 12069 12070 12071 
3 12072 12073 12074 
3 12075 12076 12077 
3 12078 12079 12080 
3 12081 12082 12083 
3 12084 12085 12086 
3 12087 12088 12089 
3 12090 12091 12092 
3 12093 12094 12095 
3 12096 12097 12098 
3 12099 12100 12101 
3 12102 12103 12104 
3 12105 12106 12107 
3 12108 12109 12110 
3 12111 12112 12113 
3 12114 12115 12116 
3 12117 12118 12119 
3 12120 12121 12122 
3 12123 12124 12125 
3 12126 12127 12128 
3 12129 12130 12131 
3 12132 12133 12134 
3 12135 12136 12137 
3 12138 12139 12140 
3 12141 12142 12143 
3 12144 12145 12146 
3 12147 12148 12149 
3 12150 12151 12152 
3 12153 12154 12155 
3 12156 12157 12158 
3 12159 12160 12161 
3 12162 12163 12164 
3 12165 12166 12167 
3 12168 12169 12170 
3 12171 12172 12173 
3 12174 12175 12176 
3 12177 12178 12179 
3 12180 12181 12182 
3 12183 12184 12185 
3 12186 12187 12188 
3 12189 12190 12191 
3 12192 12193 12194 
3 12195 12196 12197 
3 12198 12199 12200 
3 12201 12202 12203 
3 12204 12205 12206 
3 12207 12208 12209 
3 12210 12211 12212 
3 12213 12214 12215 
3 12216 12217 12218 
3 12219 12220 12221 
3 12222 12223 12224 
3 12225 12226 12227 
3 12228 12229 12230 
3 12231 12232 12233 
3 12234 12235 12236 
3 12237 12238 12239 
3 12240 12241 12242 
3 12243 12244 12245 
3 12246 12247 12248 
3 12249 12250 12251 
3 12252 12253 12254 
3 12255 12256 12257 
3 12258 12259 12260 
3 12261 12262 12263 
3 12264 12265 12266 
3 12267 12268 12269 
3 12270 12271 12272 
3 12273 12274 12275 
3 12276 12277 12278 
3 12279 12280 12281 
3 12282 12283 12284 
3 12285 12286 12287 
3 12288 12289 12290 
3 12291 12292 12293 
3 12294 12295 12296 
3 12297 12298 12299 
3 12300 12301 12302 
3 12303 12304 12305 
3 12306 12307 12308 
3 12309 12310 12311 
3 12312 12313 12314 
3 12315 12316 12317 
3 12318 12319 12320 
3 12321 12322 12323 
3 12324 12325 12326 
3 12327 12328 12329 
3 12330 12331 12332 
3 12333 12334 12335 
3 12336 12337 12338 
3 12339 12340 12341 
3 12342 12343 12344 
3 12345 12346 12347 
3 12348 12349 12350 
3 12351 12352 12353 
3 12354 12355 12356 
3 12357 12358 12359 
3 12360 12361 12362 
3 12363 12364 12365 
3 12366 12367 12368 
3 12369 12370 12371 
3 12372 12373 12374 
3 12375 12376 12377 
3 12378 12379 12380 
3 12381 12382 12383 
3 12384 12385 12386 
3 12387 12388 12389 
3 12390 12391 12392 
3 12393 12394 12395 
3 12396 12397 12398 
3 12399 12400 12401 
3 12402 12403 12404 
3 12405 12406 12407 
3 12408 12409 12410 
3 12411 12412 12413 
3 12414 12415 12416 
3 12417 12418 12419 
3 12420 12421 12422 
3 12423 12424 12425 
3 12426 12427 12428 
3 12429 12430 12431 
3 12432 12433 12434 
3 12435 12436 12437 
3 12438 12439 12440 
3 12441 12442 12443 
3 12444 12445 12446 
3 12447 12448 12449 
3 12450 12451 12452 
3 12453 12454 12455 
3 12456 12457 12458 
3 12459 12460 12461 
3 12462 12463 12464 
3 12465 12466 12467 
3 12468 12469 12470 
3 12471 12472 12473 
3 12474 12475 12476 
3 12477 12478 12479 
3 12480 12481 12482 
3 12483 12484 12485 
3 12486 12487 12488 
3 12489 12490 12491 
3 12492 12493 12494 
3 12495 12496 12497 
3 12498 12499 12500 
3 12501 12502 12503 
3 12504 12505 12506 
3 12507 12508 12509 
3 12510 12511 12512 
3 12513 12514 12515 
3 12516 12517 12518 
3 12519 12520 12521 
3 12522 12523 12524 
3 12525 12526 12527 
3 12528 12529 12530 
3 12531 12532 12533 
3 12534 12535 12536 
3 12537 12538 12539 
3 12540 12541 12542 
3 12543 12544 12545 
3 12546 12547 12548 
3 12549 12550 12551 
3 12552 12553 12554 
3 12555 12556 12557 
3 12558 12559 12560 
3 12561 12562 12563 
3 12564 12565 12566 
3 12567 12568 12569 
3 12570 12571 12572 
3 12573 12574 12575 
3 12576 12577 12578 
3 12579 12580 12581 
3 12582 12583 12584 
3 12585 12586 12587 
3 12588 12589 12590 
3 12591 12592 12593 
3 12594 12595 12596 
3 12597 12598 12599 
3 12600 12601 12602 
3 12603 12604 12605 
3 12606 12607 12608 
3 12609 12610 12611 
3 12612 12613 12614 
3 12615 12616 12617 
3 12618 12619 12620 
3 12621 12622 12623 
3 12624 12625 12626 
3 12627 12628 12629 
3 12630 12631 12632 
3 12633 12634 12635 
3 12636 12637 12638 
3 12639 12640 12641 
3 12642 12643 12644 
3 12645 12646 12647 
3 12648 12649 12650 
3 12651 12652 12653 
3 12654 12655 12656 
3 12657 12658 12659 
3 12660 12661 12662 
3 12663 12664 12665 
3 12666 12667 12668 
3 12669 12670 12671 
3 12672 12673 12674 
3 12675 12676 12677 
3 12678 12679 12680 
3 12681 12682 12683 
3 12684 12685 12686 
3 12687 12688 12689 
3 12690 12691 12692 
3 12693 12694 12695 
3 12696 12697 12698 
3 12699 12700 12701 
3 12702 12703 12704 
3 12705 12706 12707 
3 12708 12709 12710 
3 12711 12712 12713 
3 12714 12715 12716 
3 12717 12718 12719 
3 12720 12721 12722 
3 12723 12724 12725 
3 12726 12727 12728 
3 12729 12730 12731 
3 12732 12733 12734 
3 12735 12736 12737 
3 12738 12739 12740 
3 12741 12742 12743 
3 12744 12745 12746 
3 12747 12748 12749 
3 12750 12751 12752 
3 12753 12754 12755 
3 12756 12757 12758 
3 12759 12760 12761 
3 12762 12763 12764 
3 12765 12766 12767 
3 12768 12769 12770 
3 12771 12772 12773 
3 12774 12775 12776 
3 12777 12778 12779 
3 12780 12781 12782 
3 12783 12784 12785 
3 12786 12787 12788 
3 12789 12790 12791 
3 12792 12793 12794 
3 12795 12796 12797 
3 12798 12799 12800 
3 12801 12802 12803 
3 12804 12805 12806 
3 12807 12808 12809 
3 12810 12811 12812 
3 12813 12814 12815 
3 12816 12817 12818 
3 12819 12820 12821 
3 12822 12823 12824 
3 12825 12826 12827 
3 12828 12829 12830 
3 12831 12832 12833 
3 12834 12835 12836 
3 12837 12838 12839 
3 12840 12841 12842 
3 12843 12844 12845 
3 12846 12847 12848 
3 12849 12850 12851 
3 12852 12853 12854 
3 12855 12856 12857 
3 12858 12859 12860 
3 12861 12862 12863 
3 12864 12865 12866 
3 12867 12868 12869 
3 12870 12871 12872 
3 12873 12874 12875 
3 12876 12877 12878 
3 12879 12880 12881 
3 12882 12883 12884 
3 12885 12886 12887 
3 12888 12889 12890 
3 12891 12892 12893 
3 12894 12895 12896 
3 12897 12898 12899 
3 12900 12901 12902 
3 12903 12904 12905 
3 12906 12907 12908 
3 12909 12910 12911 
3 12912 12913 12914 
3 12915 12916 12917 
3 12918 12919 12920 
3 12921 12922 12923 
3 12924 12925 12926 
3 12927 12928 12929 
3 12930 12931 12932 
3 12933 12934 12935 
3 12936 12937 12938 
3 12939 12940 12941 
3 12942 12943 12944 
3 12945 12946 12947 
3 12948 12949 12950 
3 12951 12952 12953 
3 12954 12955 12956 
3 12957 12958 12959 
3 12960 12961 12962 
3 12963 12964 12965 
3 12966 12967 12968 
3 12969 12970 12971 
3 12972 12973 12974 
3 12975 12976 12977 
3 12978 12979 12980 
3 12981 12982 12983 
3 12984 12985 12986 
3 12987 12988 12989 
3 12990 12991 12992 
3 12993 12994 12995 
3 12996 12997 12998 
3 12999 13000 13001 
3 13002 13003 13004 
3 13005 13006 13007 
3 13008 13009 13010 
3 13011 13012 13013 
3 13014 13015 13016 
3 13017 13018 13019 
3 13020 13021 13022 
3 13023 13024 13025 
3 13026 13027 13028 
3 13029 13030 13031 
3 13032 13033 13034 
3 13035 13036 13037 
3 13038 13039 13040 
3 13041 13042 13043 
3 13044 13045 13046 
3 13047 13048 13049 
3 13050 13051 13052 
3 13053 13054 13055 
3 13056 13057 13058 
3 13059 13060 13061 
3 13062 13063 13064 
3 13065 13066 13067 
3 13068 13069 13070 
3 13071 13072 13073 
3 13074 13075 13076 
3 13077 13078 13079 
3 13080 13081 13082 
3 13083 13084 13085 
3 13086 13087 13088 
3 13089 13090 13091 
3 13092 13093 13094 
3 13095 13096 13097 
3 13098 13099 13100 
3 13101 13102 13103 
3 13104 13105 13106 
3 13107 13108 13109 
3 13110 13111 13112 
3 13113 13114 13115 
3 13116 13117 13118 
3 13119 13120 13121 
3 13122 13123 13124 
3 13125 13126 13127 
3 13128 13129 13130 
3 13131 13132 13133 
3 13134 13135 13136 
3 13137 13138 13139 
3 13140 13141 13142 
3 13143 13144 13145 
3 13146 13147 13148 
3 13149 13150 13151 
3 13152 13153 13154 
3 13155 13156 13157 
3 13158 13159 13160 
3 13161 13162 13163 
3 13164 13165 13166 
3 13167 13168 13169 
3 13170 13171 13172 
3 13173 13174 13175 
3 13176 13177 13178 
3 13179 13180 13181 
3 13182 13183 13184 
3 13185 13186 13187 
3 13188 13189 13190 
3 13191 13192 13193 
3 13194 13195 13196 
3 13197 13198 13199 
3 13200 13201 13202 
3 13203 13204 13205 
3 13206 13207 13208 
3 13209 13210 13211 
3 13212 13213 13214 
3 13215 13216 13217 
3 13218 13219 13220 
3 13221 13222 13223 
3 13224 13225 13226 
3 13227 13228 13229 
3 13230 13231 13232 
3 13233 13234 13235 
3 13236 13237 13238 
3 13239 13240 13241 
3 13242 13243 13244 
3 13245 13246 13247 
3 13248 13249 13250 
3 13251 13252 13253 
3 13254 13255 13256 
3 13257 13258 13259 
3 13260 13261 13262 
3 13263 13264 13265 
3 13266 13267 13268 
3 13269 13270 13271 
3 13272 13273 13274 
3 13275 13276 13277 
3 13278 13279 13280 
3 13281 13282 13283 
3 13284 13285 13286 
3 13287 13288 13289 
3 13290 13291 13292 
3 13293 13294 13295 
3 13296 13297 13298 
3 13299 13300 13301 
3 13302 13303 13304 
3 13305 13306 13307 
3 13308 13309 13310 
3 13311 13312 13313 
3 13314 13315 13316 
3 13317 13318 13319 
3 13320 13321 13322 
3 13323 13324 13325 
3 13326 13327 13328 
3 13329 13330 13331 
3 13332 13333 13334 
3 13335 13336 13337 
3 13338 13339 13340 
3 13341 13342 13343 
3 13344 13345 13346 
3 13347 13348 13349 
3 13350 13351 13352 
3 13353 13354 13355 
3 13356 13357 13358 
3 13359 13360 13361 
3 13362 13363 13364 
3 13365 13366 13367 
3 13368 13369 13370 
3 13371 13372 13373 
3 13374 13375 13376 
3 13377 13378 13379 
3 13380 13381 13382 
3 13383 13384 13385 
3 13386 13387 13388 
3 13389 13390 13391 
3 13392 13393 13394 
3 13395 13396 13397 
3 13398 13399 13400 
3 13401 13402 13403 
3 13404 13405 13406 
3 13407 13408 13409 
3 13410 13411 13412 
3 13413 13414 13415 
3 13416 13417 13418 
3 13419 13420 13421 
3 13422 13423 13424 
3 13425 13426 13427 
3 13428 13429 13430 
3 13431 13432 13433 
3 13434 13435 13436 
3 13437 13438 13439 
3 13440 13441 13442 
3 13443 13444 13445 
3 13446 13447 13448 
3 13449 13450 13451 
3 13452 13453 13454 
3 13455 13456 13457 
3 13458 13459 13460 
3 13461 13462 13463 
3 13464 13465 13466 
3 13467 13468 13469 
3 13470 13471 13472 
3 13473 13474 13475 
3 13476 13477 13478 
3 13479 13480 13481 
3 13482 13483 13484 
3 13485 13486 13487 
3 13488 13489 13490 
3 13491 13492 13493 
3 13494 13495 13496 
3 13497 13498 13499 
3 13500 13501 13502 
3 13503 13504 13505 
3 13506 13507 13508 
3 13509 13510 13511 
3 13512 13513 13514 
3 13515 13516 13517 
3 13518 13519 13520 
3 13521 13522 13523 
3 13524 13525 13526 
3 13527 13528 13529 
3 13530 13531 13532 
3 13533 13534 13535 
3 13536 13537 13538 
3 13539 13540 13541 
3 13542 13543 13544 
3 13545 13546 13547 
3 13548 13549 13550 
3 13551 13552 13553 
3 13554 13555 13556 
3 13557 13558 13559 
3 13560 13561 13562 
3 13563 13564 13565 
3 13566 13567 13568 
3 13569 13570 13571 
3 13572 13573 13574 
3 13575 13576 13577 
3 13578 13579 13580 
3 13581 13582 13583 
3 13584 13585 13586 
3 13587 13588 13589 
3 13590 13591 13592 
3 13593 13594 13595 
3 13596 13597 13598 
3 13599 13600 13601 
3 13602 13603 13604 
3 13605 13606 13607 
3 13608 13609 13610 
3 13611 13612 13613 
3 13614 13615 13616 
3 13617 13618 13619 
3 13620 13621 13622 
3 13623 13624 13625 
3 13626 13627 13628 
3 13629 13630 13631 
3 13632 13633 13634 
3 13635 13636 13637 
3 13638 13639 13640 
3 13641 13642 13643 
3 13644 13645 13646 
3 13647 13648 13649 
3 13650 13651 13652 
3 13653 13654 13655 
3 13656 13657 13658 
3 13659 13660 13661 
3 13662 13663 13664 
3 13665 13666 13667 
3 13668 13669 13670 
3 13671 13672 13673 
3 13674 13675 13676 
3 13677 13678 13679 
3 13680 13681 13682 
3 13683 13684 13685 
3 13686 13687 13688 
3 13689 13690 13691 
3 13692 13693 13694 
3 13695 13696 13697 
3 13698 13699 13700 
3 13701 13702 13703 
3 13704 13705 13706 
3 13707 13708 13709 
3 13710 13711 13712 
3 13713 13714 13715 
3 13716 13717 13718 
3 13719 13720 13721 
3 13722 13723 13724 
3 13725 13726 13727 
3 13728 13729 13730 
3 13731 13732 13733 
3 13734 13735 13736 
3 13737 13738 13739 
3 13740 13741 13742 
3 13743 13744 13745 
3 13746 13747 13748 
3 13749 13750 13751 
3 13752 13753 13754 
3 13755 13756 13757 
3 13758 13759 13760 
3 13761 13762 13763 
3 13764 13765 13766 
3 13767 13768 13769 
3 13770 13771 13772 
3 13773 13774 13775 
3 13776 13777 13778 
3 13779 13780 13781 
3 13782 13783 13784 
3 13785 13786 13787 
3 13788 13789 13790 
3 13791 13792 13793 
3 13794 13795 13796 
3 13797 13798 13799 
3 13800 13801 13802 
3 13803 13804 13805 
3 13806 13807 13808 
3 13809 13810 13811 
3 13812 13813 13814 
3 13815 13816 13817 
3 13818 13819 13820 
3 13821 13822 13823 
3 13824 13825 13826 
3 13827 13828 13829 
3 13830 13831 13832 
3 13833 13834 13835 
3 13836 13837 13838 
3 13839 13840 13841 
3 13842 13843 13844 
3 13845 13846 13847 
3 13848 13849 13850 
3 13851 13852 13853 
3 13854 13855 13856 
3 13857 13858 13859 
3 13860 13861 13862 
3 13863 13864 13865 
3 13866 13867 13868 
3 13869 13870 13871 
3 13872 13873 13874 
3 13875 13876 13877 
3 13878 13879 13880 
3 13881 13882 13883 
3 13884 13885 13886 
3 13887 13888 13889 
3 13890 13891 13892 
3 13893 13894 13895 
3 13896 13897 13898 
3 13899 13900 13901 
3 13902 13903 13904 
3 13905 13906 13907 
3 13908 13909 13910 
3 13911 13912 13913 
3 13914 13915 13916 
3 13917 13918 13919 
3 13920 13921 13922 
3 13923 13924 13925 
3 13926 13927 13928 
3 13929 13930 13931 
3 13932 13933 13934 
3 13935 13936 13937 
3 13938 13939 13940 
3 13941 13942 13943 
3 13944 13945 13946 
3 13947 13948 13949 
3 13950 13951 13952 
3 13953 13954 13955 
3 13956 13957 13958 
3 13959 13960 13961 
3 13962 13963 13964 
3 13965 13966 13967 
3 13968 13969 13970 
3 13971 13972 13973 
3 13974 13975 13976 
3 13977 13978 13979 
3 13980 13981 13982 
3 13983 13984 13985 
3 13986 13987 13988 
3 13989 13990 13991 
3 13992 13993 13994 
3 13995 13996 13997 
3 13998 13999 14000 
3 14001 14002 14003 
3 14004 14005 14006 
3 14007 14008 14009 
3 14010 14011 14012 
3 14013 14014 14015 
3 14016 14017 14018 
3 14019 14020 14021 
3 14022 14023 14024 
3 14025 14026 14027 
3 14028 14029 14030 
3 14031 14032 14033 
3 14034 14035 14036 
3 14037 14038 14039 
3 14040 14041 14042 
3 14043 14044 14045 
3 14046 14047 14048 
3 14049 14050 14051 
3 14052 14053 14054 
3 14055 14056 14057 
3 14058 14059 14060 
3 14061 14062 14063 
3 14064 14065 14066 
3 14067 14068 14069 
3 14070 14071 14072 
3 14073 14074 14075 
3 14076 14077 14078 
3 14079 14080 14081 
3 14082 14083 14084 
3 14085 14086 14087 
3 14088 14089 14090 
3 14091 14092 14093 
3 14094 14095 14096 
3 14097 14098 14099 
3 14100 14101 14102 
3 14103 14104 14105 
3 14106 14107 14108 
3 14109 14110 14111 
3 14112 14113 14114 
3 14115 14116 14117 
3 14118 14119 14120 
3 14121 14122 14123 
3 14124 14125 14126 
3 14127 14128 14129 
3 14130 14131 14132 
3 14133 14134 14135 
3 14136 14137 14138 
3 14139 14140 14141 
3 14142 14143 14144 
3 14145 14146 14147 
3 14148 14149 14150 
3 14151 14152 14153 
3 14154 14155 14156 
3 14157 14158 14159 
3 14160 14161 14162 
3 14163 14164 14165 
3 14166 14167 14168 
3 14169 14170 14171 
3 14172 14173 14174 
3 14175 14176 14177 
3 14178 14179 14180 
3 14181 14182 14183 
3 14184 14185 14186 
3 14187 14188 14189 
3 14190 14191 14192 
3 14193 14194 14195 
3 14196 14197 14198 
3 14199 14200 14201 
3 14202 14203 14204 
3 14205 14206 14207 
3 14208 14209 14210 
3 14211 14212 14213 
3 14214 14215 14216 
3 14217 14218 14219 
3 14220 14221 14222 
3 14223 14224 14225 
3 14226 14227 14228 
3 14229 14230 14231 
3 14232 14233 14234 
3 14235 14236 14237 
3 14238 14239 14240 
3 14241 14242 14243 
3 14244 14245 14246 
3 14247 14248 14249 
3 14250 14251 14252 
3 14253 14254 14255 
3 14256 14257 14258 
3 14259 14260 14261 
3 14262 14263 14264 
3 14265 14266 14267 
3 14268 14269 14270 
3 14271 14272 14273 
3 14274 14275 14276 
3 14277 14278 14279 
3 14280 14281 14282 
3 14283 14284 14285 
3 14286 14287 14288 
3 14289 14290 14291 
3 14292 14293 14294 
3 14295 14296 14297 
3 14298 14299 14300 
3 14301 14302 14303 
3 14304 14305 14306 
3 14307 14308 14309 
3 14310 14311 14312 
3 14313 14314 14315 
3 14316 14317 14318 
3 14319 14320 14321 
3 14322 14323 14324 
3 14325 14326 14327 
3 14328 14329 14330 
3 14331 14332 14333 
3 14334 14335 14336 
3 14337 14338 14339 
3 14340 14341 14342 
3 14343 14344 14345 
3 14346 14347 14348 
3 14349 14350 14351 
3 14352 14353 14354 
3 14355 14356 14357 
3 14358 14359 14360 
3 14361 14362 14363 
3 14364 14365 14366 
3 14367 14368 14369 
3 14370 14371 14372 
3 14373 14374 14375 
3 14376 14377 14378 
3 14379 14380 14381 
3 14382 14383 14384 
3 14385 14386 14387 
3 14388 14389 14390 
3 14391 14392 14393 
3 14394 14395 14396 
3 14397 14398 14399 
3 14400 14401 14402 
3 14403 14404 14405 
3 14406 14407 14408 
3 14409 14410 14411 
3 14412 14413 14414 
3 14415 14416 14417 
3 14418 14419 14420 
3 14421 14422 14423 
3 14424 14425 14426 
3 14427 14428 14429 
3 14430 14431 14432 
3 14433 14434 14435 
3 14436 14437 14438 
3 14439 14440 14441 
3 14442 14443 14444 
3 14445 14446 14447 
3 14448 14449 14450 
3 14451 14452 14453 
3 14454 14455 14456 
3 14457 14458 14459 
3 14460 14461 14462 
3 14463 14464 14465 
3 14466 14467 14468 
3 14469 14470 14471 
3 14472 14473 14474 
3 14475 14476 14477 
3 14478 14479 14480 
3 14481 14482 14483 
3 14484 14485 14486 
3 14487 14488 14489 
3 14490 14491 14492 
3 14493 14494 14495 
3 14496 14497 14498 
3 14499 14500 14501 
3 14502 14503 14504 
3 14505 14506 14507 
3 14508 14509 14510 
3 14511 14512 14513 
3 14514 14515 14516 
3 14517 14518 14519 
3 14520 14521 14522 
3 14523 14524 14525 
3 14526 14527 14528 
3 14529 14530 14531 
3 14532 14533 14534 
3 14535 14536 14537 
3 14538 14539 14540 
3 14541 14542 14543 
3 14544 14545 14546 
3 14547 14548 14549 
3 14550 14551 14552 
3 14553 14554 14555 
3 14556 14557 14558 
3 14559 14560 14561 
3 14562 14563 14564 
3 14565 14566 14567 
3 14568 14569 14570 
3 14571 14572 14573 
3 14574 14575 14576 
3 14577 14578 14579 
3 14580 14581 14582 
3 14583 14584 14585 
3 14586 14587 14588 
3 14589 14590 14591 
3 14592 14593 14594 
3 14595 14596 14597 
3 14598 14599 14600 
3 14601 14602 14603 
3 14604 14605 14606 
3 14607 14608 14609 
3 14610 14611 14612 
3 14613 14614 14615 
3 14616 14617 14618 
3 14619 14620 14621 
3 14622 14623 14624 
3 14625 14626 14627 
3 14628 14629 14630 
3 14631 14632 14633 
3 14634 14635 14636 
3 14637 14638 14639 
3 14640 14641 14642 
3 14643 14644 14645 
3 14646 14647 14648 
3 14649 14650 14651 
3 14652 14653 14654 
3 14655 14656 14657 
3 14658 14659 14660 
3 14661 14662 14663 
3 14664 14665 14666 
3 14667 14668 14669 
3 14670 14671 14672 
3 14673 14674 14675 
3 14676 14677 14678 
3 14679 14680 14681 
3 14682 14683 14684 
3 14685 14686 14687 
3 14688 14689 14690 
3 14691 14692 14693 
3 14694 14695 14696 
3 14697 14698 14699 
3 14700 14701 14702 
3 14703 14704 14705 
3 14706 14707 14708 
3 14709 14710 14711 
3 14712 14713 14714 
3 14715 14716 14717 
3 14718 14719 14720 
3 14721 14722 14723 
3 14724 14725 14726 
3 14727 14728 14729 
3 14730 14731 14732 
3 14733 14734 14735 
3 14736 14737 14738 
3 14739 14740 14741 
3 14742 14743 14744 
3 14745 14746 14747 
3 14748 14749 14750 
3 14751 14752 14753 
3 14754 14755 14756 
3 14757 14758 14759 
3 14760 14761 14762 
3 14763 14764 14765 
3 14766 14767 14768 
3 14769 14770 14771 
3 14772 14773 14774 
3 14775 14776 14777 
3 14778 14779 14780 
3 14781 14782 14783 
3 14784 14785 14786 
3 14787 14788 14789 
3 14790 14791 14792 
3 14793 14794 14795 
3 14796 14797 14798 
3 14799 14800 14801 
3 14802 14803 14804 
3 14805 14806 14807 
3 14808 14809 14810 
3 14811 14812 14813 
3 14814 14815 14816 
3 14817 14818 14819 
3 14820 14821 14822 
3 14823 14824 14825 
3 14826 14827 14828 
3 14829 14830 14831 
3 14832 14833 14834 
3 14835 14836 14837 
3 14838 14839 14840 
3 14841 14842 14843 
3 14844 14845 14846 
3 14847 14848 14849 
3 14850 14851 14852 
3 14853 14854 14855 
3 14856 14857 14858 
3 14859 14860 14861 
3 14862 14863 14864 
3 14865 14866 14867 
3 14868 14869 14870 
3 14871 14872 14873 
3 14874 14875 14876 
3 14877 14878 14879 
3 14880 14881 14882 
3 14883 14884 14885 
3 14886 14887 14888 
3 14889 14890 14891 
3 14892 14893 14894 
3 14895 14896 14897 
3 14898 14899 14900 
3 14901 14902 14903 
3 14904 14905 14906 
3 14907 14908 14909 
3 14910 14911 14912 
3 14913 14914 14915 
3 14916 14917 14918 
3 14919 14920 14921 
3 14922 14923 14924 
3 14925 14926 14927 
3 14928 14929 14930 
3 14931 14932 14933 
3 14934 14935 14936 
3 14937 14938 14939 
3 14940 14941 14942 
3 14943 14944 14945 
3 14946 14947 14948 
3 14949 14950 14951 
3 14952 14953 14954 
3 14955 14956 14957 
3 14958 14959 14960 
3 14961 14962 14963 
3 14964 14965 14966 
3 14967 14968 14969 
3 14970 14971 14972 
3 14973 14974 14975 
3 14976 14977 14978 
3 14979 14980 14981 
3 14982 14983 14984 
3 14985 14986 14987 
3 14988 14989 14990 
3 14991 14992 14993 
3 14994 14995 14996 
3 14997 14998 14999 
3 15000 15001 15002 
3 15003 15004 15005 
3 15006 15007 15008 
3 15009 15010 15011 
3 15012 15013 15014 
3 15015 15016 15017 
3 15018 15019 15020 
3 15021 15022 15023 
3 15024 15025 15026 
3 15027 15028 15029 
3 15030 15031 15032 
3 15033 15034 15035 
3 15036 15037 15038 
3 15039 15040 15041 
3 15042 15043 15044 
3 15045 15046 15047 
3 15048 15049 15050 
3 15051 15052 15053 
3 15054 15055 15056 
3 15057 15058 15059 
3 15060 15061 15062 
3 15063 15064 15065 
3 15066 15067 15068 
3 15069 15070 15071 
3 15072 15073 15074 
3 15075 15076 15077 
3 15078 15079 15080 
3 15081 15082 15083 
3 15084 15085 15086 
3 15087 15088 15089 
3 15090 15091 15092 
3 15093 15094 15095 
3 15096 15097 15098 
3 15099 15100 15101 
3 15102 15103 15104 
3 15105 15106 15107 
3 15108 15109 15110 
3 15111 15112 15113 
3 15114 15115 15116 
3 15117 15118 15119 
3 15120 15121 15122 
3 15123 15124 15125 
3 15126 15127 15128 
3 15129 15130 15131 
3 15132 15133 15134 
3 15135 15136 15137 
3 15138 15139 15140 
3 15141 15142 15143 
3 15144 15145 15146 
3 15147 15148 15149 
3 15150 15151 15152 
3 15153 15154 15155 
3 15156 15157 15158 
3 15159 15160 15161 
3 15162 15163 15164 
3 15165 15166 15167 
3 15168 15169 15170 
3 15171 15172 15173 
3 15174 15175 15176 
3 15177 15178 15179 
3 15180 15181 15182 
3 15183 15184 15185 
3 15186 15187 15188 
3 15189 15190 15191 
3 15192 15193 15194 
3 15195 15196 15197 
3 15198 15199 15200 
3 15201 15202 15203 
3 15204 15205 15206 
3 15207 15208 15209 
3 15210 15211 15212 
3 15213 15214 15215 
3 15216 15217 15218 
3 15219 15220 15221 
3 15222 15223 15224 
3 15225 15226 15227 
3 15228 15229 15230 
3 15231 15232 15233 
3 15234 15235 15236 
3 15237 15238 15239 
3 15240 15241 15242 
3 15243 15244 15245 
3 15246 15247 15248 
3 15249 15250 15251 
3 15252 15253 15254 
3 15255 15256 15257 
3 15258 15259 15260 
3 15261 15262 15263 
3 15264 15265 15266 
3 15267 15268 15269 
3 15270 15271 15272 
3 15273 15274 15275 
3 15276 15277 15278 
3 15279 15280 15281 
3 15282 15283 15284 
3 15285 15286 15287 
3 15288 15289 15290 
3 15291 15292 15293 
3 15294 15295 15296 
3 15297 15298 15299 
3 15300 15301 15302 
3 15303 15304 15305 
3 15306 15307 15308 
3 15309 15310 15311 
3 15312 15313 15314 
3 15315 15316 15317 
3 15318 15319 15320 
3 15321 15322 15323 
3 15324 15325 15326 
3 15327 15328 15329 
3 15330 15331 15332 
3 15333 15334 15335 
3 15336 15337 15338 
3 15339 15340 15341 
3 15342 15343 15344 
3 15345 15346 15347 
3 15348 15349 15350 
3 15351 15352 15353 
3 15354 15355 15356 
3 15357 15358 15359 
3 15360 15361 15362 
3 15363 15364 15365 
3 15366 15367 15368 
3 15369 15370 15371 
3 15372 15373 15374 
3 15375 15376 15377 
3 15378 15379 15380 
3 15381 15382 15383 
3 15384 15385 15386 
3 15387 15388 15389 
3 15390 15391 15392 
3 15393 15394 15395 
3 15396 15397 15398 
3 15399 15400 15401 
3 15402 15403 15404 
3 15405 15406 15407 
3 15408 15409 15410 
3 15411 15412 15413 
3 15414 15415 15416 
3 15417 15418 15419 
3 15420 15421 15422 
3 15423 15424 15425 
3 15426 15427 15428 
3 15429 15430 15431 
3 15432 15433 15434 
3 15435 15436 15437 
3 15438 15439 15440 
3 15441 15442 15443 
3 15444 15445 15446 
3 15447 15448 15449 
3 15450 15451 15452 
3 15453 15454 15455 
3 15456 15457 15458 
3 15459 15460 15461 
3 15462 15463 15464 
3 15465 15466 15467 
3 15468 15469 15470 
3 15471 15472 15473 
3 15474 15475 15476 
3 15477 15478 15479 
3 15480 15481 15482 
3 15483 15484 15485 
3 15486 15487 15488 
3 15489 15490 15491 
3 15492 15493 15494 
3 15495 15496 15497 
3 15498 15499 15500 
3 15501 15502 15503 
3 15504 15505 15506 
3 15507 15508 15509 
3 15510 15511 15512 
3 15513 15514 15515 
3 15516 15517 15518 
3 15519 15520 15521 
3 15522 15523 15524 
3 15525 15526 15527 
3 15528 15529 15530 
3 15531 15532 15533 
3 15534 15535 15536 
3 15537 15538 15539 
3 15540 15541 15542 
3 15543 15544 15545 
3 15546 15547 15548 
3 15549 15550 15551 
3 15552 15553 15554 
3 15555 15556 15557 
3 15558 15559 15560 
3 15561 15562 15563 
3 15564 15565 15566 
3 15567 15568 15569 
3 15570 15571 15572 
3 15573 15574 15575 
3 15576 15577 15578 
3 15579 15580 15581 
3 15582 15583 15584 
3 15585 15586 15587 
3 15588 15589 15590 
3 15591 15592 15593 
3 15594 15595 15596 
3 15597 15598 15599 
3 15600 15601 15602 
3 15603 15604 15605 
3 15606 15607 15608 
3 15609 15610 15611 
3 15612 15613 15614 
3 15615 15616 15617 
3 15618 15619 15620 
3 15621 15622 15623 
3 15624 15625 15626 
3 15627 15628 15629 
3 15630 15631 15632 
3 15633 15634 15635 
3 15636 15637 15638 
3 15639 15640 15641 
3 15642 15643 15644 
3 15645 15646 15647 
3 15648 15649 15650 
3 15651 15652 15653 
3 15654 15655 15656 
3 15657 15658 15659 
3 15660 15661 15662 
3 15663 15664 15665 
3 15666 15667 15668 
3 15669 15670 15671 
3 15672 15673 15674 
3 15675 15676 15677 
3 15678 15679 15680 
3 15681 15682 15683 
3 15684 15685 15686 
3 15687 15688 15689 
3 15690 15691 15692 
3 15693 15694 15695 
3 15696 15697 15698 
3 15699 15700 15701 
3 15702 15703 15704 
3 15705 15706 15707 
3 15708 15709 15710 
3 15711 15712 15713 
3 15714 15715 15716 
3 15717 15718 15719 
3 15720 15721 15722 
3 15723 15724 15725 
3 15726 15727 15728 
3 15729 15730 15731 
3 15732 15733 15734 
3 15735 15736 15737 
3 15738 15739 15740 
3 15741 15742 15743 
3 15744 15745 15746 
3 15747 15748 15749 
3 15750 15751 15752 
3 15753 15754 15755 
3 15756 15757 15758 
3 15759 15760 15761 
3 15762 15763 15764 
3 15765 15766 15767 
3 15768 15769 15770 
3 15771 15772 15773 
3 15774 15775 15776 
3 15777 15778 15779 
3 15780 15781 15782 
3 15783 15784 15785 
3 15786 15787 15788 
3 15789 15790 15791 
3 15792 15793 15794 
3 15795 15796 15797 
3 15798 15799 15800 
3 15801 15802 15803 
3 15804 15805 15806 
3 15807 15808 15809 
3 15810 15811 15812 
3 15813 15814 15815 
3 15816 15817 15818 
3 15819 15820 15821 
3 15822 15823 15824 
3 15825 15826 15827 
3 15828 15829 15830 
3 15831 15832 15833 
3 15834 15835 15836 
3 15837 15838 15839 
3 15840 15841 15842 
3 15843 15844 15845 
3 15846 15847 15848 
3 15849 15850 15851 
3 15852 15853 15854 
3 15855 15856 15857 
3 15858 15859 15860 
3 15861 15862 15863 
3 15864 15865 15866 
3 15867 15868 15869 
3 15870 15871 15872 
3 15873 15874 15875 
3 15876 15877 15878 
3 15879 15880 15881 
3 15882 15883 15884 
3 15885 15886 15887 
3 15888 15889 15890 
3 15891 15892 15893 
3 15894 15895 15896 
3 15897 15898 15899 
3 15900 15901 15902 
3 15903 15904 15905 
3 15906 15907 15908 
3 15909 15910 15911 
3 15912 15913 15914 
3 15915 15916 15917 
3 15918 15919 15920 
3 15921 15922 15923 
3 15924 15925 15926 
3 15927 15928 15929 
3 15930 15931 15932 
3 15933 15934 15935 
3 15936 15937 15938 
3 15939 15940 15941 
3 15942 15943 15944 
3 15945 15946 15947 
3 15948 15949 15950 
3 15951 15952 15953 
3 15954 15955 15956 
3 15957 15958 15959 
3 15960 15961 15962 
3 15963 15964 15965 
3 15966 15967 15968 
3 15969 15970 15971 
3 15972 15973 15974 
3 15975 15976 15977 
3 15978 15979 15980 
3 15981 15982 15983 
3 15984 15985 15986 
3 15987 15988 15989 
3 15990 15991 15992 
3 15993 15994 15995 
3 15996 15997 15998 
3 15999 16000 16001 
3 16002 16003 16004 
3 16005 16006 16007 
3 16008 16009 16010 
3 16011 16012 16013 
3 16014 16015 16016 
3 16017 16018 16019 
3 16020 16021 16022 
3 16023 16024 16025 
3 16026 16027 16028 
3 16029 16030 16031 
3 16032 16033 16034 
3 16035 16036 16037 
3 16038 16039 16040 
3 16041 16042 16043 
3 16044 16045 16046 
3 16047 16048 16049 
3 16050 16051 16052 
3 16053 16054 16055 
3 16056 16057 16058 
3 16059 16060 16061 
3 16062 16063 16064 
3 16065 16066 16067 
3 16068 16069 16070 
3 16071 16072 16073 
3 16074 16075 16076 
3 16077 16078 16079 
3 16080 16081 16082 
3 16083 16084 16085 
3 16086 16087 16088 
3 16089 16090 16091 
3 16092 16093 16094 
3 16095 16096 16097 
3 16098 16099 16100 
3 16101 16102 16103 
3 16104 16105 16106 
3 16107 16108 16109 
3 16110 16111 16112 
3 16113 16114 16115 
3 16116 16117 16118 
3 16119 16120 16121 
3 16122 16123 16124 
3 16125 16126 16127 
3 16128 16129 16130 
3 16131 16132 16133 
3 16134 16135 16136 
3 16137 16138 16139 
3 16140 16141 16142 
3 16143 16144 16145 
3 16146 16147 16148 
3 16149 16150 16151 
3 16152 16153 16154 
3 16155 16156 16157 
3 16158 16159 16160 
3 16161 16162 16163 
3 16164 16165 16166 
3 16167 16168 16169 
3 16170 16171 16172 
3 16173 16174 16175 
3 16176 16177 16178 
3 16179 16180 16181 
3 16182 16183 16184 
3 16185 16186 16187 
3 16188 16189 16190 
3 16191 16192 16193 
3 16194 16195 16196 
3 16197 16198 16199 
3 16200 16201 16202 
3 16203 16204 16205 
3 16206 16207 16208 
3 16209 16210 16211 
3 16212 16213 16214 
3 16215 16216 16217 
3 16218 16219 16220 
3 16221 16222 16223 
3 16224 16225 16226 
3 16227 16228 16229 
3 16230 16231 16232 
3 16233 16234 16235 
3 16236 16237 16238 
3 16239 16240 16241 
3 16242 16243 16244 
3 16245 16246 16247 
3 16248 16249 16250 
3 16251 16252 16253 
3 16254 16255 16256 
3 16257 16258 16259 
3 16260 16261 16262 
3 16263 16264 16265 
3 16266 16267 16268 
3 16269 16270 16271 
3 16272 16273 16274 
3 16275 16276 16277 
3 16278 16279 16280 
3 16281 16282 16283 
3 16284 16285 16286 
3 16287 16288 16289 
3 16290 16291 16292 
3 16293 16294 16295 
3 16296 16297 16298 
3 16299 16300 16301 
3 16302 16303 16304 
3 16305 16306 16307 
3 16308 16309 16310 
3 16311 16312 16313 
3 16314 16315 16316 
3 16317 16318 16319 
3 16320 16321 16322 
3 16323 16324 16325 
3 16326 16327 16328 
3 16329 16330 16331 
3 16332 16333 16334 
3 16335 16336 16337 
3 16338 16339 16340 
3 16341 16342 16343 
3 16344 16345 16346 
3 16347 16348 16349 
3 16350 16351 16352 
3 16353 16354 16355 
3 16356 16357 16358 
3 16359 16360 16361 
3 16362 16363 16364 
3 16365 16366 16367 
3 16368 16369 16370 
3 16371 16372 16373 
3 16374 16375 16376 
3 16377 16378 16379 
3 16380 16381 16382 
3 16383 16384 16385 
3 16386 16387 16388 
3 16389 16390 16391 
3 16392 16393 16394 
3 16395 16396 16397 
3 16398 16399 16400 
3 16401 16402 16403 
3 16404 16405 16406 
3 16407 16408 16409 
3 16410 16411 16412 
3 16413 16414 16415 
3 16416 16417 16418 
3 16419 16420 16421 
3 16422 16423 16424 
3 16425 16426 16427 
3 16428 16429 16430 
3 16431 16432 16433 
3 16434 16435 16436 
3 16437 16438 16439 
3 16440 16441 16442 
3 16443 16444 16445 
3 16446 16447 16448 
3 16449 16450 16451 
3 16452 16453 16454 
3 16455 16456 16457 
3 16458 16459 16460 
3 16461 16462 16463 
3 16464 16465 16466 
3 16467 16468 16469 
3 16470 16471 16472 
3 16473 16474 16475 
3 16476 16477 16478 
3 16479 16480 16481 
3 16482 16483 16484 
3 16485 16486 16487 
3 16488 16489 16490 
3 16491 16492 16493 
3 16494 16495 16496 
3 16497 16498 16499 
3 16500 16501 16502 
3 16503 16504 16505 
3 16506 16507 16508 
3 16509 16510 16511 
3 16512 16513 16514 
3 16515 16516 16517 
3 16518 16519 16520 
3 16521 16522 16523 
3 16524 16525 16526 
3 16527 16528 16529 
3 16530 16531 16532 
3 16533 16534 16535 
3 16536 16537 16538 
3 16539 16540 16541 
3 16542 16543 16544 
3 16545 16546 16547 
3 16548 16549 16550 
3 16551 16552 16553 
3 16554 16555 16556 
3 16557 16558 16559 
3 16560 16561 16562 
3 16563 16564 16565 
3 16566 16567 16568 
3 16569 16570 16571 
3 16572 16573 16574 
3 16575 16576 16577 
3 16578 16579 16580 
3 16581 16582 16583 
3 16584 16585 16586 
3 16587 16588 16589 
3 16590 16591 16592 
3 16593 16594 16595 
3 16596 16597 16598 
3 16599 16600 16601 
3 16602 16603 16604 
3 16605 16606 16607 
3 16608 16609 16610 
3 16611 16612 16613 
3 16614 16615 16616 
3 16617 16618 16619 
3 16620 16621 16622 
3 16623 16624 16625 
3 16626 16627 16628 
3 16629 16630 16631 
3 16632 16633 16634 
3 16635 16636 16637 
3 16638 16639 16640 
3 16641 16642 16643 
3 16644 16645 16646 
3 16647 16648 16649 
3 16650 16651 16652 
3 16653 16654 16655 
3 16656 16657 16658 
3 16659 16660 16661 
3 16662 16663 16664 
3 16665 16666 16667 
3 16668 16669 16670 
3 16671 16672 16673 
3 16674 16675 16676 
3 16677 16678 16679 
3 16680 16681 16682 
3 16683 16684 16685 
3 16686 16687 16688 
3 16689 16690 16691 
3 16692 16693 16694 
3 16695 16696 16697 
3 16698 16699 16700 
3 16701 16702 16703 
3 16704 16705 16706 
3 16707 16708 16709 
3 16710 16711 16712 
3 16713 16714 16715 
3 16716 16717 16718 
3 16719 16720 16721 
3 16722 16723 16724 
3 16725 16726 16727 
3 16728 16729 16730 
3 16731 16732 16733 
3 16734 16735 16736 
3 16737 16738 16739 
3 16740 16741 16742 
3 16743 16744 16745 
3 16746 16747 16748 
3 16749 16750 16751 
3 16752 16753 16754 
3 16755 16756 16757 
3 16758 16759 16760 
3 16761 16762 16763 
3 16764 16765 16766 
3 16767 16768 16769 
3 16770 16771 16772 
3 16773 16774 16775 
3 16776 16777 16778 
3 16779 16780 16781 
3 16782 16783 16784 
3 16785 16786 16787 
3 16788 16789 16790 
3 16791 16792 16793 
3 16794 16795 16796 
3 16797 16798 16799 
3 16800 16801 16802 
3 16803 16804 16805 
3 16806 16807 16808 
3 16809 16810 16811 
3 16812 16813 16814 
3 16815 16816 16817 
3 16818 16819 16820 
3 16821 16822 16823 
3 16824 16825 16826 
3 16827 16828 16829 
3 16830 16831 16832 
3 16833 16834 16835 
3 16836 16837 16838 
3 16839 16840 16841 
3 16842 16843 16844 
3 16845 16846 16847 
3 16848 16849 16850 
3 16851 16852 16853 
3 16854 16855 16856 
3 16857 16858 16859 
3 16860 16861 16862 
3 16863 16864 16865 
3 16866 16867 16868 
3 16869 16870 16871 
3 16872 16873 16874 
3 16875 16876 16877 
3 16878 16879 16880 
3 16881 16882 16883 
3 16884 16885 16886 
3 16887 16888 16889 
3 16890 16891 16892 
3 16893 16894 16895 
3 16896 16897 16898 
3 16899 16900 16901 
3 16902 16903 16904 
3 16905 16906 16907 
3 16908 16909 16910 
3 16911 16912 16913 
3 16914 16915 16916 
3 16917 16918 16919 
3 16920 16921 16922 
3 16923 16924 16925 
3 16926 16927 16928 
3 16929 16930 16931 
3 16932 16933 16934 
3 16935 16936 16937 
3 16938 16939 16940 
3 16941 16942 16943 
3 16944 16945 16946 
3 16947 16948 16949 
3 16950 16951 16952 
3 16953 16954 16955 
3 16956 16957 16958 
3 16959 16960 16961 
3 16962 16963 16964 
3 16965 16966 16967 
3 16968 16969 16970 
3 16971 16972 16973 
3 16974 16975 16976 
3 16977 16978 16979 
3 16980 16981 16982 
3 16983 16984 16985 
3 16986 16987 16988 
3 16989 16990 16991 
3 16992 16993 16994 
3 16995 16996 16997 
3 16998 16999 17000 
3 17001 17002 17003 
3 17004 17005 17006 
3 17007 17008 17009 
3 17010 17011 17012 
3 17013 17014 17015 
3 17016 17017 17018 
3 17019 17020 17021 
3 17022 17023 17024 
3 17025 17026 17027 
3 17028 17029 17030 
3 17031 17032 17033 
3 17034 17035 17036 
3 17037 17038 17039 
3 17040 17041 17042 
3 17043 17044 17045 
3 17046 17047 17048 
3 17049 17050 17051 
3 17052 17053 17054 
3 17055 17056 17057 
3 17058 17059 17060 
3 17061 17062 17063 
3 17064 17065 17066 
3 17067 17068 17069 
3 17070 17071 17072 
3 17073 17074 17075 
3 17076 17077 17078 
3 17079 17080 17081 
3 17082 17083 17084 
3 17085 17086 17087 
3 17088 17089 17090 
3 17091 17092 17093 
3 17094 17095 17096 
3 17097 17098 17099 
3 17100 17101 17102 
3 17103 17104 17105 
3 17106 17107 17108 
3 17109 17110 17111 
3 17112 17113 17114 
3 17115 17116 17117 
3 17118 17119 17120 
3 17121 17122 17123 
3 17124 17125 17126 
3 17127 17128 17129 
3 17130 17131 17132 
3 17133 17134 17135 
3 17136 17137 17138 
3 17139 17140 17141 
3 17142 17143 17144 
3 17145 17146 17147 
3 17148 17149 17150 
3 17151 17152 17153 
3 17154 17155 17156 
3 17157 17158 17159 
3 17160 17161 17162 
3 17163 17164 17165 
3 17166 17167 17168 
3 17169 17170 17171 
3 17172 17173 17174 
3 17175 17176 17177 
3 17178 17179 17180 
3 17181 17182 17183 
3 17184 17185 17186 
3 17187 17188 17189 
3 17190 17191 17192 
3 17193 17194 17195 
3 17196 17197 17198 
3 17199 17200 17201 
3 17202 17203 17204 
3 17205 17206 17207 
3 17208 17209 17210 
3 17211 17212 17213 
3 17214 17215 17216 
3 17217 17218 17219 
3 17220 17221 17222 
3 17223 17224 17225 
3 17226 17227 17228 
3 17229 17230 17231 

CELL_DATA 5744
FIELD FieldData 5
normal_stress_average 1 5744 double
0 0 0 0 0 0 0 0 0 
0 0 0 0 0 0 0 0 0 
0 0 0 0 0 0 0 0 0 
0 0 0 0 0 0 0 0 0 
0 0 0 0 0 0 0 0 0 
0 0 0 0 0 0 0 0 0 
0 0 0 0 0 0 0 0 0 
0 0 0 0 0 0 0 0 0 
0 0 0 0 0 0 0 0 0 
0 0 0 0 0 0 0 0 0 
0 0 0 0 0 0 0 0 0 
0 0 0 0 0 0 0 0 0 
0 0 0 0 0 0 0 0 0 
0 0 0 0 0 0 0 0 0 
0 0 0 0 0 0 0 0 0 
0 0 0 0 0 0 0 0 0 
0 0 0 0 0 0 0 0 0 
0 0 0 0 0 0 0 0 0 
0 0 0 0 0 0 0 0 0 
0 0 0 0 0 0 0 0 0 
0 0 0 0 0 0 0 0 0 
0 0 0 0 0 0 0 0 0 
0 0 0 0 0 0 0 0 0 
0 0 0 0 0 0 0 0 0 
0 0 0 0 0 0 0 0 0 
0 0 0 0 0 0 0 0 0 
0 0 0 0 0 0 0 0 0 
0 0 0 0 0 0 0 0 0 
0 0 0 0 0 0 0 0 -0 
-0 -0 -0 -0 -0 -0 -0 -0 -0 
-0 -0 -0 -0 -0 -0 -0 -0 -0 
-0 -0 -0 -0 -0 -0 -0 -0 -0 
-0 -0 -0 -0 -0 -0 -0 -0 -0 
-0 -0 -0 -0 -0 -0 -0 -0 -0 
-0 -0 -0 -0 -0 -0 -0 -0 -0 
-0 -0 -0 -0 -0 -0 -0 -0 -0 
-0 -0 -0 -0 0 0 0 0 0 
0 0 0 0 0 0 0 0 0 
0 0 0 0 0 0 0 0 0 
0 0 0 0 0 0 0 0 0 
0 0 0 0 0 0 0 0 0 
0 0 0 0 0 0 0 0 0 
0 0 0 0 0 0 0 0 0 
0 0 0 0 0 0 0 0 0 
0 0 0 0 0 0 0 0 0 
0 0 0 0 0 0 0 0 0 
0 0 0 0 0 0 0 0 0 
0 0 0 0 0 0 0 0 0 
0 0 0 0 0 0 0 0 0 
0 0 0 0 0 0 0 0 0 
0 0 0 0 0 0 0 0 0 
0 0 0 0 0 0 0 0 0 
0 0 0 0 0 0 0 0 0 
0 0 0 0 0 0 0 0 0 
0 0 0 0 0 0 0 -0 -0 
-0 -0 -0 -0 -0 -0 -0 -0 -0 
-0 -0 -0 -0 -0 -0 -0 -0 -0 
-0 -0 -0 -0 -0 -0 -0 -0 -0 
-0 -0 -0 -0 -0 -0 -0 -0 0 
0 0 0 0 0 0 0 0 0 
0 0 0 0 -0 -0 -0 0 0 
0 0 0 0 0 0 0 0 0 
0 0 0 0 0 0 0 0 0 
0 0 0 0 0 0 0 0 0 
0 0 0 0 0 0 0 0 0 
0 0 0 -0 -0 -0 -0 -0 -0 
-0 -0 -0 -0 -0 -0 -0 0 0 
0 0 0 0 0 0 0 0 0 
0 0 0 0 0 0 0 0 0 
0 0 0 0 0 0 0 0 0 
0 0 0 0 0 0 0 0 0 
0 0 0 0 0 0 -0 -0 -0 
-0 -0 -0 -0 -0 -0 -0 -0 -0 
-0 -0 0 0 0 0 0 0 0 
0 0 -0 0 0 0 0 0 0 
0 0 0 0 0 0 0 0 0 
0 0 0 0 0 0 0 0 0 
0 0 0 0 0 0 0 0 0 
0 0 0 0 0 0 0 0 0 
0 0 0 0 0 0 -0 -0 -0 
-0 -0 -0 -0 -0 -0 -0 -0 -0 
-0 -0 -0 0 0 0 0 0 0 
0 0 0 0 0 0 0 0 0 
0 0 0 0 0 0 0 0 0 
-0 -0 -0 -0 -0 0 0 0 0 
0 0 0 0 0 0 0 0 0 
0 0 0 0 0 0 0 0 0 
0 0 0 0 0 0 0 0 0 
0 0 -0 -0 -0 -0 -0 -0 -0 
-0 -0 -0 -0 0 0 0 0 0 
0 0 0 0 0 0 0 0 0 
0 0 0 0 0 0 -0 -0 -0 
-0 -0 -0 -0 0 0 0 0 0 
0 0 0 0 0 0 0 0 0 
0 0 0 0 0 0 0 0 0 
0 0 0 0 0 0 0 0 0 
0 0 0 0 0 0 0 0 -0 
-0 -0 -0 -0 -0 -0 -0 -0 -0 
-0 -0 0 0 0 0 0 0 -0 
-0 -0 0 0 0 0 0 0 0 
0 0 0 0 0 0 0 0 0 
0 0 0 0 0 0 0 0 0 
0 0 0 0 0 0 0 0 0 
0 0 0 0 0 0 0 0 0 
0 -0 -0 -0 -0 -0 -0 -0 -0 
-0 -0 -0 0 0 0 0 -0 -0 
-0 -0 -0 -0 -0 -0 -0 -0 -0 
-0 0 0 0 0 0 0 0 0 
0 0 0 0 0 0 0 0 0 
0 0 0 0 0 0 0 0 0 
0 0 0 0 0 0 0 0 0 
0 0 0 0 0 0 0 0 0 
0 0 0 0 -0 0 0 0 0 
0 -0 -0 -0 -0 -0 -0 -0 -0 
-0 -0 -0 -0 0 0 0 0 0 
0 0 0 0 0 0 0 0 0 
0 0 0 0 0 0 0 0 0 
0 0 0 0 0 0 0 0 0 
0 0 0 0 0 0 0 0 0 
-0 -0 -0 -0 0 0 0 0 0 
0 0 0 0 0 0 0 0 0 
0 -0 -0 -0 -0 -0 -0 -0 -0 
-0 0 0 0 0 0 0 0 0 
0 0 0 0 0 0 0 0 0 
0 0 0 0 0 0 0 0 0 
0 0 0 -0 -0 -0 -0 0 0 
0 0 0 0 0 0 0 0 0 
0 0 0 0 0 0 0 0 0 
0 0 -0 -0 -0 -0 -0 -0 -0 
-0 -0 -0 -0 -0 -0 -0 -0 0 
0 0 0 0 0 0 0 0 0 
0 0 0 0 0 0 0 0 0 
0 0 0 0 0 0 0 0 0 
0 0 0 0 0 0 0 0 0 
0 0 0 0 0 0 -0 -0 0 
0 0 0 0 0 0 0 0 0 
0 0 -0 -0 -0 -0 -0 -0 -0 
-0 -0 -0 -0 -0 -0 -0 -0 -0 
-0 -0 -0 0 0 0 0 0 0 
0 0 0 0 0 0 0 0 0 
0 0 0 0 0 0 0 0 0 
0 0 0 0 0 0 0 0 0 
0 0 0 0 0 0 0 0 0 
-0 -0 -0 -0 -0 -0 -0 -0 -0 
-0 -0 -0 -0 0 0 0 0 0 
0 0 0 0 0 0 0 0 0 
0 0 0 0 0 0 0 0 0 
0 0 0 0 0 0 0 0 0 
0 0 0 0 -0 0 0 0 0 
0 0 0 -0 -0 -0 -0 -0 -0 
-0 -0 -0 -0 -0 -0 -0 -0 -0 
-0 -0 -0 -0 -0 -0 -0 -0 -0 
0 0 0 0 0 0 0 0 0 
0 0 0 0 0 0 0 0 0 
0 0 0 0 0 0 0 0 0 
0 0 0 0 0 0 0 0 0 
0 0 0 0 0 0 0 0 0 
0 0 0 0 0 0 0 0 0 
0 0 0 0 0 0 0 0 0 
0 0 0 0 0 0 0 0 0 
0 0 0 0 0 0 0 0 0 
0 0 0 0 0 0 0 0 0 
0 0 0 0 0 0 0 -0 -0 
-0 -0 -0 -0 -0 -0 -0 -0 -0 
-0 -0 51745366.277 70745063.388 56459012.694 47433206.852 29855955.056 8613240.8475 0 
436705.65064 0 0 0 0 0 0 0 0 
0 0 0 0 0 0 0 0 0 
0 0 0 0 0 -0 -0 -0 25313686.381 
26045991.905 11592991.402 0 0 0 0 0 0 0 
-0 -0 0 0 0 0 0 0 0 
0 0 -0 10373766.628 1167172.2845 11071559.98 0 0 0 
0 0 0 0 0 0 0 -0 -0 
-0 15620019.2 11559850.664 15256030.384 21039009.443 0 0 0 0 
0 0 0 0 0 0 0 -0 -0 
-0 1793496.0177 0 0 0 0 0 0 0 
0 0 16559306.725 1188764.4805 11431950.921 0 0 0 0 
0 0 0 0 0 0 0 0 0 
-0 -0 -0 -0 -0 0 0 0 0 
0 0 0 0 0 0 0 0 0 
0 0 0 0 -0 -0 -0 0 0 
0 0 0 0 0 0 -0 -0 -0 
-0 -0 -0 -0 0 0 0 0 0 
0 0 0 0 0 0 0 0 0 
0 0 -0 -0 -0 -0 -0 0 0 
0 0 0 0 0 0 0 0 0 
0 0 0 0 0 0 -0 -0 -0 
-0 0 0 0 0 0 0 0 0 
0 0 0 0 0 0 0 0 0 
0 -0 -0 -0 -0 -0 0 0 0 
0 0 0 0 0 0 0 0 0 
0 0 0 0 0 0 0 0 -0 
-0 -0 -0 0 0 0 0 0 0 
0 0 0 0 0 0 0 0 0 
0 -0 -0 -0 -0 -0 -0 -0 0 
0 0 0 0 0 0 0 0 0 
0 0 0 0 0 0 0 0 0 
0 0 0 -0 -0 -0 0 0 0 
0 0 0 0 0 0 0 0 0 
0 0 0 0 -0 -0 -0 -0 -0 
-0 -0 -0 -0 -0 0 0 0 0 
0 0 0 0 0 0 0 0 0 
0 0 0 0 0 0 0 0 0 
0 -0 -0 -0 -0 0 0 0 0 
0 0 0 0 0 0 0 0 0 
0 0 0 0 0 0 0 0 0 
0 0 -0 -0 -0 -0 -0 -0 -0 
-0 -0 -0 0 0 0 0 0 0 
0 0 0 0 0 0 0 0 0 
0 0 0 0 0 -0 -0 -0 -0 
-0 -0 -0 -0 -0 -0 -0 -0 0 
0 0 0 0 0 0 0 0 0 
0 0 0 0 0 0 0 0 0 
0 0 0 0 0 0 0 0 0 
0 0 -0 0 0 0 0 0 0 
0 0 0 0 0 0 0 0 0 
0 0 0 0 0 0 0 0 0 
0 0 -0 -0 -0 -0 -0 -0 -0 
-0 -0 -0 -0 -0 0 0 0 0 
0 0 0 0 0 0 0 0 0 
0 0 0 0 0 0 0 0 0 
-0 -0 -0 -0 -0 -0 -0 -0 -0 
-0 -0 0 0 0 0 0 0 0 
0 0 0 0 0 0 0 0 0 
0 0 0 0 0 0 0 0 0 
0 0 0 0 0 0 0 -0 -0 
-0 -0 -0 -0 0 0 0 0 0 
0 0 0 0 0 0 0 0 0 
0 0 0 0 0 0 0 0 0 
0 0 0 0 0 0 0 0 0 
-0 -0 -0 -0 -0 -0 -0 0 0 
0 0 0 0 0 0 0 0 0 
0 0 0 0 0 0 0 0 0 
0 0 0 0 0 0 0 0 0 
0 0 0 0 0 0 0 0 0 
-0 -0 -0 -0 -0 -0 -0 -0 -0 
-0 -0 0 0 0 0 0 0 0 
0 0 0 0 0 0 0 0 0 
0 0 0 0 0 0 0 0 -0 
-0 -0 -0 -0 0 0 0 0 0 
0 0 0 0 0 0 0 0 0 
0 0 0 0 0 0 0 0 0 
0 0 0 0 0 0 0 0 0 
0 0 0 -0 -0 -0 -0 -0 -0 
-0 -0 -0 -0 0 0 0 0 0 
0 0 0 0 0 0 0 0 0 
0 0 0 0 0 0 0 0 0 
0 0 0 0 0 0 0 0 0 
0 0 0 0 0 0 0 0 0 
0 0 0 0 0 0 0 0 0 
0 -0 -0 -0 -0 -0 -0 -0 -0 
-0 -0 -0 -0 -0 -0 0 0 0 
0 0 0 0 0 0 0 0 0 
0 0 0 0 0 0 0 0 0 
0 0 0 0 0 0 0 0 0 
0 0 0 -0 -0 -0 -0 -0 -0 
-0 -0 -0 -0 -0 -0 -0 -0 0 
0 0 0 0 0 0 0 0 0 
0 0 0 0 0 0 0 0 0 
0 0 0 0 0 0 0 0 0 
0 0 0 0 0 0 0 0 0 
0 -0 -0 -0 -0 -0 -0 0 0 
0 0 0 0 0 0 0 0 0 
0 0 0 0 0 0 0 0 0 
0 0 0 0 0 0 0 0 0 
0 0 0 -0 -0 -0 -0 -0 -0 
-0 -0 0 0 0 0 0 0 0 
0 0 0 0 0 0 0 0 0 
0 0 0 0 0 0 0 0 0 
0 0 0 0 0 -0 -0 -0 -0 
-0 -0 -0 -0 -0 -0 -0 -0 -0 
0 0 0 0 0 0 0 0 0 
0 0 0 0 0 0 0 0 0 
0 0 0 0 0 0 0 0 0 
0 0 0 0 0 0 0 0 0 
0 0 0 -0 -0 -0 -0 -0 -0 
-0 -0 0 0 0 0 0 0 0 
0 0 0 0 0 0 0 0 0 
0 0 0 0 0 0 0 0 0 
0 0 0 0 0 0 0 0 -0 
-0 -0 -0 -0 -0 -0 0 0 0 
0 0 0 0 0 0 0 0 0 
0 0 0 0 0 0 0 0 0 
0 0 0 0 0 0 0 0 0 
0 -0 -0 -0 -0 -0 -0 -0 -0 
-0 0 0 0 0 0 0 0 0 
0 0 0 0 0 0 0 0 0 
0 0 0 0 0 0 0 0 0 
0 0 -0 -0 -0 -0 -0 -0 -0 
-0 -0 -0 -0 -0 0 0 0 0 
0 0 0 0 0 0 0 0 0 
0 0 0 0 0 0 0 0 0 
0 0 0 0 0 0 0 -0 0 
0 0 0 0 0 0 0 0 0 
0 0 0 0 0 0 0 0 0 
0 0 0 0 0 0 0 0 0 
0 0 0 -0 -0 -0 -0 -0 -0 
-0 -0 -0 -0 -0 -0 -0 0 0 
0 0 0 0 0 0 0 0 0 
0 0 0 0 0 -0 -0 -0 -0 
-0 -0 -0 0 0 0 0 0 0 
0 0 0 0 0 0 0 0 0 
0 0 0 0 0 0 0 0 0 
0 0 0 0 0 0 -0 -0 -0 
-0 -0 0 0 0 0 0 0 0 
0 0 0 0 0 0 0 0 0 
0 0 0 0 0 0 0 0 0 
0 -0 -0 -0 -0 -0 -0 -0 -0 
-0 -0 -0 0 0 0 0 0 0 
0 0 0 0 0 0 0 0 0 
0 0 -0 -0 -0 0 0 0 0 
0 0 0 0 0 0 0 0 0 
0 0 0 0 0 0 0 0 -0 
-0 -0 -0 -0 -0 -0 -0 -0 0 
0 0 0 0 0 0 0 0 0 
0 0 0 0 0 0 -0 -0 -0 
-0 -0 0 0 0 0 0 0 0 
0 0 0 0 0 0 0 0 0 
0 0 0 0 0 0 0 -0 -0 
-0 -0 -0 -0 -0 0 0 0 0 
0 0 0 0 0 0 0 -0 -0 
-0 -0 -0 0 0 0 0 0 0 
0 0 0 0 0 0 0 0 -0 
-0 -0 -0 -0 -0 0 0 0 0 
0 0 0 0 0 0 0 0 0 
0 0 0 0 -0 -0 -0 -0 0 
0 0 0 0 0 0 0 -0 0 
0 0 0 0 0 0 0 0 0 
0 0 0 0 0 0 0 0 0 
0 0 -0 -0 -0 -0 -0 -0 -0 
0 0 0 0 0 0 0 0 7235750.0887 
4601195.1814 0 0 0 0 0 0 -0 -0 
-0 0 0 0 0 0 0 0 0 
0 0 0 0 2467437.694 3876010.3378 3394400.3259 25284203.296 -0 
-0 -0 0 0 0 0 0 0 0 
2126908.0131 11315518.558 39501927.857 19011286.824 2570142.3581 -0 -0 0 0 
0 0 0 0 0 -0 0 0 0 
0 0 0 1077701.3197 13446252.849 25990148.276 -0 -0 -0 
0 0 0 0 0 0 0 0 0 
0 0 0 0 7384660.5414 87586120.906 16498890.602 -0 -0 
-0 -0 0 0 0 0 0 0 0 
0 0 0 0 0 0 0 0 0 
0 0 0 0 0 0 0 0 0 
0 0 0 0 0 0 0 0 0 
0 0 0 0 0 0 0 0 0 
0 0 0 0 0 0 0 0 0 
0 0 0 0 0 0 0 0 0 
0 0 -0 -0 -0 -0 -0 -0 -0 
-0 -0 -0 -0 -0 -0 -0 -0 -0 
-0 -0 -0 -0 -0 -0 1275159.0414 523056.23278 518669.49463 
0 818072.219 0 0 0 0 0 0 0 
0 0 0 0 0 0 0 0 0 
0 0 0 0 0 0 0 0 0 
-0 -0 0 0 0 0 0 0 0 
0 0 0 0 0 0 0 0 0 
0 0 0 0 0 0 0 0 0 
0 0 0 0 0 0 0 0 0 
0 0 0 0 0 0 0 0 0 
0 0 0 0 0 0 0 0 0 
0 0 0 0 0 0 0 0 0 
0 0 0 0 0 0 0 0 0 
0 0 0 0 0 81585.551186 0 6156010.5112 2666462.6573 
3208133.5863 4466362.4024 8855208.0296 13837556.472 6804332.2709 7043484.7858 748596.73774 2411734.1333 1737182.5923 
104801.05528 13960255.974 7275221.2012 2657852.569 5737163.218 11335880.94 4271987.1384 1543793.0845 13069461.977 
5489470.7442 6596854.9943 1518435.4386 5649761.7607 73791.561444 3381473.6894 3023859.3463 11112165.792 8455703.4229 
1640201.1883 10190655.654 600240.11112 12396043.866 8431692.7284 2531406.1363 7682074.0504 10652320.681 13395750.689 
944169.30732 3961548.8999 6869033.8634 1034570.962 7614577.5201 1949469.3589 942308.81335 195683.96824 112138.03145 
-0 -0 -0 -0 -0 -0 -0 -0 -0 
-0 -0 -0 -0 -0 -0 -0 -0 -0 
-0 -0 -0 -0 -0 -0 -0 -0 0 
0 0 0 0 0 0 0 0 0 
0 0 0 0 0 0 0 0 0 
0 0 0 0 0 0 0 0 0 
0 0 0 0 0 0 0 0 0 
0 0 0 0 0 0 0 0 0 
0 0 0 0 0 0 0 0 0 
0 0 0 0 0 0 0 0 0 
0 0 0 0 0 0 0 0 0 
0 0 0 0 0 0 0 0 0 
0 0 0 0 0 0 0 0 0 
0 0 0 0 0 0 0 0 0 
0 0 0 0 0 0 0 0 0 
0 0 0 0 0 0 0 0 0 
0 0 0 0 0 0 0 0 0 
0 0 0 0 0 0 0 0 0 
0 0 0 0 0 0 0 0 0 
0 0 0 0 0 0 0 0 0 
0 0 0 0 0 0 0 0 0 
0 0 0 0 0 0 0 0 0 
0 0 0 0 0 0 0 0 0 
0 0 0 0 0 0 0 0 0 
0 0 0 0 0 0 0 0 0 
0 0 0 0 0 0 0 0 0 
0 0 0 0 0 0 0 0 0 
0 0 0 0 0 0 0 0 0 
0 0 0 0 0 0 0 2491660.3333 0 
0 0 0 0 0 0 0 0 0 
0 10862594.644 11592503.056 0 0 0 0 0 0 
0 0 0 0 125041.70433 -0 660777.0044 5078390.7372 8341345.5944 
0 3974625.5895 0 37104.027528 0 0 929946.05234 40803963.384 0 
4104531.1043 0 0 0 0 0 7423501.0027 0 9453236.9586 
0 0 14837550.557 35785927.753 29132700.839 0 11507868.12 0 26202341.42 
12910034.761 34145584.367 50546029.721 29205220.905 11610462.974 37060921.164 31392249.037 5706008.2243 26477361.941 
60629892.709 16120768.487 1888624.6383 36099450.128 23125187.432 0 0 0 0 
0 0 0 0 0 0 0 0 0 
0 0 0 2572270.5216 0 0 13066355.885 11125507.175 -0 
-0 -0 -0 -0 -0 -0 -0 -0 -0 
0 0 0 -0 0 0 0 0 0 
0 8989778.3259 893420.91473 0 0 0 4448539.362 14823566.746 0 
0 0 0 0 0 2147659.041 2005522.0466 4384579.8022 0 
0 0 0 0 0 0 0 0 0 
0 0 0 0 0 0 0 0 0 
0 0 0 0 0 0 0 0 0 
0 0 0 0 0 0 0 0 0 
0 0 0 0 0 0 0 0 0 
0 0 0 0 0 0 0 0 0 
0 0 0 0 0 0 0 0 0 
0 0 0 0 0 0 0 0 0 
0 0 0 0 0 0 0 0 0 
0 0 0 0 0 0 0 0 0 
0 0 0 0 0 0 0 0 0 
0 0 0 0 0 0 0 0 0 
0 0 0 0 0 0 0 0 0 
0 0 0 0 0 0 0 0 0 
0 0 0 0 0 0 0 0 0 
0 0 0 0 0 0 0 0 0 
0 0 0 0 0 0 0 0 0 
0 0 0 0 0 0 0 0 0 
0 0 0 0 0 0 0 0 0 
0 0 0 0 0 0 0 0 0 
0 0 0 0 0 0 0 0 0 
0 0 0 0 0 0 0 0 0 
0 0 0 0 0 0 0 0 0 
0 0 0 0 0 0 0 0 0 
0 0 0 0 0 0 0 0 0 
0 0 0 0 0 0 0 0 0 
0 0 0 0 0 0 0 0 0 
0 0 0 0 0 0 0 0 0 
0 0 0 0 0 0 0 0 0 
0 0 0 0 0 0 0 0 0 
0 0 0 0 0 0 0 0 0 
0 0 0 0 0 0 0 0 0 
0 0 0 0 0 0 0 0 0 
0 0 0 0 0 0 0 0 0 
0 0 0 0 0 0 0 0 0 
0 0 0 0 0 0 0 0 0 
0 0 0 0 0 0 0 0 0 
0 0 0 0 0 0 0 0 0 
0 0 0 0 0 0 0 0 0 
0 0 0 0 0 0 0 0 0 
0 0 0 0 0 0 0 0 0 
0 0 0 0 0 0 0 0 0 
0 0 0 0 0 0 0 0 0 
0 0 0 0 0 0 0 0 0 
0 0 0 0 0 0 0 0 0 
0 0 0 0 0 0 0 0 0 
0 0 0 0 0 0 0 0 0 
0 0 0 0 0 0 0 0 0 
0 0 0 0 0 0 0 0 0 
0 0 0 0 0 0 0 0 0 
0 0 0 0 0 0 0 0 0 
0 0 0 0 0 0 0 0 0 
0 0 0 0 0 0 0 0 0 
0 0 0 0 0 0 0 0 0 
0 0 0 0 0 0 0 0 0 
0 0 0 0 0 0 0 0 0 
0 0 0 0 0 0 0 0 0 
0 0 0 0 0 0 0 0 0 
0 0 0 0 0 0 0 0 0 
0 0 0 0 0 0 0 0 0 
0 0 0 0 0 0 0 0 0 
0 0 0 0 0 0 0 0 0 
0 0 0 0 0 0 0 0 0 
0 0 0 0 0 0 0 0 0 
0 0 0 0 0 0 0 0 0 
0 0 0 0 0 0 0 0 0 
0 0 0 0 0 0 0 0 0 
0 0 0 0 0 0 0 0 0 
0 0 0 0 0 0 0 0 0 
0 0 0 0 0 0 0 0 0 
0 0 0 0 0 0 0 0 0 
0 0 0 0 0 0 0 0 0 
0 0 0 0 0 0 0 0 0 
0 0 0 0 0 0 0 0 0 
0 0 0 0 0 0 0 0 0 
0 0 0 0 0 0 0 0 0 
0 0 0 0 0 0 0 0 0 
0 0 0 0 0 0 0 0 0 
0 0 0 0 0 0 0 0 0 
0 0 0 0 0 0 0 0 0 
0 0 0 0 0 0 0 0 0 
0 0 0 0 0 0 0 0 0 
0 0 0 0 0 0 0 0 0 
0 0 0 0 0 0 0 0 0 
0 0 0 0 0 0 0 0 0 
0 0 0 0 0 0 0 0 0 
0 0 0 0 0 0 0 0 0 
0 0 0 0 0 0 0 0 0 
0 0 0 0 0 0 0 0 0 
0 0 0 0 0 0 0 0 0 
0 0 0 0 0 0 0 0 0 
0 0 0 0 0 0 0 0 0 
0 0 0 0 0 0 0 0 0 
0 0 0 0 0 0 0 0 0 
0 0 0 0 0 0 0 0 0 
0 0 0 0 0 0 0 0 0 
0 0 0 0 0 0 0 0 0 
0 0 0 0 0 0 0 0 0 
0 0 0 0 0 0 0 0 0 
0 0 0 0 0 0 0 0 0 
0 0 0 0 0 0 0 0 0 
0 0 0 0 0 0 0 0 0 
0 0 0 0 0 0 0 0 0 
0 0 0 0 0 0 0 0 0 
0 0 -0 0 0 0 0 0 0 
0 0 0 0 0 0 0 0 0 
0 0 0 0 0 0 0 0 0 
0 0 0 0 0 0 0 0 0 
0 0 0 0 0 0 0 -0 -0 
-0 -0 -0 -0 -0 -0 -0 -0 -0 
-0 -0 -0 -0 -0 -0 -0 -0 -0 
-0 -0 -0 -0 -0 -0 -0 0 -0 
0 0 0 0 0 0 0 0 0 
0 0 0 0 0 0 0 0 0 
0 0 0 0 0 0 0 0 0 
0 0 0 0 0 0 0 0 0 
0 0 0 0 0 0 0 0 0 
0 0 0 0 0 0 0 0 0 
0 0 0 0 0 0 0 0 0 
0 0 0 0 0 0 0 0 0 
0 0 0 0 0 0 0 0 0 
0 0 0 0 0 0 0 0 0 
0 0 0 0 0 0 0 0 0 
0 0 0 0 0 0 0 0 0 
0 0 0 0 0 0 0 0 0 
0 0 0 0 0 0 0 0 0 
0 0 0 0 -0 0 -0 -0 -0 
-0 -0 -0 -0 -0 -0 -0 -0 -0 
-0 -0 -0 -0 -0 -0 -0 0 0 
0 0 0 0 0 0 0 0 0 
0 0 0 0 0 0 0 0 0 
0 0 0 0 0 0 0 0 0 
0 0 0 0 -0 -0 -0 0 0 
0 0 0 0 0 0 0 0 0 
0 0 0 0 0 0 0 0 0 
0 0 0 0 0 0 0 0 0 
0 0 0 0 0 0 0 0 0 
0 0 0 0 0 0 0 0 0 
0 0 0 0 0 0 0 0 0 
0 0 0 0 0 0 0 0 0 
0 0 0 0 0 0 0 0 0 
0 0 0 0 0 0 0 0 0 
0 0 0 0 0 0 0 0 0 
0 0 0 0 0 0 0 0 0 
0 0 0 0 0 0 0 0 0 
0 0 0 0 0 0 0 0 0 
0 0 0 0 0 0 0 0 0 
0 0 0 0 0 0 0 0 0 
0 0 0 0 0 0 0 0 0 
0 0 0 0 0 0 0 0 0 
0 0 0 0 0 0 0 0 0 
0 0 0 0 0 0 0 0 0 
0 0 0 0 0 0 0 0 0 
0 0 0 0 0 0 0 0 0 
0 0 0 0 0 0 0 0 0 
0 0 0 0 0 0 0 0 0 
0 0 0 0 0 0 0 0 0 
0 0 0 0 0 0 0 0 0 
0 0 0 0 0 0 0 0 0 
0 0 0 0 0 0 0 0 0 
0 0 0 0 0 0 0 0 0 
0 0 0 0 0 0 0 0 0 
0 0 0 0 0 0 0 0 0 
0 0 0 0 0 0 0 0 0 
0 0 0 0 0 0 0 0 0 
0 0 0 0 0 0 0 0 0 
0 0 0 0 0 0 0 0 0 
0 0 0 0 0 0 0 0 0 
0 0 0 0 0 0 0 0 0 
0 0 0 0 0 0 0 0 0 
0 0 0 0 0 0 0 0 0 
0 0 0 0 0 0 0 0 0 
0 0 0 0 0 0 0 0 0 
0 0 0 0 0 0 0 0 0 
0 0 0 0 0 0 0 0 0 
0 0 0 0 0 0 0 0 0 
0 0 0 0 0 0 0 0 0 
0 0 0 0 0 0 0 0 0 
0 0 0 0 0 0 0 0 0 
0 0 0 0 0 0 0 0 0 
0 0 0 0 0 0 0 0 0 
0 0 0 0 0 0 0 0 0 
0 0 0 0 0 0 0 0 0 
0 0 0 0 0 0 0 0 0 
0 0 0 0 0 0 0 0 0 
0 0 0 0 0 0 0 0 0 
0 0 0 0 0 0 0 0 0 
0 0 0 0 0 0 0 0 0 
0 0 0 0 0 0 0 0 0 
0 0 0 0 0 0 0 0 0 
0 0 0 0 0 0 0 0 0 
0 0 0 0 0 0 0 0 0 
0 0 0 0 0 0 0 0 0 
0 0 0 0 0 0 0 0 0 
0 0 0 0 0 0 0 0 0 
0 0 0 0 0 0 0 0 0 
0 0 0 0 0 0 0 0 0 
0 0 0 0 0 0 0 0 0 
0 0 0 0 0 0 0 0 0 
0 0 0 0 0 0 0 0 0 
0 0 0 -0 -0 -0 -0 -0 -0 
-0 -0 -0 -0 -0 -0 -0 -0 -0 
-0 -0 -0 -0 -0 -0 -0 -0 -0 
-0 -0 -0 -0 -0 -0 -0 -0 -0 
-0 -0 -0 -0 -0 -0 -0 -0 -0 
-0 -0 -0 -0 -0 -0 -0 -0 0 
0 0 0 0 0 0 0 0 0 
0 0 0 0 0 0 0 0 0 
0 0 0 0 0 0 0 0 0 
0 0 0 0 0 0 0 0 0 
0 0 0 0 0 0 0 0 0 
0 0 0 0 0 0 0 0 0 
0 0 0 0 0 0 0 0 0 
0 0 -0 -0 -0 -0 -0 -0 -0 
-0 -0 -0 -0 -0 -0 -0 -0 -0 
0 0 0 0 0 0 0 0 0 
0 0 0 0 0 0 0 0 0 
0 0 0 0 0 0 0 0 0 
0 0 0 0 0 0 0 0 0 
0 0 0 0 0 0 0 0 0 
0 0 0 0 0 0 0 0 0 
0 0 0 0 0 0 0 0 0 
0 0 0 0 0 0 0 0 0 
0 0 0 0 0 0 0 0 0 
0 0 0 0 0 0 0 0 0 
0 0 0 0 0 0 0 0 0 
0 0 0 0 0 0 0 0 0 
0 0 0 0 0 0 0 0 0 
0 0 0 0 0 0 0 0 0 
0 0 
shear_stress_average 1 5744 double
0 0 0 0 0 0 0 0 0 
0 0 0 0 0 0 0 0 0 
0 0 0 0 0 0 0 0 0 
0 0 0 0 0 0 0 0 0 
0 0 0 0 0 0 0 0 0 
0 0 0 0 0 0 0 0 0 
0 0 0 0 0 0 0 0 0 
0 0 0 0 0 0 0 0 0 
0 0 0 0 0 0 0 0 0 
0 0 0 0 0 0 0 0 0 
0 0 0 0 0 0 0 0 0 
0 0 0 0 0 0 0 0 0 
0 0 0 0 0 0 0 0 0 
0 0 0 0 0 0 0 0 0 
0 0 0 0 0 0 0 0 0 
0 0 0 0 0 0 0 0 0 
0 0 0 0 0 0 0 0 0 
0 0 0 0 0 0 0 0 0 
0 0 0 0 0 0 0 0 0 
0 0 0 0 0 0 0 0 0 
0 0 0 0 0 0 0 0 0 
0 0 0 0 0 0 0 0 0 
0 0 0 0 0 0 0 0 0 
0 0 0 0 0 0 0 0 0 
0 0 0 0 0 0 0 0 0 
0 0 0 0 0 0 0 0 0 
0 0 0 0 0 0 0 0 0 
0 0 0 0 0 0 0 0 0 
0 0 0 0 0 0 0 0 0 
0 0 0 0 0 0 0 0 0 
0 0 0 0 0 0 0 0 0 
0 0 0 0 0 0 0 0 0 
0 0 0 0 0 0 0 0 0 
0 0 0 0 0 0 0 0 0 
0 0 0 0 0 0 0 0 0 
0 0 0 0 0 0 0 0 0 
0 0 0 0 0 0 0 0 0 
0 0 0 0 0 0 0 0 0 
0 0 0 0 0 0 0 0 0 
0 0 0 0 0 0 0 0 0 
0 0 0 0 0 0 0 0 0 
0 0 0 0 0 0 0 0 0 
0 0 0 0 0 0 0 0 0 
0 0 0 0 0 0 0 0 0 
0 0 0 0 0 0 0 0 0 
0 0 0 0 0 0 0 0 0 
0 0 0 0 0 0 0 0 0 
0 0 0 0 0 0 0 0 0 
0 0 0 0 0 0 0 0 0 
0 0 0 0 0 0 0 0 0 
0 0 0 0 0 0 0 0 0 
0 0 0 0 0 0 0 0 0 
0 0 0 0 0 0 0 0 0 
0 0 0 0 0 0 0 0 0 
0 0 0 0 0 0 0 0 0 
0 0 0 0 0 0 0 0 0 
0 0 0 0 0 0 0 0 0 
0 0 0 0 0 0 0 0 0 
0 0 0 0 0 0 0 0 0 
0 0 0 0 0 0 0 0 0 
0 0 0 0 0 0 0 0 0 
0 0 0 0 0 0 0 0 0 
0 0 0 0 0 0 0 0 0 
0 0 0 0 0 0 0 0 0 
0 0 0 0 0 0 0 0 0 
0 0 0 0 0 0 0 0 0 
0 0 0 0 0 0 0 0 0 
0 0 0 0 0 0 0 0 0 
0 0 0 0 0 0 0 0 0 
0 0 0 0 0 0 0 0 0 
0 0 0 0 0 0 0 0 0 
0 0 0 0 0 0 0 0 0 
0 0 0 0 0 0 0 0 0 
0 0 0 0 0 0 0 0 0 
0 0 0 0 0 0 0 0 0 
0 0 0 0 0 0 0 0 0 
0 0 0 0 0 0 0 0 0 
0 0 0 0 0 0 0 0 0 
0 0 0 0 0 0 0 0 0 
0 0 0 0 0 0 0 0 0 
0 0 0 0 0 0 0 0 0 
0 0 0 0 0 0 0 0 0 
0 0 0 0 0 0 0 0 0 
0 0 0 0 0 0 0 0 0 
0 0 0 0 0 0 0 0 0 
0 0 0 0 0 0 0 0 0 
0 0 0 0 0 0 0 0 0 
0 0 0 0 0 0 0 0 0 
0 0 0 0 0 0 0 0 0 
0 0 0 0 0 0 0 0 0 
0 0 0 0 0 0 0 0 0 
0 0 0 0 0 0 0 0 0 
0 0 0 0 0 0 0 0 0 
0 0 0 0 0 0 0 0 0 
0 0 0 0 0 0 0 0 0 
0 0 0 0 0 0 0 0 0 
0 0 0 0 0 0 0 0 0 
0 0 0 0 0 0 0 0 0 
0 0 0 0 0 0 0 0 0 
0 0 0 0 0 0 0 0 0 
0 0 0 0 0 0 0 0 0 
0 0 0 0 0 0 0 0 0 
0 0 0 0 0 0 0 0 0 
0 0 0 0 0 0 0 0 0 
0 0 0 0 0 0 0 0 0 
0 0 0 0 0 0 0 0 0 
0 0 0 0 0 0 0 0 0 
0 0 0 0 0 0 0 0 0 
0 0 0 0 0 0 0 0 0 
0 0 0 0 0 0 0 0 0 
0 0 0 0 0 0 0 0 0 
0 0 0 0 0 0 0 0 0 
0 0 0 0 0 0 0 0 0 
0 0 0 0 0 0 0 0 0 
0 0 0 0 0 0 0 0 0 
0 0 0 0 0 0 0 0 0 
0 0 0 0 0 0 0 0 0 
0 0 0 0 0 0 0 0 0 
0 0 0 0 0 0 0 0 0 
0 0 0 0 0 0 0 0 0 
0 0 0 0 0 0 0 0 0 
0 0 0 0 0 0 0 0 0 
0 0 0 0 0 0 0 0 0 
0 0 0 0 0 0 0 0 0 
0 0 0 0 0 0 0 0 0 
0 0 0 0 0 0 0 0 0 
0 0 0 0 0 0 0 0 0 
0 0 0 0 0 0 0 0 0 
0 0 0 0 0 0 0 0 0 
0 0 0 0 0 0 0 0 0 
0 0 0 0 0 0 0 0 0 
0 0 0 0 0 0 0 0 0 
0 0 0 0 0 0 0 0 0 
0 0 0 0 0 0 0 0 0 
0 0 0 0 0 0 0 0 0 
0 0 0 0 0 0 0 0 0 
0 0 0 0 0 0 0 0 0 
0 0 0 0 0 0 0 0 0 
0 0 0 0 0 0 0 0 0 
0 0 0 0 0 0 0 0 0 
0 0 0 0 0 0 0 0 0 
0 0 0 0 0 0 0 0 0 
0 0 0 0 0 0 0 0 0 
0 0 0 0 0 0 0 0 0 
0 0 0 0 0 0 0 0 0 
0 0 0 0 0 0 0 0 0 
0 0 0 0 0 0 0 0 0 
0 0 0 0 0 0 0 0 0 
0 0 0 0 0 0 0 0 0 
0 0 0 0 0 0 0 0 0 
0 0 0 0 0 0 0 0 0 
0 0 0 0 0 0 0 0 0 
0 0 0 0 0 0 0 0 0 
0 0 0 0 0 0 0 0 0 
0 0 0 0 0 0 0 0 0 
0 0 0 0 0 0 0 0 0 
0 0 0 0 0 0 0 0 0 
0 0 0 0 0 0 0 0 0 
0 0 0 0 0 0 0 0 0 
0 0 0 0 0 0 0 0 0 
0 0 0 0 0 0 0 0 0 
0 0 0 0 0 0 0 0 0 
0 0 0 0 0 0 0 0 0 
0 0 0 0 0 0 0 0 0 
0 0 42256629.202 62460899.507 28229506.347 58359935.843 68575434.759 85250699.505 0 
218352.54777 0 0 0 0 0 0 0 0 
0 0 0 0 0 0 0 0 0 
0 0 0 0 0 0 0 0 12656823.504 
24582905.362 5796495.7008 0 0 0 0 0 0 0 
0 0 0 0 0 0 0 0 0 
0 0 0 20167707.813 9410552.3043 15335401.445 0 0 0 
0 0 0 0 0 0 0 0 0 
0 7810009.5999 29057634.653 16085403.456 10818146.771 0 0 0 0 
0 0 0 0 0 0 0 0 0 
0 896748.00885 0 0 0 0 0 0 0 
0 0 16360310.52 11575627.892 5715975.4605 0 0 0 0 
0 0 0 0 0 0 0 0 0 
0 0 0 0 0 0 0 0 0 
0 0 0 0 0 0 0 0 0 
0 0 0 0 0 0 0 0 0 
0 0 0 0 0 0 0 0 0 
0 0 0 0 0 0 0 0 0 
0 0 0 0 0 0 0 0 0 
0 0 0 0 0 0 0 0 0 
0 0 0 0 0 0 0 0 0 
0 0 0 0 0 0 0 0 0 
0 0 0 0 0 0 0 0 0 
0 0 0 0 0 0 0 0 0 
0 0 0 0 0 0 0 0 0 
0 0 0 0 0 0 0 0 0 
0 0 0 0 0 0 0 0 0 
0 0 0 0 0 0 0 0 0 
0 0 0 0 0 0 0 0 0 
0 0 0 0 0 0 0 0 0 
0 0 0 0 0 0 0 0 0 
0 0 0 0 0 0 0 0 0 
0 0 0 0 0 0 0 0 0 
0 0 0 0 0 0 0 0 0 
0 0 0 0 0 0 0 0 0 
0 0 0 0 0 0 0 0 0 
0 0 0 0 0 0 0 0 0 
0 0 0 0 0 0 0 0 0 
0 0 0 0 0 0 0 0 0 
0 0 0 0 0 0 0 0 0 
0 0 0 0 0 0 0 0 0 
0 0 0 0 0 0 0 0 0 
0 0 0 0 0 0 0 0 0 
0 0 0 0 0 0 0 0 0 
0 0 0 0 0 0 0 0 0 
0 0 0 0 0 0 0 0 0 
0 0 0 0 0 0 0 0 0 
0 0 0 0 0 0 0 0 0 
0 0 0 0 0 0 0 0 0 
0 0 0 0 0 0 0 0 0 
0 0 0 0 0 0 0 0 0 
0 0 0 0 0 0 0 0 0 
0 0 0 0 0 0 0 0 0 
0 0 0 0 0 0 0 0 0 
0 0 0 0 0 0 0 0 0 
0 0 0 0 0 0 0 0 0 
0 0 0 0 0 0 0 0 0 
0 0 0 0 0 0 0 0 0 
0 0 0 0 0 0 0 0 0 
0 0 0 0 0 0 0 0 0 
0 0 0 0 0 0 0 0 0 
0 0 0 0 0 0 0 0 0 
0 0 0 0 0 0 0 0 0 
0 0 0 0 0 0 0 0 0 
0 0 0 0 0 0 0 0 0 
0 0 0 0 0 0 0 0 0 
0 0 0 0 0 0 0 0 0 
0 0 0 0 0 0 0 0 0 
0 0 0 0 0 0 0 0 0 
0 0 0 0 0 0 0 0 0 
0 0 0 0 0 0 0 0 0 
0 0 0 0 0 0 0 0 0 
0 0 0 0 0 0 0 0 0 
0 0 0 0 0 0 0 0 0 
0 0 0 0 0 0 0 0 0 
0 0 0 0 0 0 0 0 0 
0 0 0 0 0 0 0 0 0 
0 0 0 0 0 0 0 0 0 
0 0 0 0 0 0 0 0 0 
0 0 0 0 0 0 0 0 0 
0 0 0 0 0 0 0 0 0 
0 0 0 0 0 0 0 0 0 
0 0 0 0 0 0 0 0 0 
0 0 0 0 0 0 0 0 0 
0 0 0 0 0 0 0 0 0 
0 0 0 0 0 0 0 0 0 
0 0 0 0 0 0 0 0 0 
0 0 0 0 0 0 0 0 0 
0 0 0 0 0 0 0 0 0 
0 0 0 0 0 0 0 0 0 
0 0 0 0 0 0 0 0 0 
0 0 0 0 0 0 0 0 0 
0 0 0 0 0 0 0 0 0 
0 0 0 0 0 0 0 0 0 
0 0 0 0 0 0 0 0 0 
0 0 0 0 0 0 0 0 0 
0 0 0 0 0 0 0 0 0 
0 0 0 0 0 0 0 0 0 
0 0 0 0 0 0 0 0 0 
0 0 0 0 0 0 0 0 0 
0 0 0 0 0 0 0 0 0 
0 0 0 0 0 0 0 0 0 
0 0 0 0 0 0 0 0 0 
0 0 0 0 0 0 0 0 0 
0 0 0 0 0 0 0 0 0 
0 0 0 0 0 0 0 0 0 
0 0 0 0 0 0 0 0 0 
0 0 0 0 0 0 0 0 0 
0 0 0 0 0 0 0 0 0 
0 0 0 0 0 0 0 0 0 
0 0 0 0 0 0 0 0 0 
0 0 0 0 0 0 0 0 0 
0 0 0 0 0 0 0 0 0 
0 0 0 0 0 0 0 0 0 
0 0 0 0 0 0 0 0 0 
0 0 0 0 0 0 0 0 0 
0 0 0 0 0 0 0 0 0 
0 0 0 0 0 0 0 0 0 
0 0 0 0 0 0 0 0 0 
0 0 0 0 0 0 0 0 0 
0 0 0 0 0 0 0 0 0 
0 0 0 0 0 0 0 0 0 
0 0 0 0 0 0 0 0 0 
0 0 0 0 0 0 0 0 0 
0 0 0 0 0 0 0 0 0 
0 0 0 0 0 0 0 0 0 
0 0 0 0 0 0 0 0 0 
0 0 0 0 0 0 0 0 0 
0 0 0 0 0 0 0 0 0 
0 0 0 0 0 0 0 0 0 
0 0 0 0 0 0 0 0 0 
0 0 0 0 0 0 0 0 0 
0 0 0 0 0 0 0 0 0 
0 0 0 0 0 0 0 0 0 
0 0 0 0 0 0 0 0 0 
0 0 0 0 0 0 0 0 0 
0 0 0 0 0 0 0 0 0 
0 0 0 0 0 0 0 0 0 
0 0 0 0 0 0 0 0 0 
0 0 0 0 0 0 0 0 0 
0 0 0 0 0 0 0 0 0 
0 0 0 0 0 0 0 0 0 
0 0 0 0 0 0 0 0 0 
0 0 0 0 0 0 0 0 0 
0 0 0 0 0 0 0 0 0 
0 0 0 0 0 0 0 0 0 
0 0 0 0 0 0 0 0 0 
0 0 0 0 0 0 0 0 0 
0 0 0 0 0 0 0 0 0 
0 0 0 0 0 0 0 0 0 
0 0 0 0 0 0 0 0 0 
0 0 0 0 0 0 0 0 0 
0 0 0 0 0 0 0 0 0 
0 0 0 0 0 0 0 0 0 
0 0 0 0 0 0 0 0 0 
0 0 0 0 0 0 0 0 0 
0 0 0 0 0 0 0 0 0 
0 0 0 0 0 0 0 0 0 
0 0 0 0 0 0 0 0 0 
0 0 0 0 0 0 0 0 0 
0 0 0 0 0 0 0 0 0 
0 0 0 0 0 0 0 0 0 
0 0 0 0 0 0 0 0 0 
0 0 0 0 0 0 0 0 0 
0 0 0 0 0 0 0 0 0 
0 0 0 0 0 0 0 0 10234277.998 
12554338.831 0 0 0 0 0 0 0 0 
0 0 0 0 0 0 0 0 0 
0 0 0 0 29601434.462 44187494.4 12257290.662 21429593.413 0 
0 0 0 0 0 0 0 0 0 
6020088.2188 30836270.213 41559828.149 27246136.498 15793157.991 0 0 0 0 
0 0 0 0 0 0 0 0 0 
0 0 0 26252053.595 34285093.684 16352569.424 0 0 0 
0 0 0 0 0 0 0 0 0 
0 0 0 0 27534162.818 125099277.08 12960201.576 0 0 
0 0 0 0 0 0 0 0 0 
0 0 0 0 0 0 0 0 0 
0 0 0 0 0 0 0 0 0 
0 0 0 0 0 0 0 0 0 
0 0 0 0 0 0 0 0 0 
0 0 0 0 0 0 0 0 0 
0 0 0 0 0 0 0 0 0 
0 0 0 0 0 0 0 0 0 
0 0 0 0 0 0 0 0 0 
0 0 0 0 0 0 637579.52068 344517.05744 606071.54108 
0 660247.81658 0 0 0 0 0 0 0 
0 0 0 0 0 0 0 0 0 
0 0 0 0 0 0 0 0 0 
0 0 0 0 0 0 0 0 0 
0 0 0 0 0 0 0 0 0 
0 0 0 0 0 0 0 0 0 
0 0 0 0 0 0 0 0 0 
0 0 0 0 0 0 0 0 0 
0 0 0 0 0 0 0 0 0 
0 0 0 0 0 0 0 0 0 
0 0 0 0 0 0 0 0 0 
0 0 0 0 0 40792.775593 0 3077138.6512 1333150.4528 
1900132.0637 2638617.3231 4427548.7765 25353414.023 7850196.9715 5468857.6796 23553386.978 11523852.509 8093271.1652 
7458669.5624 25928945.882 15992527.312 14859244.764 35819549.785 8075060.1883 25772252.808 10307173.02 11253934.873 
14773792.459 3800964.9192 35726501.241 15617600.386 28370179.528 5728352.4461 14117209.835 9696298.0733 20057532.764 
15122616.737 4023080.6254 13503266.323 23257623.193 9821848.9307 10570768.727 24529956.839 5324080.4382 15190058.102 
9880690.1463 1980338.9581 5641548.1978 517285.481 4736898.2146 1167418.8699 616476.87372 97841.984118 58297.826085 
0 0 0 0 0 0 0 0 0 
0 0 0 0 0 0 0 0 0 
0 0 0 0 0 0 0 0 0 
0 0 0 0 0 0 0 0 0 
0 0 0 0 0 0 0 0 0 
0 0 0 0 0 0 0 0 0 
0 0 0 0 0 0 0 0 0 
0 0 0 0 0 0 0 0 0 
0 0 0 0 0 0 0 0 0 
0 0 0 0 0 0 0 0 0 
0 0 0 0 0 0 0 0 0 
0 0 0 0 0 0 0 0 0 
0 0 0 0 0 0 0 0 0 
0 0 0 0 0 0 0 0 0 
0 0 0 0 0 0 0 0 0 
0 0 0 0 0 0 0 0 0 
0 0 0 0 0 0 0 0 0 
0 0 0 0 0 0 0 0 0 
0 0 0 0 0 0 0 0 0 
0 0 0 0 0 0 0 0 0 
0 0 0 0 0 0 0 0 0 
0 0 0 0 0 0 0 0 0 
0 0 0 0 0 0 0 0 0 
0 0 0 0 0 0 0 0 0 
0 0 0 0 0 0 0 0 0 
0 0 0 0 0 0 0 0 0 
0 0 0 0 0 0 0 0 0 
0 0 0 0 0 0 0 0 0 
0 0 0 0 0 0 0 1245830.1666 0 
0 0 0 0 0 0 0 0 0 
0 5431243.1221 5542726.3925 0 0 0 0 0 0 
0 0 0 0 62520.852166 0 330388.5022 2539195.3686 4170672.7972 
0 1987310.0539 0 18552.013764 0 0 464973.02617 20401981.692 0 
2052265.5522 0 0 0 0 0 3711750.5014 0 6216914.819 
0 0 9901104.0656 17892963.876 19734507.055 0 7794068.4932 0 13101170.71 
10565770.167 17072792.183 27346475.23 52987331.376 46074125.455 36922834.055 20177340.028 5622478.7996 60522582.408 
96518251.623 14026548.844 1071547.671 18049725.064 12284887.114 0 0 0 0 
0 0 0 0 0 0 0 0 0 
0 0 0 1257654.5366 0 0 9552784.769 8488130.1993 0 
0 0 0 0 0 0 0 0 0 
0 0 0 0 0 0 0 0 0 
0 4525769.22 446710.45736 0 0 0 2224269.681 9988911.3997 0 
0 0 0 0 0 1377164.9729 1309478.853 4038355.8018 0 
0 0 0 0 0 0 0 0 0 
0 0 0 0 0 0 0 0 0 
0 0 0 0 0 0 0 0 0 
0 0 0 0 0 0 0 0 0 
0 0 0 0 0 0 0 0 0 
0 0 0 0 0 0 0 0 0 
0 0 0 0 0 0 0 0 0 
0 0 0 0 0 0 0 0 0 
0 0 0 0 0 0 0 0 0 
0 0 0 0 0 0 0 0 0 
0 0 0 0 0 0 0 0 0 
0 0 0 0 0 0 0 0 0 
0 0 0 0 0 0 0 0 0 
0 0 0 0 0 0 0 0 0 
0 0 0 0 0 0 0 0 0 
0 0 0 0 0 0 0 0 0 
0 0 0 0 0 0 0 0 0 
0 0 0 0 0 0 0 0 0 
0 0 0 0 0 0 0 0 0 
0 0 0 0 0 0 0 0 0 
0 0 0 0 0 0 0 0 0 
0 0 0 0 0 0 0 0 0 
0 0 0 0 0 0 0 0 0 
0 0 0 0 0 0 0 0 0 
0 0 0 0 0 0 0 0 0 
0 0 0 0 0 0 0 0 0 
0 0 0 0 0 0 0 0 0 
0 0 0 0 0 0 0 0 0 
0 0 0 0 0 0 0 0 0 
0 0 0 0 0 0 0 0 0 
0 0 0 0 0 0 0 0 0 
0 0 0 0 0 0 0 0 0 
0 0 0 0 0 0 0 0 0 
0 0 0 0 0 0 0 0 0 
0 0 0 0 0 0 0 0 0 
0 0 0 0 0 0 0 0 0 
0 0 0 0 0 0 0 0 0 
0 0 0 0 0 0 0 0 0 
0 0 0 0 0 0 0 0 0 
0 0 0 0 0 0 0 0 0 
0 0 0 0 0 0 0 0 0 
0 0 0 0 0 0 0 0 0 
0 0 0 0 0 0 0 0 0 
0 0 0 0 0 0 0 0 0 
0 0 0 0 0 0 0 0 0 
0 0 0 0 0 0 0 0 0 
0 0 0 0 0 0 0 0 0 
0 0 0 0 0 0 0 0 0 
0 0 0 0 0 0 0 0 0 
0 0 0 0 0 0 0 0 0 
0 0 0 0 0 0 0 0 0 
0 0 0 0 0 0 0 0 0 
0 0 0 0 0 0 0 0 0 
0 0 0 0 0 0 0 0 0 
0 0 0 0 0 0 0 0 0 
0 0 0 0 0 0 0 0 0 
0 0 0 0 0 0 0 0 0 
0 0 0 0 0 0 0 0 0 
0 0 0 0 0 0 0 0 0 
0 0 0 0 0 0 0 0 0 
0 0 0 0 0 0 0 0 0 
0 0 0 0 0 0 0 0 0 
0 0 0 0 0 0 0 0 0 
0 0 0 0 0 0 0 0 0 
0 0 0 0 0 0 0 0 0 
0 0 0 0 0 0 0 0 0 
0 0 0 0 0 0 0 0 0 
0 0 0 0 0 0 0 0 0 
0 0 0 0 0 0 0 0 0 
0 0 0 0 0 0 0 0 0 
0 0 0 0 0 0 0 0 0 
0 0 0 0 0 0 0 0 0 
0 0 0 0 0 0 0 0 0 
0 0 0 0 0 0 0 0 0 
0 0 0 0 0 0 0 0 0 
0 0 0 0 0 0 0 0 0 
0 0 0 0 0 0 0 0 0 
0 0 0 0 0 0 0 0 0 
0 0 0 0 0 0 0 0 0 
0 0 0 0 0 0 0 0 0 
0 0 0 0 0 0 0 0 0 
0 0 0 0 0 0 0 0 0 
0 0 0 0 0 0 0 0 0 
0 0 0 0 0 0 0 0 0 
0 0 0 0 0 0 0 0 0 
0 0 0 0 0 0 0 0 0 
0 0 0 0 0 0 0 0 0 
0 0 0 0 0 0 0 0 0 
0 0 0 0 0 0 0 0 0 
0 0 0 0 0 0 0 0 0 
0 0 0 0 0 0 0 0 0 
0 0 0 0 0 0 0 0 0 
0 0 0 0 0 0 0 0 0 
0 0 0 0 0 0 0 0 0 
0 0 0 0 0 0 0 0 0 
0 0 0 0 0 0 0 0 0 
0 0 0 0 0 0 0 0 0 
0 0 0 0 0 0 0 0 0 
0 0 0 0 0 0 0 0 0 
0 0 0 0 0 0 0 0 0 
0 0 0 0 0 0 0 0 0 
0 0 0 0 0 0 0 0 0 
0 0 0 0 0 0 0 0 0 
0 0 0 0 0 0 0 0 0 
0 0 0 0 0 0 0 0 0 
0 0 0 0 0 0 0 0 0 
0 0 0 0 0 0 0 0 0 
0 0 0 0 0 0 0 0 0 
0 0 0 0 0 0 0 0 0 
0 0 0 0 0 0 0 0 0 
0 0 0 0 0 0 0 0 0 
0 0 0 0 0 0 0 0 0 
0 0 0 0 0 0 0 0 0 
0 0 0 0 0 0 0 0 0 
0 0 0 0 0 0 0 0 0 
0 0 0 0 0 0 0 0 0 
0 0 0 0 0 0 0 0 0 
0 0 0 0 0 0 0 0 0 
0 0 0 0 0 0 0 0 0 
0 0 0 0 0 0 0 0 0 
0 0 0 0 0 0 0 0 0 
0 0 0 0 0 0 0 0 0 
0 0 0 0 0 0 0 0 0 
0 0 0 0 0 0 0 0 0 
0 0 0 0 0 0 0 0 0 
0 0 0 0 0 0 0 0 0 
0 0 0 0 0 0 0 0 0 
0 0 0 0 0 0 0 0 0 
0 0 0 0 0 0 0 0 0 
0 0 0 0 0 0 0 0 0 
0 0 0 0 0 0 0 0 0 
0 0 0 0 0 0 0 0 0 
0 0 0 0 0 0 0 0 0 
0 0 0 0 0 0 0 0 0 
0 0 0 0 0 0 0 0 0 
0 0 0 0 0 0 0 0 0 
0 0 0 0 0 0 0 0 0 
0 0 0 0 0 0 0 0 0 
0 0 0 0 0 0 0 0 0 
0 0 0 0 0 0 0 0 0 
0 0 0 0 0 0 0 0 0 
0 0 0 0 0 0 0 0 0 
0 0 0 0 0 0 0 0 0 
0 0 0 0 0 0 0 0 0 
0 0 0 0 0 0 0 0 0 
0 0 0 0 0 0 0 0 0 
0 0 0 0 0 0 0 0 0 
0 0 0 0 0 0 0 0 0 
0 0 0 0 0 0 0 0 0 
0 0 0 0 0 0 0 0 0 
0 0 0 0 0 0 0 0 0 
0 0 0 0 0 0 0 0 0 
0 0 0 0 0 0 0 0 0 
0 0 0 0 0 0 0 0 0 
0 0 0 0 0 0 0 0 0 
0 0 0 0 0 0 0 0 0 
0 0 0 0 0 0 0 0 0 
0 0 0 0 0 0 0 0 0 
0 0 0 0 0 0 0 0 0 
0 0 0 0 0 0 0 0 0 
0 0 0 0 0 0 0 0 0 
0 0 0 0 0 0 0 0 0 
0 0 0 0 0 0 0 0 0 
0 0 0 0 0 0 0 0 0 
0 0 0 0 0 0 0 0 0 
0 0 0 0 0 0 0 0 0 
0 0 0 0 0 0 0 0 0 
0 0 0 0 0 0 0 0 0 
0 0 0 0 0 0 0 0 0 
0 0 0 0 0 0 0 0 0 
0 0 0 0 0 0 0 0 0 
0 0 0 0 0 0 0 0 0 
0 0 0 0 0 0 0 0 0 
0 0 0 0 0 0 0 0 0 
0 0 0 0 0 0 0 0 0 
0 0 0 0 0 0 0 0 0 
0 0 0 0 0 0 0 0 0 
0 0 0 0 0 0 0 0 0 
0 0 0 0 0 0 0 0 0 
0 0 0 0 0 0 0 0 0 
0 0 0 0 0 0 0 0 0 
0 0 0 0 0 0 0 0 0 
0 0 0 0 0 0 0 0 0 
0 0 0 0 0 0 0 0 0 
0 0 0 0 0 0 0 0 0 
0 0 0 0 0 0 0 0 0 
0 0 0 0 0 0 0 0 0 
0 0 0 0 0 0 0 0 0 
0 0 0 0 0 0 0 0 0 
0 0 0 0 0 0 0 0 0 
0 0 0 0 0 0 0 0 0 
0 0 0 0 0 0 0 0 0 
0 0 0 0 0 0 0 0 0 
0 0 0 0 0 0 0 0 0 
0 0 0 0 0 0 0 0 0 
0 0 0 0 0 0 0 0 0 
0 0 0 0 0 0 0 0 0 
0 0 0 0 0 0 0 0 0 
0 0 0 0 0 0 0 0 0 
0 0 0 0 0 0 0 0 0 
0 0 0 0 0 0 0 0 0 
0 0 0 0 0 0 0 0 0 
0 0 0 0 0 0 0 0 0 
0 0 0 0 0 0 0 0 0 
0 0 0 0 0 0 0 0 0 
0 0 0 0 0 0 0 0 0 
0 0 0 0 0 0 0 0 0 
0 0 0 0 0 0 0 0 0 
0 0 0 0 0 0 0 0 0 
0 0 0 0 0 0 0 0 0 
0 0 0 0 0 0 0 0 0 
0 0 0 0 0 0 0 0 0 
0 0 0 0 0 0 0 0 0 
0 0 0 0 0 0 0 0 0 
0 0 0 0 0 0 0 0 0 
0 0 0 0 0 0 0 0 0 
0 0 0 0 0 0 0 0 0 
0 0 0 0 0 0 0 0 0 
0 0 0 0 0 0 0 0 0 
0 0 0 0 0 0 0 0 0 
0 0 0 0 0 0 0 0 0 
0 0 0 0 0 0 0 0 0 
0 0 0 0 0 0 0 0 0 
0 0 0 0 0 0 0 0 0 
0 0 0 0 0 0 0 0 0 
0 0 0 0 0 0 0 0 0 
0 0 0 0 0 0 0 0 0 
0 0 0 0 0 0 0 0 0 
0 0 0 0 0 0 0 0 0 
0 0 
stress 3 5744 double
0 0 0 0 0 0 0 0 0 
0 0 0 0 0 0 0 0 0 
0 0 0 0 0 0 0 0 0 
0 0 0 0 0 0 0 0 0 
0 0 0 0 0 0 0 0 0 
0 0 0 0 0 0 0 0 0 
0 0 0 0 0 0 0 0 0 
0 0 0 0 0 0 0 0 0 
0 0 0 0 0 0 0 0 0 
0 0 0 0 0 0 0 0 0 
0 0 0 0 0 0 0 0 0 
0 0 0 0 0 0 0 0 0 
0 0 0 0 0 0 0 0 0 
0 0 0 0 0 0 0 0 0 
0 0 0 0 0 0 0 0 0 
0 0 0 0 0 0 0 0 0 
0 0 0 0 0 0 0 0 0 
0 0 0 0 0 0 0 0 0 
0 0 0 0 0 0 0 0 0 
0 0 0 0 0 0 0 0 0 
0 0 0 0 0 0 0 0 0 
0 0 0 0 0 0 0 0 0 
0 0 0 0 0 0 0 0 0 
0 0 0 0 0 0 0 0 0 
0 0 0 0 0 0 0 0 0 
0 0 0 0 0 0 0 0 0 
0 0 0 0 0 0 0 0 0 
0 0 0 0 0 0 0 0 0 
0 0 0 0 0 0 0 0 0 
0 0 0 0 0 0 0 0 0 
0 0 0 0 0 0 0 0 0 
0 0 0 0 0 0 0 0 0 
0 0 0 0 0 0 0 0 0 
0 0 0 0 0 0 0 0 0 
0 0 0 0 0 0 0 0 0 
0 0 0 0 0 0 0 0 0 
0 0 0 0 0 0 0 0 0 
0 0 0 0 0 0 0 0 0 
0 0 0 0 0 0 0 0 0 
0 0 0 0 0 0 0 0 0 
0 0 0 0 0 0 0 0 0 
0 0 0 0 0 0 0 0 0 
0 0 0 0 0 0 0 0 0 
0 0 0 0 0 0 0 0 0 
0 0 0 0 0 0 0 0 0 
0 0 0 0 0 0 0 0 0 
0 0 0 0 0 0 0 0 0 
0 0 0 0 0 0 0 0 0 
0 0 0 0 0 0 0 0 0 
0 0 0 0 0 0 0 0 0 
0 0 0 0 0 0 0 0 0 
0 0 0 0 0 0 0 0 0 
0 0 0 0 0 0 0 0 0 
0 0 0 0 0 0 0 0 0 
0 0 0 0 0 0 0 0 0 
0 0 0 0 0 0 0 0 0 
0 0 0 0 0 0 0 0 0 
0 0 0 0 0 0 0 0 0 
0 0 0 0 0 0 0 0 0 
0 0 0 0 0 0 0 0 0 
0 0 0 0 0 0 0 0 0 
0 0 0 0 0 0 0 0 0 
0 0 0 0 0 0 0 0 0 
0 0 0 0 0 0 0 0 0 
0 0 0 0 0 0 0 0 0 
0 0 0 0 0 0 0 0 0 
0 0 0 0 0 0 0 0 0 
0 0 0 0 0 0 0 0 0 
0 0 0 0 0 0 0 0 0 
0 0 0 0 0 0 0 0 0 
0 0 0 0 0 0 0 0 0 
0 0 0 0 0 0 0 0 0 
0 0 0 0 0 0 0 0 0 
0 0 0 0 0 0 0 0 0 
0 0 0 0 0 0 0 0 0 
0 0 0 0 0 0 0 0 0 
0 0 0 0 0 0 0 0 0 
0 0 0 0 0 0 0 0 0 
0 0 0 0 0 0 0 0 0 
0 0 0 0 0 0 0 0 0 
0 0 0 0 0 0 0 0 0 
0 0 0 0 0 0 0 0 0 
0 0 0 0 0 0 0 0 0 
0 0 0 0 0 0 0 0 0 
0 0 0 0 0 0 0 0 0 
0 0 0 0 0 0 0 0 0 
0 0 0 0 0 0 0 0 0 
0 0 0 0 0 0 0 0 0 
0 0 0 0 0 0 0 0 0 
0 0 0 0 0 0 0 0 0 
0 0 0 0 0 0 0 0 0 
0 0 0 0 0 0 0 0 0 
0 0 0 0 0 0 0 0 0 
0 0 0 0 0 0 0 0 0 
0 0 0 0 0 0 0 0 0 
0 0 0 0 0 0 0 0 0 
0 0 0 0 0 0 0 0 0 
0 0 0 0 0 0 0 0 0 
0 0 0 0 0 0 0 0 0 
0 0 0 0 0 0 0 0 0 
0 0 0 0 0 0 0 0 0 
0 0 0 0 0 0 0 0 0 
0 0 0 0 0 0 0 0 0 
0 0 0 0 0 0 0 0 0 
0 0 0 0 0 0 0 0 0 
0 0 0 0 0 0 0 0 0 
0 0 0 0 0 0 0 0 0 
0 0 0 0 0 0 0 0 0 
0 0 0 0 0 0 0 0 0 
0 0 0 0 0 0 0 0 0 
0 0 0 0 0 0 0 0 0 
0 0 0 0 0 0 0 0 0 
0 0 0 0 0 0 0 0 0 
0 0 0 0 0 0 0 0 0 
0 0 0 0 0 0 0 0 0 
0 0 0 0 0 0 0 0 0 
0 0 0 0 0 0 0 0 0 
0 0 0 0 0 0 0 0 0 
0 0 0 0 0 0 0 0 0 
0 0 0 0 0 0 0 0 0 
0 0 0 0 0 0 0 0 0 
0 0 0 0 0 0 0 0 0 
0 0 0 0 0 0 0 0 0 
0 0 0 0 0 0 0 0 0 
0 0 0 0 0 0 0 0 0 
0 0 0 0 0 0 0 0 0 
0 0 0 0 0 0 0 0 0 
0 0 0 0 0 0 0 0 0 
0 0 0 0 0 0 0 0 0 
0 0 0 0 0 0 0 0 0 
0 0 0 0 0 0 0 0 0 
0 0 0 0 0 0 0 0 0 
0 0 0 0 0 0 0 0 0 
0 0 0 0 0 0 0 0 0 
0 0 0 0 0 0 0 0 0 
0 0 0 0 0 0 0 0 0 
0 0 0 0 0 0 0 0 0 
0 0 0 0 0 0 0 0 0 
0 0 0 0 0 0 0 0 0 
0 0 0 0 0 0 0 0 0 
0 0 0 0 0 0 0 0 0 
0 0 0 0 0 0 0 0 0 
0 0 0 0 0 0 0 0 0 
0 0 0 0 0 0 0 0 0 
0 0 0 0 0 0 0 0 0 
0 0 0 0 0 0 0 0 0 
0 0 0 0 0 0 0 0 0 
0 0 0 0 0 0 0 0 0 
0 0 0 0 0 0 0 0 0 
0 0 0 0 0 0 0 0 0 
0 0 0 0 0 0 0 0 0 
0 0 0 0 0 0 0 0 0 
0 0 0 0 0 0 0 0 0 
0 0 0 0 0 0 0 0 0 
0 0 0 0 0 0 0 0 0 
0 0 0 0 0 0 0 0 0 
0 0 0 0 0 0 0 0 0 
0 0 0 0 0 0 0 0 0 
0 0 0 0 0 0 0 0 0 
0 0 0 0 0 0 0 0 0 
0 0 0 0 0 0 0 0 0 
0 0 0 0 0 0 0 0 0 
0 0 0 0 0 0 0 0 0 
0 0 0 0 0 0 0 0 0 
0 0 0 0 0 0 0 0 0 
0 0 0 0 0 0 0 0 0 
0 0 0 0 0 0 0 0 0 
0 0 0 0 0 0 0 0 0 
0 0 0 0 0 0 0 0 0 
0 0 0 0 0 0 0 0 0 
0 0 0 0 0 0 0 0 0 
0 0 0 0 0 0 0 0 0 
0 0 0 0 0 0 0 0 0 
0 0 0 0 0 0 0 0 0 
0 0 0 0 0 0 0 0 0 
0 0 0 0 0 0 0 0 0 
0 0 0 0 0 0 0 0 0 
0 0 0 0 0 0 0 0 0 
0 0 0 0 0 0 0 0 0 
0 0 0 0 0 0 0 0 0 
0 0 0 0 0 0 0 0 0 
0 0 0 0 0 0 0 0 0 
0 0 0 0 0 0 0 0 0 
0 0 0 0 0 0 0 0 0 
0 0 0 0 0 0 0 0 0 
0 0 0 0 0 0 0 0 0 
0 0 0 0 0 0 0 0 0 
0 0 0 0 0 0 0 0 0 
0 0 0 0 0 0 0 0 0 
0 0 0 0 0 0 0 0 0 
0 0 0 0 0 0 0 0 0 
0 0 0 0 0 0 0 0 0 
0 0 0 0 0 0 0 0 0 
0 0 0 0 0 0 0 0 0 
0 0 0 0 0 0 0 0 0 
0 0 0 0 0 0 0 0 0 
0 0 0 0 0 0 0 0 0 
0 0 0 0 0 0 0 0 0 
0 0 0 0 0 0 0 0 0 
0 0 0 0 0 0 0 0 0 
0 0 0 0 0 0 0 0 0 
0 0 0 0 0 0 0 0 0 
0 0 0 0 0 0 0 0 0 
0 0 0 0 0 0 0 0 0 
0 0 0 0 0 0 0 0 0 
0 0 0 0 0 0 0 0 0 
0 0 0 0 0 0 0 0 0 
0 0 0 0 0 0 0 0 0 
0 0 0 0 0 0 0 0 0 
0 0 0 0 0 0 0 0 0 
0 0 0 0 0 0 0 0 0 
0 0 0 0 0 0 0 0 0 
0 0 0 0 0 0 0 0 0 
0 0 0 0 0 0 0 0 0 
0 0 0 0 0 0 0 0 0 
0 0 0 0 0 0 0 0 0 
0 0 0 0 0 0 0 0 0 
0 0 0 0 0 0 0 0 0 
0 0 0 0 0 0 0 0 0 
0 0 0 0 0 0 0 0 0 
0 0 0 0 0 0 0 0 0 
0 0 0 0 0 0 0 0 0 
0 0 0 0 0 0 0 0 0 
0 0 0 0 0 0 0 0 0 
0 0 0 0 0 0 0 0 0 
0 0 0 0 0 0 0 0 0 
0 0 0 0 0 0 0 0 0 
0 0 0 0 0 0 0 0 0 
0 0 0 0 0 0 0 0 0 
0 0 0 0 0 0 0 0 0 
0 0 0 0 0 0 0 0 0 
0 0 0 0 0 0 0 0 0 
0 0 0 0 0 0 0 0 0 
0 0 0 0 0 0 0 0 0 
0 0 0 0 0 0 0 0 0 
0 0 0 0 0 0 0 0 0 
0 0 0 0 0 0 0 0 0 
0 0 0 0 0 0 0 0 0 
0 0 0 0 0 0 0 0 0 
0 0 0 0 0 0 0 0 0 
0 0 0 0 0 0 0 0 0 
0 0 0 0 0 0 0 0 0 
0 0 0 0 0 0 0 0 0 
0 0 0 0 0 0 0 0 0 
0 0 0 0 0 0 0 0 0 
0 0 0 0 0 0 0 0 0 
0 0 0 0 0 0 0 0 0 
0 0 0 0 0 0 0 0 0 
0 0 0 0 0 0 0 0 0 
0 0 0 0 0 0 0 0 0 
0 0 0 0 0 0 0 0 0 
0 0 0 0 0 0 0 0 0 
0 0 0 0 0 0 0 0 0 
0 0 0 0 0 0 0 0 0 
0 0 0 0 0 0 0 0 0 
0 0 0 0 0 0 0 0 0 
0 0 0 0 0 0 0 0 0 
0 0 0 0 0 0 0 0 0 
0 0 0 0 0 0 0 0 0 
0 0 0 0 0 0 0 0 0 
0 0 0 0 0 0 0 0 0 
0 0 0 0 0 0 0 0 0 
0 0 0 0 0 0 0 0 0 
0 0 0 0 0 0 0 0 0 
0 0 0 0 0 0 0 0 0 
0 0 0 0 0 0 0 0 0 
0 0 0 0 0 0 0 0 0 
0 0 0 0 0 0 0 0 0 
0 0 0 0 0 0 0 0 0 
0 0 0 0 0 0 0 0 0 
0 0 0 0 0 0 0 0 0 
0 0 0 0 0 0 0 0 0 
0 0 0 0 0 0 0 0 0 
0 0 0 0 0 0 0 0 0 
0 0 0 0 0 0 0 0 0 
0 0 0 0 0 0 0 0 0 
0 0 0 0 0 0 0 0 0 
0 0 0 0 0 0 0 0 0 
0 0 0 0 0 0 0 0 0 
0 0 0 0 0 0 0 0 0 
0 0 0 0 0 0 0 0 0 
0 0 0 0 0 0 0 0 0 
0 0 0 0 0 0 0 0 0 
0 0 0 0 0 0 0 0 0 
0 0 0 0 0 0 0 0 0 
0 0 0 0 0 0 0 0 0 
0 0 0 0 0 0 0 0 0 
0 0 0 0 0 0 0 0 0 
0 0 0 0 0 0 0 0 0 
0 0 0 0 0 0 0 0 0 
0 0 0 0 0 0 0 0 0 
0 0 0 0 0 0 0 0 0 
0 0 0 0 0 0 0 0 0 
0 0 0 0 0 0 0 0 0 
0 0 0 0 0 0 0 0 0 
0 0 0 0 0 0 0 0 0 
0 0 0 0 0 0 0 0 0 
0 0 0 0 0 0 0 0 0 
0 0 0 0 0 0 0 0 0 
0 0 0 0 0 0 0 0 0 
0 0 0 0 0 0 0 0 0 
0 0 0 0 0 0 0 0 0 
0 0 0 0 0 0 0 0 0 
0 0 0 0 0 0 0 0 0 
0 0 0 0 0 0 0 0 0 
0 0 0 0 0 0 0 0 0 
0 0 0 0 0 0 0 0 0 
0 0 0 0 0 0 0 0 0 
0 0 0 0 0 0 0 0 0 
0 0 0 0 0 0 0 0 0 
0 0 0 0 0 0 0 0 0 
0 0 0 0 0 0 0 0 0 
0 0 0 0 0 0 0 0 0 
0 0 0 0 0 0 0 0 0 
0 0 0 0 0 0 0 0 0 
0 0 0 0 0 0 0 0 0 
0 0 0 0 0 0 0 0 0 
0 0 0 0 0 0 0 0 0 
0 0 0 0 0 0 0 0 0 
0 0 0 0 0 0 0 0 0 
0 0 0 0 0 0 0 0 0 
0 0 0 0 0 0 0 0 0 
0 0 0 0 0 0 0 0 0 
0 0 0 0 0 0 0 0 0 
0 0 0 0 0 0 0 0 0 
0 0 0 0 0 0 0 0 0 
0 0 0 0 0 0 0 0 0 
0 0 0 0 0 0 0 0 0 
0 0 0 0 0 0 0 0 0 
0 0 0 0 0 0 0 0 0 
0 0 0 0 0 0 0 0 0 
0 0 0 0 0 0 0 0 0 
0 0 0 0 0 0 0 0 0 
0 0 0 0 0 0 0 0 0 
0 0 0 0 0 0 0 0 0 
0 0 0 0 0 0 0 0 0 
0 0 0 0 0 0 0 0 0 
0 0 0 0 0 0 0 0 0 
0 0 0 0 0 0 0 0 0 
0 0 0 0 0 0 0 0 0 
0 0 0 0 0 0 0 0 0 
0 0 0 0 0 0 0 0 0 
0 0 0 0 0 0 0 0 0 
0 0 0 0 0 0 0 0 0 
0 0 0 0 0 0 0 0 0 
0 0 0 0 0 0 0 0 0 
0 0 0 0 0 0 0 0 0 
0 0 0 0 0 0 0 0 0 
0 0 0 0 0 0 0 0 0 
0 0 0 0 0 0 0 0 0 
0 0 0 0 0 0 0 0 0 
0 0 0 0 0 0 0 0 0 
0 0 0 0 0 0 0 0 0 
0 0 0 0 0 0 0 0 0 
0 0 0 0 0 0 0 0 0 
0 0 0 0 0 0 0 0 0 
0 0 0 0 0 0 0 0 0 
0 0 0 0 0 0 0 0 0 
0 0 0 0 0 0 0 0 0 
0 0 0 0 0 0 0 0 0 
0 0 0 0 0 0 0 0 0 
0 0 0 0 0 0 0 0 0 
0 0 0 0 0 0 0 0 0 
0 0 0 0 0 0 0 0 0 
0 0 0 0 0 0 0 0 0 
0 0 0 0 0 0 0 0 0 
0 0 0 0 0 0 0 0 0 
0 0 0 0 0 0 0 0 0 
0 0 0 0 0 0 0 0 0 
0 0 0 0 0 0 0 0 0 
0 0 0 0 0 0 0 0 0 
0 0 0 0 0 0 0 0 0 
0 0 0 0 0 0 0 0 0 
0 0 0 0 0 0 0 0 0 
0 0 0 0 0 0 0 0 0 
0 0 0 0 0 0 0 0 0 
0 0 0 0 0 0 0 0 0 
0 0 0 0 0 0 0 0 0 
0 0 0 0 0 0 0 0 0 
0 0 0 0 0 0 0 0 0 
0 0 0 0 0 0 0 0 0 
0 0 0 0 0 0 0 0 0 
0 0 0 0 0 0 0 0 0 
0 0 0 0 0 0 0 0 0 
0 0 0 0 0 0 0 0 0 
0 0 0 0 0 0 0 0 0 
0 0 0 0 0 0 0 0 0 
0 0 0 0 0 0 0 0 0 
0 0 0 0 0 0 0 0 0 
0 0 0 0 0 0 0 0 0 
0 0 0 0 0 0 0 0 0 
0 0 0 0 0 0 0 0 0 
0 0 0 0 0 0 0 0 0 
0 0 0 0 0 0 0 0 0 
0 0 0 0 0 0 0 0 0 
0 0 0 0 0 0 0 0 0 
0 0 0 0 0 0 0 0 0 
0 0 0 0 0 0 0 0 0 
0 0 0 0 0 0 0 0 0 
0 0 0 0 0 0 0 0 0 
0 0 0 0 0 0 0 0 0 
0 0 0 0 0 0 0 0 0 
0 0 0 0 0 0 0 0 0 
0 0 0 0 0 0 0 0 0 
0 0 0 0 0 0 0 0 0 
0 0 0 0 0 0 0 0 0 
0 0 0 0 0 0 0 0 0 
0 0 0 0 0 0 0 0 0 
0 0 0 0 0 0 0 0 0 
0 0 0 0 0 0 0 0 0 
0 0 0 0 0 0 0 0 0 
0 0 0 0 0 0 0 0 0 
0 0 0 0 0 0 0 0 0 
0 0 0 0 0 0 0 0 0 
0 0 0 0 0 0 0 0 0 
0 0 0 0 0 0 0 0 0 
0 0 0 0 0 0 0 0 0 
0 0 0 0 0 0 0 0 0 
0 0 0 0 0 0 0 0 0 
0 0 0 0 0 0 0 0 0 
0 0 0 0 0 0 0 0 0 
0 0 0 0 0 0 0 0 0 
0 0 0 0 0 0 0 0 0 
0 0 0 0 0 0 0 0 0 
0 0 0 0 0 0 0 0 0 
0 0 0 0 0 0 0 0 0 
0 0 0 0 0 0 0 0 0 
0 0 0 0 0 0 0 0 0 
0 0 0 0 0 0 0 0 0 
0 0 0 0 0 0 0 0 0 
0 0 0 0 0 0 0 0 0 
0 0 0 0 0 0 0 0 0 
0 0 0 0 0 0 0 0 0 
0 0 0 0 0 0 0 0 0 
0 0 0 0 0 0 0 0 0 
0 0 0 0 0 0 0 0 0 
0 0 0 0 0 0 0 0 0 
0 0 0 0 0 0 0 0 0 
0 0 0 0 0 0 0 0 0 
0 0 0 0 0 0 0 0 0 
0 0 0 0 0 0 0 0 0 
0 0 0 0 0 0 0 0 0 
0 0 0 0 0 0 0 0 0 
0 0 0 0 0 0 0 0 0 
0 0 0 0 0 0 0 0 0 
0 0 0 0 0 0 0 0 0 
0 0 0 0 0 0 0 0 0 
0 0 0 0 0 0 0 0 0 
0 0 0 0 0 0 0 0 0 
0 0 0 0 0 0 0 0 0 
0 0 0 0 0 0 0 0 0 
0 0 0 0 0 0 0 0 0 
0 0 0 0 0 0 0 0 0 
0 0 0 0 0 0 0 0 0 
0 0 0 0 0 0 0 0 0 
0 0 0 0 0 0 0 0 0 
0 0 0 0 0 0 0 0 0 
0 0 0 0 0 0 0 0 0 
0 0 0 0 0 0 0 0 0 
0 0 0 0 0 0 0 0 0 
0 0 0 0 0 0 0 0 0 
0 0 0 0 0 0 0 0 0 
0 0 0 0 0 0 0 0 0 
0 0 0 0 0 0 0 0 0 
0 0 0 0 0 0 0 0 0 
0 0 0 0 0 0 0 0 0 
0 0 0 0 0 0 0 0 0 
0 0 0 0 0 0 0 0 0 
0 0 0 0 0 0 0 0 0 
0 0 0 0 0 0 0 0 0 
0 0 0 0 0 0 0 0 0 
0 0 0 0 0 0 0 0 0 
0 0 0 0 0 0 0 0 0 
0 0 0 0 0 0 0 0 0 
0 0 0 0 0 0 0 0 0 
0 0 0 0 0 0 0 0 0 
0 0 0 0 0 0 0 0 0 
0 0 0 0 0 0 0 0 0 
0 0 0 0 0 0 0 0 0 
0 0 0 0 0 0 0 0 0 
0 0 0 0 0 0 0 0 0 
0 0 0 0 0 0 0 0 0 
0 0 0 0 0 0 0 0 0 
0 0 0 0 0 0 0 0 0 
0 0 0 0 0 0 0 0 0 
0 0 0 0 0 0 0 0 0 
0 0 0 0 0 0 0 0 0 
0 0 0 0 0 0 0 0 0 
0 0 0 0 0 0 0 0 0 
0 0 0 0 0 0 0 0 0 
0 0 0 0 0 0 0 0 0 
0 0 0 0 0 0 0 0 0 
0 0 0 0 0 0 18454447.33 -63202450.019 11317655.589 
34003225.484 -85045107.534 22745072.042 4178915.5494 50534363.179 37594413.759 31837045.375 -54713015.195 40603937.419 
59696239.941 25742948.053 36981453.015 80861878.059 -1218184.4213 28315055.842 0 0 0 
-164847.1352 363912.84824 280682.24262 0 0 0 0 0 0 
0 0 0 0 0 0 0 0 0 
0 0 0 0 0 0 0 0 0 
0 0 0 0 0 0 0 0 0 
0 0 0 0 0 0 0 0 0 
0 0 0 0 0 0 0 0 0 
0 0 0 0 0 0 0 0 0 
0 0 0 0 0 0 0 0 0 
0 0 0 0 0 0 -7769033.8654 -26294868.124 7014265.6491 
2331724.7897 20008832.355 29612879.253 -4399740.6462 9276146.6014 7911523.148 0 0 0 
0 0 0 0 0 0 0 0 0 
0 0 0 0 0 0 0 0 0 
0 0 0 0 0 0 0 0 0 
0 0 0 0 0 0 0 0 0 
0 0 0 0 0 0 0 0 0 
0 0 0 0 0 0 0 0 0 
4588642.7439 2980422.55 22009382.356 -4099.4826363 -3765307.6312 8703058.5113 -4735142.9621 5529864.727 17457176.034 
0 0 0 0 0 0 0 0 0 
0 0 0 0 0 0 0 0 0 
0 0 0 0 0 0 0 0 0 
0 0 0 0 0 0 0 0 0 
0 0 0 -7342957.759 -15634948.27 2571111.3722 2095044.196 1671675.9129 31157544.327 
-1769210.2262 9244415.3315 20072303.001 -9010515.0442 14106129.088 16718252.262 0 0 0 
0 0 0 0 0 0 0 0 0 
0 0 0 0 0 0 0 0 0 
0 0 0 0 0 0 0 0 0 
0 0 0 0 0 0 0 0 0 
0 0 0 -684384.4288 -1875137.8121 190423.46558 0 0 0 
0 0 0 0 0 0 0 0 0 
0 0 0 0 0 0 0 0 0 
0 0 0 0 0 0 2342310.3413 9003498.4773 21338251.966 
-52340.273515 -3282346.0351 11163860.761 3635145.1395 -12195998.485 1185418.9512 0 0 0 
0 0 0 0 0 0 0 0 0 
0 0 0 0 0 0 0 0 0 
0 0 0 0 0 0 0 0 0 
0 0 0 0 0 0 0 0 0 
0 0 0 0 0 0 0 0 0 
0 0 0 0 0 0 0 0 0 
0 0 0 0 0 0 0 0 0 
0 0 0 0 0 0 0 0 0 
0 0 0 0 0 0 0 0 0 
0 0 0 0 0 0 0 0 0 
0 0 0 0 0 0 0 0 0 
0 0 0 0 0 0 0 0 0 
0 0 0 0 0 0 0 0 0 
0 0 0 0 0 0 0 0 0 
0 0 0 0 0 0 0 0 0 
0 0 0 0 0 0 0 0 0 
0 0 0 0 0 0 0 0 0 
0 0 0 0 0 0 0 0 0 
0 0 0 0 0 0 0 0 0 
0 0 0 0 0 0 0 0 0 
0 0 0 0 0 0 0 0 0 
0 0 0 0 0 0 0 0 0 
0 0 0 0 0 0 0 0 0 
0 0 0 0 0 0 0 0 0 
0 0 0 0 0 0 0 0 0 
0 0 0 0 0 0 0 0 0 
0 0 0 0 0 0 0 0 0 
0 0 0 0 0 0 0 0 0 
0 0 0 0 0 0 0 0 0 
0 0 0 0 0 0 0 0 0 
0 0 0 0 0 0 0 0 0 
0 0 0 0 0 0 0 0 0 
0 0 0 0 0 0 0 0 0 
0 0 0 0 0 0 0 0 0 
0 0 0 0 0 0 0 0 0 
0 0 0 0 0 0 0 0 0 
0 0 0 0 0 0 0 0 0 
0 0 0 0 0 0 0 0 0 
0 0 0 0 0 0 0 0 0 
0 0 0 0 0 0 0 0 0 
0 0 0 0 0 0 0 0 0 
0 0 0 0 0 0 0 0 0 
0 0 0 0 0 0 0 0 0 
0 0 0 0 0 0 0 0 0 
0 0 0 0 0 0 0 0 0 
0 0 0 0 0 0 0 0 0 
0 0 0 0 0 0 0 0 0 
0 0 0 0 0 0 0 0 0 
0 0 0 0 0 0 0 0 0 
0 0 0 0 0 0 0 0 0 
0 0 0 0 0 0 0 0 0 
0 0 0 0 0 0 0 0 0 
0 0 0 0 0 0 0 0 0 
0 0 0 0 0 0 0 0 0 
0 0 0 0 0 0 0 0 0 
0 0 0 0 0 0 0 0 0 
0 0 0 0 0 0 0 0 0 
0 0 0 0 0 0 0 0 0 
0 0 0 0 0 0 0 0 0 
0 0 0 0 0 0 0 0 0 
0 0 0 0 0 0 0 0 0 
0 0 0 0 0 0 0 0 0 
0 0 0 0 0 0 0 0 0 
0 0 0 0 0 0 0 0 0 
0 0 0 0 0 0 0 0 0 
0 0 0 0 0 0 0 0 0 
0 0 0 0 0 0 0 0 0 
0 0 0 0 0 0 0 0 0 
0 0 0 0 0 0 0 0 0 
0 0 0 0 0 0 0 0 0 
0 0 0 0 0 0 0 0 0 
0 0 0 0 0 0 0 0 0 
0 0 0 0 0 0 0 0 0 
0 0 0 0 0 0 0 0 0 
0 0 0 0 0 0 0 0 0 
0 0 0 0 0 0 0 0 0 
0 0 0 0 0 0 0 0 0 
0 0 0 0 0 0 0 0 0 
0 0 0 0 0 0 0 0 0 
0 0 0 0 0 0 0 0 0 
0 0 0 0 0 0 0 0 0 
0 0 0 0 0 0 0 0 0 
0 0 0 0 0 0 0 0 0 
0 0 0 0 0 0 0 0 0 
0 0 0 0 0 0 0 0 0 
0 0 0 0 0 0 0 0 0 
0 0 0 0 0 0 0 0 0 
0 0 0 0 0 0 0 0 0 
0 0 0 0 0 0 0 0 0 
0 0 0 0 0 0 0 0 0 
0 0 0 0 0 0 0 0 0 
0 0 0 0 0 0 0 0 0 
0 0 0 0 0 0 0 0 0 
0 0 0 0 0 0 0 0 0 
0 0 0 0 0 0 0 0 0 
0 0 0 0 0 0 0 0 0 
0 0 0 0 0 0 0 0 0 
0 0 0 0 0 0 0 0 0 
0 0 0 0 0 0 0 0 0 
0 0 0 0 0 0 0 0 0 
0 0 0 0 0 0 0 0 0 
0 0 0 0 0 0 0 0 0 
0 0 0 0 0 0 0 0 0 
0 0 0 0 0 0 0 0 0 
0 0 0 0 0 0 0 0 0 
0 0 0 0 0 0 0 0 0 
0 0 0 0 0 0 0 0 0 
0 0 0 0 0 0 0 0 0 
0 0 0 0 0 0 0 0 0 
0 0 0 0 0 0 0 0 0 
0 0 0 0 0 0 0 0 0 
0 0 0 0 0 0 0 0 0 
0 0 0 0 0 0 0 0 0 
0 0 0 0 0 0 0 0 0 
0 0 0 0 0 0 0 0 0 
0 0 0 0 0 0 0 0 0 
0 0 0 0 0 0 0 0 0 
0 0 0 0 0 0 0 0 0 
0 0 0 0 0 0 0 0 0 
0 0 0 0 0 0 0 0 0 
0 0 0 0 0 0 0 0 0 
0 0 0 0 0 0 0 0 0 
0 0 0 0 0 0 0 0 0 
0 0 0 0 0 0 0 0 0 
0 0 0 0 0 0 0 0 0 
0 0 0 0 0 0 0 0 0 
0 0 0 0 0 0 0 0 0 
0 0 0 0 0 0 0 0 0 
0 0 0 0 0 0 0 0 0 
0 0 0 0 0 0 0 0 0 
0 0 0 0 0 0 0 0 0 
0 0 0 0 0 0 0 0 0 
0 0 0 0 0 0 0 0 0 
0 0 0 0 0 0 0 0 0 
0 0 0 0 0 0 0 0 0 
0 0 0 0 0 0 0 0 0 
0 0 0 0 0 0 0 0 0 
0 0 0 0 0 0 0 0 0 
0 0 0 0 0 0 0 0 0 
0 0 0 0 0 0 0 0 0 
0 0 0 0 0 0 0 0 0 
0 0 0 0 0 0 0 0 0 
0 0 0 0 0 0 0 0 0 
0 0 0 0 0 0 0 0 0 
0 0 0 0 0 0 0 0 0 
0 0 0 0 0 0 0 0 0 
0 0 0 0 0 0 0 0 0 
0 0 0 0 0 0 0 0 0 
0 0 0 0 0 0 0 0 0 
0 0 0 0 0 0 0 0 0 
0 0 0 0 0 0 0 0 0 
0 0 0 0 0 0 0 0 0 
0 0 0 0 0 0 0 0 0 
0 0 0 0 0 0 0 0 0 
0 0 0 0 0 0 0 0 0 
0 0 0 0 0 0 0 0 0 
0 0 0 0 0 0 0 0 0 
0 0 0 0 0 0 0 0 0 
0 0 0 0 0 0 0 0 0 
0 0 0 0 0 0 0 0 0 
0 0 0 0 0 0 0 0 0 
0 0 0 0 0 0 0 0 0 
0 0 0 0 0 0 0 0 0 
0 0 0 0 0 0 0 0 0 
0 0 0 0 0 0 0 0 0 
0 0 0 0 0 0 0 0 0 
0 0 0 0 0 0 0 0 0 
0 0 0 0 0 0 0 0 0 
0 0 0 0 0 0 0 0 0 
0 0 0 0 0 0 0 0 0 
0 0 0 0 0 0 0 0 0 
0 0 0 0 0 0 0 0 0 
0 0 0 0 0 0 0 0 0 
0 0 0 0 0 0 0 0 0 
0 0 0 0 0 0 0 0 0 
0 0 0 0 0 0 0 0 0 
0 0 0 0 0 0 0 0 0 
0 0 0 0 0 0 0 0 0 
0 0 0 0 0 0 0 0 0 
0 0 0 0 0 0 0 0 0 
0 0 0 0 0 0 0 0 0 
0 0 0 0 0 0 0 0 0 
0 0 0 0 0 0 0 0 0 
0 0 0 0 0 0 0 0 0 
0 0 0 0 0 0 0 0 0 
0 0 0 0 0 0 0 0 0 
0 0 0 0 0 0 0 0 0 
0 0 0 0 0 0 0 0 0 
0 0 0 0 0 0 0 0 0 
0 0 0 0 0 0 0 0 0 
0 0 0 0 0 0 0 0 0 
0 0 0 0 0 0 0 0 0 
0 0 0 0 0 0 0 0 0 
0 0 0 0 0 0 0 0 0 
0 0 0 0 0 0 0 0 0 
0 0 0 0 0 0 0 0 0 
0 0 0 0 0 0 0 0 0 
0 0 0 0 0 0 0 0 0 
0 0 0 0 0 0 0 0 0 
0 0 0 0 0 0 0 0 0 
0 0 0 0 0 0 0 0 0 
0 0 0 0 0 0 0 0 0 
0 0 0 0 0 0 0 0 0 
0 0 0 0 0 0 0 0 0 
0 0 0 0 0 0 0 0 0 
0 0 0 0 0 0 0 0 0 
0 0 0 0 0 0 0 0 0 
0 0 0 0 0 0 0 0 0 
0 0 0 0 0 0 0 0 0 
0 0 0 0 0 0 0 0 0 
0 0 0 0 0 0 0 0 0 
0 0 0 0 0 0 0 0 0 
0 0 0 0 0 0 0 0 0 
0 0 0 0 0 0 0 0 0 
0 0 0 0 0 0 0 0 0 
0 0 0 0 0 0 0 0 0 
0 0 0 0 0 0 0 0 0 
0 0 0 0 0 0 0 0 0 
0 0 0 0 0 0 0 0 0 
0 0 0 0 0 0 0 0 0 
0 0 0 0 0 0 0 0 0 
0 0 0 0 0 0 0 0 0 
0 0 0 0 0 0 0 0 0 
0 0 0 0 0 0 0 0 0 
0 0 0 0 0 0 0 0 0 
0 0 0 0 0 0 0 0 0 
0 0 0 0 0 0 0 0 0 
0 0 0 0 0 0 0 0 0 
0 0 0 0 0 0 0 0 0 
0 0 0 0 0 0 0 0 0 
0 0 0 0 0 0 0 0 0 
0 0 0 0 0 0 0 0 0 
0 0 0 0 0 0 0 0 0 
0 0 0 0 0 0 0 0 0 
0 0 0 0 0 0 0 0 0 
0 0 0 0 0 0 0 0 0 
0 0 0 0 0 0 0 0 0 
0 0 0 0 0 0 0 0 0 
0 0 0 0 0 0 0 0 0 
0 0 0 0 0 0 0 0 0 
0 0 0 0 0 0 0 0 0 
0 0 0 0 0 0 0 0 0 
0 0 0 0 0 0 0 0 0 
0 0 0 0 0 0 0 0 0 
0 0 0 0 0 0 0 0 0 
0 0 0 0 0 0 0 0 0 
0 0 0 0 0 0 0 0 0 
0 0 0 0 0 0 0 0 0 
0 0 0 0 0 0 0 0 0 
0 0 0 0 0 0 0 0 0 
0 0 0 0 0 0 0 0 0 
0 0 0 0 0 0 0 0 0 
0 0 0 0 0 0 0 0 0 
0 0 0 0 0 0 0 0 0 
0 0 0 0 0 0 0 0 0 
0 0 0 0 0 0 0 0 0 
0 0 0 0 0 0 0 0 0 
0 0 0 0 0 0 0 0 0 
0 0 0 0 0 0 0 0 0 
0 0 0 0 0 0 0 0 0 
0 0 0 0 0 0 0 0 0 
0 0 0 0 0 0 0 0 0 
0 0 0 0 0 0 0 0 0 
0 0 0 0 0 0 0 0 0 
0 0 0 0 0 0 0 0 0 
0 0 0 0 0 0 0 0 0 
0 0 0 0 0 0 0 0 0 
0 0 0 0 0 0 0 0 0 
0 0 0 0 0 0 0 0 0 
0 0 0 0 0 0 0 0 0 
0 0 0 0 0 0 0 0 0 
0 0 0 0 0 0 0 0 0 
0 0 0 0 0 0 0 0 0 
0 0 0 0 0 0 0 0 0 
0 0 0 0 0 0 0 0 0 
0 0 0 0 0 0 0 0 0 
0 0 0 0 0 0 0 0 0 
0 0 0 0 0 0 0 0 0 
0 0 0 0 0 0 0 0 0 
0 0 0 0 0 0 0 0 0 
0 0 0 0 0 0 0 0 0 
0 0 0 0 0 0 0 0 0 
0 0 0 0 0 0 0 0 0 
0 0 0 0 0 0 0 0 0 
0 0 0 0 0 0 0 0 0 
0 0 0 0 0 0 0 0 0 
0 0 0 0 0 0 0 0 0 
0 0 0 0 0 0 0 0 0 
0 0 0 0 0 0 0 0 0 
0 0 0 0 0 0 0 0 0 
0 0 0 0 0 0 0 0 0 
0 0 0 0 0 0 0 0 0 
0 0 0 0 0 0 0 0 0 
0 0 0 0 0 0 0 0 0 
0 0 0 0 0 0 0 0 0 
0 0 0 0 0 0 0 0 0 
0 0 0 0 0 0 0 0 0 
0 0 0 0 0 0 0 0 0 
0 0 0 0 0 0 0 0 0 
0 0 0 0 0 0 0 0 0 
0 0 0 0 0 0 0 0 0 
0 0 0 0 0 0 0 0 0 
0 0 0 0 0 0 0 0 0 
0 0 0 0 0 0 0 0 0 
0 0 0 0 0 0 0 0 0 
0 0 0 0 0 0 0 0 0 
0 0 0 0 0 0 0 0 0 
0 0 0 0 0 0 0 0 0 
0 0 0 0 0 0 0 0 0 
0 0 0 0 0 0 0 0 0 
0 0 0 0 0 0 0 0 0 
0 0 0 0 0 0 0 0 0 
0 0 0 0 0 0 0 0 0 
0 0 0 0 0 0 0 0 0 
0 0 0 0 0 0 0 0 0 
0 0 0 0 0 0 0 0 0 
0 0 0 0 0 0 0 0 0 
0 0 0 0 0 0 0 0 0 
0 0 0 0 0 0 0 0 0 
0 0 0 0 0 0 0 0 0 
0 0 0 0 0 0 0 0 0 
0 0 0 0 0 0 0 0 0 
0 0 0 0 0 0 0 0 0 
0 0 0 0 0 0 0 0 0 
0 0 0 0 0 0 0 0 0 
0 0 0 0 0 0 0 0 0 
0 0 0 0 0 0 0 0 0 
0 0 0 0 0 0 0 0 0 
0 0 0 0 0 0 0 0 0 
0 0 0 0 0 0 0 0 0 
0 0 0 0 0 0 0 0 0 
0 0 0 0 0 0 0 0 0 
0 0 0 0 0 0 0 0 0 
0 0 0 0 0 0 0 0 0 
0 0 0 0 0 0 0 0 0 
0 0 0 0 0 0 0 0 0 
0 0 0 0 0 0 0 0 0 
0 0 0 0 0 0 0 0 0 
0 0 0 0 0 0 0 0 0 
0 0 0 0 0 0 0 0 0 
0 0 0 0 0 0 0 0 0 
0 0 0 0 0 0 0 0 0 
0 0 0 0 0 0 0 0 0 
0 0 0 0 0 0 0 0 0 
0 0 0 0 0 0 0 0 0 
0 0 0 0 0 0 0 0 0 
0 0 0 0 0 0 0 0 0 
0 0 0 0 0 0 0 0 0 
0 0 0 0 0 0 0 0 0 
0 0 0 0 0 0 0 0 0 
0 0 0 0 0 0 0 0 0 
0 0 0 0 0 0 0 0 0 
0 0 0 0 0 0 0 0 0 
0 0 0 0 0 0 0 0 0 
0 0 0 0 0 0 0 0 0 
0 0 0 0 0 0 0 0 0 
0 0 0 0 0 0 0 0 0 
0 0 0 0 0 0 0 0 0 
0 0 0 0 0 0 0 0 0 
0 0 0 0 0 0 0 0 0 
0 0 0 0 0 0 0 0 0 
0 0 0 0 0 0 0 0 0 
0 0 0 0 0 0 0 0 0 
0 0 0 0 0 0 0 0 0 
0 0 0 0 0 0 0 0 0 
0 0 0 0 0 0 0 0 0 
0 0 0 0 0 0 0 0 0 
0 0 0 0 0 0 0 0 0 
0 0 0 0 0 0 0 0 0 
0 0 0 0 0 0 0 0 0 
0 0 0 0 0 0 0 0 0 
0 0 0 0 0 0 0 0 0 
0 0 0 0 0 0 0 0 0 
0 0 0 0 0 0 0 0 0 
0 0 0 0 0 0 0 0 0 
0 0 0 0 0 0 0 0 0 
0 0 0 0 0 0 0 0 0 
0 0 0 0 0 0 0 0 0 
0 0 0 0 0 0 0 0 0 
0 0 0 0 0 0 0 0 0 
0 0 0 0 0 0 0 0 0 
0 0 0 0 0 0 0 0 0 
0 0 0 0 0 0 0 0 0 
0 0 0 0 0 0 0 0 0 
0 0 0 0 0 0 0 0 0 
0 0 0 0 0 0 0 0 0 
0 0 0 0 0 0 0 0 0 
0 0 0 0 0 0 0 0 0 
0 0 0 0 0 0 0 0 0 
0 0 0 0 0 0 0 0 0 
0 0 0 0 0 0 0 0 0 
0 0 0 0 0 0 0 0 0 
0 0 0 0 0 0 0 0 0 
0 0 0 0 0 0 0 0 0 
0 0 0 0 0 0 0 0 0 
0 0 0 0 0 0 0 0 0 
0 0 0 0 0 0 0 0 0 
0 0 0 0 0 0 0 0 0 
0 0 0 0 0 0 0 0 0 
0 0 0 0 0 0 0 0 0 
0 0 0 0 0 0 0 0 0 
0 0 0 0 0 0 0 0 0 
0 0 0 0 0 0 0 0 0 
0 0 0 0 0 0 0 0 0 
0 0 0 0 0 0 0 0 0 
0 0 0 0 0 0 0 0 0 
0 0 0 0 0 0 0 0 0 
0 0 0 0 0 0 0 0 0 
0 0 0 0 0 0 0 0 0 
0 0 0 0 0 0 0 0 0 
0 0 0 0 0 0 0 0 0 
0 0 0 0 0 0 0 0 0 
0 0 0 0 0 0 0 0 0 
0 0 0 0 0 0 0 0 0 
0 0 0 0 0 0 0 0 0 
0 0 0 0 0 0 0 0 0 
0 0 0 0 0 0 0 0 0 
0 0 0 0 0 0 0 0 0 
0 0 0 0 0 0 0 0 0 
0 0 0 0 0 0 0 0 0 
0 0 0 0 0 0 0 0 0 
0 0 0 0 0 0 0 0 0 
0 0 0 0 0 0 0 0 0 
0 0 0 0 0 0 0 0 0 
0 0 0 0 0 0 0 0 0 
0 0 0 0 0 0 0 0 0 
0 0 0 0 0 0 0 0 0 
0 0 0 0 0 0 0 0 0 
0 0 0 0 0 0 0 0 0 
0 0 0 0 0 0 0 0 0 
0 0 0 0 0 0 0 0 0 
0 0 0 0 0 0 0 0 0 
0 0 0 0 0 0 0 0 0 
0 0 0 0 0 0 0 0 0 
0 0 0 0 0 0 0 0 0 
0 0 0 0 0 0 0 0 0 
0 0 0 0 0 0 0 0 0 
0 0 0 0 0 0 0 0 0 
0 0 0 0 0 0 0 0 0 
0 0 0 0 0 0 0 0 0 
0 0 0 0 0 0 0 0 0 
0 0 0 0 0 0 0 0 0 
0 0 0 0 0 0 0 0 0 
0 0 0 0 0 0 0 0 0 
0 0 0 0 0 0 0 0 0 
0 0 0 0 0 0 0 0 0 
0 0 0 0 0 0 0 0 0 
0 0 0 0 0 0 0 0 0 
0 0 0 0 0 0 0 0 0 
0 0 0 0 0 0 0 0 0 
0 0 0 0 0 0 0 0 0 
0 0 0 0 0 0 0 0 0 
0 0 0 0 0 0 0 0 0 
0 0 0 0 0 0 0 0 0 
0 0 0 0 0 0 0 0 0 
0 0 0 0 0 0 0 0 0 
0 0 0 0 0 0 0 0 0 
0 0 0 0 0 0 0 0 0 
0 0 0 0 0 0 0 0 0 
0 0 0 0 0 0 0 0 0 
0 0 0 0 0 0 0 0 0 
0 0 0 0 0 0 0 0 0 
0 0 0 0 0 0 310654.10212 -10354008.507 7056523.7445 
-11091241.823 -3642174.7956 6519305.0361 0 0 0 0 0 0 
0 0 0 0 0 0 0 0 0 
0 0 0 0 0 0 0 0 0 
0 0 0 0 0 0 0 0 0 
0 0 0 0 0 0 0 0 0 
0 0 0 0 0 0 0 0 0 
0 0 0 0 0 0 0 0 0 
0 0 0 7515657.5084 -9072595.6972 27267857.827 22241072.719 -6510394.7273 37822051.271 
631094.38426 -683489.35099 12684545.326 10035300.75 15348340.367 27608686.985 0 0 0 
0 0 0 0 0 0 0 0 0 
0 0 0 0 0 0 0 0 0 
0 0 0 0 0 0 0 0 0 
5626120.4238 1071405.2482 2822066.553 -3663708.3377 -21532541.318 24532497.355 -5942276.7308 -49502770.261 28315838.395 
6421484.5526 10747711.822 30773888.403 -6636751.7035 2858893.7342 14276194.329 0 0 0 
0 0 0 0 0 0 0 0 0 
0 0 0 0 0 0 0 0 0 
0 0 0 0 0 0 0 0 0 
0 0 0 0 0 0 0 0 0 
0 0 0 0 0 0 0 0 0 
-4387022.4228 -8344832.4163 24524468.685 10573517.863 -19388610.435 29471204.082 -13320595.491 -25619860.174 10444081.319 
0 0 0 0 0 0 0 0 0 
0 0 0 0 0 0 0 0 0 
0 0 0 0 0 0 0 0 0 
0 0 0 0 0 0 0 0 0 
0 0 0 0 0 0 0 0 0 
0 0 0 25895273.813 -5096962.3325 10775857.392 30098111.522 59767224.017 137270318.41 
-9685347.142 -15831085.517 9785243.8955 0 0 0 0 0 0 
0 0 0 0 0 0 0 0 0 
0 0 0 0 0 0 0 0 0 
0 0 0 0 0 0 0 0 0 
0 0 0 0 0 0 0 0 0 
0 0 0 0 0 0 0 0 0 
0 0 0 0 0 0 0 0 0 
0 0 0 0 0 0 0 0 0 
0 0 0 0 0 0 0 0 0 
0 0 0 0 0 0 0 0 0 
0 0 0 0 0 0 0 0 0 
0 0 0 0 0 0 0 0 0 
0 0 0 0 0 0 0 0 0 
0 0 0 0 0 0 0 0 0 
0 0 0 0 0 0 0 0 0 
0 0 0 0 0 0 0 0 0 
0 0 0 0 0 0 0 0 0 
0 0 0 0 0 0 0 0 0 
0 0 0 0 0 0 0 0 0 
0 0 0 0 0 0 0 0 0 
0 0 0 0 0 0 0 0 0 
0 0 0 0 0 0 0 0 0 
0 0 0 0 0 0 0 0 0 
0 0 0 0 0 0 0 0 0 
0 0 0 0 0 0 0 0 0 
0 0 0 0 0 0 0 0 0 
0 0 0 0 0 0 0 0 0 
0 0 0 0 0 0 0 0 0 
0 0 0 0 0 0 0 0 0 
0 0 0 0 0 0 0 0 0 
108355.12088 1155049.0747 828648.91773 252493.91301 453714.63765 350242.31183 -412249.13893 523082.18182 439063.1345 
0 0 0 437234.76559 752724.68603 589407.02541 0 0 0 
0 0 0 0 0 0 0 0 0 
0 0 0 0 0 0 0 0 0 
0 0 0 0 0 0 0 0 0 
0 0 0 0 0 0 0 0 0 
0 0 0 0 0 0 0 0 0 
0 0 0 0 0 0 0 0 0 
0 0 0 0 0 0 0 0 0 
0 0 0 0 0 0 0 0 0 
0 0 0 0 0 0 0 0 0 
0 0 0 0 0 0 0 0 0 
0 0 0 0 0 0 0 0 0 
0 0 0 0 0 0 0 0 0 
0 0 0 0 0 0 0 0 0 
0 0 0 0 0 0 0 0 0 
0 0 0 0 0 0 0 0 0 
0 0 0 0 0 0 0 0 0 
0 0 0 0 0 0 0 0 0 
0 0 0 0 0 0 0 0 0 
0 0 0 0 0 0 0 0 0 
0 0 0 0 0 0 0 0 0 
0 0 0 0 0 0 0 0 0 
0 0 0 0 0 0 0 0 0 
0 0 0 0 0 0 0 0 0 
0 0 0 0 0 0 0 0 0 
0 0 0 0 0 0 0 0 0 
0 0 0 0 0 0 0 0 0 
0 0 0 0 0 0 0 0 0 
0 0 0 0 0 0 0 0 0 
0 0 0 0 0 0 0 0 0 
0 0 0 0 0 0 0 0 0 
0 0 0 0 0 0 0 0 0 
0 0 0 0 0 0 0 0 0 
0 0 0 0 0 0 0 0 0 
0 0 0 0 0 0 -78841.564183 -27117.950307 36998.340925 
0 0 0 -5835273.9448 -2419199.993 2731720.5339 -2429550.6166 -1294179.8664 1144419.2882 
-3196572.3345 -1004557.2461 1635668.9816 -3381729.8136 -3474939.586 1843744.2419 7181474.321 4430293.4124 5178496.3332 
-20973458.831 3878322.4572 19476812.144 -8768939.0432 -213341.64303 5566392.3275 5130881.0486 3929077.5833 6144549.7197 
8256774.5089 -13232675.988 17664778.406 4124359.8528 -2427971.8589 10756869.741 1231018.5496 -24431.668327 8185526.1246 
4914908.3753 -4203121.519 3717550.277 6497431.4422 -23213508.971 16914945.087 -2668794.9027 -9214518.2098 14719373.672 
-3627318.3421 -3510727.8949 14225986.311 22775143.74 -18929401.842 20950555.175 -2363184.4346 -12214038.136 6240306.5197 
-17659506.608 -1927903.8284 19154213.69 688316.16976 -3363589.0407 9840406.6155 -1003486.9133 -14631617.753 9075828.4702 
-3096378.7489 -7450621.0839 13538829.964 -507272.25493 5901162.8212 4783804.1713 21959054.422 -5686327.0418 27643338.272 
-317160.87627 3129863.5849 16307440.409 19129496.5 -542400.07646 20943750.797 744932.57911 -4155279.4206 5140730.9254 
944175.6264 -5050923.9715 13492073.165 4794324.8289 -11420767.907 8004931.9026 6808930.6985 8897926.103 18661964.386 
-4169897.0067 -2423107.8238 14426513.936 5730274.8206 -8953513.3421 2652016.1559 7433685.3688 4361739.443 10412206.32 
19912572.608 -2551740.1944 17075040.68 5581417.275 -7790467.6751 8701640.8389 -760026.03222 -5841789.5545 9134824.7792 
2280518.0028 10516084.448 23344040.991 8955576.663 -6530207.1012 4355664.1584 5736487.4455 -16416744.254 10381099.245 
1849709.5153 -534609.27785 9737158.7785 3620963.6012 -1897565.4795 1703960.0713 7716514.3618 -398728.54009 4393986.1106 
1003040.608 -332222.54867 470594.36997 7893464.5981 -1133098.3688 4102353.0113 2021001.7465 -152626.68409 1027401.8858 
992088.51691 69116.091188 528178.92432 195268.46281 -29280.172448 94224.032037 110559.5344 -31567.153931 52475.506365 
0 0 0 0 0 0 0 0 0 
0 0 0 0 0 0 0 0 0 
0 0 0 0 0 0 0 0 0 
0 0 0 0 0 0 0 0 0 
0 0 0 0 0 0 0 0 0 
0 0 0 0 0 0 0 0 0 
0 0 0 0 0 0 0 0 0 
0 0 0 0 0 0 0 0 0 
0 0 0 0 0 0 0 0 0 
0 0 0 0 0 0 0 0 0 
0 0 0 0 0 0 0 0 0 
0 0 0 0 0 0 0 0 0 
0 0 0 0 0 0 0 0 0 
0 0 0 0 0 0 0 0 0 
0 0 0 0 0 0 0 0 0 
0 0 0 0 0 0 0 0 0 
0 0 0 0 0 0 0 0 0 
0 0 0 0 0 0 0 0 0 
0 0 0 0 0 0 0 0 0 
0 0 0 0 0 0 0 0 0 
0 0 0 0 0 0 0 0 0 
0 0 0 0 0 0 0 0 0 
0 0 0 0 0 0 0 0 0 
0 0 0 0 0 0 0 0 0 
0 0 0 0 0 0 0 0 0 
0 0 0 0 0 0 0 0 0 
0 0 0 0 0 0 0 0 0 
0 0 0 0 0 0 0 0 0 
0 0 0 0 0 0 0 0 0 
0 0 0 0 0 0 0 0 0 
0 0 0 0 0 0 0 0 0 
0 0 0 0 0 0 0 0 0 
0 0 0 0 0 0 0 0 0 
0 0 0 0 0 0 0 0 0 
0 0 0 0 0 0 0 0 0 
0 0 0 0 0 0 0 0 0 
0 0 0 0 0 0 0 0 0 
0 0 0 0 0 0 0 0 0 
0 0 0 0 0 0 0 0 0 
0 0 0 0 0 0 0 0 0 
0 0 0 0 0 0 0 0 0 
0 0 0 0 0 0 0 0 0 
0 0 0 0 0 0 0 0 0 
0 0 0 0 0 0 0 0 0 
0 0 0 0 0 0 0 0 0 
0 0 0 0 0 0 0 0 0 
0 0 0 0 0 0 0 0 0 
0 0 0 0 0 0 0 0 0 
0 0 0 0 0 0 0 0 0 
0 0 0 0 0 0 0 0 0 
0 0 0 0 0 0 0 0 0 
0 0 0 0 0 0 0 0 0 
0 0 0 0 0 0 0 0 0 
0 0 0 0 0 0 0 0 0 
0 0 0 0 0 0 0 0 0 
0 0 0 0 0 0 0 0 0 
0 0 0 0 0 0 0 0 0 
0 0 0 0 0 0 0 0 0 
0 0 0 0 0 0 0 0 0 
0 0 0 0 0 0 0 0 0 
0 0 0 0 0 0 0 0 0 
0 0 0 0 0 0 0 0 0 
0 0 0 0 0 0 0 0 0 
0 0 0 0 0 0 0 0 0 
0 0 0 0 0 0 0 0 0 
0 0 0 0 0 0 0 0 0 
0 0 0 0 0 0 0 0 0 
0 0 0 0 0 0 0 0 0 
0 0 0 0 0 0 0 0 0 
0 0 0 0 0 0 0 0 0 
0 0 0 0 0 0 0 0 0 
0 0 0 0 0 0 0 0 0 
0 0 0 0 0 0 0 0 0 
0 0 0 0 0 0 0 0 0 
0 0 0 0 0 0 0 0 0 
0 0 0 0 0 0 0 0 0 
0 0 0 0 0 0 0 0 0 
0 0 0 0 0 0 0 0 0 
0 0 0 0 0 0 0 0 0 
0 0 0 0 0 0 0 0 0 
0 0 0 0 0 0 0 0 0 
0 0 0 0 0 0 0 0 0 
0 0 0 0 0 0 0 0 0 
0 0 0 0 0 0 0 0 0 
0 0 0 0 0 0 0 0 0 
0 0 0 0 0 0 0 0 0 
0 0 0 -118967.91952 2595879.6835 1003852.2418 0 0 0 
0 0 0 0 0 0 0 0 0 
0 0 0 0 0 0 0 0 0 
0 0 0 0 0 0 0 0 0 
0 0 0 4423061.6125 9943885.1572 5389808.7346 -989694.76693 11789537.363 5013507.3536 
0 0 0 0 0 0 0 0 0 
0 0 0 0 0 0 0 0 0 
0 0 0 0 0 0 0 0 0 
0 0 0 123607.69454 7537.213936 64873.823954 0 0 0 
480491.01475 401624.26393 391930.02858 2246426.0481 4182600.3944 3113998.9645 355873.38823 7777501.6031 5133846.594 
0 0 0 -1292865.2398 3513134.9395 2394458.6436 0 0 0 
-28517.979254 22395.3279 20150.935983 0 0 0 0 0 0 
-926196.27794 -135659.72842 452500.24105 -31135357.161 -29444212.452 15647113.866 0 0 0 
-1948127.6972 -3926041.9196 1360133.3775 0 0 0 0 0 0 
0 0 0 0 0 0 0 0 0 
6977249.7304 -3195507.9737 3161040.0047 0 0 0 9848463.6101 -1034334.6566 5472808.7123 
0 0 0 0 0 0 17174147.109 1148826.0698 4681200.4858 
30436977.665 -22514025.693 12942172.117 16565567.503 -29299932.427 10259676.405 0 0 0 
12767066.629 -4317424.0008 3397115.2535 0 0 0 16761905.837 -22767025.966 7674920.9242 
2176558.3272 -15102583.839 6743815.8307 9359162.9003 -35713181.408 9714726.3569 -1050654.3483 -55736754.85 13965712.026 
-904508.8363 -39752682.821 45601625.922 3519384.3749 -20187255.705 42868596.054 -21382212.448 -39469632.794 26865528.658 
-20034343.505 -29499107.896 11001184.657 -5827239.7675 -4525633.6754 3119729.8336 -13394737.013 -33722896.967 55203087.932 
-55578862.935 -54936356.022 82974354.882 -14324364.566 -12237250.404 10083924.406 -1627522.1267 -1216205.8793 766245.667 
-29818877.565 -23874006.437 13031854.504 -23772079.692 -8070513.6822 7446326.6905 0 0 0 
0 0 0 0 0 0 0 0 0 
0 0 0 0 0 0 0 0 0 
0 0 0 0 0 0 0 0 0 
0 0 0 0 0 0 0 0 0 
0 0 0 0 0 0 0 0 0 
-1403882.9949 2063156.29 1403840.8846 0 0 0 0 0 0 
-8115605.8929 11756611.804 7609492.285 -6577991.9889 11015342.257 5587264.1363 0 0 0 
0 0 0 0 0 0 0 0 0 
0 0 0 0 0 0 0 0 0 
0 0 0 0 0 0 0 0 0 
0 0 0 0 0 0 0 0 0 
0 0 0 0 0 0 0 0 0 
0 0 0 0 0 0 0 0 0 
0 0 0 3814941.5295 8052625.4874 4679759.1037 695640.22953 581908.41127 418591.01225 
0 0 0 0 0 0 0 0 0 
-1898256.2869 4149396.5338 1978890.9885 573205.29471 14576395.559 10330373.19 0 0 0 
0 0 0 0 0 0 0 0 0 
0 0 0 0 0 0 -1782277.5034 1468422.3712 1084548.4589 
-1383880.4574 1531383.5988 1215151.307 2610039.9394 4275980.6431 3230563.2138 0 0 0 
0 0 0 0 0 0 0 0 0 
0 0 0 0 0 0 0 0 0 
0 0 0 0 0 0 0 0 0 
0 0 0 0 0 0 0 0 0 
0 0 0 0 0 0 0 0 0 
0 0 0 0 0 0 0 0 0 
0 0 0 0 0 0 0 0 0 
0 0 0 0 0 0 0 0 0 
0 0 0 0 0 0 0 0 0 
0 0 0 0 0 0 0 0 0 
0 0 0 0 0 0 0 0 0 
0 0 0 0 0 0 0 0 0 
0 0 0 0 0 0 0 0 0 
0 0 0 0 0 0 0 0 0 
0 0 0 0 0 0 0 0 0 
0 0 0 0 0 0 0 0 0 
0 0 0 0 0 0 0 0 0 
0 0 0 0 0 0 0 0 0 
0 0 0 0 0 0 0 0 0 
0 0 0 0 0 0 0 0 0 
0 0 0 0 0 0 0 0 0 
0 0 0 0 0 0 0 0 0 
0 0 0 0 0 0 0 0 0 
0 0 0 0 0 0 0 0 0 
0 0 0 0 0 0 0 0 0 
0 0 0 0 0 0 0 0 0 
0 0 0 0 0 0 0 0 0 
0 0 0 0 0 0 0 0 0 
0 0 0 0 0 0 0 0 0 
0 0 0 0 0 0 0 0 0 
0 0 0 0 0 0 0 0 0 
0 0 0 0 0 0 0 0 0 
0 0 0 0 0 0 0 0 0 
0 0 0 0 0 0 0 0 0 
0 0 0 0 0 0 0 0 0 
0 0 0 0 0 0 0 0 0 
0 0 0 0 0 0 0 0 0 
0 0 0 0 0 0 0 0 0 
0 0 0 0 0 0 0 0 0 
0 0 0 0 0 0 0 0 0 
0 0 0 0 0 0 0 0 0 
0 0 0 0 0 0 0 0 0 
0 0 0 0 0 0 0 0 0 
0 0 0 0 0 0 0 0 0 
0 0 0 0 0 0 0 0 0 
0 0 0 0 0 0 0 0 0 
0 0 0 0 0 0 0 0 0 
0 0 0 0 0 0 0 0 0 
0 0 0 0 0 0 0 0 0 
0 0 0 0 0 0 0 0 0 
0 0 0 0 0 0 0 0 0 
0 0 0 0 0 0 0 0 0 
0 0 0 0 0 0 0 0 0 
0 0 0 0 0 0 0 0 0 
0 0 0 0 0 0 0 0 0 
0 0 0 0 0 0 0 0 0 
0 0 0 0 0 0 0 0 0 
0 0 0 0 0 0 0 0 0 
0 0 0 0 0 0 0 0 0 
0 0 0 0 0 0 0 0 0 
0 0 0 0 0 0 0 0 0 
0 0 0 0 0 0 0 0 0 
0 0 0 0 0 0 0 0 0 
0 0 0 0 0 0 0 0 0 
0 0 0 0 0 0 0 0 0 
0 0 0 0 0 0 0 0 0 
0 0 0 0 0 0 0 0 0 
0 0 0 0 0 0 0 0 0 
0 0 0 0 0 0 0 0 0 
0 0 0 0 0 0 0 0 0 
0 0 0 0 0 0 0 0 0 
0 0 0 0 0 0 0 0 0 
0 0 0 0 0 0 0 0 0 
0 0 0 0 0 0 0 0 0 
0 0 0 0 0 0 0 0 0 
0 0 0 0 0 0 0 0 0 
0 0 0 0 0 0 0 0 0 
0 0 0 0 0 0 0 0 0 
0 0 0 0 0 0 0 0 0 
0 0 0 0 0 0 0 0 0 
0 0 0 0 0 0 0 0 0 
0 0 0 0 0 0 0 0 0 
0 0 0 0 0 0 0 0 0 
0 0 0 0 0 0 0 0 0 
0 0 0 0 0 0 0 0 0 
0 0 0 0 0 0 0 0 0 
0 0 0 0 0 0 0 0 0 
0 0 0 0 0 0 0 0 0 
0 0 0 0 0 0 0 0 0 
0 0 0 0 0 0 0 0 0 
0 0 0 0 0 0 0 0 0 
0 0 0 0 0 0 0 0 0 
0 0 0 0 0 0 0 0 0 
0 0 0 0 0 0 0 0 0 
0 0 0 0 0 0 0 0 0 
0 0 0 0 0 0 0 0 0 
0 0 0 0 0 0 0 0 0 
0 0 0 0 0 0 0 0 0 
0 0 0 0 0 0 0 0 0 
0 0 0 0 0 0 0 0 0 
0 0 0 0 0 0 0 0 0 
0 0 0 0 0 0 0 0 0 
0 0 0 0 0 0 0 0 0 
0 0 0 0 0 0 0 0 0 
0 0 0 0 0 0 0 0 0 
0 0 0 0 0 0 0 0 0 
0 0 0 0 0 0 0 0 0 
0 0 0 0 0 0 0 0 0 
0 0 0 0 0 0 0 0 0 
0 0 0 0 0 0 0 0 0 
0 0 0 0 0 0 0 0 0 
0 0 0 0 0 0 0 0 0 
0 0 0 0 0 0 0 0 0 
0 0 0 0 0 0 0 0 0 
0 0 0 0 0 0 0 0 0 
0 0 0 0 0 0 0 0 0 
0 0 0 0 0 0 0 0 0 
0 0 0 0 0 0 0 0 0 
0 0 0 0 0 0 0 0 0 
0 0 0 0 0 0 0 0 0 
0 0 0 0 0 0 0 0 0 
0 0 0 0 0 0 0 0 0 
0 0 0 0 0 0 0 0 0 
0 0 0 0 0 0 0 0 0 
0 0 0 0 0 0 0 0 0 
0 0 0 0 0 0 0 0 0 
0 0 0 0 0 0 0 0 0 
0 0 0 0 0 0 0 0 0 
0 0 0 0 0 0 0 0 0 
0 0 0 0 0 0 0 0 0 
0 0 0 0 0 0 0 0 0 
0 0 0 0 0 0 0 0 0 
0 0 0 0 0 0 0 0 0 
0 0 0 0 0 0 0 0 0 
0 0 0 0 0 0 0 0 0 
0 0 0 0 0 0 0 0 0 
0 0 0 0 0 0 0 0 0 
0 0 0 0 0 0 0 0 0 
0 0 0 0 0 0 0 0 0 
0 0 0 0 0 0 0 0 0 
0 0 0 0 0 0 0 0 0 
0 0 0 0 0 0 0 0 0 
0 0 0 0 0 0 0 0 0 
0 0 0 0 0 0 0 0 0 
0 0 0 0 0 0 0 0 0 
0 0 0 0 0 0 0 0 0 
0 0 0 0 0 0 0 0 0 
0 0 0 0 0 0 0 0 0 
0 0 0 0 0 0 0 0 0 
0 0 0 0 0 0 0 0 0 
0 0 0 0 0 0 0 0 0 
0 0 0 0 0 0 0 0 0 
0 0 0 0 0 0 0 0 0 
0 0 0 0 0 0 0 0 0 
0 0 0 0 0 0 0 0 0 
0 0 0 0 0 0 0 0 0 
0 0 0 0 0 0 0 0 0 
0 0 0 0 0 0 0 0 0 
0 0 0 0 0 0 0 0 0 
0 0 0 0 0 0 0 0 0 
0 0 0 0 0 0 0 0 0 
0 0 0 0 0 0 0 0 0 
0 0 0 0 0 0 0 0 0 
0 0 0 0 0 0 0 0 0 
0 0 0 0 0 0 0 0 0 
0 0 0 0 0 0 0 0 0 
0 0 0 0 0 0 0 0 0 
0 0 0 0 0 0 0 0 0 
0 0 0 0 0 0 0 0 0 
0 0 0 0 0 0 0 0 0 
0 0 0 0 0 0 0 0 0 
0 0 0 0 0 0 0 0 0 
0 0 0 0 0 0 0 0 0 
0 0 0 0 0 0 0 0 0 
0 0 0 0 0 0 0 0 0 
0 0 0 0 0 0 0 0 0 
0 0 0 0 0 0 0 0 0 
0 0 0 0 0 0 0 0 0 
0 0 0 0 0 0 0 0 0 
0 0 0 0 0 0 0 0 0 
0 0 0 0 0 0 0 0 0 
0 0 0 0 0 0 0 0 0 
0 0 0 0 0 0 0 0 0 
0 0 0 0 0 0 0 0 0 
0 0 0 0 0 0 0 0 0 
0 0 0 0 0 0 0 0 0 
0 0 0 0 0 0 0 0 0 
0 0 0 0 0 0 0 0 0 
0 0 0 0 0 0 0 0 0 
0 0 0 0 0 0 0 0 0 
0 0 0 0 0 0 0 0 0 
0 0 0 0 0 0 0 0 0 
0 0 0 0 0 0 0 0 0 
0 0 0 0 0 0 0 0 0 
0 0 0 0 0 0 0 0 0 
0 0 0 0 0 0 0 0 0 
0 0 0 0 0 0 0 0 0 
0 0 0 0 0 0 0 0 0 
0 0 0 0 0 0 0 0 0 
0 0 0 0 0 0 0 0 0 
0 0 0 0 0 0 0 0 0 
0 0 0 0 0 0 0 0 0 
0 0 0 0 0 0 0 0 0 
0 0 0 0 0 0 0 0 0 
0 0 0 0 0 0 0 0 0 
0 0 0 0 0 0 0 0 0 
0 0 0 0 0 0 0 0 0 
0 0 0 0 0 0 0 0 0 
0 0 0 0 0 0 0 0 0 
0 0 0 0 0 0 0 0 0 
0 0 0 0 0 0 0 0 0 
0 0 0 0 0 0 0 0 0 
0 0 0 0 0 0 0 0 0 
0 0 0 0 0 0 0 0 0 
0 0 0 0 0 0 0 0 0 
0 0 0 0 0 0 0 0 0 
0 0 0 0 0 0 0 0 0 
0 0 0 0 0 0 0 0 0 
0 0 0 0 0 0 0 0 0 
0 0 0 0 0 0 0 0 0 
0 0 0 0 0 0 0 0 0 
0 0 0 0 0 0 0 0 0 
0 0 0 0 0 0 0 0 0 
0 0 0 0 0 0 0 0 0 
0 0 0 0 0 0 0 0 0 
0 0 0 0 0 0 0 0 0 
0 0 0 0 0 0 0 0 0 
0 0 0 0 0 0 0 0 0 
0 0 0 0 0 0 0 0 0 
0 0 0 0 0 0 0 0 0 
0 0 0 0 0 0 0 0 0 
0 0 0 0 0 0 0 0 0 
0 0 0 0 0 0 0 0 0 
0 0 0 0 0 0 0 0 0 
0 0 0 0 0 0 0 0 0 
0 0 0 0 0 0 0 0 0 
0 0 0 0 0 0 0 0 0 
0 0 0 0 0 0 0 0 0 
0 0 0 0 0 0 0 0 0 
0 0 0 0 0 0 0 0 0 
0 0 0 0 0 0 0 0 0 
0 0 0 0 0 0 0 0 0 
0 0 0 0 0 0 0 0 0 
0 0 0 0 0 0 0 0 0 
0 0 0 0 0 0 0 0 0 
0 0 0 0 0 0 0 0 0 
0 0 0 0 0 0 0 0 0 
0 0 0 0 0 0 0 0 0 
0 0 0 0 0 0 0 0 0 
0 0 0 0 0 0 0 0 0 
0 0 0 0 0 0 0 0 0 
0 0 0 0 0 0 0 0 0 
0 0 0 0 0 0 0 0 0 
0 0 0 0 0 0 0 0 0 
0 0 0 0 0 0 0 0 0 
0 0 0 0 0 0 0 0 0 
0 0 0 0 0 0 0 0 0 
0 0 0 0 0 0 0 0 0 
0 0 0 0 0 0 0 0 0 
0 0 0 0 0 0 0 0 0 
0 0 0 0 0 0 0 0 0 
0 0 0 0 0 0 0 0 0 
0 0 0 0 0 0 0 0 0 
0 0 0 0 0 0 0 0 0 
0 0 0 0 0 0 0 0 0 
0 0 0 0 0 0 0 0 0 
0 0 0 0 0 0 0 0 0 
0 0 0 0 0 0 0 0 0 
0 0 0 0 0 0 0 0 0 
0 0 0 0 0 0 0 0 0 
0 0 0 0 0 0 0 0 0 
0 0 0 0 0 0 0 0 0 
0 0 0 0 0 0 0 0 0 
0 0 0 0 0 0 0 0 0 
0 0 0 0 0 0 0 0 0 
0 0 0 0 0 0 0 0 0 
0 0 0 0 0 0 0 0 0 
0 0 0 0 0 0 0 0 0 
0 0 0 0 0 0 0 0 0 
0 0 0 0 0 0 0 0 0 
0 0 0 0 0 0 0 0 0 
0 0 0 0 0 0 0 0 0 
0 0 0 0 0 0 0 0 0 
0 0 0 0 0 0 0 0 0 
0 0 0 0 0 0 0 0 0 
0 0 0 0 0 0 0 0 0 
0 0 0 0 0 0 0 0 0 
0 0 0 0 0 0 0 0 0 
0 0 0 0 0 0 0 0 0 
0 0 0 0 0 0 0 0 0 
0 0 0 0 0 0 0 0 0 
0 0 0 0 0 0 0 0 0 
0 0 0 0 0 0 0 0 0 
0 0 0 0 0 0 0 0 0 
0 0 0 0 0 0 0 0 0 
0 0 0 0 0 0 0 0 0 
0 0 0 0 0 0 0 0 0 
0 0 0 0 0 0 0 0 0 
0 0 0 0 0 0 0 0 0 
0 0 0 0 0 0 0 0 0 
0 0 0 0 0 0 0 0 0 
0 0 0 0 0 0 0 0 0 
0 0 0 0 0 0 0 0 0 
0 0 0 0 0 0 0 0 0 
0 0 0 0 0 0 0 0 0 
0 0 0 0 0 0 0 0 0 
0 0 0 0 0 0 0 0 0 
0 0 0 0 0 0 0 0 0 
0 0 0 0 0 0 0 0 0 
0 0 0 0 0 0 0 0 0 
0 0 0 0 0 0 0 0 0 
0 0 0 0 0 0 0 0 0 
0 0 0 0 0 0 0 0 0 
0 0 0 0 0 0 0 0 0 
0 0 0 0 0 0 0 0 0 
0 0 0 0 0 0 0 0 0 
0 0 0 0 0 0 0 0 0 
0 0 0 0 0 0 0 0 0 
0 0 0 0 0 0 0 0 0 
0 0 0 0 0 0 0 0 0 
0 0 0 0 0 0 0 0 0 
0 0 0 0 0 0 0 0 0 
0 0 0 0 0 0 0 0 0 
0 0 0 0 0 0 0 0 0 
0 0 0 0 0 0 0 0 0 
0 0 0 0 0 0 0 0 0 
0 0 0 0 0 0 0 0 0 
0 0 0 0 0 0 0 0 0 
0 0 0 0 0 0 0 0 0 
0 0 0 0 0 0 0 0 0 
0 0 0 0 0 0 0 0 0 
0 0 0 0 0 0 0 0 0 
0 0 0 0 0 0 0 0 0 
0 0 0 0 0 0 0 0 0 
0 0 0 0 0 0 0 0 0 
0 0 0 0 0 0 0 0 0 
0 0 0 0 0 0 0 0 0 
0 0 0 0 0 0 0 0 0 
0 0 0 0 0 0 0 0 0 
0 0 0 0 0 0 0 0 0 
0 0 0 0 0 0 0 0 0 
0 0 0 0 0 0 0 0 0 
0 0 0 0 0 0 0 0 0 
0 0 0 0 0 0 0 0 0 
0 0 0 0 0 0 0 0 0 
0 0 0 0 0 0 0 0 0 
0 0 0 0 0 0 0 0 0 
0 0 0 0 0 0 0 0 0 
0 0 0 0 0 0 0 0 0 
0 0 0 0 0 0 0 0 0 
0 0 0 0 0 0 0 0 0 
0 0 0 0 0 0 0 0 0 
0 0 0 0 0 0 0 0 0 
0 0 0 0 0 0 0 0 0 
0 0 0 0 0 0 0 0 0 
0 0 0 0 0 0 0 0 0 
0 0 0 0 0 0 0 0 0 
0 0 0 0 0 0 0 0 0 
0 0 0 0 0 0 0 0 0 
0 0 0 0 0 0 0 0 0 
0 0 0 0 0 0 0 0 0 
0 0 0 0 0 0 0 0 0 
0 0 0 0 0 0 0 0 0 
0 0 0 0 0 0 0 0 0 
0 0 0 0 0 0 0 0 0 
0 0 0 0 0 0 0 0 0 
0 0 0 0 0 0 0 0 0 
0 0 0 0 0 0 0 0 0 
0 0 0 0 0 0 0 0 0 
0 0 0 0 0 0 0 0 0 
0 0 0 0 0 0 0 0 0 
0 0 0 0 0 0 0 0 0 
0 0 0 0 0 0 0 0 0 
0 0 0 0 0 0 0 0 0 
0 0 0 0 0 0 0 0 0 
0 0 0 0 0 0 0 0 0 
0 0 0 0 0 0 0 0 0 
0 0 0 0 0 0 0 0 0 
0 0 0 0 0 0 0 0 0 
0 0 0 0 0 0 0 0 0 
0 0 0 0 0 0 0 0 0 
0 0 0 0 0 0 0 0 0 
0 0 0 0 0 0 0 0 0 
0 0 0 0 0 0 0 0 0 
0 0 0 0 0 0 0 0 0 
0 0 0 0 0 0 0 0 0 
0 0 0 0 0 0 0 0 0 
0 0 0 0 0 0 0 0 0 
0 0 0 0 0 0 0 0 0 
0 0 0 0 0 0 0 0 0 
0 0 0 0 0 0 0 0 0 
0 0 0 0 0 0 0 0 0 
0 0 0 0 0 0 0 0 0 
0 0 0 0 0 0 0 0 0 
0 0 0 0 0 0 0 0 0 
0 0 0 0 0 0 0 0 0 
0 0 0 0 0 0 0 0 0 
0 0 0 0 0 0 0 0 0 
0 0 0 0 0 0 0 0 0 
0 0 0 0 0 0 0 0 0 
0 0 0 0 0 0 0 0 0 
0 0 0 0 0 0 0 0 0 
0 0 0 0 0 0 0 0 0 
0 0 0 0 0 0 0 0 0 
0 0 0 0 0 0 0 0 0 
0 0 0 0 0 0 0 0 0 
0 0 0 0 0 0 0 0 0 
0 0 0 0 0 0 0 0 0 
0 0 0 0 0 0 0 0 0 
0 0 0 0 0 0 0 0 0 
0 0 0 0 0 0 0 0 0 
0 0 0 0 0 0 0 0 0 
0 0 0 0 0 0 0 0 0 
0 0 0 0 0 0 0 0 0 
0 0 0 0 0 0 0 0 0 
0 0 0 0 0 0 0 0 0 
0 0 0 0 0 0 0 0 0 
0 0 0 0 0 0 0 0 0 
0 0 0 0 0 0 0 0 0 
0 0 0 0 0 0 0 0 0 
0 0 0 0 0 0 0 0 0 
0 0 0 0 0 0 0 0 0 
0 0 0 0 0 0 0 0 0 
0 0 0 0 0 0 0 0 0 
0 0 0 0 0 0 0 0 0 
0 0 0 0 0 0 0 0 0 
0 0 0 0 0 0 0 0 0 
0 0 0 0 0 0 0 0 0 
0 0 0 0 0 0 0 0 0 
0 0 0 0 0 0 0 0 0 
0 0 0 0 0 0 0 0 0 
0 0 0 0 0 0 0 0 0 
0 0 0 0 0 0 0 0 0 
0 0 0 0 0 0 0 0 0 
0 0 0 0 0 0 0 0 0 
0 0 0 0 0 0 0 0 0 
0 0 0 0 0 0 0 0 0 
0 0 0 0 0 0 0 0 0 
0 0 0 0 0 0 0 0 0 
0 0 0 0 0 0 0 0 0 
0 0 0 0 0 0 0 0 0 
0 0 0 0 0 0 0 0 0 
0 0 0 0 0 0 0 0 0 
0 0 0 0 0 0 0 0 0 
0 0 0 0 0 0 0 0 0 
0 0 0 0 0 0 0 0 0 
0 0 0 0 0 0 0 0 0 
0 0 0 0 0 0 0 0 0 
0 0 0 0 0 0 0 0 0 
0 0 0 0 0 0 0 0 0 
0 0 0 0 0 0 0 0 0 
0 0 0 0 0 0 0 0 0 
0 0 0 0 0 0 0 0 0 
0 0 0 0 0 0 0 0 0 
0 0 0 0 0 0 0 0 0 
0 0 0 0 0 0 0 0 0 
0 0 0 0 0 0 0 0 0 
0 0 0 0 0 0 0 0 0 
0 0 0 0 0 0 0 0 0 
0 0 0 0 0 0 0 0 0 
0 0 0 0 0 0 0 0 0 
0 0 0 0 0 0 0 0 0 
0 0 0 0 0 0 0 0 0 
0 0 0 0 0 0 0 0 0 
0 0 0 0 0 0 0 0 0 
0 0 0 0 0 0 0 0 0 
0 0 0 0 0 0 0 0 0 
0 0 0 0 0 0 0 0 0 
0 0 0 0 0 0 0 0 0 
0 0 0 0 0 0 0 0 0 
0 0 0 0 0 0 0 0 0 
0 0 0 0 0 0 0 0 0 
0 0 0 0 0 0 0 0 0 
0 0 0 0 0 0 0 0 0 
0 0 0 0 0 0 0 0 0 
0 0 0 0 0 0 0 0 0 
0 0 0 0 0 0 0 0 0 
0 0 0 0 0 0 0 0 0 
0 0 0 0 0 0 0 0 0 
0 0 0 0 0 0 0 0 0 
0 0 0 0 0 0 0 0 0 
0 0 0 0 0 0 0 0 0 
0 0 0 0 0 0 0 0 0 
0 0 0 0 0 0 0 0 0 
0 0 0 0 0 0 0 0 0 
0 0 0 0 0 0 0 0 0 
0 0 0 0 0 0 0 0 0 
0 0 0 0 0 0 0 0 0 
0 0 0 0 0 0 0 0 0 
0 0 0 0 0 0 0 0 0 
0 0 0 0 0 0 0 0 0 
0 0 0 0 0 0 0 0 0 
0 0 0 0 0 0 0 0 0 
0 0 0 0 0 0 0 0 0 
0 0 0 0 0 0 0 0 0 
0 0 0 0 0 0 0 0 0 
0 0 0 0 0 0 0 0 0 
0 0 0 0 0 0 0 0 0 
0 0 0 0 0 0 0 0 0 
0 0 0 0 0 0 0 0 0 
0 0 0 0 0 0 0 0 0 
0 0 0 0 0 0 0 0 0 
0 0 0 0 0 0 0 0 0 
0 0 0 0 0 0 0 0 0 
0 0 0 0 0 0 0 0 0 
0 0 0 0 0 0 0 0 0 
0 0 0 0 0 0 0 0 0 
0 0 0 0 0 0 0 0 0 
0 0 0 0 0 0 0 0 0 
0 0 0 0 0 0 0 0 0 
0 0 0 0 0 0 0 0 0 
0 0 0 0 0 0 0 0 0 
0 0 0 0 0 0 0 0 0 
0 0 0 0 0 0 0 0 0 
0 0 0 0 0 0 0 0 0 
0 0 0 0 0 0 0 0 0 
0 0 0 0 0 0 0 0 0 
0 0 0 0 0 0 0 0 0 
0 0 0 0 0 0 0 0 0 
0 0 0 0 0 0 0 0 0 
0 0 0 0 0 0 0 0 0 
0 0 0 0 0 0 0 0 0 
0 0 0 0 0 0 0 0 0 
0 0 0 0 0 0 0 0 0 
0 0 0 0 0 0 0 0 0 
0 0 0 0 0 0 0 0 0 
0 0 0 0 0 0 0 0 0 
0 0 0 0 0 0 0 0 0 
0 0 0 0 0 0 0 0 0 
0 0 0 0 0 0 0 0 0 
0 0 0 0 0 0 0 0 0 
0 0 0 0 0 0 0 0 0 
0 0 0 0 0 0 0 0 0 
0 0 0 0 0 0 0 0 0 
0 0 0 0 0 0 0 0 0 
0 0 0 0 0 0 0 0 0 
0 0 0 0 0 0 0 0 0 
0 0 0 0 0 0 0 0 0 
0 0 0 0 0 0 0 0 0 
0 0 0 0 0 0 0 0 0 
0 0 0 0 0 0 0 0 0 
0 0 0 0 0 0 0 0 0 
0 0 0 0 0 0 0 0 0 
0 0 0 0 0 0 0 0 0 
0 0 0 0 0 0 0 0 0 
0 0 0 0 0 0 0 0 0 
0 0 0 0 0 0 0 0 0 
0 0 0 0 0 0 0 0 0 
0 0 0 0 0 0 0 0 0 
0 0 0 0 0 0 0 0 0 
0 0 0 0 0 0 0 0 0 
0 0 0 0 0 0 0 0 0 
0 0 0 0 0 0 0 0 0 
0 0 0 0 0 0 0 0 0 
0 0 0 0 0 0 0 0 0 
0 0 0 0 0 0 0 0 0 
0 0 0 0 0 0 0 0 0 
0 0 0 0 0 0 0 0 0 
0 0 0 0 0 0 0 0 0 
0 0 0 0 0 0 0 0 0 
0 0 0 0 0 0 0 0 0 
0 0 0 0 0 0 0 0 0 
0 0 0 0 0 0 0 0 0 
0 0 0 0 0 0 0 0 0 
0 0 0 0 0 0 0 0 0 
0 0 0 0 0 0 0 0 0 
0 0 0 0 0 0 0 0 0 
0 0 0 0 0 0 0 0 0 
0 0 0 0 0 0 0 0 0 
0 0 0 0 0 0 0 0 0 
0 0 0 0 0 0 0 0 0 
0 0 0 0 0 0 0 0 0 
0 0 0 0 0 0 0 0 0 
0 0 0 0 0 0 0 0 0 
0 0 0 0 0 0 0 0 0 
0 0 0 0 0 0 0 0 0 
0 0 0 0 0 0 0 0 0 
0 0 0 0 0 0 0 0 0 
0 0 0 0 0 0 0 0 0 
0 0 0 0 0 0 0 0 0 
0 0 0 0 0 0 0 0 0 
0 0 0 0 0 0 0 0 0 
0 0 0 0 0 0 0 0 0 
0 0 0 0 0 0 0 0 0 
0 0 0 0 0 0 0 0 0 
0 0 0 0 0 0 0 0 0 
0 0 0 0 0 0 0 0 0 
0 0 0 0 0 0 0 0 0 
0 0 0 0 0 0 0 0 0 
0 0 0 0 0 0 0 0 0 
0 0 0 0 0 0 0 0 0 
0 0 0 0 0 0 0 0 0 
0 0 0 0 0 0 0 0 0 
0 0 0 0 0 0 0 0 0 
0 0 0 0 0 0 0 0 0 
0 0 0 0 0 0 0 0 0 
0 0 0 0 0 0 0 0 0 
0 0 0 0 0 0 0 0 0 
0 0 0 0 0 0 0 0 0 
0 0 0 0 0 0 0 0 0 
0 0 0 0 0 0 0 0 0 
0 0 0 0 0 0 0 0 0 
0 0 0 0 0 0 0 0 0 
0 0 0 0 0 0 0 0 0 
0 0 0 0 0 0 0 0 0 
0 0 0 0 0 0 0 0 0 
0 0 0 0 0 0 0 0 0 
0 0 0 0 0 0 0 0 0 
0 0 0 0 0 0 0 0 0 
0 0 0 0 0 0 0 0 0 
0 0 0 0 0 0 0 0 0 
0 0 0 0 0 0 0 0 0 
0 0 0 0 0 0 0 0 0 
0 0 0 0 0 0 0 0 0 
0 0 0 0 0 0 0 0 0 
0 0 0 0 0 0 0 0 0 
0 0 0 0 0 0 0 0 0 
0 0 0 0 0 0 0 0 0 
0 0 0 0 0 0 0 0 0 
0 0 0 0 0 0 0 0 0 
0 0 0 0 0 0 0 0 0 
0 0 0 0 0 0 0 0 0 
0 0 0 0 0 0 0 0 0 
0 0 0 0 0 0 0 0 0 
0 0 0 0 0 0 0 0 0 
0 0 0 0 0 0 0 0 0 
0 0 0 0 0 0 0 0 0 
0 0 0 0 0 0 0 0 0 
0 0 0 0 0 0 0 0 0 
0 0 0 0 0 0 0 0 0 
0 0 0 0 0 0 0 0 0 
0 0 0 0 0 0 0 0 0 
0 0 0 0 0 0 0 0 0 
0 0 0 0 0 0 0 0 0 
0 0 0 0 0 0 0 0 0 
0 0 0 0 0 0 0 0 0 
0 0 0 0 0 0 0 0 0 
0 0 0 0 0 0 0 0 0 
0 0 0 0 0 0 0 0 0 
0 0 0 0 0 0 0 0 0 
0 0 0 0 0 0 0 0 0 
0 0 0 0 0 0 0 0 0 
0 0 0 0 0 0 0 0 0 
0 0 0 0 0 0 0 0 0 
0 0 0 0 0 0 0 0 0 
0 0 0 0 0 0 0 0 0 
0 0 0 0 0 0 0 0 0 
0 0 0 0 0 0 0 0 0 
0 0 0 0 0 0 0 0 0 
0 0 0 0 0 0 0 0 0 
0 0 0 0 0 0 0 0 0 
0 0 0 0 0 0 0 0 0 
0 0 0 0 0 0 0 0 0 
0 0 0 0 0 0 0 0 0 
0 0 0 0 0 0 0 0 0 
0 0 0 0 0 0 0 0 0 
0 0 0 0 0 0 0 0 0 
0 0 0 0 0 0 0 0 0 
0 0 0 0 0 0 0 0 0 
0 0 0 0 0 0 0 0 0 
0 0 0 0 0 0 0 0 0 
0 0 0 0 0 0 0 0 0 
0 0 0 0 0 0 0 0 0 
0 0 0 0 0 0 0 0 0 
0 0 0 0 0 0 0 0 0 
0 0 0 0 0 0 0 0 0 
0 0 0 0 0 0 0 0 0 
0 0 0 0 0 0 0 0 0 
0 0 0 0 0 0 0 0 0 
0 0 0 0 0 0 0 0 0 
0 0 0 0 0 0 0 0 0 
0 0 0 0 0 0 0 0 0 
0 0 0 0 0 0 0 0 0 
0 0 0 0 0 0 0 0 0 
0 0 0 0 0 0 0 0 0 
0 0 0 0 0 0 0 0 0 
0 0 0 0 0 0 0 0 0 
0 0 0 0 0 0 0 0 0 
0 0 0 0 0 0 0 0 0 
0 0 0 0 0 0 0 0 0 
0 0 0 0 0 0 0 0 0 
0 0 0 0 0 0 0 0 0 
0 0 0 0 0 0 0 0 0 
0 0 0 0 0 0 0 0 0 
0 0 0 0 0 0 0 0 0 
0 0 0 0 0 0 0 0 0 
0 0 0 0 0 0 0 0 0 
0 0 0 0 0 0 
meshid 1 5744 int
0 1 2 3 4 5 6 7 8 
9 10 11 12 13 14 15 16 17 
18 19 20 21 22 23 24 25 26 
27 28 29 30 31 32 33 34 35 
36 37 38 39 40 41 42 43 44 
45 46 47 48 49 50 51 52 53 
54 55 56 57 58 59 60 61 62 
63 64 65 66 67 68 69 70 71 
72 73 74 75 76 77 78 79 80 
81 82 83 84 85 86 87 88 89 
90 91 92 93 94 95 96 97 98 
99 100 101 102 103 104 105 106 107 
108 109 110 111 112 113 114 115 116 
117 118 119 120 121 122 123 124 125 
126 127 128 129 130 131 132 133 134 
135 136 137 138 139 140 141 142 143 
144 145 146 147 148 149 150 151 152 
153 154 155 156 157 158 159 160 161 
162 163 164 165 166 167 168 169 170 
171 172 173 174 175 176 177 178 179 
180 181 182 183 184 185 186 187 188 
189 190 191 192 193 194 195 196 197 
198 199 200 201 202 203 204 205 206 
207 208 209 210 211 212 213 214 215 
216 217 218 219 220 221 222 223 224 
225 226 227 228 229 230 231 232 233 
234 235 236 237 238 239 240 241 242 
243 244 245 246 247 248 249 250 251 
252 253 254 255 256 257 258 259 260 
261 262 263 264 265 266 267 268 269 
270 271 272 273 274 275 276 277 278 
279 280 281 282 283 284 285 286 287 
288 289 290 291 292 293 294 295 296 
297 298 299 300 301 302 303 304 305 
306 307 308 309 310 311 312 313 314 
315 316 317 318 319 320 321 322 323 
324 325 326 327 328 329 330 331 332 
333 334 335 336 337 338 339 340 341 
342 343 344 345 346 347 348 349 350 
351 352 353 354 355 356 357 358 359 
360 361 362 363 364 365 366 367 368 
369 370 371 372 373 374 375 376 377 
378 379 380 381 382 383 384 385 386 
387 388 389 390 391 392 393 394 395 
396 397 398 399 400 401 402 403 404 
405 406 407 408 409 410 411 412 413 
414 415 416 417 418 419 420 421 422 
423 424 425 426 427 428 429 430 431 
432 433 434 435 436 437 438 439 440 
441 442 443 444 445 446 447 448 449 
450 451 452 453 454 455 456 457 458 
459 460 461 462 463 464 465 466 467 
468 469 470 471 472 473 474 475 476 
477 478 479 480 481 482 483 484 485 
486 487 488 489 490 491 492 493 494 
495 496 497 498 499 500 501 502 503 
504 505 506 507 508 509 510 511 512 
513 514 515 516 517 518 519 520 521 
522 523 524 525 526 527 528 529 530 
531 532 533 534 535 536 537 538 539 
540 541 542 543 544 545 546 547 548 
549 550 551 552 553 554 555 556 557 
558 559 560 561 562 563 564 565 566 
567 568 569 570 571 572 573 574 575 
576 577 578 579 580 581 582 583 584 
585 586 587 588 589 590 591 592 593 
594 595 596 597 598 599 600 601 602 
603 604 605 606 607 608 609 610 611 
612 613 614 615 616 617 618 619 620 
621 622 623 624 625 626 627 628 629 
630 631 632 633 634 635 636 637 638 
639 640 641 642 643 644 645 646 647 
648 649 650 651 652 653 654 655 656 
657 658 659 660 661 662 663 664 665 
666 667 668 669 670 671 672 673 674 
675 676 677 678 679 680 681 682 683 
684 685 686 687 688 689 690 691 692 
693 694 695 696 697 698 699 700 701 
702 703 704 705 706 707 708 709 710 
711 712 713 714 715 716 717 718 719 
720 721 722 723 724 725 726 727 728 
729 730 731 732 733 734 735 736 737 
738 739 740 741 742 743 744 745 746 
747 748 749 750 751 752 753 754 755 
756 757 758 759 760 761 762 763 764 
765 766 767 768 769 770 771 772 773 
774 775 776 777 778 779 780 781 782 
783 784 785 786 787 788 789 790 791 
792 793 794 795 796 797 798 799 800 
801 802 803 804 805 806 807 808 809 
810 811 812 813 814 815 816 817 818 
819 820 821 822 823 824 825 826 827 
828 829 830 831 832 833 834 835 836 
837 838 839 840 841 842 843 844 845 
846 847 848 849 850 851 852 853 854 
855 856 857 858 859 860 861 862 863 
864 865 866 867 868 869 870 871 872 
873 874 875 876 877 878 879 880 881 
882 883 884 885 886 887 888 889 890 
891 892 893 894 895 896 897 898 899 
900 901 902 903 904 905 906 907 908 
909 910 911 912 913 914 915 916 917 
918 919 920 921 922 923 924 925 926 
927 928 929 930 931 932 933 934 935 
936 937 938 939 940 941 942 943 944 
945 946 947 948 949 950 951 952 953 
954 955 956 957 958 959 960 961 962 
963 964 965 966 967 968 969 970 971 
972 973 974 975 976 977 978 979 980 
981 982 983 984 985 986 987 988 989 
990 991 992 993 994 995 996 997 998 
999 1000 1001 1002 1003 1004 1005 1006 1007 
1008 1009 1010 1011 1012 1013 1014 1015 1016 
1017 1018 1019 1020 1021 1022 1023 1024 1025 
1026 1027 1028 1029 1030 1031 1032 1033 1034 
1035 1036 1037 1038 1039 1040 1041 1042 1043 
1044 1045 1046 1047 1048 1049 1050 1051 1052 
1053 1054 1055 1056 1057 1058 1059 1060 1061 
1062 1063 1064 1065 1066 1067 1068 1069 1070 
1071 1072 1073 1074 1075 1076 1077 1078 1079 
1080 1081 1082 1083 1084 1085 1086 1087 1088 
1089 1090 1091 1092 1093 1094 1095 1096 1097 
1098 1099 1100 1101 1102 1103 1104 1105 1106 
1107 1108 1109 1110 1111 1112 1113 1114 1115 
1116 1117 1118 1119 1120 1121 1122 1123 1124 
1125 1126 1127 1128 1129 1130 1131 1132 1133 
1134 1135 1136 1137 1138 1139 1140 1141 1142 
1143 1144 1145 1146 1147 1148 1149 1150 1151 
1152 1153 1154 1155 1156 1157 1158 1159 1160 
1161 1162 1163 1164 1165 1166 1167 1168 1169 
1170 1171 1172 1173 1174 1175 1176 1177 1178 
1179 1180 1181 1182 1183 1184 1185 1186 1187 
1188 1189 1190 1191 1192 1193 1194 1195 1196 
1197 1198 1199 1200 1201 1202 1203 1204 1205 
1206 1207 1208 1209 1210 1211 1212 1213 1214 
1215 1216 1217 1218 1219 1220 1221 1222 1223 
1224 1225 1226 1227 1228 1229 1230 1231 1232 
1233 1234 1235 1236 1237 1238 1239 1240 1241 
1242 1243 1244 1245 1246 1247 1248 1249 1250 
1251 1252 1253 1254 1255 1256 1257 1258 1259 
1260 1261 1262 1263 1264 1265 1266 1267 1268 
1269 1270 1271 1272 1273 1274 1275 1276 1277 
1278 1279 1280 1281 1282 1283 1284 1285 1286 
1287 1288 1289 1290 1291 1292 1293 1294 1295 
1296 1297 1298 1299 1300 1301 1302 1303 1304 
1305 1306 1307 1308 1309 1310 1311 1312 1313 
1314 1315 1316 1317 1318 1319 1320 1321 1322 
1323 1324 1325 1326 1327 1328 1329 1330 1331 
1332 1333 1334 1335 1336 1337 1338 1339 1340 
1341 1342 1343 1344 1345 1346 1347 1348 1349 
1350 1351 1352 1353 1354 1355 1356 1357 1358 
1359 1360 1361 1362 1363 1364 1365 1366 1367 
1368 1369 1370 1371 1372 1373 1374 1375 1376 
1377 1378 1379 1380 1381 1382 1383 1384 1385 
1386 1387 1388 1389 1390 1391 1392 1393 1394 
1395 1396 1397 1398 1399 1400 1401 1402 1403 
1404 1405 1406 1407 1408 1409 1410 1411 1412 
1413 1414 1415 1416 1417 1418 1419 1420 1421 
1422 1423 1424 1425 1426 1427 1428 1429 1430 
1431 1432 1433 1434 1435 1436 1437 1438 1439 
1440 1441 1442 1443 1444 1445 1446 1447 1448 
1449 1450 1451 1452 1453 1454 1455 1456 1457 
1458 1459 1460 1461 1462 1463 1464 1465 1466 
1467 1468 1469 1470 1471 1472 1473 1474 1475 
1476 1477 1478 1479 1480 1481 1482 1483 1484 
1485 1486 1487 1488 1489 1490 1491 1492 1493 
1494 1495 1496 1497 1498 1499 1500 1501 1502 
1503 1504 1505 1506 1507 1508 1509 1510 1511 
1512 1513 1514 1515 1516 1517 1518 1519 1520 
1521 1522 1523 1524 1525 1526 1527 1528 1529 
1530 1531 1532 1533 1534 1535 1536 1537 1538 
1539 1540 1541 1542 1543 1544 1545 1546 1547 
1548 1549 1550 1551 1552 1553 1554 1555 1556 
1557 1558 1559 1560 1561 1562 1563 1564 1565 
1566 1567 1568 1569 1570 1571 1572 1573 1574 
1575 1576 1577 1578 1579 1580 1581 1582 1583 
1584 1585 1586 1587 1588 1589 1590 1591 1592 
1593 1594 1595 1596 1597 1598 1599 1600 1601 
1602 1603 1604 1605 1606 1607 1608 1609 1610 
1611 1612 1613 1614 1615 1616 1617 1618 1619 
1620 1621 1622 1623 1624 1625 1626 1627 1628 
1629 1630 1631 1632 1633 1634 1635 1636 1637 
1638 1639 1640 1641 1642 1643 1644 1645 1646 
1647 1648 1649 1650 1651 1652 1653 1654 1655 
1656 1657 1658 1659 1660 1661 1662 1663 1664 
1665 1666 1667 1668 1669 1670 1671 1672 1673 
1674 1675 1676 1677 1678 1679 1680 1681 1682 
1683 1684 1685 1686 1687 1688 1689 1690 1691 
1692 1693 1694 1695 1696 1697 1698 1699 1700 
1701 1702 1703 1704 1705 1706 1707 1708 1709 
1710 1711 1712 1713 1714 1715 1716 1717 1718 
1719 1720 1721 1722 1723 1724 1725 1726 1727 
1728 1729 1730 1731 1732 1733 1734 1735 1736 
1737 1738 1739 1740 1741 1742 1743 1744 1745 
1746 1747 1748 1749 1750 1751 1752 1753 1754 
1755 1756 1757 1758 1759 1760 1761 1762 1763 
1764 1765 1766 1767 1768 1769 1770 1771 1772 
1773 1774 1775 1776 1777 1778 1779 1780 1781 
1782 1783 1784 1785 1786 1787 1788 1789 1790 
1791 1792 1793 1794 1795 1796 1797 1798 1799 
1800 1801 1802 1803 1804 1805 1806 1807 1808 
1809 1810 1811 1812 1813 1814 1815 1816 1817 
1818 1819 1820 1821 1822 1823 1824 1825 1826 
1827 1828 1829 1830 1831 1832 1833 1834 1835 
1836 1837 1838 1839 1840 1841 1842 1843 1844 
1845 1846 1847 1848 1849 1850 1851 1852 1853 
1854 1855 1856 1857 1858 1859 1860 1861 1862 
1863 1864 1865 1866 1867 1868 1869 1870 1871 
1872 1873 1874 1875 1876 1877 1878 1879 1880 
1881 1882 1883 1884 1885 1886 1887 1888 1889 
1890 1891 1892 1893 1894 1895 1896 1897 1898 
1899 1900 1901 1902 1903 1904 1905 1906 1907 
1908 1909 1910 1911 1912 1913 1914 1915 1916 
1917 1918 1919 1920 1921 1922 1923 1924 1925 
1926 1927 1928 1929 1930 1931 1932 1933 1934 
1935 1936 1937 1938 1939 1940 1941 1942 1943 
1944 1945 1946 1947 1948 1949 1950 1951 1952 
1953 1954 1955 1956 1957 1958 1959 1960 1961 
1962 1963 1964 1965 1966 1967 1968 1969 1970 
1971 1972 1973 1974 1975 1976 1977 1978 1979 
1980 1981 1982 1983 1984 1985 1986 1987 1988 
1989 1990 1991 1992 1993 1994 1995 1996 1997 
1998 1999 2000 2001 2002 2003 2004 2005 2006 
2007 2008 2009 2010 2011 2012 2013 2014 2015 
2016 2017 2018 2019 2020 2021 2022 2023 2024 
2025 2026 2027 2028 2029 2030 2031 2032 2033 
2034 2035 2036 2037 2038 2039 2040 2041 2042 
2043 2044 2045 2046 2047 2048 2049 2050 2051 
2052 2053 2054 2055 2056 2057 2058 2059 2060 
2061 2062 2063 2064 2065 2066 2067 2068 2069 
2070 2071 2072 2073 2074 2075 2076 2077 2078 
2079 2080 2081 2082 2083 2084 2085 2086 2087 
2088 2089 2090 2091 2092 2093 2094 2095 2096 
2097 2098 2099 2100 2101 2102 2103 2104 2105 
2106 2107 2108 2109 2110 2111 2112 2113 2114 
2115 2116 2117 2118 2119 2120 2121 2122 2123 
2124 2125 2126 2127 2128 2129 2130 2131 2132 
2133 2134 2135 2136 2137 2138 2139 2140 2141 
2142 2143 2144 2145 2146 2147 2148 2149 2150 
2151 2152 2153 2154 2155 2156 2157 2158 2159 
2160 2161 2162 2163 2164 2165 2166 2167 2168 
2169 2170 2171 2172 2173 2174 2175 2176 2177 
2178 2179 2180 2181 2182 2183 2184 2185 2186 
2187 2188 2189 2190 2191 2192 2193 2194 2195 
2196 2197 2198 2199 2200 2201 2202 2203 2204 
2205 2206 2207 2208 2209 2210 2211 2212 2213 
2214 2215 2216 2217 2218 2219 2220 2221 2222 
2223 2224 2225 2226 2227 2228 2229 2230 2231 
2232 2233 2234 2235 2236 2237 2238 2239 2240 
2241 2242 2243 2244 2245 2246 2247 2248 2249 
2250 2251 2252 2253 2254 2255 2256 2257 2258 
2259 2260 2261 2262 2263 2264 2265 2266 2267 
2268 2269 2270 2271 2272 2273 2274 2275 2276 
2277 2278 2279 2280 2281 2282 2283 2284 2285 
2286 2287 2288 2289 2290 2291 2292 2293 2294 
2295 2296 2297 2298 2299 2300 2301 2302 2303 
2304 2305 2306 2307 2308 2309 2310 2311 2312 
2313 2314 2315 2316 2317 2318 2319 2320 2321 
2322 2323 2324 2325 2326 2327 2328 2329 2330 
2331 2332 2333 2334 2335 2336 2337 2338 2339 
2340 2341 2342 2343 2344 2345 2346 2347 2348 
2349 2350 2351 2352 2353 2354 2355 2356 2357 
2358 2359 2360 2361 2362 2363 2364 2365 2366 
2367 2368 2369 2370 2371 2372 2373 2374 2375 
2376 2377 2378 2379 2380 2381 2382 2383 2384 
2385 2386 2387 2388 2389 2390 2391 2392 2393 
2394 2395 2396 2397 2398 2399 2400 2401 2402 
2403 2404 2405 2406 2407 2408 2409 2410 2411 
2412 2413 2414 2415 2416 2417 2418 2419 2420 
2421 2422 2423 2424 2425 2426 2427 2428 2429 
2430 2431 2432 2433 2434 2435 2436 2437 2438 
2439 2440 2441 2442 2443 2444 2445 2446 2447 
2448 2449 2450 2451 2452 2453 2454 2455 2456 
2457 2458 2459 2460 2461 2462 2463 2464 2465 
2466 2467 2468 2469 2470 2471 2472 2473 2474 
2475 2476 2477 2478 2479 2480 2481 2482 2483 
2484 2485 2486 2487 2488 2489 2490 2491 2492 
2493 2494 2495 2496 2497 2498 2499 2500 2501 
2502 2503 2504 2505 2506 2507 2508 2509 2510 
2511 2512 2513 2514 2515 2516 2517 2518 2519 
2520 2521 2522 2523 2524 2525 2526 2527 2528 
2529 2530 2531 2532 2533 2534 2535 2536 2537 
2538 2539 2540 2541 2542 2543 2544 2545 2546 
2547 2548 2549 2550 2551 2552 2553 2554 2555 
2556 2557 2558 2559 2560 2561 2562 2563 2564 
2565 2566 2567 2568 2569 2570 2571 2572 2573 
2574 2575 2576 2577 2578 2579 2580 2581 2582 
2583 2584 2585 2586 2587 2588 2589 2590 2591 
2592 2593 2594 2595 2596 2597 2598 2599 2600 
2601 2602 2603 2604 2605 2606 2607 2608 2609 
2610 2611 2612 2613 2614 2615 2616 2617 2618 
2619 2620 2621 2622 2623 2624 2625 2626 2627 
2628 2629 2630 2631 2632 2633 2634 2635 2636 
2637 2638 2639 2640 2641 2642 2643 2644 2645 
2646 2647 2648 2649 2650 2651 2652 2653 2654 
2655 2656 2657 2658 2659 2660 2661 2662 2663 
2664 2665 2666 2667 2668 2669 2670 2671 2672 
2673 2674 2675 2676 2677 2678 2679 2680 2681 
2682 2683 2684 2685 2686 2687 2688 2689 2690 
2691 2692 2693 2694 2695 2696 2697 2698 2699 
2700 2701 2702 2703 2704 2705 2706 2707 2708 
2709 2710 2711 2712 2713 2714 2715 2716 2717 
2718 2719 2720 2721 2722 2723 2724 2725 2726 
2727 2728 2729 2730 2731 2732 2733 2734 2735 
2736 2737 2738 2739 2740 2741 2742 2743 2744 
2745 2746 2747 2748 2749 2750 2751 2752 2753 
2754 2755 2756 2757 2758 2759 2760 2761 2762 
2763 2764 2765 2766 2767 2768 2769 2770 2771 
2772 2773 2774 2775 2776 2777 2778 2779 2780 
2781 2782 2783 2784 2785 2786 2787 2788 2789 
2790 2791 2792 2793 2794 2795 2796 2797 2798 
2799 2800 2801 2802 2803 2804 2805 2806 2807 
2808 2809 2810 2811 2812 2813 2814 2815 2816 
2817 2818 2819 2820 2821 2822 2823 2824 2825 
2826 2827 2828 2829 2830 2831 2832 2833 2834 
2835 2836 2837 2838 2839 2840 2841 2842 2843 
2844 2845 2846 2847 2848 2849 2850 2851 2852 
2853 2854 2855 2856 2857 2858 2859 2860 2861 
2862 2863 2864 2865 2866 2867 2868 2869 2870 
2871 2872 2873 2874 2875 2876 2877 2878 2879 
2880 2881 2882 2883 2884 2885 2886 2887 2888 
2889 2890 2891 2892 2893 2894 2895 2896 2897 
2898 2899 2900 2901 2902 2903 2904 2905 2906 
2907 2908 2909 2910 2911 2912 2913 2914 2915 
2916 2917 2918 2919 2920 2921 2922 2923 2924 
2925 2926 2927 2928 2929 2930 2931 2932 2933 
2934 2935 2936 2937 2938 2939 2940 2941 2942 
2943 2944 2945 2946 2947 2948 2949 2950 2951 
2952 2953 2954 2955 2956 2957 2958 2959 2960 
2961 2962 2963 2964 2965 2966 2967 2968 2969 
2970 2971 2972 2973 2974 2975 2976 2977 2978 
2979 2980 2981 2982 2983 2984 2985 2986 2987 
2988 2989 2990 2991 2992 2993 2994 2995 2996 
2997 2998 2999 3000 3001 3002 3003 3004 3005 
3006 3007 3008 3009 3010 3011 3012 3013 3014 
3015 3016 3017 3018 3019 3020 3021 3022 3023 
3024 3025 3026 3027 3028 3029 3030 3031 3032 
3033 3034 3035 3036 3037 3038 3039 3040 3041 
3042 3043 3044 3045 3046 3047 3048 3049 3050 
3051 3052 3053 3054 3055 3056 3057 3058 3059 
3060 3061 3062 3063 3064 3065 3066 3067 3068 
3069 3070 3071 3072 3073 3074 3075 3076 3077 
3078 3079 3080 3081 3082 3083 3084 3085 3086 
3087 3088 3089 3090 3091 3092 3093 3094 3095 
3096 3097 3098 3099 3100 3101 3102 3103 3104 
3105 3106 3107 3108 3109 3110 3111 3112 3113 
3114 3115 3116 3117 3118 3119 3120 3121 3122 
3123 3124 3125 3126 3127 3128 3129 3130 3131 
3132 3133 3134 3135 3136 3137 3138 3139 3140 
3141 3142 3143 3144 3145 3146 3147 3148 3149 
3150 3151 3152 3153 3154 3155 3156 3157 3158 
3159 3160 3161 3162 3163 3164 3165 3166 3167 
3168 3169 3170 3171 3172 3173 3174 3175 3176 
3177 3178 3179 3180 3181 3182 3183 3184 3185 
3186 3187 3188 3189 3190 3191 3192 3193 3194 
3195 3196 3197 3198 3199 3200 3201 3202 3203 
3204 3205 3206 3207 3208 3209 3210 3211 3212 
3213 3214 3215 3216 3217 3218 3219 3220 3221 
3222 3223 3224 3225 3226 3227 3228 3229 3230 
3231 3232 3233 3234 3235 3236 3237 3238 3239 
3240 3241 3242 3243 3244 3245 3246 3247 3248 
3249 3250 3251 3252 3253 3254 3255 3256 3257 
3258 3259 3260 3261 3262 3263 3264 3265 3266 
3267 3268 3269 3270 3271 3272 3273 3274 3275 
3276 3277 3278 3279 3280 3281 3282 3283 3284 
3285 3286 3287 3288 3289 3290 3291 3292 3293 
3294 3295 3296 3297 3298 3299 3300 3301 3302 
3303 3304 3305 3306 3307 3308 3309 3310 3311 
3312 3313 3314 3315 3316 3317 3318 3319 3320 
3321 3322 3323 3324 3325 3326 3327 3328 3329 
3330 3331 3332 3333 3334 3335 3336 3337 3338 
3339 3340 3341 3342 3343 3344 3345 3346 3347 
3348 3349 3350 3351 3352 3353 3354 3355 3356 
3357 3358 3359 3360 3361 3362 3363 3364 3365 
3366 3367 3368 3369 3370 3371 3372 3373 3374 
3375 3376 3377 3378 3379 3380 3381 3382 3383 
3384 3385 3386 3387 3388 3389 3390 3391 3392 
3393 3394 3395 3396 3397 3398 3399 3400 3401 
3402 3403 3404 3405 3406 3407 3408 3409 3410 
3411 3412 3413 3414 3415 3416 3417 3418 3419 
3420 3421 3422 3423 3424 3425 3426 3427 3428 
3429 3430 3431 3432 3433 3434 3435 3436 3437 
3438 3439 3440 3441 3442 3443 3444 3445 3446 
3447 3448 3449 3450 3451 3452 3453 3454 3455 
3456 3457 3458 3459 3460 3461 3462 3463 3464 
3465 3466 3467 3468 3469 3470 3471 3472 3473 
3474 3475 3476 3477 3478 3479 3480 3481 3482 
3483 3484 3485 3486 3487 3488 3489 3490 3491 
3492 3493 3494 3495 3496 3497 3498 3499 3500 
3501 3502 3503 3504 3505 3506 3507 3508 3509 
3510 3511 3512 3513 3514 3515 3516 3517 3518 
3519 3520 3521 3522 3523 3524 3525 3526 3527 
3528 3529 3530 3531 3532 3533 3534 3535 3536 
3537 3538 3539 3540 3541 3542 3543 3544 3545 
3546 3547 3548 3549 3550 3551 3552 3553 3554 
3555 3556 3557 3558 3559 3560 3561 3562 3563 
3564 3565 3566 3567 3568 3569 3570 3571 3572 
3573 3574 3575 3576 3577 3578 3579 3580 3581 
3582 3583 3584 3585 3586 3587 3588 3589 3590 
3591 3592 3593 3594 3595 3596 3597 3598 3599 
3600 3601 3602 3603 3604 3605 3606 3607 3608 
3609 3610 3611 3612 3613 3614 3615 3616 3617 
3618 3619 3620 3621 3622 3623 3624 3625 3626 
3627 3628 3629 3630 3631 3632 3633 3634 3635 
3636 3637 3638 3639 3640 3641 3642 3643 3644 
3645 3646 3647 3648 3649 3650 3651 3652 3653 
3654 3655 3656 3657 3658 3659 3660 3661 3662 
3663 3664 3665 3666 3667 3668 3669 3670 3671 
3672 3673 3674 3675 3676 3677 3678 3679 3680 
3681 3682 3683 3684 3685 3686 3687 3688 3689 
3690 3691 3692 3693 3694 3695 3696 3697 3698 
3699 3700 3701 3702 3703 3704 3705 3706 3707 
3708 3709 3710 3711 3712 3713 3714 3715 3716 
3717 3718 3719 3720 3721 3722 3723 3724 3725 
3726 3727 3728 3729 3730 3731 3732 3733 3734 
3735 3736 3737 3738 3739 3740 3741 3742 3743 
3744 3745 3746 3747 3748 3749 3750 3751 3752 
3753 3754 3755 3756 3757 3758 3759 3760 3761 
3762 3763 3764 3765 3766 3767 3768 3769 3770 
3771 3772 3773 3774 3775 3776 3777 3778 3779 
3780 3781 3782 3783 3784 3785 3786 3787 3788 
3789 3790 3791 3792 3793 3794 3795 3796 3797 
3798 3799 3800 3801 3802 3803 3804 3805 3806 
3807 3808 3809 3810 3811 3812 3813 3814 3815 
3816 3817 3818 3819 3820 3821 3822 3823 3824 
3825 3826 3827 3828 3829 3830 3831 3832 3833 
3834 3835 3836 3837 3838 3839 3840 3841 3842 
3843 3844 3845 3846 3847 3848 3849 3850 3851 
3852 3853 3854 3855 3856 3857 3858 3859 3860 
3861 3862 3863 3864 3865 3866 3867 3868 3869 
3870 3871 3872 3873 3874 3875 3876 3877 3878 
3879 3880 3881 3882 3883 3884 3885 3886 3887 
3888 3889 3890 3891 3892 3893 3894 3895 3896 
3897 3898 3899 3900 3901 3902 3903 3904 3905 
3906 3907 3908 3909 3910 3911 3912 3913 3914 
3915 3916 3917 3918 3919 3920 3921 3922 3923 
3924 3925 3926 3927 3928 3929 3930 3931 3932 
3933 3934 3935 3936 3937 3938 3939 3940 3941 
3942 3943 3944 3945 3946 3947 3948 3949 3950 
3951 3952 3953 3954 3955 3956 3957 3958 3959 
3960 3961 3962 3963 3964 3965 3966 3967 3968 
3969 3970 3971 3972 3973 3974 3975 3976 3977 
3978 3979 3980 3981 3982 3983 3984 3985 3986 
3987 3988 3989 3990 3991 3992 3993 3994 3995 
3996 3997 3998 3999 4000 4001 4002 4003 4004 
4005 4006 4007 4008 4009 4010 4011 4012 4013 
4014 4015 4016 4017 4018 4019 4020 4021 4022 
4023 4024 4025 4026 4027 4028 4029 4030 4031 
4032 4033 4034 4035 4036 4037 4038 4039 4040 
4041 4042 4043 4044 4045 4046 4047 4048 4049 
4050 4051 4052 4053 4054 4055 4056 4057 4058 
4059 4060 4061 4062 4063 4064 4065 4066 4067 
4068 4069 4070 4071 4072 4073 4074 4075 4076 
4077 4078 4079 4080 4081 4082 4083 4084 4085 
4086 4087 4088 4089 4090 4091 4092 4093 4094 
4095 4096 4097 4098 4099 4100 4101 4102 4103 
4104 4105 4106 4107 4108 4109 4110 4111 4112 
4113 4114 4115 4116 4117 4118 4119 4120 4121 
4122 4123 4124 4125 4126 4127 4128 4129 4130 
4131 4132 4133 4134 4135 4136 4137 4138 4139 
4140 4141 4142 4143 4144 4145 4146 4147 4148 
4149 4150 4151 4152 4153 4154 4155 4156 4157 
4158 4159 4160 4161 4162 4163 4164 4165 4166 
4167 4168 4169 4170 4171 4172 4173 4174 4175 
4176 4177 4178 4179 4180 4181 4182 4183 4184 
4185 4186 4187 4188 4189 4190 4191 4192 4193 
4194 4195 4196 4197 4198 4199 4200 4201 4202 
4203 4204 4205 4206 4207 4208 4209 4210 4211 
4212 4213 4214 4215 4216 4217 4218 4219 4220 
4221 4222 4223 4224 4225 4226 4227 4228 4229 
4230 4231 4232 4233 4234 4235 4236 4237 4238 
4239 4240 4241 4242 4243 4244 4245 4246 4247 
4248 4249 4250 4251 4252 4253 4254 4255 4256 
4257 4258 4259 4260 4261 4262 4263 4264 4265 
4266 4267 4268 4269 4270 4271 4272 4273 4274 
4275 4276 4277 4278 4279 4280 4281 4282 4283 
4284 4285 4286 4287 4288 4289 4290 4291 4292 
4293 4294 4295 4296 4297 4298 4299 4300 4301 
4302 4303 4304 4305 4306 4307 4308 4309 4310 
4311 4312 4313 4314 4315 4316 4317 4318 4319 
4320 4321 4322 4323 4324 4325 4326 4327 4328 
4329 4330 4331 4332 4333 4334 4335 4336 4337 
4338 4339 4340 4341 4342 4343 4344 4345 4346 
4347 4348 4349 4350 4351 4352 4353 4354 4355 
4356 4357 4358 4359 4360 4361 4362 4363 4364 
4365 4366 4367 4368 4369 4370 4371 4372 4373 
4374 4375 4376 4377 4378 4379 4380 4381 4382 
4383 4384 4385 4386 4387 4388 4389 4390 4391 
4392 4393 4394 4395 4396 4397 4398 4399 4400 
4401 4402 4403 4404 4405 4406 4407 4408 4409 
4410 4411 4412 4413 4414 4415 4416 4417 4418 
4419 4420 4421 4422 4423 4424 4425 4426 4427 
4428 4429 4430 4431 4432 4433 4434 4435 4436 
4437 4438 4439 4440 4441 4442 4443 4444 4445 
4446 4447 4448 4449 4450 4451 4452 4453 4454 
4455 4456 4457 4458 4459 4460 4461 4462 4463 
4464 4465 4466 4467 4468 4469 4470 4471 4472 
4473 4474 4475 4476 4477 4478 4479 4480 4481 
4482 4483 4484 4485 4486 4487 4488 4489 4490 
4491 4492 4493 4494 4495 4496 4497 4498 4499 
4500 4501 4502 4503 4504 4505 4506 4507 4508 
4509 4510 4511 4512 4513 4514 4515 4516 4517 
4518 4519 4520 4521 4522 4523 4524 4525 4526 
4527 4528 4529 4530 4531 4532 4533 4534 4535 
4536 4537 4538 4539 4540 4541 4542 4543 4544 
4545 4546 4547 4548 4549 4550 4551 4552 4553 
4554 4555 4556 4557 4558 4559 4560 4561 4562 
4563 4564 4565 4566 4567 4568 4569 4570 4571 
4572 4573 4574 4575 4576 4577 4578 4579 4580 
4581 4582 4583 4584 4585 4586 4587 4588 4589 
4590 4591 4592 4593 4594 4595 4596 4597 4598 
4599 4600 4601 4602 4603 4604 4605 4606 4607 
4608 4609 4610 4611 4612 4613 4614 4615 4616 
4617 4618 4619 4620 4621 4622 4623 4624 4625 
4626 4627 4628 4629 4630 4631 4632 4633 4634 
4635 4636 4637 4638 4639 4640 4641 4642 4643 
4644 4645 4646 4647 4648 4649 4650 4651 4652 
4653 4654 4655 4656 4657 4658 4659 4660 4661 
4662 4663 4664 4665 4666 4667 4668 4669 4670 
4671 4672 4673 4674 4675 4676 4677 4678 4679 
4680 4681 4682 4683 4684 4685 4686 4687 4688 
4689 4690 4691 4692 4693 4694 4695 4696 4697 
4698 4699 4700 4701 4702 4703 4704 4705 4706 
4707 4708 4709 4710 4711 4712 4713 4714 4715 
4716 4717 4718 4719 4720 4721 4722 4723 4724 
4725 4726 4727 4728 4729 4730 4731 4732 4733 
4734 4735 4736 4737 4738 4739 4740 4741 4742 
4743 4744 4745 4746 4747 4748 4749 4750 4751 
4752 4753 4754 4755 4756 4757 4758 4759 4760 
4761 4762 4763 4764 4765 4766 4767 4768 4769 
4770 4771 4772 4773 4774 4775 4776 4777 4778 
4779 4780 4781 4782 4783 4784 4785 4786 4787 
4788 4789 4790 4791 4792 4793 4794 4795 4796 
4797 4798 4799 4800 4801 4802 4803 4804 4805 
4806 4807 4808 4809 4810 4811 4812 4813 4814 
4815 4816 4817 4818 4819 4820 4821 4822 4823 
4824 4825 4826 4827 4828 4829 4830 4831 4832 
4833 4834 4835 4836 4837 4838 4839 4840 4841 
4842 4843 4844 4845 4846 4847 4848 4849 4850 
4851 4852 4853 4854 4855 4856 4857 4858 4859 
4860 4861 4862 4863 4864 4865 4866 4867 4868 
4869 4870 4871 4872 4873 4874 4875 4876 4877 
4878 4879 4880 4881 4882 4883 4884 4885 4886 
4887 4888 4889 4890 4891 4892 4893 4894 4895 
4896 4897 4898 4899 4900 4901 4902 4903 4904 
4905 4906 4907 4908 4909 4910 4911 4912 4913 
4914 4915 4916 4917 4918 4919 4920 4921 4922 
4923 4924 4925 4926 4927 4928 4929 4930 4931 
4932 4933 4934 4935 4936 4937 4938 4939 4940 
4941 4942 4943 4944 4945 4946 4947 4948 4949 
4950 4951 4952 4953 4954 4955 4956 4957 4958 
4959 4960 4961 4962 4963 4964 4965 4966 4967 
4968 4969 4970 4971 4972 4973 4974 4975 4976 
4977 4978 4979 4980 4981 4982 4983 4984 4985 
4986 4987 4988 4989 4990 4991 4992 4993 4994 
4995 4996 4997 4998 4999 5000 5001 5002 5003 
5004 5005 5006 5007 5008 5009 5010 5011 5012 
5013 5014 5015 5016 5017 5018 5019 5020 5021 
5022 5023 5024 5025 5026 5027 5028 5029 5030 
5031 5032 5033 5034 5035 5036 5037 5038 5039 
5040 5041 5042 5043 5044 5045 5046 5047 5048 
5049 5050 5051 5052 5053 5054 5055 5056 5057 
5058 5059 5060 5061 5062 5063 5064 5065 5066 
5067 5068 5069 5070 5071 5072 5073 5074 5075 
5076 5077 5078 5079 5080 5081 5082 5083 5084 
5085 5086 5087 5088 5089 5090 5091 5092 5093 
5094 5095 5096 5097 5098 5099 5100 5101 5102 
5103 5104 5105 5106 5107 5108 5109 5110 5111 
5112 5113 5114 5115 5116 5117 5118 5119 5120 
5121 5122 5123 5124 5125 5126 5127 5128 5129 
5130 5131 5132 5133 5134 5135 5136 5137 5138 
5139 5140 5141 5142 5143 5144 5145 5146 5147 
5148 5149 5150 5151 5152 5153 5154 5155 5156 
5157 5158 5159 5160 5161 5162 5163 5164 5165 
5166 5167 5168 5169 5170 5171 5172 5173 5174 
5175 5176 5177 5178 5179 5180 5181 5182 5183 
5184 5185 5186 5187 5188 5189 5190 5191 5192 
5193 5194 5195 5196 5197 5198 5199 5200 5201 
5202 5203 5204 5205 5206 5207 5208 5209 5210 
5211 5212 5213 5214 5215 5216 5217 5218 5219 
5220 5221 5222 5223 5224 5225 5226 5227 5228 
5229 5230 5231 5232 5233 5234 5235 5236 5237 
5238 5239 5240 5241 5242 5243 5244 5245 5246 
5247 5248 5249 5250 5251 5252 5253 5254 5255 
5256 5257 5258 5259 5260 5261 5262 5263 5264 
5265 5266 5267 5268 5269 5270 5271 5272 5273 
5274 5275 5276 5277 5278 5279 5280 5281 5282 
5283 5284 5285 5286 5287 5288 5289 5290 5291 
5292 5293 5294 5295 5296 5297 5298 5299 5300 
5301 5302 5303 5304 5305 5306 5307 5308 5309 
5310 5311 5312 5313 5314 5315 5316 5317 5318 
5319 5320 5321 5322 5323 5324 5325 5326 5327 
5328 5329 5330 5331 5332 5333 5334 5335 5336 
5337 5338 5339 5340 5341 5342 5343 5344 5345 
5346 5347 5348 5349 5350 5351 5352 5353 5354 
5355 5356 5357 5358 5359 5360 5361 5362 5363 
5364 5365 5366 5367 5368 5369 5370 5371 5372 
5373 5374 5375 5376 5377 5378 5379 5380 5381 
5382 5383 5384 5385 5386 5387 5388 5389 5390 
5391 5392 5393 5394 5395 5396 5397 5398 5399 
5400 5401 5402 5403 5404 5405 5406 5407 5408 
5409 5410 5411 5412 5413 5414 5415 5416 5417 
5418 5419 5420 5421 5422 5423 5424 5425 5426 
5427 5428 5429 5430 5431 5432 5433 5434 5435 
5436 5437 5438 5439 5440 5441 5442 5443 5444 
5445 5446 5447 5448 5449 5450 5451 5452 5453 
5454 5455 5456 5457 5458 5459 5460 5461 5462 
5463 5464 5465 5466 5467 5468 5469 5470 5471 
5472 5473 5474 5475 5476 5477 5478 5479 5480 
5481 5482 5483 5484 5485 5486 5487 5488 5489 
5490 5491 5492 5493 5494 5495 5496 5497 5498 
5499 5500 5501 5502 5503 5504 5505 5506 5507 
5508 5509 5510 5511 5512 5513 5514 5515 5516 
5517 5518 5519 5520 5521 5522 5523 5524 5525 
5526 5527 5528 5529 5530 5531 5532 5533 5534 
5535 5536 5537 5538 5539 5540 5541 5542 5543 
5544 5545 5546 5547 5548 5549 5550 5551 5552 
5553 5554 5555 5556 5557 5558 5559 5560 5561 
5562 5563 5564 5565 5566 5567 5568 5569 5570 
5571 5572 5573 5574 5575 5576 5577 5578 5579 
5580 5581 5582 5583 5584 5585 5586 5587 5588 
5589 5590 5591 5592 5593 5594 5595 5596 5597 
5598 5599 5600 5601 5602 5603 5604 5605 5606 
5607 5608 5609 5610 5611 5612 5613 5614 5615 
5616 5617 5618 5619 5620 5621 5622 5623 5624 
5625 5626 5627 5628 5629 5630 5631 5632 5633 
5634 5635 5636 5637 5638 5639 5640 5641 5642 
5643 5644 5645 5646 5647 5648 5649 5650 5651 
5652 5653 5654 5655 5656 5657 5658 5659 5660 
5661 5662 5663 5664 5665 5666 5667 5668 5669 
5670 5671 5672 5673 5674 5675 5676 5677 5678 
5679 5680 5681 5682 5683 5684 5685 5686 5687 
5688 5689 5690 5691 5692 5693 5694 5695 5696 
5697 5698 5699 5700 5701 5702 5703 5704 5705 
5706 5707 5708 5709 5710 5711 5712 5713 5714 
5715 5716 5717 5718 5719 5720 5721 5722 5723 
5724 5725 5726 5727 5728 5729 5730 5731 5732 
5733 5734 5735 5736 5737 5738 5739 5740 5741 
5742 5743 
v 3 5744 double
0 -60.013272217 -68.356539673 0 -60.256862324 -66.818572262 0 -60.498486771 -65.293015549 
0 -60.737172592 -63.786012583 0 -60.971958727 -62.303631266 0 -61.201899777 -60.851840614 
0 -61.426069774 -59.436486959 0 -61.643566066 -58.063269416 0 -61.85351299 -56.737716701 
0 -62.055065116 -55.465166663 0 -62.247410834 -54.250743597 0 -62.429775717 -53.099337038 
0 -62.601425256 -52.015584499 0 -62.761668374 -51.003849276 0 -62.90986 -50.068204172 
0 -63.045403185 -49.212418183 0 -63.167752221 -48.43993677 0 -63.276414519 -47.75387002 
0 -63.370952482 -47.156980811 0 -63.450985381 -46.651672976 0 -63.516190915 -46.239981436 
0 -63.566306776 -45.923562341 0 -63.601130961 -45.703691093 0 -63.620523175 -45.581253469 
0 -63.624405618 -45.556740693 0 -63.612762509 -45.630252389 0 -63.585640561 -45.801493627 
0 -63.543149135 -46.069773934 0 -63.485459457 -46.434012227 0 -63.412803527 -46.892743716 
0 -63.325474117 -47.444119907 0 -63.2238229 -48.085920436 0 -63.108259037 -48.815561948 
0 -62.979247935 -49.630105987 0 -62.837309055 -50.526272807 0 -62.683014038 -51.500453206 
0 -62.516984049 -52.548725299 0 -62.33988767 -53.66686783 0 -62.152438086 -54.850377929 
0 -61.955390037 -56.094490346 0 -61.749536854 -57.394196192 0 -61.535707486 -58.744261683 
0 -61.314763068 -60.139249838 0 -61.087593205 -61.573543906 0 -60.855112617 -63.041368573 
0 -60.618257426 -64.536813392 0 -60.377981313 -66.053857067 0 -60.135251821 -67.586390764 
0 -59.402142782 -72.215059067 0 -59.15941329 -73.747592763 0 -58.919137177 -75.264636439 
0 -58.682281986 -76.760081257 0 -58.449801398 -78.227905925 0 -58.222631535 -79.662199992 
0 -58.001687116 -81.057188147 0 -57.787857749 -82.407253639 0 -57.582004566 -83.706959485 
0 -57.384956517 -84.951071902 0 -57.197506933 -86.134582 0 -57.020410554 -87.252724531 
0 -56.854380565 -88.300996624 0 -56.700085548 -89.275177024 0 -56.558146668 -90.171343843 
0 -56.429135566 -90.985887882 0 -56.313571703 -91.715529394 0 -56.211920486 -92.357329923 
0 -56.124591076 -92.908706114 0 -56.051935146 -93.367437603 0 -55.994245468 -93.731675896 
0 -55.951754042 -93.999956203 0 -55.924632094 -94.171197441 0 -55.912988985 -94.244709138 
0 -55.916871428 -94.220196361 0 -55.936263642 -94.097758738 0 -55.971087827 -93.87788749 
0 -56.021203688 -93.561468395 0 -56.086409222 -93.149776855 0 -56.166442121 -92.64446902 
0 -56.260980084 -92.047579811 0 -56.369642382 -91.361513061 0 -56.491991418 -90.589031647 
0 -56.627534603 -89.733245659 0 -56.775726229 -88.797600555 0 -56.935969347 -87.785865331 
0 -57.107618886 -86.702112792 0 -57.289983769 -85.550706234 0 -57.482329487 -84.336283168 
0 -57.683881613 -83.063733129 0 -57.893828537 -81.738180414 0 -58.111324829 -80.364962872 
0 -58.335494826 -78.949609217 0 -58.565435876 -77.497818565 0 -58.800222011 -76.015437248 
0 -59.038907832 -74.508434282 0 -59.280532279 -72.982877568 0 -59.524122386 -71.444910158 
0 -59.707491957 -70.287160249 0 -59.829902646 -69.514289582 0 -49.734052566 -66.959387655 
0 -39.612858393 -64.564502036 0 -39.942944225 -62.48042212 0 -50.064628916 -64.872210723 
0 -50.495766185 -62.201202303 0 -40.146091644 -61.248884959 0 -50.803972207 -60.204180899 
0 -40.702143127 -57.716459367 0 -40.867022783 -56.64609633 0 -51.205707054 -57.638373044 
0 -51.521875964 -55.671514969 0 -41.393363292 -53.322836538 0 -41.507975878 -51.340547434 
0 -51.829391887 -53.729935847 0 -52.22959919 -51.289949455 0 -41.687238763 -50.295549197 
0 -42.363765176 -47.165980672 0 -52.495411272 -49.524854946 0 -42.609052075 -45.617300143 
0 -52.761648396 -47.8139204 0 -42.703010254 -45.054051046 0 -53.111649125 -45.634082265 
0 -42.964329276 -43.404147674 0 -43.013724125 -41.794160963 0 -53.365553059 -44.030995919 
0 -53.667761303 -42.122928162 0 -43.13883599 -41.004235737 0 -43.510088248 -39.958361139 
0 -43.730021217 -38.537098224 0 -53.892196966 -40.705897152 0 -54.162484508 -39.020078631 
0 -43.846013742 -37.825460104 0 -54.345653297 -37.842886558 0 -44.169918003 -35.79236002 
0 -44.272043805 -35.120149975 0 -54.559962325 -36.462379492 0 -44.215975509 -35.501564377 
0 -54.718309957 -35.490025002 0 -44.529127425 -33.524400992 0 -44.663246367 -32.687081251 
0 -54.855762571 -34.622183356 0 -55.016544538 -33.66689005 0 -44.736698924 -32.283164137 
0 -55.101466132 -33.070872124 0 -44.900199349 -31.219479091 0 -44.965360177 -30.812359897 
0 -55.183951716 -32.588012669 0 -55.253706897 -32.109661766 0 -45.027586716 -30.377252886 
0 -44.84388074 -30.159040254 0 -55.290521436 -31.87722391 0 -55.309930523 -31.754679756 
0 -44.851646718 -30.110007797 0 -45.068331504 -30.120000419 0 -45.051042791 -30.209953834 
0 -55.304105532 -31.791457305 0 -45.018733176 -30.39826949 0 -55.27689129 -31.944078046 
0 -55.220830729 -32.317233718 0 -44.956033137 -30.829024408 0 -44.909925326 -31.12013767 
0 -55.1320812 -32.877576193 0 -44.938668303 -30.938661649 0 -55.042094963 -33.445726932 
0 -44.762207698 -32.052790067 0 -44.646242171 -32.784967587 0 -54.933470004 -34.131557934 
0 -54.775606945 -35.184088188 0 -44.577464534 -33.275034626 0 -54.622937732 -36.092181533 
0 -44.30895764 -34.888745047 0 -44.218245252 -35.461480525 0 -54.409876308 -37.437398425 
0 -54.226965639 -38.592250937 0 -43.912419323 -37.418142706 0 -43.499972509 -38.709298498 
0 -54.026331279 -39.859006427 0 -53.758333892 -41.640566946 0 -43.392218239 -39.479123792 
0 -43.179753791 -42.057813131 0 -53.519339395 -43.060027205 0 -42.952492014 -43.502493419 
0 -53.282658725 -44.568172462 0 -52.945399635 -46.683740236 0 -42.603284869 -45.683692346 
0 -42.325443931 -47.438051437 0 -52.672687548 -48.405576587 0 -52.314147723 -50.669307949 
0 -42.176851031 -48.376230084 0 -41.963638158 -49.722262735 0 -41.654933758 -51.657121947 
0 -52.019517827 -52.529527902 0 -51.636182536 -54.949811677 0 -41.495768464 -52.662052066 
0 -41.278999266 -54.044902575 0 -51.324530299 -56.917506458 0 -40.96469032 -56.029371164 
0 -40.765423431 -57.287492784 0 -50.920755358 -59.466841107 0 -40.88177871 -56.552854467 
0 -50.599391957 -61.495849764 0 -40.235652292 -60.632336118 0 -39.704958897 -62.711644371 
0 -50.272264202 -63.561253126 0 -49.850483036 -66.259080438 0 -39.526767839 -63.871504272 
0 -39.137257325 -67.52058499 0 -49.667113465 -67.416830347 0 -39.362367021 -66.180848157 
0 -38.83694815 -69.416662499 0 -49.197428853 -70.300752423 0 -48.778043944 -72.995388539 
0 -38.413076965 -72.13962385 0 -38.085044546 -74.210739027 0 -48.450916189 -75.060791901 
0 -48.018723005 -77.704555034 0 -37.891537184 -75.347499194 0 -37.365937867 -78.750999913 
0 -47.725777847 -79.639135207 0 -37.062791507 -80.648992277 0 -47.41412561 -81.606829989 
0 -47.030790319 -84.027113763 0 -36.676721393 -83.102541471 0 -36.490709251 -84.259138881 
0 -46.657456622 -86.366412925 0 -36.599587788 -83.589543882 0 -46.377620598 -88.151065078 
0 -36.031101039 -87.178827959 0 -35.759347048 -88.908749416 0 -46.104908511 -89.872901429 
0 -45.769877315 -91.988818022 0 -35.616661569 -89.810242943 0 -45.530968751 -93.49661446 
0 -35.182992436 -92.508689911 0 -35.063373185 -93.263936133 0 -34.913102154 -94.237595109 
0 -45.239699961 -95.335613221 0 -45.023976867 -96.697635238 0 -34.703249357 -95.562553525 
0 -34.303049445 -96.770907904 0 -44.823342507 -97.964390728 0 -44.592442095 -99.422238555 
0 -34.207692218 -97.372969742 0 -34.284363027 -98.207297726 0 -34.116639781 -99.242345972 
0 -44.427370414 -100.46446013 0 -33.990685609 -100.03758932 0 -44.279625397 -101.37337081 
0 -33.949212844 -100.32335271 0 -44.116838142 -102.42508373 0 -33.82961031 -101.07849338 
0 -33.728209527 -101.71871273 0 -44.008213183 -103.11091473 0 -43.896958111 -103.81335161 
0 -33.682159989 -102.00945807 0 -33.624557643 -102.37314497 0 -33.561104951 -102.7595203 
0 -43.829477417 -104.23940795 0 -43.778085957 -104.61330617 0 -33.544537676 -102.91354727 
0 -43.746202614 -104.76518436 0 -33.490030214 -103.18153213 0 -33.490151447 -103.18076669 
0 -43.742441405 -104.7889317 0 -43.75978671 -104.67941776 0 -33.525946638 -102.99575035 
0 -33.572207702 -102.70977264 0 -43.796601249 -104.4469799 0 -43.877918327 -103.97045112 
0 -33.611033352 -102.50152417 0 -33.743416993 -101.63215773 0 -43.948842014 -103.48576954 
0 -33.83970945 -101.03072835 0 -44.044473263 -102.89143876 0 -44.194545575 -101.93445831 
0 -33.998297126 -100.01344674 0 -34.143713072 -99.095901159 0 -44.331998189 -101.06661666 
0 -44.537260178 -99.780691963 0 -34.233411198 -98.539617971 0 -34.344657805 -96.594834615 
0 -44.704654849 -98.713755107 0 -34.531890391 -95.455506032 0 -44.700908154 -97.505633944 
0 -45.15811118 -95.850744514 0 -34.994732024 -93.722204396 0 -35.138056966 -92.817286325 
0 -45.444709196 -94.041235853 0 -35.053137699 -93.353445478 0 -45.684755087 -92.525645746 
0 -35.532442321 -90.327235191 0 -35.791339172 -88.692624809 0 -45.938659021 -90.9225594 
0 -46.284685262 -88.742061939 0 -35.950199383 -87.693847149 0 -46.554896874 -87.031786719 
0 -36.421498753 -84.655986628 0 -36.68667194 -82.981749017 0 -46.825353898 -85.266221108 
0 -47.220916259 -82.826705818 0 -37.089516596 -80.496255133 0 -37.403233186 -78.517594967 
0 -47.528432182 -80.885126696 0 -47.939654816 -78.306963712 0 -37.581975231 -77.40725665 
0 -38.131359746 -73.90221579 0 -48.246335939 -76.352460766 0 -38.422545734 -72.063739816 
0 -48.559953392 -74.35625752 0 -38.534256941 -71.374523592 0 -48.98567923 -71.684430942 
0 -38.863994538 -69.292642339 0 -39.195067794 -67.202328067 0 -49.316259838 -69.597227127 
0 -38.950367553 -68.747304581 0 -38.620281722 -70.831384497 0 -37.868789444 -75.594314547 
0 -37.169862655 -79.988970079 0 -36.861289884 -81.937221882 0 -36.195486282 -86.145166619 
0 -35.860215693 -88.257755571 0 -35.598896671 -89.907658943 0 -35.349036876 -91.485211599 
0 -34.834798399 -94.774797001 0 -34.384154004 -97.587290789 0 -34.034098522 -99.787405626 
0 -33.902452353 -100.62512409 0 -33.674588494 -102.09414965 0 -33.535639231 -102.93455373 
0 -33.506423348 -103.11901555 0 -33.516852257 -103.10259533 0 -33.60719281 -102.48278221 
0 -33.801018249 -101.25901655 0 -33.916983776 -100.52683903 0 -34.241640382 -98.47703789 
0 -34.650806624 -95.893663911 0 -34.857622177 -94.587881903 0 -35.385700049 -91.254342305 
0 -35.959941078 -87.628114271 0 -36.235147885 -85.872689838 0 -36.903626212 -81.653922396 
0 -37.28422668 -79.266904042 0 -37.604061122 -77.162551613 0 -38.327573655 -72.679470499 
0 -38.661153349 -70.573331204 0 -49.463948729 -68.664756166 0 -40.150148982 -61.172182767 
0 -40.4781814 -59.10106759 0 -41.19728808 -54.560806704 0 -41.886504554 -50.209265146 
0 -42.532124908 -46.132978658 0 -42.807578642 -44.403638128 0 -43.390007368 -40.806013586 
0 -43.859976589 -37.749253093 0 -44.05636215 -36.509323462 0 -44.451510362 -34.070277973 
0 -44.614013103 -32.988453912 0 -44.733615637 -32.233313234 0 -44.83501642 -31.593093888 
0 -44.9974968 -30.551553914 0 -45.066388955 -30.132265191 0 -45.037279308 -30.316056269 
0 -44.992623932 -30.602289301 0 -44.830518609 -31.681336031 0 -44.564928821 -33.298359874 
0 -44.415273292 -34.215834588 0 -44.031652658 -36.686042912 0 -43.568493923 -39.589602221 
0 -43.030783625 -42.984571426 0 -42.771886775 -44.619181809 0 -42.146372135 -48.655348887 
0 -41.473709351 -52.815551484 0 -41.155510365 -54.795226956 0 -40.437277632 -59.410408985 
0 -40.028969006 -61.937283025 0 -39.699231409 -64.019164278 0 -39.368162411 -66.109451668 
0 -28.663583307 -64.216728778 0 -28.480868665 -62.640600556 0 -28.785932363 -63.444247241 
0 -29.236681272 -61.049772326 0 -29.439828692 -59.818235165 0 -29.871612753 -56.603869609 
0 -29.493528652 -55.818394072 0 -30.190174016 -54.58687115 0 -29.921987379 -53.246587703 
0 -30.671463957 -51.716537284 0 -30.673935108 -50.44228134 0 -31.546727306 -46.082885668 
0 -31.202654087 -45.400382494 0 -31.867095636 -44.28685724 0 -31.600554882 -43.018153305 
0 -31.961053815 -43.723608143 0 -32.254185973 -41.746184995 0 -32.212352487 -40.712191315 
0 -32.54804653 -38.27793059 0 -32.687817555 -37.362790269 0 -32.057621718 -36.957558929 
0 -32.927763622 -36.078856419 0 -33.197254084 -34.460557539 0 -32.757753366 -34.014919819 
0 -33.559772357 -33.236643355 0 -33.174245727 -32.561832608 0 -33.801323708 -31.850567213 
0 -33.888149999 -31.311841515 0 -33.235221619 -30.957658461 0 -33.812026393 -30.484630615 
0 -33.137410993 -30.074831075 0 -33.913119164 -29.631902978 0 -33.227237725 -29.394332226 
0 -33.995726371 -29.206255567 0 -33.548789945 -28.917319644 0 -34.30427291 -28.711153578 
0 -34.110865905 -28.554190829 0 -34.346759779 -28.443936262 0 -34.335295588 -28.497115088 
0 -33.849622347 -28.483473834 0 -34.307211437 -28.650504025 0 -34.019789349 -29.030438787 
0 -33.504395954 -29.129060344 0 -34.160881521 -29.533894342 0 -33.59959491 -29.82905436 
0 -34.015111379 -30.361030902 0 -33.942832585 -30.817381245 0 -33.593390043 -30.981978906 
0 -34.011257418 -31.648154433 0 -33.638805966 -32.899237855 0 -33.141230944 -33.215924724 
0 -33.505235945 -33.97829043 0 -32.912255839 -34.720962768 0 -33.198813378 -35.736587851 
0 -32.863552973 -36.540407832 0 -32.534145744 -39.8853559 0 -31.955327017 -40.370843986 
0 -32.270768353 -41.477622174 0 -31.619831959 -42.484020245 0 -31.893701421 -43.914100149 
0 -31.718838942 -45.018278836 0 -31.125480652 -45.580563589 0 -31.411750813 -46.862775186 
0 -30.759105508 -47.897736093 0 -31.305506405 -47.533435527 0 -31.005694324 -49.510643965 
0 -30.375507396 -50.17860452 0 -30.685609395 -51.306236485 0 -29.877156996 -52.104639087 
0 -30.582482368 -51.971578572 0 -30.150168563 -53.691795011 0 -29.515282793 -54.382847313 
0 -29.939630089 -56.023812547 0 -29.306709312 -57.205074613 0 -29.567598153 -58.875345982 
0 -29.158330639 -60.1880014 0 -28.539426251 -65.087397583 0 -27.778476604 -65.820621124 
0 -28.015826975 -67.369718607 0 -27.328800283 -68.719852352 0 -27.704154321 -70.421183675 
0 -27.496320468 -71.733394973 0 -26.806239152 -72.078455773 0 -27.03846037 -73.561597549 
0 -26.76970301 -76.352307822 0 -26.212602237 -76.789974226 0 -26.439457156 -78.34476552 
0 -25.886222719 -80.706777565 0 -25.295907926 -81.271628814 0 -25.703812225 -82.905085985 
0 -25.091025199 -83.677934547 0 -24.821966766 -85.772309432 0 -25.354545101 -85.194222072 
0 -25.112980568 -87.04519134 0 -24.970295089 -87.946684867 0 -24.54436287 -90.32194749 
0 -24.02375505 -90.761636941 0 -24.340952983 -91.817743309 0 -23.72683085 -92.692918007 
0 -24.273738659 -92.267002873 0 -23.995153033 -93.846097382 0 -23.665958337 -94.606142468 
0 -23.563787284 -96.520003925 0 -23.453875107 -97.190047453 0 -22.9639698 -97.441519595 
0 -23.337794687 -98.158036627 0 -22.773326438 -98.657566701 0 -23.296321922 -98.443800013 
0 -23.112213002 -99.359589376 0 -23.047158384 -99.770328063 0 -22.526379067 -99.877061289 
0 -22.942503884 -100.33804943 0 -22.483966859 -100.58385977 0 -22.913760906 -100.51952545 
0 -22.916500439 -101.020039 0 -22.899933164 -101.17406597 0 -22.775294896 -101.43395941 
0 -22.337258519 -101.35876118 0 -22.810273584 -101.47242 0 -22.343629431 -101.30189999 
0 -22.797311499 -101.27831522 0 -22.826151643 -101.10232887 0 -22.360878142 -100.902062 
0 -22.890370358 -100.75364759 0 -22.821734315 -100.02210096 0 -22.370164834 -99.705330814 
0 -23.0870837 -99.454677176 0 -22.684541661 -98.884705569 0 -23.270381486 -98.347188855 
0 -23.361438865 -97.772849758 0 -22.736051159 -97.370228304 0 -23.326835623 -96.752271349 
0 -23.332528006 -95.214406742 0 -24.214091315 -92.422266381 0 -23.649212037 -91.717014563 
0 -24.293987828 -90.714694397 0 -24.834644533 -88.718904846 0 -24.997320133 -87.691811532 
0 -24.605321498 -86.979058706 0 -25.255665148 -85.731153421 0 -24.984738953 -84.496534882 
0 -25.711060295 -83.036263796 0 -25.8674305 -82.048981179 0 -25.651401099 -79.931472208 
0 -26.354890635 -78.806034269 0 -26.553578798 -77.55363501 0 -26.163418258 -76.8823156 
0 -26.872381342 -75.59268452 0 -27.3035183 -72.853483648 0 -26.98404671 -72.034906194 
0 -27.674480499 -70.791120633 0 -27.444083537 -69.172482712 0 -27.786191705 -70.101904409 
0 -28.14174922 -67.603236635 0 -28.350471291 -66.28541734 0 -28.1899546 -59.384011562 
0 -29.961191465 -48.201743118 0 -30.712637573 -42.631062632 0 -31.377318533 -39.148168976 
0 -33.220387324 -28.375252536 0 -32.635554382 -31.740304497 0 -31.97117809 -34.901893314 
0 -31.734792269 -38.027963608 0 -27.797971055 -62.019188981 0 -23.597601281 -88.047491116 
0 -22.955877329 -92.482296282 0 -22.616843652 -95.713317448 0 -22.004596816 -98.432942136 
0 -21.613512941 -100.91600193 0 -21.491010877 -101.08745917 0 -22.965309713 -93.670275256 
0 -26.64636128 -69.130808292 0 -27.256569493 -62.498834742 0 -27.190512181 -61.018832736 
0 -28.407905325 -56.40117443 0 -29.010596679 -52.868976785 0 -28.650348191 -49.850850848 
0 -30.230751703 -45.48433427 0 -30.017157963 -43.921325728 0 -30.576269843 -41.123623203 
0 -32.106092215 -32.62674239 0 -31.99686395 -31.239970331 0 -32.439130051 -28.51874315 
0 -32.898625454 -28.424746639 0 -32.643304685 -28.558871013 0 -32.680594163 -29.703359638 
0 -32.128809825 -30.74277449 0 -32.206648566 -33.060033782 0 -31.629575818 -34.003330034 
0 -31.330307852 -36.195488636 0 -30.999611148 -40.093060966 0 -30.673262821 -42.373001302 
0 -30.284407461 -44.808436248 0 -29.918351887 -47.309954238 0 -29.349141291 -49.857475514 
0 -28.233907738 -57.36370786 0 -26.671906298 -65.235135189 0 -25.739268247 -71.212433297 
0 -25.089971082 -76.379807028 0 -24.671537269 -77.798088868 0 -24.342528368 -81.349752841 
0 -24.246524179 -83.086463575 0 -23.862062297 -85.575530285 0 -23.313723827 -86.641260674 
0 -23.1221985 -90.396373665 0 -22.663276738 -91.27447625 0 -22.088537299 -94.109968997 
0 -22.057907111 -97.103685513 0 -21.657549834 -97.630003975 0 -21.352476471 -99.316402012 
0 -21.536051425 -100.33168611 0 -21.177440433 -100.53233763 0 -21.423806564 -101.08944007 
0 -21.420970209 -100.76170289 0 -21.187894194 -100.21775305 0 -21.738951944 -98.747839932 
0 -21.75464946 -97.48362787 0 -22.715083144 -91.532494403 0 -23.58327219 -87.3588137 
0 -24.081485571 -84.112924787 0 -24.260416376 -81.531518306 0 -24.457173291 -80.066032119 
0 -25.110509215 -77.445688126 0 -25.533888935 -74.850842228 0 -26.016823269 -72.075501207 
0 -25.924274443 -70.696978789 0 -26.907808267 -66.130496098 0 -26.79304417 -58.870531519 
0 -26.674518136 -56.495913217 0 -27.4881235 -51.518216547 0 -29.018403417 -44.269784503 
0 -29.663215712 -40.691959268 0 -30.105950032 -39.295377318 0 -30.556450189 -37.439001269 
0 -30.85627334 -35.839735295 0 -30.699646886 -34.139265469 0 -31.712196447 -30.152465801 
0 -31.637255033 -29.508712228 0 -31.625693882 -28.944578299 0 -31.501641451 -28.576489453 
0 -31.566018254 -28.437343245 0 -31.664278234 -28.630001188 0 -31.645223398 -29.165488978 
0 -31.256639048 -29.941773063 0 -31.153456246 -31.011679794 0 -30.949384657 -32.381725258 
0 -30.658670892 -33.941198955 0 -30.432546151 -36.064257845 0 -29.916746787 -38.545454643 
0 -29.509632153 -40.687735369 0 -29.19208623 -42.876502054 0 -28.812644442 -45.288405932 
0 -28.100771843 -48.064661799 0 -27.678851373 -53.359391412 0 -25.494593827 -66.655921059 
0 -25.190217539 -68.593905563 0 -24.945221957 -72.397942494 0 -23.588778804 -80.217551941 
0 -22.751054791 -83.537777338 0 -22.360826494 -86.38304158 0 -21.972967755 -88.842750936 
0 -21.756594065 -90.82930814 0 -21.470184392 -92.376520011 0 -21.113725479 -94.101795092 
0 -20.865336941 -95.861056602 0 -20.714379829 -97.305095722 0 -20.324917868 -97.874076609 
0 -20.231551465 -100.07997197 0 -20.213923161 -100.49189761 0 -20.151652993 -100.63199224 
0 -20.160277832 -100.53967974 0 -19.847937132 -100.04848678 0 -20.538569073 -99.303219081 
0 -20.428657498 -98.192262139 0 -20.879898053 -97.102404618 0 -21.276136129 -96.061594577 
0 -21.352588359 -94.59303093 0 -21.448538595 -92.589654343 0 -21.890079554 -90.847109378 
0 -22.165358253 -88.967125109 0 -23.853671749 -76.427928519 0 -24.331977634 -73.590173724 
0 -24.912295669 -70.959116335 0 -25.312237669 -68.341093998 0 -27.661517498 -46.908430438 
0 -30.172078246 -32.51789108 0 -30.078735495 -31.237167087 0 -27.082482063 -50.859578597 
0 -26.338981833 -58.95616978 0 -25.68465569 -61.859782453 0 -25.300571826 -63.190911144 
0 -23.977588523 -72.540308693 0 -23.689274114 -74.465084517 0 -19.455473795 -99.570792013 
0 -24.845099554 -63.490966712 0 -25.054262937 -60.639312735 0 -25.130750837 -58.921903438 
0 -25.632306837 -56.414522603 0 -26.153212265 -54.12099237 0 -25.919826061 -51.524039202 
0 -26.799776528 -48.697610638 0 -27.486268846 -43.908188122 0 -27.862267748 -41.627929567 
0 -28.187587854 -39.283030878 0 -28.692479483 -37.145689367 0 -28.819634872 -35.988100191 
0 -28.802855234 -34.081062392 0 -29.596169861 -32.022634025 0 -29.469799109 -30.392576816 
0 -29.670471608 -29.501767042 0 -29.876029273 -29.156197418 0 -29.926075616 -28.749142392 
0 -29.88007453 -29.115500938 0 -29.791474136 -29.764035909 0 -29.545749336 -30.654515032 
0 -29.507821587 -31.881657751 0 -29.261049589 -33.241796518 0 -29.137253574 -34.22149809 
0 -28.82698967 -36.637142204 0 -28.249528426 -38.952078476 0 -28.017720159 -41.434922891 
0 -27.535851403 -44.221998793 0 -27.066968821 -46.032013906 0 -25.706383307 -53.670142356 
0 -25.069690672 -57.08443218 0 -24.419638712 -60.266369522 0 -24.350140022 -65.906469381 
0 -22.257843103 -73.747854051 0 -22.735778087 -77.048585367 0 -21.798036943 -79.740695524 
0 -21.47369813 -82.058982386 0 -21.058602261 -84.572619131 0 -20.641486381 -87.29184633 
0 -20.429282436 -88.673669125 0 -20.152274038 -90.539331749 0 -19.925764833 -92.299318431 
0 -19.618212173 -94.140248749 0 -19.305990383 -95.837919181 0 -19.284811968 -97.472703283 
0 -19.24456338 -98.519989972 0 -19.021514125 -98.826904049 0 -18.751768495 -99.336487288 
0 -18.698878135 -99.847300363 0 -18.584035886 -99.521967006 0 -18.86328443 -98.479364947 
0 -18.9644172 -97.397618727 0 -19.214564752 -96.300410984 0 -19.363659708 -95.064310905 
0 -19.693607655 -93.489527278 0 -19.972911856 -91.735658796 0 -20.358877618 -89.633112338 
0 -20.900601162 -87.109380437 0 -21.142237055 -84.74026526 0 -20.836533209 -83.29405822 
0 -22.518246275 -75.218000283 0 -22.924930042 -72.893915371 0 -23.34172708 -70.36418804 
0 -23.166412779 -62.361486849 0 -24.398210596 -53.760206679 0 -25.765012888 -48.723410461 
0 -25.907826849 -45.816501337 0 -27.466332304 -36.45748501 0 -28.204336974 -33.764577273 
0 -28.59467221 -32.230266402 0 -28.370462575 -31.60049739 0 -28.918022897 -30.101887439 
0 -28.169059661 -29.51793837 0 -27.987264814 -32.751325541 0 -27.134429123 -37.588358229 
0 -26.453806468 -42.700015473 0 -26.296257398 -46.608676823 0 -26.027269445 -49.387474802 
0 -25.280533713 -51.026049822 0 -24.853695021 -55.175979276 0 -23.313892081 -63.633908871 
0 -22.776551754 -65.413050207 0 -21.21107075 -76.628578451 0 -18.703259345 -91.607796984 
0 -18.272897863 -93.466452665 0 -18.08752277 -95.546387736 0 -17.667793832 -96.971301737 
0 -18.079525569 -98.832086669 0 -19.258692247 -88.324347863 0 -19.502808703 -85.61884914 
0 -20.806352756 -80.629471529 0 -21.123609456 -77.713587354 0 -23.408545165 -58.960255801 
0 -23.333267344 -56.018453089 0 -24.322779773 -51.070122688 0 -26.174155152 -41.257934749 
0 -26.257802955 -38.85018584 0 -27.209631291 -33.259091009 0 -27.521479018 -31.742548482 
0 -27.858036173 -30.394676775 0 -27.469277137 -30.070164025 0 -28.140483603 -29.2943906 
0 -28.075324408 -29.908483145 0 -27.926942758 -30.397372008 0 -27.32863753 -31.628159114 
0 -27.197898329 -34.737814179 0 -25.956309813 -40.553636966 0 -24.861109126 -48.122648311 
0 -24.32977514 -51.540114278 0 -23.880435509 -55.541826324 0 -23.550321499 -57.8881877 
0 -22.707801267 -61.309302822 0 -22.142791398 -68.399544917 0 -21.500955634 -71.38853251 
0 -20.986636417 -73.208610848 0 -20.428821339 -76.508402784 0 -20.121420123 -79.384533732 
0 -19.708818358 -82.330941128 0 -19.257664902 -85.317243578 0 -18.993872086 -87.936402453 
0 -18.289106465 -89.417776916 0 -17.331957627 -97.74179353 0 -17.229722257 -98.372203125 
0 -17.243736923 -98.620489403 0 -17.18198437 -98.783771447 0 -17.148544165 -98.621501518 
0 -17.22186247 -98.12236486 0 -17.251378119 -97.301001726 0 -17.63145805 -94.991784546 
0 -17.847865268 -93.259981834 0 -18.232457198 -91.607553676 0 -18.19813392 -90.233918925 
0 -19.341474613 -82.292398853 0 -20.911745668 -74.642839252 0 -21.329775419 -71.946238353 
0 -21.58193355 -70.430578873 0 -22.237024916 -67.544925828 0 -21.867655898 -61.697645025 
0 -24.44439437 -48.040996843 0 -25.169092694 -45.028272621 0 -25.143496419 -43.425585148 
0 -26.237604357 -36.494498166 0 -26.161456678 -35.323300672 0 -26.757430978 -33.174584633 
0 -26.347680814 -34.029269612 0 -26.434026992 -36.57515605 0 -26.226090126 -38.344566683 
0 -25.754631902 -39.555051088 0 -25.018930316 -43.460802361 0 -24.458971785 -45.379838291 
0 -21.593674834 -65.154864034 0 -20.616058557 -68.982671398 0 -17.672325335 -87.240122749 
0 -17.415788677 -90.7276129 0 -17.199941565 -93.270330775 0 -16.868760427 -95.134743497 
0 -16.871184117 -95.647899788 0 -17.212134819 -93.749511248 0 -18.237666278 -87.315941857 
0 -18.870175923 -84.802804892 0 -18.809405025 -83.416532213 0 -19.429274011 -79.110176099 
0 -19.485268315 -77.177279138 0 -21.204937877 -66.271002535 0 -21.904593551 -58.553405317 
0 -22.370226811 -55.719551685 0 -22.822864363 -52.723904555 0 -23.141925912 -49.532491342 
0 -23.610728134 -46.176090041 0 -24.190278015 -43.41036556 0 -24.654803241 -40.897207216 
0 -24.917595147 -38.461946562 0 -25.404615892 -35.327723544 0 -25.938421974 -33.187432221 
0 -26.167535161 -31.647559219 0 -26.291747646 -30.687036068 0 -26.410818861 -30.223962271 
0 -26.437055369 -30.160545653 0 -26.361945304 -30.479997036 0 -26.124276296 -31.253628347 
0 -25.696362372 -32.712945076 0 -25.538028396 -34.430142577 0 -25.285370346 -36.214049695 
0 -24.892578835 -38.100959472 0 -24.631291898 -40.282438842 0 -24.182283137 -42.058522864 
0 -23.210828413 -50.077103274 0 -22.575571712 -54.242233182 0 -22.009527722 -57.873640106 
0 -21.322706709 -61.310327647 0 -20.464417642 -65.087884669 0 -19.56607434 -73.290476679 
0 -19.037036271 -76.412165568 0 -18.602822338 -79.391720127 0 -18.152905519 -82.364111603 
0 -17.481526768 -84.83565711 0 -16.844346482 -88.636822141 0 -16.637139531 -91.889656898 
0 -16.113641279 -93.257386748 0 -16.098969108 -95.004666744 0 -16.096655773 -95.784554147 
0 -15.493360886 -96.13555992 0 -15.81883202 -97.350041156 0 -15.875416702 -97.504499427 
0 -15.827010036 -97.14548367 0 -15.874474539 -96.656491975 0 -15.920386819 -95.755404326 
0 -16.097896168 -94.45288774 0 -16.339372068 -92.793961275 0 -17.041637996 -88.28711009 
0 -17.415931642 -85.337308217 0 -17.948222457 -82.557977229 0 -18.127817005 -80.554094647 
0 -19.481270112 -73.637056542 0 -19.806939901 -69.900027498 0 -20.642517349 -62.858660331 
0 -20.686150723 -61.06529838 0 -23.081455789 -45.464206178 0 -19.485502284 -68.445882 
0 -16.404280119 -86.573934904 0 -16.257180474 -89.383069064 0 -14.815904396 -96.082576446 
0 -16.119830541 -91.216884153 0 -18.222121922 -76.84982336 0 -20.082608226 -66.140200178 
0 -20.073012839 -60.937568157 0 -20.660800971 -57.837577804 0 -21.157033559 -54.716848065 
0 -21.654591233 -51.565139765 0 -22.144878687 -48.453779702 0 -22.632997702 -45.507131708 
0 -23.02386382 -43.088150913 0 -23.487949884 -40.146663211 0 -23.675948053 -38.90760841 
0 -23.944337226 -37.014649594 0 -24.272087105 -35.152570091 0 -24.550081902 -33.552589041 
0 -24.706287094 -32.150095462 0 -24.831529226 -31.448354183 0 -24.909694054 -31.238458678 
0 -24.894487835 -31.259262856 0 -24.820270152 -31.639474082 0 -24.632774423 -32.542147507 
0 -24.32644854 -34.29531458 0 -24.112646669 -36.008012016 0 -23.856732777 -37.681921898 
0 -23.533870144 -39.62851709 0 -22.846332614 -43.042085607 0 -22.419929449 -46.051755261 
0 -22.034333585 -49.144315743 0 -21.535444566 -52.414031191 0 -21.028250001 -55.543221506 
0 -20.527263136 -58.632145428 0 -19.99393887 -62.002218534 0 -19.315616455 -65.546904946 
0 -18.842778604 -68.651194954 0 -18.567253014 -71.270134083 0 -18.101547835 -74.127564819 
0 -17.624115663 -77.302933118 0 -17.359704081 -79.06445845 0 -16.940482461 -81.687621996 
0 -16.25797933 -83.970875591 0 -15.781460659 -88.643115599 0 -15.431412117 -90.775234786 
0 -15.065587773 -93.067760164 0 -14.846811266 -94.410858514 0 -14.784083017 -95.26677773 
0 -14.753589023 -95.776098547 0 -14.71890438 -95.515889225 0 -14.82115731 -94.882955587 
0 -14.981274623 -93.808850873 0 -15.140771896 -92.294663041 0 -15.461142161 -90.480785368 
0 -15.818355826 -88.499251709 0 -16.200801078 -86.09019262 0 -16.645315885 -83.311024154 
0 -17.09431747 -80.090428201 0 -17.83382725 -75.493027315 0 -18.257408331 -73.162218413 
0 -18.749452649 -69.269887855 0 -19.40234557 -64.428240079 0 -18.923564046 -65.830939664 
0 -18.59407371 -67.902973273 0 -18.109099997 -71.764068297 0 -17.285898328 -76.634376535 
0 -16.93582505 -78.858045956 0 -16.495073244 -82.032887835 0 -16.05402829 -84.863858745 
0 -15.647107845 -87.34593658 0 -15.324507265 -89.381990397 0 -14.965109771 -91.17954711 
0 -14.754831213 -92.774391698 0 -14.594182486 -94.024591247 0 -14.45909023 -94.782331231 
0 -14.451583851 -95.343206532 0 -14.425506901 -95.423771978 0 -14.475160366 -95.048461974 
0 -14.487890153 -94.381139724 0 -14.661581347 -93.47379653 0 -14.88024067 -91.92444162 
0 -15.03907573 -90.882513366 0 -15.379571981 -89.109376354 0 -15.771468895 -86.907648311 
0 -16.458734686 -82.2709517 0 -16.91016631 -79.605644981 0 -17.508419342 -75.58183369 
0 -18.017620809 -72.331788185 0 -18.430094506 -69.681400614 0 -18.716828428 -67.045474105 
0 -19.345410793 -63.785071562 0 -19.913914308 -60.295387723 0 -20.42393606 -57.023104966 
0 -20.927544548 -53.967564803 0 -21.407938698 -50.760625069 0 -21.932494607 -47.582595698 
0 -22.256444555 -44.669574481 0 -22.807637017 -41.896222087 0 -23.038594853 -40.547370473 
0 -23.357750671 -38.586794191 0 -23.591892457 -37.074594598 0 -23.820764916 -35.49099135 
0 -24.013395849 -33.975112972 0 -24.143686616 -33.249220572 0 -24.380960791 -32.238220619 
0 -24.457457578 -31.710307972 0 -24.503579412 -31.567739616 0 -24.35275932 -32.05979236 
0 -24.264407267 -32.900438674 0 -24.182556438 -33.543718028 0 -23.976338704 -34.872168291 
0 -23.673305258 -36.576253626 0 -23.378318107 -38.462988591 0 -22.960547154 -41.076495029 
0 -22.727669146 -42.53623138 0 -22.395215325 -44.838951692 0 -21.955573493 -47.456748511 
0 -21.466473527 -50.521502377 0 -20.998061212 -53.483244192 0 -20.490285339 -56.600157386 
0 -20.038798181 -59.535106713 0 -19.445063431 -62.609108474 0 -19.986661604 -64.550061714 
0 -19.490229874 -68.319391425 0 -14.537817254 -95.72129652 0 -14.790594982 -96.118229566 
0 -16.673705003 -85.123707984 0 -19.807409665 -66.27615618 0 -23.392726111 -43.313580977 
0 -25.459559923 -32.110066627 0 -19.214471009 -72.248674044 0 -18.912502106 -75.907396957 
0 -17.832685418 -79.223554825 0 -17.346876403 -83.483168437 0 -16.861143911 -86.39149781 
0 -16.552543143 -89.13912003 0 -16.717382962 -90.757957502 0 -15.856345812 -93.172978422 
0 -15.608765662 -94.609031534 0 -15.519870604 -95.813588004 0 -15.435575396 -96.459417551 
0 -15.474659565 -96.941325258 0 -15.469439262 -97.04268366 0 -15.468069862 -96.77791363 
0 -15.525012762 -95.503262309 0 -15.669714439 -93.724625902 0 -15.967960472 -91.947613627 
0 -16.693254056 -90.771614323 0 -17.001437891 -87.56315527 0 -17.547548869 -83.099495012 
0 -17.995376881 -80.411052056 0 -18.406340098 -77.526573176 0 -18.84794033 -74.734256639 
0 -19.36931405 -71.622130758 0 -19.874879222 -69.828084334 0 -20.621152509 -62.575780408 
0 -21.308841898 -59.073523479 0 -21.832262901 -55.952378596 0 -22.37945883 -52.27954248 
0 -22.993209037 -48.595282659 0 -23.552896398 -46.446013531 0 -24.298314567 -39.472780052 
0 -24.627116518 -37.351824217 0 -25.035740817 -35.477564794 0 -25.120617873 -33.764913029 
0 -25.736800158 -31.08696269 0 -25.882445555 -30.581463312 0 -25.85521229 -30.509064258 
0 -25.818706557 -30.75869177 0 -25.658098089 -31.467001583 0 -25.551568394 -32.659329097 
0 -25.232683883 -34.361093964 0 -24.715051083 -36.557595638 0 -24.535845838 -37.830893839 
0 -24.329429944 -40.0181008 0 -23.968928999 -42.332480184 0 -23.482995213 -44.834216306 
0 -22.950035817 -47.846036634 0 -22.524886488 -51.183871798 0 -22.111541456 -54.338776395 
0 -21.586234546 -57.335043774 0 -21.456215533 -60.127167324 0 -21.019672577 -65.147570932 
0 -20.584583553 -68.844267854 0 -18.901177992 -80.332471799 0 -18.078048594 -85.798389689 
0 -17.756043411 -88.750472665 0 -15.898919073 -96.919059247 0 -16.807270912 -94.046840262 
0 -17.464603225 -89.448102343 0 -17.882989328 -85.96285151 0 -20.883689596 -66.412197553 
0 -21.87595708 -62.56509839 0 -24.90460809 -42.32096451 0 -25.69701439 -37.700133857 
0 -26.287845264 -35.838207143 0 -26.523523059 -32.523489646 0 -25.756224512 -37.818697623 
0 -24.34360721 -46.354926769 0 -23.903405388 -49.548614823 0 -21.366566854 -63.226199 
0 -22.129422738 -65.864818295 0 -21.320288614 -69.301775593 0 -20.557285933 -73.261577215 
0 -20.408496056 -76.28820076 0 -17.572654937 -91.845505211 0 -17.484598175 -95.787624789 
0 -16.751620592 -96.465600458 0 -16.774748282 -97.433709564 0 -16.713023368 -98.03121339 
0 -16.663287971 -98.298945967 0 -16.743505859 -98.296682402 0 -16.760737668 -97.683034388 
0 -17.007207263 -96.966184859 0 -18.339737166 -88.283464194 0 -18.674146766 -86.277894322 
0 -18.993423387 -83.369660287 0 -19.475745946 -80.306060514 0 -19.879192689 -77.355785737 
0 -20.304798931 -74.121002656 0 -21.363537193 -69.787165459 0 -22.105298 -66.337717337 
0 -22.85523672 -58.854648707 0 -23.583438126 -53.835554857 0 -24.15327831 -49.744353397 
0 -25.001513375 -46.35063923 0 -27.094525842 -34.089757771 0 -27.166193217 -30.961176264 
0 -27.54001063 -29.890015028 0 -27.549503068 -29.569753351 0 -27.583642474 -29.600080914 
0 -27.189943753 -31.192106455 0 -26.885924005 -32.72610437 0 -26.897023389 -34.311001142 
0 -25.744546887 -40.372541196 0 -25.921503146 -42.625091246 0 -23.859278172 -52.594031964 
0 -23.006730749 -57.898753154 0 -22.717848332 -61.185385665 0 -22.893810929 -64.3889339 
0 -20.552856754 -79.482414955 0 -20.123066633 -82.217159728 0 -19.042535217 -87.180356835 
0 -18.895913816 -89.943379144 0 -17.52703366 -95.919747777 0 -17.821920191 -93.984873969 
0 -18.136516303 -91.924550077 0 -18.807034959 -90.38053438 0 -21.54117218 -74.587620063 
0 -23.425408157 -61.987231899 0 -25.784341688 -48.279834172 0 -25.805463478 -45.354463348 
0 -25.913608561 -43.606164263 0 -26.610829946 -40.787326027 0 -27.268748762 -36.454623944 
0 -27.504276007 -33.235072793 0 -28.045534257 -31.795506849 0 -28.17295858 -29.400689002 
0 -28.069395939 -32.905304133 0 -27.518136672 -34.655089509 0 -27.148115415 -35.925813875 
0 -27.057399689 -38.057657519 0 -25.392871385 -47.737966312 0 -25.235910258 -50.547948857 
0 -24.144009562 -55.318258841 0 -23.931690757 -64.777829984 0 -23.20284222 -67.78800386 
0 -22.89829674 -69.446707439 0 -22.501162261 -71.970561168 0 -22.108002934 -74.250854592 
0 -22.037102409 -77.035371537 0 -20.529333672 -85.603544375 0 -20.090233223 -88.268676229 
0 -19.637573307 -90.606307334 0 -19.265575644 -92.446365357 0 -18.935699539 -94.065192221 
0 -18.695148667 -95.501373816 0 -18.492977402 -96.65716164 0 -18.313546247 -97.758342173 
0 -18.643816356 -98.913093403 0 -18.161893585 -99.402533325 0 -18.204225114 -99.551094035 
0 -18.2424468 -99.390530037 0 -18.228432135 -99.142243759 0 -18.324278577 -98.625205796 
0 -18.728104438 -97.766199246 0 -18.784990472 -96.304445733 0 -19.059500354 -94.56143988 
0 -19.398352724 -92.728508441 0 -19.625692153 -90.857598368 0 -19.85238315 -89.012960522 
0 -20.303715234 -85.857182868 0 -20.727946899 -82.993960682 0 -21.100243766 -80.47443605 
0 -21.7488492 -77.843829059 0 -22.392155071 -71.887356908 0 -23.126640815 -68.487557243 
0 -23.425752235 -66.789452731 0 -24.36617974 -63.906620487 0 -24.397116601 -58.621979439 
0 -25.882167621 -52.002471144 0 -27.285963081 -42.96622215 0 -27.586578597 -40.178886815 
0 -27.980440861 -37.805723357 0 -28.286696513 -35.824527333 0 -28.362027807 -34.844666475 
0 -28.865440143 -32.733161244 0 -28.976723535 -31.329295993 0 -29.080179337 -30.25415438 
0 -29.296140797 -29.514821469 0 -29.292206091 -29.019836588 0 -29.39780864 -28.854632055 
0 -29.342445055 -29.122021249 0 -29.226620611 -30.976428349 0 -28.43487182 -35.503245764 
0 -27.898783817 -38.261007447 0 -27.391848811 -40.654801826 0 -27.041211139 -42.848927012 
0 -26.886189434 -45.325840494 0 -25.545628 -53.212387749 0 -25.323939793 -55.629651226 
0 -24.648808534 -58.078068511 0 -24.376203554 -61.891039131 0 -24.133119869 -66.49679241 
0 -21.927465689 -80.744130663 0 -21.869824561 -82.328539522 0 -18.764456481 -99.834045625 
0 -22.91467056 -74.993568747 0 -23.337296937 -71.208295781 0 -23.746652313 -69.542558398 
0 -25.407889342 -60.490906352 0 -26.023305273 -57.194085691 0 -26.585037451 -54.305503384 
0 -27.112046323 -49.365361668 0 -30.014352906 -28.764405248 0 -29.729095545 -33.457666478 
0 -27.574003864 -48.309933481 0 -26.845745335 -50.571542341 0 -25.080304325 -66.786012253 
0 -24.619703753 -69.833046735 0 -24.058086776 -72.413611843 0 -23.609064241 -75.037622944 
0 -22.963208787 -77.869623092 0 -22.981987042 -79.544724478 0 -22.618845559 -83.0580505 
0 -22.245774199 -84.654428546 0 -21.782617078 -87.490817458 0 -21.551986732 -89.950124197 
0 -21.032308989 -91.659448981 0 -20.817173473 -93.709026079 0 -20.656982709 -95.372650813 
0 -20.502229213 -96.552291835 0 -20.06367339 -97.590980853 0 -19.87913949 -98.719922786 
0 -20.334371452 -99.720359851 0 -19.54079001 -100.0806685 0 -19.740508258 -100.42574528 
0 -19.670254237 -100.33649892 0 -19.806621728 -100.06736095 0 -19.873933781 -99.550796564 
0 -20.195273841 -96.437195844 0 -20.534765303 -94.840588808 0 -20.724584459 -92.972265024 
0 -21.197946652 -91.385306799 0 -21.287820737 -89.644041693 0 -21.717008858 -87.482108159 
0 -22.040191045 -84.908216014 0 -22.515217238 -82.267202159 0 -22.730047431 -80.849096713 
0 -23.643697204 -78.313907061 0 -26.685963765 -55.920993814 0 -28.00051167 -51.581137837 
0 -27.946485443 -46.664393705 0 -28.521292861 -43.999372764 0 -28.938401849 -41.567828823 
0 -29.251900291 -39.328021098 0 -29.76092373 -37.000930868 0 -30.102511463 -34.708531445 
0 -30.282780498 -33.050708667 0 -30.570035192 -31.721309617 0 -30.660268442 -30.497246968 
0 -30.853414741 -29.608922656 0 -31.167216526 -28.921281699 0 -31.011005762 -28.55352623 
0 -31.097632373 -28.542732601 0 -30.951946201 -28.832338269 0 -30.97384659 -29.339964502 
0 -30.885656263 -29.961204143 0 -31.148454178 -30.844577211 0 -30.158169627 -35.247515811 
0 -29.943489157 -36.886470602 0 -29.594244552 -38.720243464 0 -28.91657803 -41.659666607 
0 -28.70284323 -43.374826161 0 -28.577157097 -46.385736407 0 -27.169788491 -53.37931803 
0 -26.29467514 -57.989195685 0 -26.269926814 -60.543823051 0 -26.235000477 -65.370099193 
0 -26.326916422 -67.900993101 0 -25.278735351 -73.514200635 0 -24.831738726 -76.317120892 
0 -24.151220494 -79.231597138 0 -23.648963224 -82.626000488 0 -23.085942903 -85.179113485 
0 -22.877163286 -86.506386997 0 -23.160419658 -88.944575098 0 -22.369737589 -92.579968652 
0 -21.369183529 -98.167981125 0 -21.457855496 -99.355417241 0 -20.870164795 -100.4244731 
0 -21.018230368 -100.8447278 0 -21.044203075 -100.98865807 0 -21.074925406 -100.88817293 
0 -20.774887017 -99.754815791 0 -20.577642833 -99.264854153 0 -21.159894753 -98.635460723 
0 -21.784800207 -96.202638019 0 -22.321432397 -93.028341384 0 -22.900662845 -89.149914799 
0 -23.62002871 -83.946872515 0 -24.678963369 -75.192309188 0 -25.426844946 -73.956610949 
0 -26.012848332 -69.425834336 0 -26.461844577 -63.769974168 0 -26.845928442 -62.438845477 
0 -27.467041961 -58.998008004 0 -27.768506102 -56.048777759 0 -28.386682298 -54.440347566 
0 -28.953917919 -51.118167995 0 -29.185533466 -48.305246484 0 -29.699749264 -45.693381781 
0 -30.068096008 -43.28058969 0 -30.368483347 -41.088820212 0 -30.80560645 -38.909409668 
0 -31.902347798 -32.328919294 0 -32.17238964 -30.016857381 0 -32.556652228 -29.184841642 
0 -32.474611495 -28.379693829 0 -32.595360129 -28.766522523 0 -31.503053653 -32.127817262 
0 -31.74566815 -33.698415198 0 -29.400003412 -46.92122088 0 -28.518499019 -51.185202211 
0 -28.012733988 -54.061202436 0 -27.751154262 -55.631865917 0 -27.829638229 -58.146557563 
0 -26.201224818 -63.794016078 0 -22.579525605 -94.563965799 0 -22.764866255 -94.828369118 
0 -28.093748787 -60.384548174 0 -31.915630319 -36.947777635 0 -32.710958769 -31.076158597 
0 -33.207002135 -28.45872908 0 -31.452120569 -40.288779377 0 -29.730359198 -49.736637521 
0 -27.975982724 -65.468660333 0 -28.228122235 -67.057898876 0 -28.019892812 -68.372607714 
0 -27.160351027 -73.791701347 0 -26.521622509 -74.689778382 0 -26.435236694 -78.298749215 
0 -26.238805359 -79.538967857 0 -25.454644184 -81.396958395 0 -25.590074209 -83.86233329 
0 -25.165681457 -86.295061844 0 -24.901098882 -88.299328599 0 -24.742467422 -89.300888224 
0 -23.994070604 -89.75432055 0 -24.209068561 -91.250853551 0 -24.134319633 -92.968736392 
0 -23.831411625 -93.649445423 0 -23.439830011 -95.778753903 0 -22.686360609 -96.184808455 
0 -23.306182882 -98.121147738 0 -23.221829363 -98.660272163 0 -22.785524986 -100.27814354 
0 -22.268191825 -100.40656843 0 -22.807004091 -101.2171186 0 -22.787489237 -101.34033054 
0 -22.796292416 -101.3917972 0 -22.412921605 -101.16302673 0 -22.941331806 -100.87750912 
0 -23.083620941 -99.540112543 0 -23.155899734 -99.083762199 0 -23.52106464 -96.789744089 
0 -23.422578507 -96.093152636 0 -23.942710299 -94.177207768 0 -24.072339442 -93.358761571 
0 -24.658477651 -89.626953011 0 -24.396288437 -88.497870652 0 -25.215000931 -86.386925829 
0 -25.455613488 -84.538264355 0 -25.812690763 -82.235490986 0 -26.002599712 -79.956003723 
0 -25.68637542 -78.872835879 0 -26.54725016 -77.680185708 0 -26.891527385 -75.498141752 
0 -26.453112454 -74.254243529 0 -27.618651011 -70.961030324 0 -27.830804824 -69.621543864 
0 -28.703330603 -64.134096083 0 -28.684361849 -62.982502108 0 -29.482094844 -59.415192631 
0 -29.689928696 -58.102981333 0 -30.055985368 -55.28917423 0 -30.266467443 -52.957512781 
0 -31.126737294 -48.760632397 0 -31.82254146 -44.363386462 0 -31.999421528 -43.256415565 
0 -32.655806489 -39.192909481 0 -32.574960652 -38.3904191 0 -33.146370644 -36.067698238 
0 -33.271750988 -35.276077901 0 -33.723547619 -32.445775499 0 -33.481437087 -31.93270552 
0 -34.047805987 -31.361573719 0 -33.986519318 -30.541554069 0 -34.051573935 -30.130815382 
0 -34.189624499 -29.352418322 0 -34.03999652 -28.887176507 0 -33.583381683 -28.690067712 
0 -34.344817229 -28.456201035 0 -34.132017073 -28.421681827 0 -34.313965502 -28.64995696 
0 -34.286731045 -28.826198637 0 -33.876057595 -29.887810577 0 -33.837125104 -31.624526096 
0 -33.741828142 -32.198794323 0 -33.50370406 -33.618057757 0 -33.126794545 -34.926131417 
0 -32.339376276 -35.513563451 0 -32.606452205 -37.909171672 0 -32.262662317 -38.781655688 
0 -32.320640322 -41.326608747 0 -32.157964722 -42.353702062 0 -31.43436065 -46.909143385 
0 -31.08403026 -47.862388701 0 -30.751810017 -51.20925223 0 -30.548639458 -52.462666795 
0 -29.726150287 -57.543938169 0 -29.078375888 -58.904081694 0 -29.322706054 -60.506633231 
0 -29.114824864 -61.819143405 0 32.671847447 -55.141374107 0 32.566006304 -54.975735669 
0 32.515093104 -54.802430634 0 32.46051698 -54.272310913 0 32.445025056 -53.998809701 
0 32.467471021 -53.835753411 0 32.378916758 -53.440203153 0 32.278619195 -53.24531004 
0 32.294691398 -52.874066204 0 32.208521532 -52.780067438 0 32.181026556 -52.622175755 
0 32.165722172 -52.575732693 0 32.109885868 -52.541919831 0 32.127840612 -52.505441586 
0 32.188514752 -52.464698736 0 32.151032492 -52.479206348 0 31.450286815 -52.62686057 
0 32.19750922 -52.551020184 0 32.179738895 -52.597594086 0 32.16755063 -52.654379872 
0 32.167884277 -52.713859888 0 31.700610051 -53.022644788 0 31.7366063 -53.118679247 
0 31.08648139 -53.450930537 0 32.333842673 -53.341513727 0 32.380281759 -53.45483521 
0 32.417939421 -53.682739357 0 32.434345515 -53.837421287 0 32.443958755 -54.271845554 
0 32.509951953 -54.543917868 0 31.81690533 -54.904845803 0 32.573915168 -54.970039659 
0 32.572899696 -55.151887464 0 32.573051607 -55.336490172 0 32.76112704 -55.83133978 
0 32.807411852 -55.962820207 0 32.794506076 -56.115854415 0 32.821076406 -56.285176963 
0 32.878511741 -56.431881684 0 32.237969818 -56.797249998 0 32.984492288 -57.002197818 
0 33.01132597 -57.139232733 0 32.98097583 -57.267597219 0 32.935743338 -57.628631752 
0 33.234346058 -57.665356908 0 33.213091581 -57.873410332 0 33.002846462 -57.981690224 
0 33.018947134 -58.024255101 0 33.005265092 -58.068602659 0 32.344356261 -58.182365122 
0 33.134734402 -58.050431444 0 33.117237177 -58.040321957 0 33.10399064 -57.983237878 
0 32.345860435 -58.042551949 0 32.997583031 -57.850712043 0 33.018487026 -57.773106324 
0 32.991397343 -57.55222852 0 32.96057127 -57.459272728 0 32.939220241 -57.372545916 
0 32.857056554 -57.27726437 0 32.129577562 -57.212796157 0 32.844386203 -56.912359549 
0 32.885388935 -56.766332255 0 32.826967116 -56.514778318 0 32.064934579 -56.445802607 
0 32.730863809 -56.087218966 0 32.698093473 -55.927065604 0 32.661263282 -55.326041575 
0 29.947754457 -54.998202086 0 29.854438479 -53.996631344 0 29.711382598 -53.363891479 
0 29.596163846 -53.002400944 0 29.511481296 -52.791924797 0 29.570927225 -52.81799941 
0 30.314965457 -54.30514607 0 30.061824769 -55.17797196 0 30.283480509 -56.015801675 
0 30.691426868 -57.204162153 0 30.440784723 -58.02925469 0 30.447715306 -58.444449453 
0 30.527116234 -58.545206363 0 30.6027781 -58.309524564 0 30.489627735 -58.104057723 
0 30.43093652 -57.564452722 0 30.709422668 -56.777309508 0 30.17020845 -56.019601729 
0 27.366746428 -53.409498452 0 27.883386029 -54.015016643 0 27.403253076 -54.908458353 
0 27.707439235 -56.722036657 0 28.017104184 -57.475776255 0 27.759017059 -57.725021129 
0 26.411119074 -55.036726202 0 26.249598058 -54.180347932 0 26.032854857 -53.627722093 
0 26.019234065 -53.194284657 0 26.371855285 -53.113470988 0 25.668735871 -53.313898334 
0 26.191430789 -55.510708844 0 27.089274599 -55.93717718 0 27.438799172 -58.511703361 
0 27.252713788 -59.150202205 0 27.424999106 -59.281989359 0 27.199809176 -59.038334177 
0 27.321477954 -58.503465831 0 26.383217177 -58.270479444 0 26.207497221 -57.242640994 
0 26.870157566 -56.106538254 0 23.37156954 -55.711881596 0 22.892556589 -53.175547919 
0 23.508777413 -53.407194957 0 23.965217629 -53.851263745 0 24.462484795 -54.527599469 
0 24.401904738 -55.533738625 0 24.618252388 -57.088103617 0 24.877616409 -57.683646229 
0 24.786859864 -58.683291539 0 24.662160747 -59.548981539 0 24.363622086 -60.160348216 
0 24.292929848 -60.179367532 0 24.009666226 -59.962281413 0 24.381934845 -58.649442228 
0 24.230757289 -57.786970784 0 24.14669312 -56.794145755 0 21.180545311 -56.698928022 
0 22.217005071 -54.835728658 0 21.976028377 -54.186610168 0 21.886093411 -53.632853588 
0 22.315328422 -53.164139663 0 20.825380795 -54.141888782 0 21.511576566 -55.124564465 
0 21.61052095 -56.275135285 0 21.76654907 -57.410819492 0 21.949881699 -58.591867762 
0 22.149961528 -59.662272711 0 21.776434796 -60.640745641 0 22.240616104 -60.242533864 
0 22.308642624 -59.798443039 0 21.264835929 -57.965270991 0 19.309371688 -56.40446301 
0 18.64718317 -53.357708456 0 19.036358355 -53.05097252 0 19.354763849 -53.036074436 
0 20.059724953 -53.281007398 0 20.170005777 -53.505262867 0 21.29856684 -61.208499027 
0 21.277745147 -61.248090256 0 21.228241724 -61.126114601 0 20.045526123 -61.066844596 
0 20.419392551 -59.917508678 0 21.111558622 -59.125032666 0 17.641173845 -56.96874655 
0 17.563568831 -55.36228685 0 18.189152043 -54.426701643 0 18.030874071 -54.024761319 
0 17.182225443 -53.420200126 0 16.953537916 -53.030279449 0 17.505100379 -53.584037727 
0 18.053414727 -54.539739939 0 18.513083169 -56.452859511 0 18.58580851 -57.322466185 
0 18.768433367 -58.575009569 0 18.653880052 -60.066841302 0 18.810378545 -61.125567023 
0 18.542053449 -62.134122889 0 18.370808492 -62.452231886 0 17.987783463 -61.619973119 
0 18.32266563 -60.571256307 0 17.816877188 -59.601353607 0 18.0896902 -58.353909772 
0 15.662115417 -56.848273537 0 15.430167874 -55.535282353 0 14.976560214 -54.48226693 
0 14.681731935 -53.481032369 0 15.403841639 -53.052855186 0 15.758005177 -52.86739631 
0 15.866554216 -52.726805147 0 15.529764477 -52.770030498 0 14.798301395 -53.167740557 
0 15.264470641 -53.901919067 0 15.463299056 -55.01915974 0 15.579475233 -56.539488621 
0 15.908588042 -58.085531624 0 15.365437441 -59.538390213 0 15.590086997 -62.613483672 
0 15.685456155 -63.606528972 0 16.177267928 -62.51549593 0 15.145729158 -58.354666374 
0 12.237163181 -52.646686367 0 12.441445633 -52.297331929 0 12.482415278 -52.240236216 
0 12.454935496 -53.619106778 0 12.887670399 -54.719575376 0 13.263097366 -57.62210235 
0 13.200687017 -59.122385231 0 14.110236653 -60.350166253 0 14.933336617 -60.701878643 
0 15.204710341 -61.785286869 0 14.222508235 -63.543603918 0 15.071365361 -63.514734592 
0 14.365875451 -64.36034427 0 15.014940158 -64.000829715 0 15.010686372 -63.784200103 
0 14.304552857 -63.061041156 0 14.622496386 -62.120814134 0 14.978623873 -60.8578191 
0 14.726538924 -59.700843477 0 13.843458434 -59.096347955 0 11.85926426 -57.719671463 
0 11.835158586 -56.27571283 0 11.863244911 -54.741108894 0 11.694054281 -53.834053019 
0 11.508553522 -53.090438206 0 10.512111939 -52.406073031 0 10.255305803 -52.019682865 
0 11.160610782 -52.551909432 0 11.299598647 -56.382935519 0 11.649687944 -59.951250808 
0 12.073548135 -61.049465916 0 12.014448262 -62.333074291 0 12.509618405 -63.517044553 
0 12.76429082 -64.870833879 0 12.905678397 -64.352146956 0 11.852804424 -60.556955749 
0 12.037515658 -59.153941293 0 9.1003723939 -58.954370901 0 8.1803477609 -54.549863406 
0 8.7261612633 -53.631819515 0 8.5210319235 -52.725766131 0 8.4782846726 -51.737894839 
0 9.0649070395 -51.701650986 0 8.8550200567 -51.539229249 0 8.2117157615 -51.490004895 
0 8.1400336845 -52.319671235 0 8.9184686442 -53.227120426 0 9.4021873667 -54.345632965 
0 9.577423348 -55.324999585 0 9.6373516752 -57.318575045 0 10.60110607 -58.736536152 
0 10.469374179 -65.35307181 0 10.910715864 -65.793697852 0 11.076679492 -66.090518575 
0 11.572013153 -65.937935142 0 11.522491673 -65.918922345 0 11.529371307 -65.589977021 
0 11.2674631 -65.433732555 0 11.213853071 -64.614890712 0 10.877078856 -63.787863811 
0 10.075779221 -62.877676501 0 9.2916911362 -59.923686888 0 7.7455284995 -58.666201462 
0 8.1854926387 -57.174028495 0 7.7471478644 -55.924900283 0 6.5012079552 -54.616156119 
0 6.6456785591 -51.68604173 0 6.6090273705 -51.342595159 0 6.1778098925 -51.083408434 
0 7.3589572036 -51.683898894 0 7.4657995645 -56.332469379 0 7.8994809878 -57.065127963 
0 7.5216401968 -58.530291765 0 8.4981003192 -60.425306212 0 8.9436190437 -61.736633927 
0 8.7820750863 -63.083929476 0 8.8834756452 -64.233913781 0 9.0075787436 -65.229701256 
0 8.8980615263 -67.619140869 0 8.8390879604 -67.418935946 0 9.086482772 -66.305574348 
0 8.6073253027 -65.379202726 0 8.5619734212 -61.457822587 0 6.3003705467 -59.336536054 
0 5.440547224 -57.999107376 0 5.3361908946 -53.115914486 0 5.0819398146 -52.068755511 
0 4.6376048041 -51.167364738 0 4.8877652828 -50.769445803 0 5.0909636232 -50.564395315 
0 5.1346618718 -50.565040509 0 4.5439236869 -50.531592905 0 4.723754857 -51.397097372 
0 5.0947778239 -52.309731958 0 5.6030449696 -53.581526216 0 5.5060248234 -54.769637427 
0 5.4290629541 -56.020295755 0 5.5812045985 -60.70582011 0 6.1247011726 -62.178695962 
0 7.1266588448 -67.010914553 0 7.8645314785 -67.394886525 0 7.9837521812 -67.881976107 
0 6.6446014644 -68.100013113 0 6.9155503276 -67.073542806 0 7.0090383819 -65.908163931 
0 7.0505711295 -64.60245599 0 6.2661248788 -63.506466035 0 4.0187088833 -55.028406614 
0 4.1171645709 -53.78260743 0 3.7054728194 -53.083832392 0 2.5068661765 -51.725905853 
0 1.9193318837 -49.91168255 0 2.1782910956 -49.673108512 0 2.1991915554 -49.587232276 
0 2.5538324885 -50.002283539 0 2.6623961306 -52.458994772 0 3.7718376588 -58.128240764 
0 4.7706714519 -59.468859874 0 4.225288255 -60.43576452 0 5.5273387245 -65.305459476 
0 5.5474165188 -66.649817187 0 5.3193547645 -67.916652429 0 5.2165573083 -69.014967557 
0 5.2863973935 -69.671956745 0 5.6679295706 -69.807661972 0 6.0244126771 -69.654059674 
0 5.9825736049 -69.547354372 0 5.829678682 -69.270942166 0 4.4000086258 -63.531099325 
0 4.7199835755 -62.199830438 0 4.137402008 -60.586539919 0 2.0501410717 -58.949088797 
0 2.4512482429 -57.659602434 0 1.7453326844 -55.29328839 0 1.0139867544 -53.518696955 
0 0.69819761232 -51.868740469 0 0.73199666017 -50.806312451 0 0.97614241832 -50.140515665 
0 0.67690602906 -49.905497505 0 1.5227523354 -50.966987712 0 1.0254705218 -51.85772881 
0 1.1853883629 -53.232386446 0 1.7087608645 -54.809919375 0 1.8575887601 -56.657942631 
0 1.8285075922 -58.154447274 0 1.9263016317 -59.614831701 0 2.7350920315 -60.997121277 
0 3.2548639789 -62.544783834 0 3.2747105343 -64.428576559 0 2.6707534989 -66.433011544 
0 3.4678746026 -70.508688308 0 4.0018309069 -69.596666924 0 4.174453125 -67.892517498 
0 3.9194256876 -66.561103545 0 3.7054624998 -65.095127031 0 0.22571694846 -59.027673916 
0 -0.44442898071 -56.751411685 0 -0.63641252386 -55.598672498 0 -1.1931372814 -53.490490994 
0 -1.7093173301 -48.577312833 0 -1.0795120811 -48.446861931 0 -0.85466339376 -48.419913301 
0 -0.8148163711 -48.483282945 0 -0.80153470356 -48.778464909 0 -1.2738151455 -49.16023169 
0 -1.5541275734 -49.923867748 0 0.7331201377 -62.336155972 0 0.78652442983 -64.313016742 
0 1.4083169304 -67.779451095 0 2.1547134631 -68.163806351 0 2.1988250741 -69.407878092 
0 2.3069181622 -70.49748738 0 2.370592802 -70.918269571 0 2.5320492294 -71.701161827 
0 2.9002949961 -71.894182373 0 3.006673487 -72.022432184 0 3.0557805001 -71.948647055 
0 2.8921344634 -71.5913826 0 1.4930837367 -70.06818013 0 1.3732979038 -68.106879987 
0 1.2146320024 -67.0461909 0 1.1645573538 -64.655573347 0 1.1894053657 -63.187001843 
0 0.93546709546 -61.670509013 0 -2.6269767853 -52.345673075 0 -2.0153156564 -51.743528197 
0 -2.4693195652 -49.87419783 0 -2.6881580182 -48.903753933 0 -4.0481205623 -47.006099887 
0 -3.7699192507 -47.173348492 0 -3.4171263982 -47.585375437 0 -2.9778751264 -50.482791979 
0 -2.1622067305 -51.536432326 0 -1.8342037275 -53.564805707 0 -1.663844712 -55.06238312 
0 -1.457845052 -56.596618934 0 -1.1844836864 -58.14237125 0 -0.84972555972 -59.638025935 
0 -1.1680185218 -61.579006472 0 -0.38567063656 -67.301483711 0 0.22943019269 -74.152319991 
0 0.47762308813 -74.226527601 0 0.45741298026 -74.320707891 0 0.48645125039 -74.138676377 
0 0.4593882952 -73.797034271 0 0.54689469948 -73.113563163 0 0.69469431627 -71.886817662 
0 -2.8270968874 -59.534110098 0 -3.0768164167 -57.197511294 0 -3.5589437037 -54.484734979 
0 -4.0761127152 -52.988606219 0 -4.6276471735 -51.634132946 0 -5.0893912579 -50.27559714 
0 -5.2352735233 -49.058478842 0 -5.4335429258 -48.096005773 0 -5.9520498869 -47.132975704 
0 -4.8506961603 -46.833985895 0 -6.0267666157 -46.23733194 0 -5.1802607338 -47.445274244 
0 -4.378366271 -48.642132698 0 -4.9018758046 -49.955389921 0 -4.6572390355 -51.216960767 
0 -4.5964374883 -52.706947089 0 -4.4447105115 -54.278637758 0 -4.140354177 -56.085393434 
0 -3.8030984875 -58.213133275 0 -3.6084510397 -59.402354568 0 -2.446234516 -64.732823689 
0 -1.6371654179 -66.259913917 0 -1.7208866331 -67.939702228 0 -1.3606125275 -69.496905592 
0 -0.79641292299 -70.927896064 0 -0.71198338852 -72.150070264 0 -0.63059385699 -72.696451124 
0 -0.44277418204 -73.463248855 0 -0.3016363881 -74.141500828 0 -0.80897133835 -74.961363422 
0 -1.514617453 -72.742677189 0 -0.92675290727 -70.848448226 0 -1.1135154926 -69.967602315 
0 -1.5529539301 -67.440223781 0 -1.7147116512 -66.239904201 0 -1.8571844942 -64.530638737 
0 -2.0123965001 -63.084990575 0 -2.2467708646 -61.412474613 0 -5.491660255 -57.89847562 
0 -5.9583668227 -55.66348742 0 -6.2704370873 -53.843587063 0 -7.588413044 -46.086091949 
0 -7.3135523461 -45.331025214 0 -6.6463831315 -45.723150477 0 -7.565036748 -45.795865941 
0 -7.170099006 -46.322287455 0 -7.3018721724 -47.00843146 0 -7.4499397317 -47.875467727 
0 -6.8792918755 -51.298800406 0 -4.9164338984 -62.250905133 0 -4.0063071235 -63.831588665 
0 -4.1494588002 -64.863523349 0 -4.1632858111 -66.694821512 0 -3.8833333156 -68.951952012 
0 -3.5576060521 -70.694111333 0 -3.2420335412 -72.417316837 0 -3.0563226151 -74.202220299 
0 -2.8772665168 -75.261170813 0 -2.4187165957 -75.934704524 0 -2.3154374266 -76.627960656 
0 -2.0760434162 -76.749908217 0 -2.0894851211 -76.878395575 0 -2.051429848 -76.696451598 
0 -1.810951374 -76.116157019 0 -2.1337239026 -75.880289971 0 -2.0227962442 -75.059161832 
0 -2.420775354 -74.602901805 0 -3.3134934328 -72.661487538 0 -3.530883731 -70.921907425 
0 -4.2751645789 -66.543552667 0 -4.2464642991 -64.532540255 0 -4.5405435043 -62.587352603 
0 -6.5461432813 -58.224805643 0 -7.9459385776 -51.917930179 0 -7.4393241364 -51.212798055 
0 -7.7070364091 -49.739842342 0 -8.1593030236 -48.36956696 0 -8.3905302823 -47.129522179 
0 -8.3301680357 -46.290808481 0 -9.3593918147 -44.640030878 0 -8.8083142797 -44.582225353 
0 -9.1822152959 -44.254686645 0 -9.5131497574 -44.063967231 0 -9.1435352563 -44.454559194 
0 -9.0536216885 -44.934993927 0 -8.9298961417 -47.635505309 0 -7.8530252815 -49.078714557 
0 -7.8997853838 -51.90523215 0 -7.1162305743 -53.04978158 0 -7.1569465257 -55.025928395 
0 -6.5007295625 -57.42363066 0 -6.0330862463 -60.601545776 0 -4.434983195 -77.966157733 
0 -4.4875398612 -77.527305792 0 -4.5376491455 -75.375960799 0 -4.4791422489 -73.825917638 
0 -4.9441833816 -72.658106961 0 -4.8448521057 -71.008350304 0 -6.3447858784 -65.941411814 
0 -6.3737138859 -64.052336599 0 -6.9063372728 -61.942226967 0 -8.3099022421 -59.540473699 
0 -9.018894594 -57.221880982 0 -9.0751553719 -55.33340718 0 -9.1124975175 -53.42262948 
0 -9.66185186 -51.533518274 0 -9.9887899479 -49.235107177 0 -11.3282224 -44.735301835 
0 -10.883749849 -44.257712488 0 -11.178974444 -43.489623739 0 -10.805013905 -44.216094482 
0 -10.069277661 -45.23821055 0 -9.9281268971 -46.27671973 0 -10.848487546 -47.934580481 
0 -9.9725050821 -49.508060699 0 -9.4337553601 -51.396010983 0 -9.181253832 -56.16303901 
0 -8.3509897165 -61.192403789 0 -7.6820778942 -62.377832902 0 -7.0480415835 -64.387522778 
0 -6.6211400921 -66.978685024 0 -6.3503216124 -68.92565645 0 -6.2604058795 -70.010661597 
0 -5.9701280175 -71.793263561 0 -5.5517860737 -73.823949051 0 -5.3393683636 -75.275188243 
0 -5.293290567 -76.061514263 0 -5.1306627927 -77.215194992 0 -5.4178827742 -79.997126096 
0 -4.8811665865 -79.838240592 0 -4.632617589 -79.703065294 0 -4.5947702407 -79.613028426 
0 -5.4921093781 -79.443927409 0 -5.7832319388 -77.918338367 0 -6.6522429353 -70.273656837 
0 -6.5286136626 -67.972551149 0 -11.918218472 -46.805423785 0 -11.605191812 -45.644648743 
0 -12.979079432 -42.332482462 0 -12.351560089 -42.351005054 0 -12.447761921 -42.152100399 
0 -12.377105597 -42.300263267 0 -12.399411886 -42.590988668 0 -13.223205814 -42.628458667 
0 -12.56073012 -44.795976438 0 -11.867719506 -46.226089745 0 -11.693078397 -49.953774964 
0 -11.479248254 -51.870238248 0 -10.877315541 -53.906038329 0 -10.648389745 -55.281296521 
0 -9.7918370731 -58.648644671 0 -9.4126588585 -61.182671141 0 -9.5559235514 -63.70744071 
0 -9.2031407791 -66.145433275 0 -8.8977973164 -68.18202916 0 -8.5889793049 -70.346716463 
0 -8.2005849667 -72.526457792 0 -7.8790233562 -74.446580271 0 -7.7235401709 -75.434991256 
0 -7.2339127816 -76.909782311 0 -6.9600466464 -78.463369205 0 -6.8144384243 -79.699748017 
0 -6.4259720183 -80.355765253 0 -6.8862670897 -82.55382862 0 -6.6488123842 -82.28087195 
0 -6.4675446962 -81.824269714 0 -6.4277851844 -81.309496319 0 -6.786640526 -80.105210511 
0 -7.0633411324 -77.859495208 0 -6.8484024587 -75.923071618 0 -6.991662184 -74.995889166 
0 -7.3231757724 -72.684779446 0 -7.7774784634 -71.581729814 0 -8.4439544546 -69.411899436 
0 -8.5659764098 -67.176318176 0 -8.6627431018 -65.175243261 0 -8.9925264989 -63.121903207 
0 -11.436351556 -60.430868097 0 -11.288081246 -58.135940265 0 -11.628742512 -55.768389499 
0 -11.902192684 -53.587974352 0 -12.241289319 -51.388141523 0 -12.564711983 -49.386682671 
0 -14.493565212 -44.256373607 0 -13.885721317 -43.360963357 0 -13.813589129 -42.498541447 
0 -14.777631453 -41.163683054 0 -14.95166107 -40.649273678 0 -14.602671486 -42.017175527 
0 -13.655648673 -46.576284843 0 -12.776604465 -48.289882376 0 -12.846081408 -49.123818698 
0 -12.654749107 -56.098568218 0 -11.933806891 -58.728448975 0 -11.553003249 -61.218307584 
0 -11.537670517 -62.718979953 0 -9.0874108352 -77.972189196 0 -8.5839008589 -79.645049981 
0 -8.3332072381 -81.202560835 0 -8.1925954134 -82.338675724 0 -7.6011038517 -82.767673183 
0 -7.3424418161 -82.952834677 0 -8.233638146 -84.35832867 0 -7.8163669738 -82.55833545 
0 -7.9796782938 -81.646009985 0 -8.1788373692 -80.744505382 0 -8.3295304407 -79.586070344 
0 -8.6124116581 -77.960127829 0 -9.4822284251 -74.126616128 0 -9.8383318326 -71.753625512 
0 -10.127540797 -68.536100649 0 -10.361419128 -67.092060706 0 -10.678988084 -64.816555346 
0 -11.236237277 -62.542435404 0 -13.428855522 -58.577148034 0 -13.584655307 -56.044364464 
0 -13.932452398 -53.799647611 0 -14.573381831 -51.243309311 0 -14.720224956 -48.812900572 
0 -14.839604139 -46.732807133 0 -14.809812519 -45.237085357 0 -16.042032501 -42.403963218 
0 -15.920859346 -41.321361492 0 -16.201708458 -39.865794768 0 -15.564352219 -40.032277777 
0 -15.528127497 -39.910137065 0 -15.49389053 -39.990231133 0 -16.110160067 -40.259437204 
0 -15.882991946 -41.869856202 0 -15.133485604 -43.266757279 0 -14.673362037 -51.053056522 
0 -13.728854775 -53.216437204 0 -12.313702114 -64.013165429 0 -11.530359729 -65.537054554 
0 -10.960205357 -69.302457062 0 -10.757059949 -70.959925322 0 -10.388706197 -73.611959237 
0 -9.9445923732 -75.874743829 0 -9.5465178261 -85.619964707 0 -8.9654618728 -85.27568331 
0 -8.723204487 -85.182525711 0 -9.0215362198 -85.01271867 0 -8.7761596572 -84.242640037 
0 -9.3416960316 -84.002529888 0 -10.212737264 -80.58922284 0 -10.546426165 -77.030622817 
0 -10.478494017 -75.64831076 0 -11.979620355 -69.55211385 0 -12.020672824 -66.081741732 
0 -12.477077782 -64.257810834 0 -13.725677703 -60.885839329 0 -14.265912416 -59.340644597 
0 -15.30722945 -55.729043846 0 -15.580626929 -54.074189936 0 -16.810753487 -48.09813863 
0 -16.597337359 -46.215802115 0 -17.124012905 -44.223212284 0 -16.903845896 -42.943380313 
0 -17.030023582 -42.068584987 0 -17.733371056 -40.167679703 0 -17.712355704 -39.266826061 
0 -17.842521044 -38.4909213 0 -17.868195784 -38.150229964 0 -17.898720038 -37.977706545 
0 -17.894022167 -37.997408619 0 -17.558166393 -38.581788467 0 -17.706315785 -38.947389981 
0 -17.606322121 -39.7510434 0 -17.473036141 -40.601847601 0 -17.569039673 -41.388487754 
0 -17.101216862 -43.175634555 0 -16.626731687 -44.962596222 0 -16.523240025 -46.882637871 
0 -16.191253856 -48.855337903 0 -15.133503795 -55.491625298 0 -14.244422029 -58.518581653 
0 -13.789529306 -61.227306205 0 -13.550053455 -64.029692434 0 -13.271353004 -67.043497166 
0 -13.004295456 -70.050249467 0 -12.458862439 -73.668786055 0 -12.066145531 -76.283517204 
0 -11.69981048 -78.37350913 0 -10.970899944 -79.867492366 0 -10.682204561 -81.701262147 
0 -10.288843908 -83.077849334 0 -10.100915783 -84.334771352 0 -10.152866961 -85.739191337 
0 -10.390071701 -87.52172816 0 -10.089213866 -87.273305153 0 -10.153219992 -87.369708649 
0 -10.041593755 -86.709157787 0 -10.252815717 -86.096543851 0 -10.162524717 -84.835992518 
0 -10.126638392 -83.566723155 0 -10.366015909 -82.548622986 0 -11.521230102 -80.013647688 
0 -12.468475121 -73.852334946 0 -12.290160036 -71.891892605 0 -13.869267368 -66.677586396 
0 -13.573849633 -63.460093813 0 -15.819609636 -61.288822838 0 -17.57517509 -50.311015362 
0 -18.648208329 -45.101391447 0 -19.126607235 -41.600142377 0 -20.003981829 -36.263323555 
0 -19.753277825 -36.322014462 0 -20.055135061 -36.401104397 0 -17.400854404 -49.796966228 
0 -16.489446801 -52.232338197 0 -16.563352736 -58.362621232 0 -15.912694065 -60.745735387 
0 -15.530470673 -63.236897086 0 -15.056952296 -66.170433122 0 -12.835489874 -81.152589349 
0 -12.196296618 -85.442752188 0 -11.827124472 -86.492819787 0 -11.543260124 -88.814191554 
0 -11.289963531 -89.015144885 0 -11.375743806 -89.159375239 0 -11.289186847 -88.204116046 
0 -11.684177651 -87.564617187 0 -11.855891937 -86.355124193 0 -12.055804711 -85.000368657 
0 -11.957211844 -82.761030461 0 -12.928148765 -79.498555001 0 -12.958246852 -76.399005249 
0 -14.277726535 -71.162295796 0 -14.135447022 -69.084279916 0 -15.75352901 -63.587201893 
0 -17.468791434 -57.65887921 0 -17.397409458 -55.239783684 0 -17.903470129 -52.468926304 
0 -19.293088752 -46.462028478 0 -19.523850605 -45.033004847 0 -19.86744992 -42.588898491 
0 -20.444447521 -38.436202017 0 -20.189917305 -37.465273888 0 -20.374121862 -36.631962718 
0 -20.472606677 -36.121236534 0 -21.094873513 -35.16871896 0 -20.957164155 -36.015160745 
0 -20.205614517 -37.44920931 0 -20.067554956 -38.473947052 0 -19.968527178 -39.066867775 
0 -19.793478709 -40.299748537 0 -19.631796103 -41.482650589 0 -19.365577693 -43.098663836 
0 -19.007999594 -45.043274835 0 -18.695882961 -47.089578226 0 -18.611383852 -49.103686191 
0 -18.456549938 -51.413109514 0 -17.782322642 -54.149243097 0 -17.243334279 -56.362562947 
0 -15.4839169 -70.493066418 0 -14.659441451 -72.584753725 0 -14.28096376 -75.040595949 
0 -13.928327703 -77.345410215 0 -13.55344972 -79.550256698 0 -13.144554388 -84.960118102 
0 -12.978473393 -86.098037865 0 -12.550485701 -89.046427531 0 -12.104327985 -88.900774349 
0 -12.193859454 -91.070766557 0 -11.83075202 -90.313969769 0 -12.02192737 -90.486822929 
0 -12.298355587 -90.248670323 0 -13.414202839 -84.778101151 0 -13.367179962 -82.205821196 
0 -14.646375865 -75.548904503 0 -14.560929078 -73.415009608 0 -15.960952224 -67.434107934 
0 -15.772419338 -65.968373825 0 -17.870383016 -62.081688628 0 -18.221512111 -59.522178657 
0 -18.622044261 -58.142345005 0 -19.534057285 -56.949585197 0 -20.02036555 -53.952533924 
0 -19.676894796 -52.688125696 0 -20.792778261 -47.698353262 0 -20.483257349 -46.251207984 
0 -20.956137476 -43.248502182 0 -22.148793305 -40.602499675 0 -21.455218481 -40.320640646 
0 -22.168900556 -39.223788544 0 -22.310351426 -37.973936664 0 -22.774812222 -36.242133151 
0 -22.357531511 -35.467223185 0 -22.551879249 -34.496683752 0 -22.622674837 -34.12211866 
0 -23.328191924 -33.17815867 0 -22.485677088 -33.846501307 0 -22.250524853 -33.95909581 
0 -23.201011625 -32.875374983 0 -22.462621535 -34.061360812 0 -22.427493387 -34.388334814 
0 -23.054552417 -34.887145253 0 -22.286827865 -36.249327313 0 -22.841088688 -36.225479338 
0 -22.567866022 -37.905761637 0 -22.307397077 -39.532345885 0 -21.523723799 -41.084830758 
0 -21.169921106 -43.183489946 0 -21.314624699 -45.886214543 0 -20.509531983 -47.455371856 
0 -20.912698399 -48.357725808 0 -20.078705189 -50.02588859 0 -20.443175122 -51.192633968 
0 -19.981479712 -54.157357505 0 -19.198326976 -55.634071309 0 -18.64099273 -58.043214647 
0 -18.073325672 -60.559233564 0 -18.410316967 -63.106478989 0 -18.101832427 -64.968142265 
0 -17.607168584 -68.077486233 0 -16.412599494 -73.345840563 0 -15.93426169 -76.325663244 
0 -16.139184242 -78.507092799 0 -15.279226476 -80.538422764 0 -15.064284387 -84.177556129 
0 -14.149176765 -86.420354999 0 -13.896683468 -88.098331969 0 -14.155088886 -89.762258088 
0 -13.492993232 -90.397502695 0 -13.992983431 -91.891635056 0 -13.890280528 -92.657018689 
0 -13.589373505 -93.225209152 0 -13.035790687 -92.58073305 0 -13.153066101 -92.976760995 
0 -13.251594132 -93.179217826 0 -13.69483579 -93.987701017 0 -13.695648675 -93.678011185 
0 -13.3034988 -92.638749806 0 -13.786817626 -93.123562589 0 -13.936996955 -92.296639032 
0 -13.548835268 -89.254827192 0 -13.764522825 -87.795596187 0 -14.514471212 -87.655758056 
0 -15.39020678 -83.637392199 0 -15.58795286 -80.578649744 0 -15.144959807 -78.571957867 
0 -15.672440673 -76.618295078 0 -16.059538257 -75.539103123 0 -16.706364515 -74.840804894 
0 -16.302020509 -71.297960862 0 -17.077930438 -71.059963724 0 -18.004126291 -66.68785359 
0 -18.356603596 -63.567419534 0 -17.614107122 -64.971632404 0 -17.050663958 -67.939326787 
0 -17.350681996 -69.327152961 0 -16.28571812 -72.764472051 0 -15.985425482 -78.182282808 
0 -14.813807296 -80.631886505 0 -14.816816572 -81.99070507 0 -14.746004277 -84.286259604 
0 -15.059406329 -85.850613473 0 -14.204297324 -86.132462463 0 -14.237287205 -89.356493065 
0 -14.023005532 -90.842534512 0 -13.483768243 -90.808695558 0 -13.421154348 -91.976123881 
0 -13.729487514 -94.218355741 0 -13.597564326 -93.618500915 0 -13.054858315 -91.948918558 
0 -13.274308046 -91.841569165 0 -13.492205201 -89.306592149 0 -14.570069458 -88.41682602 
0 -14.732366591 -86.232204247 0 -14.29631592 -84.290157671 0 -14.753849601 -82.63818566 
0 -15.593350864 -82.046351957 0 -15.523283154 -78.961912079 0 -16.624518668 -75.430541692 
0 -17.176132217 -71.989887232 0 -16.707535478 -70.401502238 0 -16.763985872 -68.940750012 
0 -17.217252724 -66.034221856 0 -17.803653224 -62.297016201 0 -18.961115025 -59.497633624 
0 -19.548160254 -56.843267318 0 -19.614711329 -52.910384669 0 -20.847136495 -45.309584424 
0 -21.631532447 -43.710402039 0 -21.994325223 -41.52987962 0 -21.76797696 -39.413514899 
0 -22.031397853 -37.835389147 0 -22.483356881 -35.096438609 0 -23.201040468 -33.898581586 
0 -23.324642511 -33.015929293 0 -22.510438144 -33.683130929 0 -22.291765702 -33.810789714 
0 -23.157303231 -32.954199463 0 -23.152443204 -34.096194313 0 -22.923729083 -35.286000043 
0 -21.785152945 -37.658495883 0 -21.386341631 -39.218258318 0 -21.17236587 -42.020266004 
0 -21.701607075 -43.179587468 0 -21.4594888 -44.753269639 0 -19.839952105 -48.867183837 
0 -19.85151892 -50.079135375 0 -20.456567926 -51.049750454 0 -19.231192228 -55.454670859 
0 -18.77916565 -60.592509845 0 -16.472111903 -64.757371492 0 -15.166347492 -72.408067341 
0 -15.033473449 -74.469712547 0 -13.75656021 -81.252666159 0 -13.783233821 -83.592727512 
0 -12.661298407 -89.680590388 0 -12.675072676 -90.503669365 0 -12.561118432 -91.236312056 
0 -12.318851299 -91.294237083 0 -12.376696657 -89.909393739 0 -13.740862659 -81.244281966 
0 -14.252312274 -79.436231199 0 -14.615058205 -77.119053911 0 -14.984266157 -74.702024562 
0 -15.397517809 -72.123691279 0 -17.555016178 -57.610863005 0 -17.979477552 -55.58571858 
0 -18.634403682 -52.95062299 0 -19.072387651 -50.206125815 0 -19.214534974 -48.021095014 
0 -19.523391766 -45.947224949 0 -19.870132982 -43.878722217 0 -20.194764393 -41.958382703 
0 -20.421335392 -40.490267658 0 -20.603652107 -39.152623288 0 -20.876537962 -37.504370424 
0 -21.044708884 -36.403459554 0 -21.103849565 -35.311075538 0 -21.031433951 -35.382424996 
0 -21.221332728 -35.529272835 0 -21.078975633 -36.131924086 0 -20.867909227 -37.201062427 
0 -20.046330127 -41.52348703 0 -18.590756383 -50.848653379 0 -18.384559535 -53.337783542 
0 -17.900571397 -56.092262773 0 -14.753190497 -68.041412409 0 -14.867316858 -70.102798752 
0 -13.598049888 -75.335232208 0 -13.629714984 -77.614245951 0 -13.454908249 -78.799967279 
0 -12.361174448 -81.736758503 0 -12.594186376 -84.415466794 0 -12.552989738 -86.34051954 
0 -12.378973086 -87.708534967 0 -11.965460525 -88.528433044 0 -11.608307639 -89.101274347 
0 -11.546650852 -89.817972356 0 -11.903461303 -90.339527408 0 -11.846666137 -89.755219357 
0 -11.925199133 -87.460956419 0 -12.451623009 -86.987380353 0 -12.511936643 -83.140904263 
0 -13.080508348 -82.659094585 0 -14.81802251 -69.042609445 0 -15.48655172 -67.945091247 
0 -15.944470587 -65.122827509 0 -16.360030323 -62.404730343 0 -16.761539935 -59.856572814 
0 -16.69495681 -53.607187831 0 -17.398958888 -51.236879987 0 -19.9435778 -36.778215602 
0 -20.0775079 -36.071543918 0 -20.583826608 -35.521370616 0 -20.55443854 -35.616329907 
0 -19.336241036 -39.925150247 0 -19.752936664 -40.391765767 0 -18.77557925 -43.885521269 
0 -17.944117548 -48.119359384 0 -18.181459989 -49.077369465 0 -16.423836214 -58.71587771 
0 -16.723035464 -59.984448379 0 -16.409303648 -62.315731899 0 -14.457093187 -64.256506076 
0 -14.486688835 -65.580610635 0 -12.91821143 -71.049826367 0 -13.044256728 -73.011304301 
0 -11.698824171 -78.728599224 0 -10.914235206 -82.156051448 0 -10.870610882 -83.738503862 
0 -10.61473442 -84.843192603 0 -10.7088868 -86.204006328 0 -10.55183289 -87.132837711 
0 -10.546383879 -87.838537015 0 -10.791404569 -88.517693713 0 -10.632295246 -88.245166826 
0 -10.518205853 -86.88749071 0 -10.905552561 -86.657272792 0 -10.803121736 -85.90548009 
0 -10.736567563 -84.592174496 0 -11.124074427 -83.43386646 0 -11.341650168 -81.651031846 
0 -11.896167944 -79.850859547 0 -12.451719471 -77.981213663 0 -12.843891209 -75.761739255 
0 -13.209204489 -73.173999052 0 -13.452421032 -71.571038514 0 -13.697414447 -68.712352581 
0 -13.962361643 -65.599095905 0 -14.230644193 -62.715099227 0 -14.642019528 -60.090109108 
0 -15.316909367 -57.680256349 0 -15.722236173 -56.353168611 0 -15.673607411 -54.260689583 
0 -16.285314287 -49.763119897 0 -17.278307164 -47.549996526 0 -17.42542365 -45.518269457 
0 -17.704752342 -43.707543219 0 -18.199073923 -42.091023058 0 -18.288986367 -41.336694152 
0 -18.438407085 -40.265786625 0 -18.310421289 -39.619264171 0 -18.692532343 -38.550565167 
0 -18.270448826 -38.263804667 0 -18.677751711 -37.536355913 0 -18.709100602 -37.349152012 
0 -18.427817294 -37.547580693 0 -18.643199604 -37.571657382 0 -18.644475996 -37.921399012 
0 -18.582874077 -38.264500743 0 -18.61454516 -38.967637839 0 -18.10211336 -40.618177313 
0 -17.781290175 -42.810079675 0 -17.529002354 -44.593079293 0 -17.284082414 -46.509194325 
0 -16.265132626 -51.438610118 0 -16.490133302 -52.914506204 0 -15.84743746 -56.449665897 
0 -15.305644178 -58.359143486 0 -14.280591444 -61.76388057 0 -12.628265841 -67.061498785 
0 -12.607265625 -68.646064442 0 -11.272514603 -73.774788829 0 -11.486183376 -75.432458743 
0 -10.415769557 -79.471091039 0 -9.4972000188 -84.902785294 0 -9.0216452378 -85.609794473 
0 -9.3257112755 -86.033262531 0 -9.6449108487 -86.169940611 0 -10.043401949 -78.247264009 
0 -10.438473381 -77.338589743 0 -10.820355532 -75.211966757 0 -11.249467426 -72.590556484 
0 -11.754829308 -68.917512175 0 -12.07570243 -66.997982819 0 -13.777458495 -55.250851805 
0 -14.317562111 -54.01991609 0 -14.879390066 -52.082361064 0 -14.994908789 -48.878061678 
0 -15.231604773 -47.603948373 0 -15.542760145 -43.745038818 0 -16.043497394 -42.332686816 
0 -16.031977902 -40.791594088 0 -16.099543912 -39.658974261 0 -16.445295325 -39.195389107 
0 -16.434224374 -39.20884057 0 -16.469226373 -39.403793024 0 -16.358145175 -40.458719087 
0 -16.39389577 -41.32951033 0 -15.504556568 -44.197686444 0 -15.551824577 -45.395911834 
0 -15.480127472 -47.182830404 0 -15.364105917 -49.434816588 0 -14.947329377 -51.99223619 
0 -14.340749273 -54.40570527 0 -13.928379274 -56.875024872 0 -11.532779904 -63.738709072 
0 -10.979027695 -66.261267647 0 -10.725097111 -69.59111405 0 -10.720303769 -71.092135407 
0 -10.122314973 -73.073042306 0 -9.3669665428 -76.742050685 0 -9.4139040033 -77.897470442 
0 -9.1006136526 -79.607824662 0 -8.8934347552 -80.96004006 0 -8.9074460329 -82.161307602 
0 -8.3269872839 -82.623046782 0 -8.1942984794 -84.023896879 0 -7.7315313474 -83.674212797 
0 -7.973865553 -83.70356837 0 -8.4943071489 -83.789812219 0 -8.7900754942 -83.647515074 
0 -8.9109876867 -82.675359877 0 -9.0754116794 -81.347647147 0 -9.3554632218 -79.642647854 
0 -12.430866922 -60.552661618 0 -12.894871775 -57.831566107 0 -13.454194219 -50.788660449 
0 -13.869801403 -49.521447598 0 -14.037020443 -47.413397972 0 -14.837478907 -45.494147178 
0 -14.357042845 -44.808498438 0 -14.552445648 -42.513744625 0 -15.01043132 -40.895333471 
0 -15.002631592 -41.323804344 0 -14.549853934 -42.41933203 0 -14.904863459 -43.337445707 
0 -13.37022947 -47.90233048 0 -13.274184136 -49.847229493 0 -12.896606053 -52.162305326 
0 -12.564091482 -54.476389759 0 -12.241009461 -56.730306546 0 -12.13220334 -59.152121346 
0 -12.192769025 -61.401089517 0 -9.8549906786 -62.314543604 0 -9.5199812781 -64.427641281 
0 -9.2041413412 -66.394950384 0 -9.0919890041 -68.571383817 0 -8.6921160856 -71.013612907 
0 -8.2241986968 -73.973302399 0 -8.041004667 -75.206424898 0 -7.4617825827 -77.041353728 
0 -6.8623205584 -79.472457473 0 -6.7118931274 -81.227081583 0 -7.0697788926 -82.377928548 
0 -7.0846606919 -82.795624617 0 -6.5682479216 -81.14714977 0 -7.1381570541 -80.832610492 
0 -7.2910963351 -79.733014207 0 -7.510646729 -78.230318667 0 -8.0391145249 -76.654054968 
0 -8.6567078167 -74.476872882 0 -9.0568201886 -72.32432122 0 -9.4284578372 -70.003723318 
0 -9.7238678455 -67.754819931 0 -10.066947035 -65.284975626 0 -10.243304647 -62.665334162 
0 -10.069015402 -60.23485014 0 -10.778764889 -57.807889472 0 -11.318545942 -56.104297935 
0 -12.08147379 -53.077844445 0 -12.096609266 -51.03458584 0 -12.04428874 -46.900801233 
0 -12.998643377 -45.215924616 0 -13.509855047 -43.91026872 0 -13.089320538 -43.620086682 
0 -13.552783484 -42.038773496 0 -13.21016181 -41.845214724 0 -13.512951474 -41.435579093 
0 -13.511533149 -41.421500397 0 -13.498282282 -41.663078929 0 -12.41806745 -44.432262652 
0 -12.661547432 -45.492277348 0 -13.055492203 -46.608918956 0 -12.328129593 -47.93726878 
0 -9.8550177782 -60.965103587 0 -7.2839615654 -66.946517166 0 -7.1625939575 -69.042867779 
0 -5.8681151793 -77.145315839 0 -5.6127990717 -79.060126548 0 -5.1073120361 -79.818889012 
0 -5.3081849911 -80.357517459 0 -5.3182816381 -80.565028013 0 -5.5590291775 -80.803775276 
0 -5.8193149674 -80.866915817 0 -5.4070896763 -78.719526113 0 -5.7251235363 -78.383036792 
0 -5.888927992 -77.262261215 0 -6.0910818082 -75.497315388 0 -6.3790426931 -74.017352263 
0 -6.5345258784 -73.028941277 0 -6.8585026453 -71.260487465 0 -7.1817284788 -68.743086715 
0 -7.4977303973 -66.760620614 0 -7.6837929384 -65.545214335 0 -8.0563659402 -63.410206802 
0 -8.864482214 -57.826795624 0 -9.6460352881 -53.309537979 0 -10.112797709 -52.04408751 
0 -10.396675037 -50.141350845 0 -11.199431499 -48.486548496 0 -10.484741166 -46.654852831 
0 -10.87319198 -45.428008465 0 -11.336281291 -44.315996484 0 -11.738758814 -43.523329732 
0 -11.212466208 -43.687420955 0 -12.059611461 -43.743211957 0 -10.424742973 -47.986945589 
0 -10.754902836 -49.381935196 0 -10.865493271 -50.307707557 0 -10.328175755 -52.153405419 
0 -10.031197712 -54.083034611 0 -10.010801373 -56.130346662 0 -9.6839075173 -58.265557539 
0 -8.4752911463 -60.744354073 0 -7.4235997251 -62.970336084 0 -7.0854024835 -64.951505701 
0 -5.2555875521 -70.106178002 0 -5.7872047979 -72.278878771 0 -5.5733221443 -73.771070444 
0 -5.1194949747 -74.971858058 0 -4.5822926959 -77.018270649 0 -4.2645066353 -78.316050579 
0 -4.1638172363 -78.608597446 0 -4.3035003894 -78.452373198 0 -6.385074553 -62.00111863 
0 -7.1404676102 -60.048448396 0 -7.3727418448 -58.521814383 0 -7.8384013095 -55.974017786 
0 -8.1834381295 -53.806010883 0 -8.3575131226 -49.794285769 0 -9.1170732877 -48.240521471 
0 -9.7035151747 -44.294730199 0 -10.39144893 -43.60102312 0 -10.433616871 -43.479728684 
0 -9.9792828447 -43.97301851 0 -9.0451895234 -45.508289984 0 -9.4373393 -46.032320864 
0 -9.4685377445 -47.044889241 0 -8.9913208468 -48.496366813 0 -8.4833397003 -50.116507704 
0 -7.5812164141 -56.104475158 0 -7.6142618267 -57.247950836 0 -6.5767707735 -59.473651949 
0 -5.4654459843 -61.765751728 0 -4.9315489537 -63.845828357 0 -4.9480126263 -65.72895461 
0 -4.9165899282 -67.782043854 0 -4.1539148399 -68.684881649 0 -3.6896239722 -71.973677924 
0 -3.0284345141 -74.435448853 0 -3.1085966062 -75.540365815 0 -2.9591260424 -76.230000633 
0 -2.8232840502 -76.806468593 0 -2.7348079622 -77.227418979 0 -2.992355194 -77.788505201 
0 -3.0062361187 -77.84095608 0 -3.0245622955 -77.646482747 0 -3.0726889591 -77.168721437 
0 -3.2723981739 -76.3784903 0 -3.7195767103 -75.653157483 0 -3.8717712725 -74.563510856 
0 -3.9178490692 -73.777184836 0 -4.1242571012 -72.241953907 0 -4.4996868727 -70.566934318 
0 -4.7556776945 -68.928455386 0 -4.8455934274 -67.843450239 0 -5.1074256093 -66.012626031 
0 -5.2051128829 -63.604935381 0 -7.1321348516 -50.432250019 0 -8.1435446619 -47.020673666 
0 -8.2825400879 -46.074679608 0 -7.2940264414 -45.481171006 0 -7.6175927738 -45.159482776 
0 -7.5738989763 -45.788124377 0 -6.6823502632 -52.832549087 0 -7.0860564333 -54.237877992 
0 -6.4015282774 -56.360270938 0 -5.3012683891 -60.501057084 0 -3.0558436097 -62.308363605 
0 -2.8120117401 -64.05069147 0 -2.6187890058 -65.827085578 0 -2.4634178513 -68.530502601 
0 -2.2511221888 -69.865356075 0 -1.9125324003 -72.071577647 0 -1.154130113 -74.574081149 
0 -1.3122290077 -73.706552743 0 -1.5158196129 -72.457036147 0 -1.7037716597 -70.971656706 
0 -2.3322233599 -69.394723149 0 -2.3299157683 -67.624108106 0 -2.5511099201 -65.910064401 
0 -3.60407271 -61.376622706 0 -4.3654638084 -60.225916845 0 -4.7954803379 -57.385414448 
0 -5.1641486179 -55.175520254 0 -5.3703008642 -53.372816596 0 -5.3218736902 -51.77748033 
0 -5.6963405723 -50.384241758 0 -5.8331822428 -49.28782697 0 -5.617273839 -48.689596302 
0 -5.3693596742 -47.815761916 0 -6.0566150885 -46.414248036 0 -5.6403215193 -46.230895154 
0 -6.2273724865 -46.026793063 0 -5.5926061386 -46.684085827 0 -6.4561691841 -47.287838927 
0 -6.2607327598 -48.196176641 0 -6.0558363249 -49.316502098 0 -5.9085735189 -50.57213753 
0 -5.3820944999 -51.898128109 0 -4.8697540373 -53.217895074 0 -4.3531397119 -54.834078584 
0 -4.1473214443 -56.045515169 0 -3.9779937728 -58.353688229 0 -3.567293164 -60.426768966 
0 0.1834424534 -71.668826683 0 -0.39570643014 -73.12812112 0 -0.2916240024 -73.544350436 
0 -0.35887540245 -74.278663896 0 -0.30312752877 -74.708348772 0 -0.33799448063 -75.015517244 
0 -0.35315231424 -75.091532619 0 -0.32851701622 -74.922342694 0 -0.13796754385 -68.225941992 
0 -1.4471619848 -63.73496607 0 -2.186797421 -62.895100222 0 -1.8249575929 -60.919513972 
0 -1.8718279081 -59.271572391 0 -2.1553813841 -57.609222559 0 -2.4504359945 -55.900508636 
0 -2.6343247881 -54.350385422 0 -2.8707260751 -52.827188536 0 -3.0471058719 -51.841749277 
0 -3.9355230954 -47.795472285 0 -4.4169397082 -47.290867591 0 -4.3989008098 -46.982762256 
0 -4.7501417468 -46.669897648 0 -3.6978377421 -47.802124916 0 -4.0427674227 -47.953047221 
0 -3.5748142241 -48.891849262 0 -3.3025890305 -49.940656541 0 -3.1968037836 -50.735447677 
0 -0.23471689736 -61.122180039 0 -0.033139762152 -62.737430556 0 0.16497587374 -64.014509129 
0 0.046474340419 -65.584521578 0 0.20823206158 -66.784841158 0 0.59404073804 -69.038055306 
0 0.78080332332 -69.918901216 0 2.1298937953 -71.813948312 0 2.1273990652 -72.409367825 
0 2.1666753315 -72.622606412 0 2.1709638799 -72.769907666 0 2.1238979897 -72.70822739 
0 1.8119673034 -72.642459881 0 1.4568470689 -72.391159343 0 1.3839356843 -72.016923041 
0 1.2019741681 -71.140202516 0 1.1205846366 -70.593821657 0 1.085663739 -69.434986617 
0 0.66831257562 -66.168552556 0 0.025846929422 -65.442576883 0 -0.0011180133183 -63.511669852 
0 0.30585506543 -61.243358439 0 -1.7394309077 -50.464731731 0 -2.4849706623 -49.226901441 
0 -1.9664889294 -48.630672361 0 -1.7707555596 -48.237772679 0 -1.8322056506 -48.02147194 
0 -2.0903558094 -47.907992091 0 -2.3047559161 -48.031604975 0 -1.8878258848 -53.869428975 
0 -1.6860411746 -54.875036507 0 -1.217748612 -57.529115425 0 -0.48245397083 -59.876491655 
0 2.9549782937 -64.46004038 0 2.9382049371 -66.081035802 0 3.1601574946 -67.601796365 
0 3.1820224379 -69.068111576 0 2.9157321442 -70.091410744 0 2.1784522369 -65.746571286 
0 2.5252483735 -63.720997688 0 2.2503781863 -61.961289007 0 1.4661183821 -60.497337704 
0 0.88534949384 -59.045287334 0 0.78077676028 -57.617984733 0 0.58986464557 -56.169725522 
0 0.49446425861 -55.271579855 0 0.35057295449 -53.815142925 0 -0.16924506851 -52.217981203 
0 0.27095307847 -51.158119685 0 0.45878636823 -50.326986345 0 0.24919969889 -49.485384749 
0 -0.38991725901 -49.914844286 0 -0.4607494401 -50.777570666 0 -0.058236804729 -52.306910323 
0 0.49074740668 -54.100132748 0 1.2081602078 -55.807744625 0 1.400143751 -56.960483813 
0 3.243978621 -61.420785732 0 3.6340171779 -62.899125006 0 5.2284704892 -69.362093869 
0 4.8313234635 -70.194970893 0 4.9669524983 -70.399564045 0 4.948950286 -70.455667201 
0 4.5020497781 -70.560381939 0 4.4047245375 -70.064459126 0 4.2779674201 -69.431433823 
0 4.2142927803 -69.010651632 0 4.3922733945 -68.014259616 0 4.4230179226 -66.772255397 
0 4.5214708336 -65.350570879 0 4.8639656538 -64.076553461 0 3.740658478 -59.147710628 
0 2.7677602605 -53.374262632 0 2.2964906976 -50.240114542 0 1.2149767939 -49.419925244 
0 1.2135047008 -49.25593252 0 1.1484127404 -49.213024062 0 1.1860586897 -49.418867591 
0 2.3049595021 -52.337463536 0 2.8523293603 -54.062526165 0 3.4349515551 -55.677733047 
0 3.4055775323 -59.511989697 0 6.0450401801 -60.367759367 0 5.739028641 -64.455403356 
0 5.9982257388 -65.722247407 0 5.9445339611 -67.037741201 0 6.0616924161 -68.028548018 
0 7.4334544733 -68.472308674 0 7.002574894 -68.328904212 0 6.9601867488 -67.68844749 
0 5.9854190751 -63.103984898 0 5.0954941676 -61.850671695 0 4.9701364936 -57.514999891 
0 4.1036184268 -56.581164298 0 4.2906431256 -55.170399542 0 4.4094449649 -53.9674891 
0 4.2241909522 -52.627259487 0 3.7983436447 -51.490157626 0 4.0211303794 -50.907111994 
0 4.1462490043 -50.239345979 0 4.1737845295 -50.372366061 0 3.6255450429 -50.563003213 
0 3.6583343643 -51.171174992 0 4.1918782251 -52.212788373 0 4.8729964945 -56.528061946 
0 4.3019331202 -57.347243517 0 4.9452988073 -58.874367193 0 7.6815168752 -60.666740762 
0 7.4200707407 -62.106821453 0 8.200220596 -62.78148273 0 8.4249955527 -66.158720623 
0 8.1599465952 -67.291861625 0 7.883806497 -67.845758577 0 7.9362102868 -68.196503015 
0 8.0018850232 -68.224487855 0 8.6919475347 -67.690742084 0 8.5591547238 -65.990091512 
0 7.8063042572 -65.312626234 0 7.7289087088 -64.104308812 0 7.8470264505 -62.750450294 
0 7.975752803 -61.400433656 0 7.1327591197 -60.058716934 0 6.679220705 -59.192910468 
0 6.7292624442 -57.686789933 0 6.7234424305 -51.844784773 0 5.9123583759 -51.22109652 
0 6.3213681342 -55.290468139 0 6.8825335528 -56.513167657 0 7.3145696842 -57.840786643 
0 9.4532259924 -63.749712439 0 10.13599757 -64.571717634 0 10.346668023 -65.569229529 
0 10.637321516 -66.284938642 0 10.734557297 -66.443589078 0 10.503723134 -66.529605706 
0 9.8152016004 -66.661322386 0 9.9412230296 -66.080333886 0 10.060290721 -59.784068467 
0 9.4733044559 -58.260038485 0 9.031800972 -55.916825057 0 8.1464919996 -54.929746561 
0 7.9553201953 -53.799560947 0 7.4367802902 -52.691558165 0 7.4118523727 -51.166080393 
0 7.4255760091 -51.193777708 0 8.090860148 -52.203953566 0 7.5253912956 -52.855304326 
0 7.4270224518 -53.748396812 0 10.946513558 -59.93507777 0 11.078438549 -61.336646692 
0 11.812094493 -62.081839328 0 12.862794654 -63.93496509 0 12.815209815 -65.096652393 
0 12.22253803 -64.242954573 0 11.204878573 -63.866771534 0 11.054238253 -63.355718534 
0 10.896852031 -62.190890201 0 11.055363783 -60.928688824 0 11.471467927 -57.052026922 
0 11.005874482 -53.197551274 0 10.268160478 -52.634806009 0 9.6679987616 -52.075888779 
0 10.088036225 -52.528685187 0 10.650751547 -53.256306983 0 10.765104626 -54.080027356 
0 10.577626858 -55.094367648 0 10.324266782 -55.795092504 0 10.560998754 -57.066381447 
0 10.901643957 -58.522060816 0 13.826887015 -60.380314793 0 13.738197227 -61.779652691 
0 13.396692561 -62.957112956 0 14.424600321 -63.793161147 0 13.753672655 -64.499430378 
0 13.675808967 -64.72536006 0 13.725330447 -64.744372857 0 14.396818962 -64.01848335 
0 14.559604913 -62.517564057 0 14.01424433 -61.543362396 0 12.556782729 -58.365148139 
0 12.912594818 -55.96072379 0 11.906392283 -55.265713416 0 11.81439683 -54.194747949 
0 12.078008619 -52.288668697 0 11.380618096 -52.06267859 0 11.535811797 -52.254498725 
0 16.254431649 -62.830434055 0 14.869192251 -58.984096598 0 14.946397445 -57.480774468 
0 14.72772561 -55.907196085 0 14.629446379 -54.526549405 0 14.163233327 -53.519303868 
0 13.584524802 -52.846309789 0 13.914615598 -52.639274967 0 14.794954681 -52.596981854 
0 14.69244369 -52.646916699 0 13.88537203 -53.018732984 0 13.618792346 -53.543985595 
0 13.785293653 -54.015153174 0 13.983461128 -54.962248312 0 14.498132824 -56.167406025 
0 14.297406685 -57.609870359 0 17.268063322 -57.974387604 0 16.850436526 -59.338684064 
0 16.844716444 -60.441017326 0 17.340872217 -61.329219523 0 17.878032284 -62.376529944 
0 17.362433513 -62.785867345 0 17.392659474 -62.882337525 0 17.362191361 -62.835921575 
0 17.539864642 -62.400981528 0 17.536943705 -61.998858065 0 17.508627265 -61.007915442 
0 17.269055416 -60.002728976 0 17.534620954 -59.250312863 0 17.638645645 -57.964521946 
0 17.476612024 -56.015762795 0 17.299264586 -55.020830544 0 16.852473459 -53.913438797 
0 16.55216563 -53.220954686 0 16.89719323 -53.733046856 0 17.183798174 -54.665054162 
0 19.986992445 -58.939116576 0 19.858611224 -61.508463296 0 20.370664894 -61.609670713 
0 20.478572527 -61.349261513 0 19.322870481 -53.711365346 0 18.683125008 -53.101893597 
0 17.987105512 -52.935166181 0 17.981368547 -53.063091097 0 19.31227747 -55.63289815 
0 20.333974346 -57.642733731 0 21.060413318 -60.450322353 0 21.045179543 -59.396443241 
0 20.831819282 -58.250973402 0 20.65032602 -57.092799899 0 20.530219347 -55.87417984 
0 20.208551962 -54.640862306 0 21.470221497 -53.121187819 0 21.249123618 -53.194832618 
0 20.891125495 -53.424843481 0 20.452845452 -53.966166828 0 20.694358866 -54.552190538 
0 21.550879598 -55.306805118 0 23.253958979 -57.483171396 0 23.366200416 -58.454986469 
0 24.016543124 -59.200422786 0 23.184206745 -60.40424345 0 23.246341591 -60.558409606 
0 23.322927588 -60.44885718 0 23.652047527 -60.098007813 0 23.876096227 -59.303669725 
0 23.965427321 -58.237319045 0 23.595577145 -56.832230843 0 23.500057696 -56.079726089 
0 23.493725211 -54.979532447 0 23.097164983 -54.173657964 0 22.540568737 -53.613392084 
0 22.153698887 -53.269548337 0 23.004141035 -56.332439642 0 25.940746443 -56.659206265 
0 26.065469927 -59.002619108 0 26.178947532 -59.423162262 0 26.474369809 -59.522186677 
0 26.360839639 -59.541108824 0 26.284134637 -59.162072714 0 26.727588919 -58.278234 
0 26.369805123 -56.565093119 0 24.950754529 -53.112767192 0 24.717371954 -53.137660694 
0 24.699139893 -53.487134442 0 24.7429913 -53.993884579 0 25.005281339 -54.65661164 
0 25.443532748 -55.620919698 0 27.685655767 -57.23445497 0 26.988564217 -57.327160978 
0 26.582486609 -54.479555156 0 26.631436861 -53.740666736 0 28.967351659 -55.808624966 
0 29.571814527 -56.655538102 0 29.713880214 -57.408053658 0 29.414334142 -58.114406581 
0 29.62745696 -58.60380788 0 29.557224612 -58.748438647 0 29.309139631 -58.571018352 
0 29.539023414 -57.958069189 0 29.880717891 -56.95533858 0 29.629193535 -56.431331401 
0 29.081195686 -55.678590992 0 29.281725969 -54.834307657 0 29.737391984 -53.914758252 
0 29.286982935 -53.150961921 0 28.568680818 -52.974522735 0 28.389996244 -53.004368288 
0 28.559116632 -53.332904964 0 28.691727581 -53.84517196 0 28.81814669 -54.711921877 
0 31.921703336 -55.650081584 0 32.646050987 -55.794357693 0 32.869665892 -56.645840284 
0 32.253614066 -57.759479389 0 33.09041876 -58.021890533 0 33.01925511 -58.050095085 
0 32.512788914 -57.935404221 0 32.253379335 -57.602003101 0 32.921381642 -57.371580846 
0 32.930921483 -56.882886903 0 32.021271341 -55.764979206 0 32.465943475 -54.402013996 
0 31.766126161 -54.157713996 0 32.398202724 -53.560476082 0 30.976662374 -53.011026482 
0 32.165125115 -52.466721964 0 31.452733704 -52.584138162 0 31.481761067 -52.766764932 
0 31.615530563 -53.086704695 0 32.345795861 -53.129611568 0 32.293310127 -53.342712524 
0 31.711127774 -53.699640746 0 32.467174995 -54.136979905 0 31.792873353 -54.621864191 
0 47.023051564 -52.762499713 0 60.70560408 -50.499197596 0 47.128892707 -52.928138151 
0 46.92474575 -52.265244063 0 46.946536369 -52.427550043 0 60.633387378 -50.018513859 
0 46.884429737 -51.835009729 0 60.563121432 -49.576551136 0 46.906579676 -51.973179933 
0 46.873093573 -51.385366191 0 46.883583782 -51.524894043 0 60.508287264 -49.157046551 
0 46.751743971 -51.05755574 0 60.454371796 -48.811990099 0 46.74874687 -50.715299816 
0 60.369457235 -48.492362935 0 46.668837671 -50.45255611 0 46.647836209 -50.528231338 
0 46.642672094 -50.337538171 0 60.364856709 -48.255043118 0 46.58683579 -50.303725309 
0 60.291507613 -48.110658842 0 46.641994361 -50.201996685 0 46.598138935 -50.225250527 
0 60.326471559 -48.031266405 0 46.602272219 -50.20236224 0 60.312378936 -48.043750789 
0 46.590591289 -50.291328412 0 46.608361614 -50.244754511 0 60.303500091 -48.146463285 
0 46.58538827 -50.449590753 0 60.321346529 -48.316514716 0 46.585054623 -50.390110736 
0 46.663786463 -50.688436617 0 60.382944765 -48.574193764 0 46.627790214 -50.592402158 
0 46.749564972 -51.008341068 0 46.703125886 -50.895019584 0 60.462297143 -48.89532159 
0 46.805395131 -51.350981845 0 60.521258376 -49.265238834 0 46.785658433 -51.22871857 
0 46.847530774 -51.791938787 0 46.842853262 -51.638581114 0 60.570279846 -49.698573241 
0 46.936815893 -52.211070498 0 60.662404332 -50.144269632 0 46.991534759 -52.724158663 
0 46.992550231 -52.542310858 0 60.711814943 -50.644495195 0 47.074307457 -53.231564489 
0 47.017288665 -53.070406006 0 47.146194263 -53.524689551 0 60.820037725 -51.128942947 
0 47.133288488 -53.677723759 0 60.857558032 -51.600354913 0 47.24211824 -54.15048415 
0 47.184682905 -54.003779429 0 60.963109375 -52.050852152 0 47.346025346 -54.537197506 
0 61.061024138 -52.450139801 0 47.363560927 -54.935514246 0 47.393911066 -54.80714976 
0 61.069898534 -52.826158256 0 47.353319317 -55.231441549 0 47.666662831 -55.361236418 
0 61.133991908 -53.111171645 0 47.667783109 -55.452457737 0 61.160714174 -53.364037553 
0 47.484499855 -55.671877383 0 47.468399183 -55.629312506 0 61.194327637 -53.517173844 
0 47.477469411 -55.758221479 0 61.189229099 -53.591820013 0 47.491459429 -55.739713905 
0 47.489905696 -55.760158029 0 47.507402921 -55.770267515 0 61.171731874 -53.581710527 
0 47.474419277 -55.688931893 0 61.176412274 -53.486919277 0 47.478610229 -55.511779638 
0 47.457706233 -55.589385357 0 61.179803478 -53.298742144 0 47.42663748 -55.259862169 
0 47.457463553 -55.35281796 0 47.390545657 -55.080065644 0 61.123375417 -53.044141764 
0 47.30838197 -54.984784098 0 61.008298439 -52.741053875 0 47.312784397 -54.587070244 
0 47.271781665 -54.733097539 0 61.010076636 -52.347372612 0 47.233310539 -54.202598969 
0 60.923033901 -51.936333911 0 47.149849372 -53.729776256 0 47.182619708 -53.889929618 
0 60.842147557 -51.472388031 0 47.143910537 -53.274450254 0 60.862649213 -50.988125304 
0 47.072982798 -53.440335223 0 47.276009315 -54.333660936 0 47.460847396 -55.727584548 
0 47.322139235 -55.154234503 0 47.292454541 -54.417886591 0 46.892807414 -52.069166625 
0 46.616364842 -50.189877856 0 46.80074814 -50.827120637 0 46.766434904 -51.154958224 
0 74.447161834 -48.308715131 0 74.495277842 -48.612507649 0 74.5396218 -48.892484383 
0 74.578846335 -49.140138352 0 74.611759627 -49.347944695 0 74.637361615 -49.509589284 
0 74.654874406 -49.620160698 0 74.663765886 -49.676299293 0 74.663765886 -49.676299293 
0 74.654874406 -49.620160698 0 74.637361615 -49.509589284 0 74.611759627 -49.347944695 
0 74.578846335 -49.140138352 0 74.5396218 -48.892484383 0 74.495277842 -48.612507649 
0 74.447161834 -48.308715131 0 74.396735751 -47.990337374 0 74.345531761 -47.667048104 
0 74.295105678 -47.348670347 0 74.24698967 -47.044877829 0 74.202645712 -46.764901095 
0 74.163421177 -46.517247126 0 74.087393106 -46.03722478 0 74.078501626 -45.981086185 
0 74.078501626 -45.981086185 0 74.087393106 -46.03722478 0 74.104905898 -46.147796194 
0 74.130507885 -46.309440783 0 74.163421177 -46.517247126 0 74.202645712 -46.764901095 
0 74.24698967 -47.044877829 0 74.295105678 -47.348670347 0 74.345531761 -47.667048104 
0 74.396735751 -47.990337374 0 68.24213383 -49.296678329 0 68.209949566 -49.093474882 
0 68.180288384 -48.906201556 0 68.154051532 -48.740548587 0 68.132036201 -48.60154926 
0 68.114911316 -48.493426991 0 68.103197201 -48.41946698 0 68.097249785 -48.381916472 
0 68.097249785 -48.381916472 0 68.103197201 -48.41946698 0 68.114911316 -48.493426991 
0 68.132036201 -48.60154926 0 68.154051532 -48.740548587 0 68.180288384 -48.906201556 
0 68.209949566 -49.093474882 0 68.24213383 -49.296678329 0 68.343842505 -49.938841634 
0 68.37602677 -50.142045081 0 68.405687951 -50.329318408 0 68.431924803 -50.494971377 
0 68.453940134 -50.633970703 0 68.471065019 -50.742092972 0 68.482779134 -50.816052983 
0 68.48872655 -50.853603491 0 68.48872655 -50.853603491 0 68.482779134 -50.816052983 
0 68.471065019 -50.742092972 0 68.453940134 -50.633970703 0 68.431924803 -50.494971377 
0 68.405687951 -50.329318408 0 68.37602677 -50.142045081 0 68.343842505 -49.938841634 
0 68.310113058 -49.725882282 0 68.275863278 -49.509637681 0 26.670390413 -56.493798491 
0 26.627569048 -56.240914559 0 47.447896232 -53.078991993 0 26.709200988 -56.738838815 
0 47.566336687 -53.353648132 0 26.647093249 -56.858719545 0 26.676676682 -57.045501989 
0 47.536413212 -53.676732309 0 26.690437918 -57.133536143 0 26.736540011 -57.385274788 
0 26.717497447 -57.304383288 0 47.57983563 -53.95203979 0 26.839799459 -57.610276808 
0 26.748188197 -57.458818541 0 47.630544013 -54.2321847 0 26.864051064 -57.763395412 
0 47.72658626 -54.412295813 0 26.804512696 -57.836232574 0 26.818990401 -57.927641206 
0 47.684172777 -54.593255245 0 26.825787783 -57.968221627 0 26.86829209 -58.054816593 
0 26.835340443 -58.028534748 0 47.702684274 -54.707795677 0 26.87972225 -58.085487464 
0 47.741583337 -54.77162803 0 26.847089906 -58.082582646 0 26.855645476 -58.095104066 
0 47.717506563 -54.781244631 0 26.826252962 -58.075474026 0 26.77292696 -58.030167701 
0 47.690722203 -54.736585503 0 26.849448212 -57.864965312 0 26.785207525 -57.98325347 
0 47.691288653 -54.615711262 0 26.828029134 -57.729730574 0 47.704770636 -54.468326063 
0 26.7827447 -57.668815362 0 26.760544024 -57.528645807 0 47.637470872 -54.268411525 
0 26.74299811 -57.458876406 0 26.785042986 -57.181871826 0 26.717268449 -57.296425721 
0 47.593688106 -54.032989154 0 26.754174101 -56.951056697 0 47.631801461 -53.731161933 
0 26.622806844 -56.666515122 0 26.658388652 -56.855253152 0 47.503831748 -53.432154942 
0 26.59978498 -56.578834298 0 26.634435009 -56.341938038 0 47.447080436 -53.131514766 
0 26.582732697 -55.940349455 0 26.620152541 -56.194088578 0 47.398548187 -52.767420704 
0 26.543922123 -55.695309131 0 47.426318391 -52.469607404 0 26.44780897 -55.600488128 
0 26.418225537 -55.413705685 0 47.298020974 -52.171582955 0 26.404109201 -55.325727772 
0 26.370163378 -55.072063764 0 26.377049672 -55.154880628 0 47.254243457 -51.896331716 
0 26.398839501 -54.826165202 0 26.358515191 -54.99852001 0 47.215900457 -51.614228321 
0 26.374587897 -54.673046598 0 47.251584667 -51.413253787 0 26.295455622 -54.622172708 
0 26.280977917 -54.530764076 0 47.155327508 -51.254257627 0 26.274902572 -54.490069296 
0 26.288567254 -54.394578036 0 26.265349913 -54.429756175 0 47.137538048 -51.139602836 
0 26.289960163 -54.36187619 0 47.154807974 -51.066874189 0 26.259822597 -54.374722786 
0 26.264090096 -54.360170391 0 47.128937907 -51.06516839 0 26.24220217 -54.387922455 
0 26.205486553 -54.447489971 0 47.117264897 -51.115918567 0 26.329312934 -54.580960412 
0 26.231663359 -54.488313152 0 47.155155817 -51.230701759 0 26.350732012 -54.71619515 
0 47.213522477 -51.366707251 0 26.326487792 -54.788122619 0 26.348688469 -54.928292174 
0 47.211293587 -51.577634046 0 26.353561244 -55.000068803 0 26.47914742 -55.250523233 
0 26.379290905 -55.162519488 0 47.242403216 -51.815063645 0 26.521115164 -55.479580475 
0 47.371920911 -52.090340716 0 26.484105659 -55.790790309 0 26.459622711 -55.600294392 
0 47.342612723 -52.414258079 0 26.489307298 -55.8812929 0 26.595466354 -56.095886866 
0 47.381543758 -52.717719699 0 -10.729529953 -61.554067639 0 -10.94086359 -62.000385956 
0 -11.124073537 -60.827390083 0 -11.222892691 -60.208692652 0 -11.04839542 -59.653138512 
0 -11.452376511 -58.867806958 0 -11.539836705 -58.282497344 0 -11.624830475 -57.702532871 
0 -11.454889623 -57.090644308 0 -11.844036106 -56.19737926 0 -11.935902154 -55.66799814 
0 -11.877742486 -54.639573949 0 -11.992423818 -55.126571522 0 -12.320510635 -52.635285006 
0 -12.827786069 -50.697984151 0 -12.860823911 -50.48805077 0 -12.887556357 -50.321056284 
0 -12.767460308 -50.40377829 0 -13.039119203 -49.833953897 0 -12.694942352 -50.299420913 
0 -12.828585376 -50.096807724 0 -12.812307887 -50.168706478 0 -12.478951806 -50.691134442 
0 -12.788662514 -50.370755277 0 -12.763457203 -50.531235998 0 -12.380474932 -51.156956153 
0 -12.643091641 -51.007870118 0 -12.229658154 -52.000123479 0 -12.076486283 -53.088292499 
0 -12.101143513 -54.868078004 0 -11.858260342 -54.619116996 0 -11.724433003 -56.113314653 
0 -12.021530514 -55.37759117 0 -11.914396537 -56.47845841 0 -11.827690059 -57.035094598 
0 -11.734967842 -57.608926201 0 -11.429120767 -58.372811126 0 -11.495691185 -59.047341045 
0 -11.355183979 -59.719696426 0 -10.889620927 -60.839857655 0 -10.482972384 -64.000426502 
0 -10.271254533 -66.04641556 0 -9.7378009431 -69.857957837 0 -9.6167748868 -71.368598758 
0 -9.4340909674 -71.395413602 0 -9.4284450459 -72.171112364 0 -9.3701526935 -72.494454675 
0 -9.2382223041 -72.570052245 0 -9.1006789165 -73.910146148 0 -8.9938722525 -74.075254004 
0 -8.9930229482 -74.137191749 0 -9.0290556497 -73.864708211 0 -9.1563235546 -73.861538602 
0 -9.0426880136 -72.812410922 0 -9.1894734521 -73.650246563 0 -9.2176098244 -72.874236284 
0 -9.2655649271 -72.583678752 0 -9.3159576995 -72.240498602 0 -9.1782916746 -71.365029022 
0 -9.4439039697 -71.416245101 0 -9.5122343698 -71.012773304 0 -9.3999428953 -69.974630874 
0 -9.6775627539 -69.933844231 0 -9.7252728196 -67.749409429 0 -10.252819634 -65.615517115 
0 -10.559667701 -63.776698858 0 -10.84189535 -62.625451121 0 -10.732482438 -57.435832222 
0 -11.71261119 -53.383709715 0 -11.900738439 -52.105459026 0 -12.170017949 -51.138069115 
0 -10.95502916 -58.191089954 0 -10.438070113 -60.760711668 0 -9.8542827665 -65.536140147 
0 -9.567826097 -67.44323673 0 -9.3544348494 -69.14172262 0 -9.074321839 -70.527920287 
0 -8.8629171564 -71.791060652 0 -8.8365770954 -72.403086838 0 -8.7481961697 -72.92288712 
0 -8.6436477309 -73.173085685 0 -8.6397790391 -73.197588253 0 -8.676325705 -72.956639974 
0 -8.6990777071 -72.040468392 0 -10.067940314 -63.719463998 0 -9.9682675594 -61.653005848 
0 -10.188313873 -60.370774152 0 -10.092967546 -58.64634283 0 -10.745627527 -55.411779832 
0 -11.584579873 -51.687298484 0 -11.497164331 -52.136818338 0 -11.398113578 -52.658804109 
0 -11.230582669 -53.822706617 0 -11.038881231 -55.246404037 0 -10.629051202 -56.425111366 
0 -9.5057895689 -63.150380849 0 -8.5938914902 -70.373081985 0 -8.8465491569 -68.827902441 
0 -9.1436697829 -66.790414643 0 -9.1731821125 -65.218921083 0 -10.494483938 -54.182812653 
0 -10.648740267 -53.150781669 0 -10.611155984 -52.712059696 0 -9.6147945374 -58.738040674 
0 -8.957140357 -61.065195302 0 -8.7878448852 -65.019356132 0 -8.441307703 -66.574531547 
0 -8.3583151638 -68.373701452 0 -8.063340979 -69.634832584 0 -7.8827490638 -70.509328143 
0 -7.8816942414 -71.259321247 0 -7.8708691889 -71.437448058 0 -7.954016261 -71.108417361 
0 -7.8382402957 -70.261809965 0 -8.6724592221 -62.601940497 0 -8.8861498709 -60.348207597 
0 -9.1535377534 -59.095391911 0 -9.2745444806 -57.361201462 0 -9.2277163542 -55.912203961 
0 -9.6907509844 -53.481247803 0 -9.8300961677 -53.484396559 0 -9.7575710942 -54.148749252 
0 -9.4991666333 -55.783289616 0 -8.9035635328 -57.107128251 0 -7.9725287496 -63.014153211 
0 -7.2993247416 -67.550448248 0 -6.9718770543 -69.88203079 0 -7.0135106189 -69.769345195 
0 -7.2459213086 -69.219324265 0 -7.5255800403 -68.118961422 0 -7.811082816 -66.319598169 
0 -7.7031857941 -64.004096357 0 -7.738271585 -59.17332777 0 -8.8686796914 -54.998206675 
0 -8.5553113697 -54.845472451 0 -7.2717496636 -64.321877453 0 -6.7928094012 -68.240243704 
0 -6.4902488178 -61.514691488 0 -7.5172262369 -57.737027003 0 -7.904631208 -54.85610297 
0 -7.9741092284 -54.774483148 0 -7.9936255562 -54.907887936 0 -8.0878790155 -55.375994662 
0 -7.700284042 -56.425921578 0 -7.6649672008 -57.775317846 0 -7.450690588 -59.605427621 
0 -6.8699528046 -61.496989414 0 -6.4976267777 -65.39728722 0 -5.752841748 -68.101467254 
0 -5.8379683397 -68.259298734 0 -6.0786975986 -68.042199814 0 -6.1672278093 -67.578479316 
0 -6.2348657032 -65.932089725 0 -6.3999589385 -64.83854475 0 -6.7156863711 -63.196498293 
0 -5.9360044886 -58.952512128 0 -6.2783175154 -56.390033513 0 -6.1353301119 -62.833894741 
0 -5.187575945 -63.677903979 0 -5.5157752334 -67.176354899 0 -4.6958736812 -66.199092033 
0 -5.2733320403 -60.894319187 0 -4.9272141427 -60.080854662 0 -5.4959780636 -58.035577795 
0 -5.5143184986 -57.137147417 0 -5.698583969 -56.346914269 0 -5.9155019293 -55.939156337 
0 -5.5120991587 -58.767167062 0 -5.2503343158 -60.180777035 0 -4.8767362254 -61.549429195 
0 -4.296184181 -62.21612362 0 -4.4857376545 -64.413984708 0 -4.2295216097 -65.34740116 
0 -4.1699914821 -66.181213018 0 -4.2487385398 -66.565877993 0 -4.7070332236 -63.726060169 
0 -4.9150195891 -62.297870899 0 -4.1357074019 -56.785427518 0 -5.0799726208 -56.909307443 
0 -4.6034297665 -57.817855921 0 -2.808154468 -65.185729537 0 -3.7166444294 -65.334924241 
0 -3.5441821626 -64.32358345 0 -3.5510589582 -59.775643402 0 -3.585457663 -57.559229505 
0 -3.7215805946 -56.952004177 0 -3.3103723283 -59.206290214 0 -3.2823494941 -60.661101898 
0 -3.1737195096 -62.158070917 0 -2.5215250612 -64.276635581 0 -2.465771488 -64.899333498 
0 -2.7688731109 -62.625181718 0 -3.1917834398 -61.232913461 0 -2.2453672481 -57.460902054 
0 -2.5100347995 -57.677531038 0 -1.2166384865 -63.956039832 0 -1.5352943233 -63.831800196 
0 -1.3003903728 -60.213852555 0 -0.91140735863 -59.436873547 0 -1.5060911935 -57.855075529 
0 -1.4539356757 -57.494729148 0 -1.1686205423 -61.045814521 0 -0.55857590052 -61.6645637 
0 -0.63535147954 -63.352709716 0 -0.47439547919 -63.679302548 0 0.38350644993 -59.336329924 
0 0.27678475597 -58.396122039 0 0.28417472647 -57.826323864 0 -0.17603698967 -57.945360379 
0 -0.65320094071 -58.573387193 0 0.70403000336 -61.360035995 0 0.89307174338 -62.287204939 
0 1.0761773425 -62.826831581 0 0.60170568484 -62.855834368 0 -0.046175158554 -62.405997144 
0 1.10919547 -60.351649604 0 1.1931174304 -59.095650697 0 1.080450239 -60.170159358 
0 1.5483896513 -61.33875122 0 1.9111605574 -58.010709298 0 1.6916901404 -57.883975001 
0 2.5665545862 -62.14870434 0 2.3969888677 -62.337055908 0 2.8621238862 -59.376843306 
0 2.6327113353 -58.835575704 0 3.28385869 -58.67107928 0 3.2264889513 -59.542604157 
0 3.0488158416 -60.555569922 0 2.9978924276 -61.141238379 0 3.6680025237 -61.096467992 
0 3.3441246703 -60.285326856 0 4.8143867185 -59.448430238 0 5.0670899302 -58.500951448 
0 4.6597532149 -58.444457017 0 4.3861556904 -57.996636398 0 4.1103212104 -57.828894747 
0 4.7294639397 -57.741771696 0 3.8582518638 -57.978066535 0 4.5317407789 -57.956391169 
0 4.2452242064 -58.342130887 0 4.8634510586 -58.883633778 0 5.2142562485 -59.077953292 
0 4.8834065499 -59.884204303 0 5.4165286354 -60.707220602 0 5.0465861371 -60.886823966 
0 4.9247636006 -61.397272907 0 4.7142644418 -61.642042239 0 5.3300266723 -61.533575559 
0 4.4284356197 -61.578065088 0 5.0756596975 -61.390560065 0 4.6839661159 -61.112238283 
0 5.1046012052 -60.406195881 0 5.3781887348 -60.112982275 0 5.3879645399 -59.812626513 
0 5.3361896204 -59.941400473 0 5.3592114846 -60.029081297 0 5.4739741844 -60.20878582 
0 5.5380426465 -60.599176651 0 5.4702681101 -60.713730546 0 5.4819162964 -60.7872743 
0 5.4994622098 -60.857043701 0 5.0903217574 -61.184244226 0 5.1356061911 -61.245159438 
0 5.1471653172 -61.318140888 0 5.253255573 -61.506189703 0 5.3021323928 -61.523404999 
0 5.3229693367 -61.530513619 0 5.3541034467 -61.523958958 0 5.3665919976 -61.486759308 
0 5.3336403508 -61.460477463 0 5.3285368728 -61.428255371 0 5.3217394904 -61.38767495 
0 5.542354429 -61.180216491 0 5.6018927974 -61.107379329 0 5.5875011451 -61.016514013 
0 5.4048804491 -60.633676848 0 5.3858378856 -60.552785348 0 5.3728598308 -60.470845135 
0 5.3590985946 -60.38281098 0 5.3450948683 -60.294394932 0 5.4072026069 -60.174514202 
0 5.38499659 -60.034310929 0 5.3484731889 -59.505614431 0 5.3163704952 -59.360586737 
0 5.2273362779 -59.254114748 0 5.2221346392 -59.163612157 0 5.2757487012 -58.957239375 
0 5.2160440294 -58.566157395 0 5.1161875147 -58.47815365 0 5.1045393285 -58.404609897 
0 5.099666553 -58.332833267 0 4.609440327 -58.148078367 0 4.633684547 -58.076150898 
0 4.6221254209 -58.003169448 0 4.6649129803 -57.791540767 0 4.7060777793 -57.76006428 
0 4.7236982062 -57.746864611 0 4.755334006 -57.743477495 0 4.7787066476 -57.774997289 
0 4.755489306 -57.810175428 0 4.7605927839 -57.84239752 0 4.7666681289 -57.8830923 
0 5.0405935932 -58.012223254 0 5.1197258674 -58.063097145 0 5.1341175196 -58.153962461 
0 5.0787381165 -58.574495202 0 5.0856244105 -58.657312065 0 5.0986024653 -58.739252278 
0 5.1127188019 -58.827230191 0 5.1267225282 -58.915646239 0 5.2228356806 -59.010467242 
0 5.2450416975 -59.150670514 0 5.3736820717 -59.664777053 0 4.0384089901 -60.574748886 
0 3.7774526344 -61.62589019 0 3.9137637194 -61.229390199 0 3.8623435304 -60.025205368 
0 3.7973562522 -59.052801796 0 3.224351494 -58.133747027 0 3.4765162849 -58.468718548 
0 3.7997263551 -59.629856082 0 3.1453418103 -61.939421675 0 3.3576387279 -61.992148824 
0 2.5262918088 -58.030893791 0 2.7119046003 -57.915143998 0 1.9658206022 -60.67612766 
0 2.556287253 -61.469669523 0 2.2629358497 -61.98013079 0 1.3832029341 -62.485366416 
0 1.6985317041 -60.646278175 0 1.7948797974 -59.596849894 0 2.1112290222 -58.659682443 
0 1.6744940616 -58.264855559 0 0.68169195489 -58.056200408 0 1.5498970691 -59.707836024 
0 0.19117231731 -61.832453563 0 1.0176907722 -62.422756069 0 1.3883798144 -61.700472235 
0 -0.25023536358 -59.04551515 0 0.35341689266 -58.228695856 0 0.92916110116 -58.801079389 
0 -0.4461781634 -60.757122511 0 -0.048625139478 -63.418411657 0 0.16624431072 -63.201388477 
0 -0.36197114293 -62.764777019 0 -0.52409610351 -60.265167999 0 -0.96838430083 -57.611280859 
0 -0.69696745903 -57.751283858 0 -1.0644098479 -58.329753582 0 -0.9467703652 -61.575302911 
0 -1.2839959996 -63.039636283 0 -0.84175263397 -63.32317481 0 -1.6019605536 -63.002664506 
0 -1.7679439108 -62.544905001 0 -1.2530193392 -59.641722988 0 -2.0262437797 -58.353268237 
0 -1.6932635683 -57.946946358 0 -2.3172211333 -58.486686937 0 -2.3336252205 -58.973333775 
0 -2.2957283288 -61.862049823 0 -2.3423679068 -63.212416769 0 -1.8747965693 -64.570563697 
0 -1.8669661881 -64.159393588 0 -2.5298997632 -63.707839196 0 -2.9963790596 -62.786616736 
0 -2.5553290025 -61.297610004 0 -2.6245642696 -59.785861404 0 -3.0862073851 -58.515999136 
0 -3.0579345915 -57.082061546 0 -2.9267054132 -57.468463451 0 -3.4176547287 -58.102774938 
0 -3.5766295073 -59.123059593 0 -2.6970376856 -60.402896591 0 -3.1793519447 -64.659428351 
0 -2.5757667249 -64.832096562 0 -4.3602373923 -57.385709703 0 -3.8086914334 -57.047716316 
0 -4.39192261 -61.419124796 0 -4.188025201 -62.874791459 0 -4.4896953893 -64.58761711 
0 -3.9626355696 -66.155093341 0 -3.6852323568 -65.92528399 0 -3.6050894863 -65.27250452 
0 -3.7846321196 -64.413865202 0 -4.1479758475 -63.60018772 0 -4.4812920456 -60.854868387 
0 -4.737199823 -59.407439357 0 -5.6024940453 -57.867874704 0 -5.5332424451 -56.220260203 
0 -5.1816128892 -56.374266284 0 -4.8973039242 -57.015418217 0 -4.8291501467 -57.819037926 
0 -4.9232703969 -58.705170585 0 -4.7094770784 -66.665628158 0 -5.144793169 -66.197826771 
0 -5.1584438286 -62.922385696 0 -5.9545776731 -61.919380095 0 -6.4045713712 -55.963275072 
0 -6.7399036567 -55.957837397 0 -6.65390197 -56.490386371 0 -5.9655187835 -59.675612396 
0 -6.2218938854 -62.392242523 0 -5.9278200974 -63.95339538 0 -5.5453890277 -65.908497296 
0 -5.5875414586 -66.716818432 0 -5.512614645 -67.647075054 0 -5.3209337432 -67.68863649 
0 -5.1654056698 -67.234637786 0 -5.8906646415 -66.307298694 0 -5.6764986171 -65.456992588 
0 -6.3464659126 -64.431995598 0 -6.5611536271 -60.452947163 0 -6.9147706123 -58.692985199 
0 -6.9533601879 -57.257706248 0 -7.3045704198 -56.084669887 0 -7.4747583744 -55.37596425 
0 -7.2865350437 -55.199717881 0 -7.5745234435 -55.317457615 0 -7.4118396216 -56.552454734 
0 -6.9390840671 -57.415755649 0 -7.0868543251 -58.604190693 0 -6.3911022573 -68.171536824 
0 -6.6633538497 -67.354533702 0 -7.0897459793 -63.479294879 0 -8.4601785734 -55.804734899 
0 -7.1411932689 -59.927651525 0 -7.3198054056 -60.953266093 0 -7.4815048368 -65.147619529 
0 -7.2129839529 -66.93971202 0 -7.0038567822 -68.336033667 0 -6.7620567294 -69.046357905 
0 -6.6555051828 -69.377410784 0 -6.5862482161 -69.176749505 0 -6.8741391619 -69.305101962 
0 -7.3477636939 -66.443507871 0 -7.9334880138 -61.946362392 0 -9.0074941554 -55.619694542 
0 -9.1310010493 -54.929394312 0 -9.2333162422 -54.127273288 0 -9.2279438938 -53.849689636 
0 -9.0550124832 -54.062426404 0 -9.3673892182 -54.030052984 0 -8.7575195723 -56.981195151 
0 -8.6856684052 -58.686170391 0 -8.2466670725 -61.312487066 0 -8.4647420457 -63.927868623 
0 -7.6131511634 -70.788918951 0 -7.5876005161 -70.922494309 0 -7.5538617254 -70.347210185 
0 -7.6047336441 -69.5359268 0 -7.887387628 -68.535064034 0 -8.0166768967 -66.930065442 
0 -8.1858224986 -65.22832645 0 -8.7565548206 -63.647765466 0 -8.7831421087 -59.768302783 
0 -9.603784878 -57.4127402 0 -10.307236466 -53.189158218 0 -10.022261341 -54.144410659 
0 -10.108440069 -55.144077731 0 -9.5882807998 -62.661982688 0 -8.6254816922 -67.263881564 
0 -8.3447463681 -69.062868448 0 -8.339992106 -70.767166567 0 -9.7454158411 -61.635601504 
0 -10.609218008 -54.910194236 0 -10.826674135 -53.506803903 0 -10.998603295 -52.439493214 
0 -11.317314751 -51.94863671 0 -10.381928721 -56.559912373 0 -9.8255796633 -59.899158516 
0 -9.8605588032 -64.950474268 0 -8.4663717042 -72.135115445 0 -8.4216882873 -72.578470997 
0 -8.4329422166 -72.425994313 0 -8.5258355328 -71.918332012 0 -8.6642373935 -70.669600116 
0 -8.9443529604 -69.331790173 0 -9.1930278591 -67.828100004 0 -9.4181283276 -65.980697954 
0 -9.9732340724 -64.077413708 0 -10.481447058 -59.160043358 0 -11.113642964 -56.781458437 
0 -12.088401677 -51.107767544 0 -11.606108655 -52.095968852 0 -11.415592648 -53.198673836 
0 -11.428689938 -54.635550633 0 -10.74230234 -63.245344505 0 -10.240545969 -66.286726617 
0 -10.15148119 -66.877149316 0 -10.057981202 -67.433381416 0 -9.8522638638 -68.74257173 
0 -9.7693481504 -69.306811178 0 -9.1295620579 -74.02641825 0 -9.067379011 -74.442187889 
0 -9.0643596234 -74.404752712 0 -9.9369745471 -68.191182068 0 -10.115562582 -67.815471133 
0 -10.205852871 -67.262982359 0 -10.294538833 -66.68642993 0 -10.687696078 -63.427806791 
0 -10.806170514 -62.617263259 0 -10.942004503 -61.589659499 0 -12.21071432 -53.963277719 
0 -12.284897889 -53.510018528 0 -12.348684301 -53.095233887 0 -12.487158123 -52.260436319 
0 -12.531533513 -51.935023753 0 -12.591325616 -51.329051672 0 -12.55170594 -51.274770663 
0 -12.732494898 -51.277680558 0 -12.683855792 -51.575263558 0 -12.625820487 -51.917143764 
0 -12.467765656 -52.84137799 0 -12.399470999 -53.255642986 0 -12.270833073 -53.819299824 
0 -13.767607652 -61.852127597 0 -16.179155325 -62.554406208 0 -16.543334528 -60.237896119 
0 -13.921508795 -60.860413648 0 -16.862844202 -58.239922336 0 -16.689909142 -59.323453763 
0 -14.166902562 -59.327273861 0 -14.404491241 -57.819013631 0 -17.004599943 -57.343022128 
0 -17.187833802 -56.168649545 0 -17.349684321 -55.13344846 0 -14.548789724 -56.876730863 
0 -17.477432352 -54.326879137 0 -17.639166748 -53.276923517 0 -14.761531524 -55.490197067 
0 -14.963436767 -54.143379921 0 -17.764996158 -52.48265941 0 -17.926819473 -51.417676116 
0 -18.088516452 -50.473165877 0 -15.11147904 -53.259124552 0 -15.295172577 -51.863579018 
0 -18.215688326 -49.61904696 0 -18.382920126 -48.301811164 0 -18.625798186 -47.070419907 
0 -15.702950189 -49.543083218 0 -18.849031079 -45.658927229 0 -15.859917433 -48.568961543 
0 -19.045465661 -44.419492478 0 -19.160920341 -43.716740458 0 -16.095834861 -47.133038005 
0 -19.240096161 -43.217890986 0 -16.211356018 -46.403129867 0 -19.494649596 -41.603004692 
0 -19.541886641 -41.314733612 0 -16.251936849 -46.150921764 0 -16.354016869 -45.515121727 
0 -19.587670589 -41.025665137 0 -19.686090515 -40.400052713 0 -16.395882661 -45.247076004 
0 -16.306916993 -45.138751568 0 -19.717220896 -40.209006271 0 -19.606061284 -40.237003985 
0 -16.339714326 -44.953446965 0 -19.624400275 -40.131175274 0 -19.780173396 -39.833884 
0 -19.77521269 -39.826568397 0 -16.479578273 -44.714390931 0 -16.469504927 -44.760001279 
0 -19.776418844 -39.842178217 0 -16.433084187 -44.935918187 0 -19.740928421 -40.030556318 
0 -19.70887569 -40.21484967 0 -19.666695341 -40.447560277 0 -16.397810099 -45.127258796 
0 -16.337585889 -45.51286209 0 -19.631676442 -40.67268285 0 -16.255422709 -45.984939823 
0 -19.460006247 -41.749734871 0 -16.136313667 -46.731985159 0 -19.31304069 -42.709674042 
0 -16.034400628 -47.465951818 0 -19.161019171 -43.715976021 0 -19.052203727 -44.411845223 
0 -15.812116126 -48.93725061 0 -18.851164213 -45.685180706 0 -18.713840257 -46.547830586 
0 -18.521124767 -47.660707045 0 -15.572104529 -50.450121647 0 -15.348212713 -51.862927319 
0 -18.373824018 -48.590165573 0 -18.074918284 -50.57773937 0 -15.220076504 -52.676135441 
0 -15.010024687 -54.000307522 0 -17.950765843 -51.364275562 0 -17.796525403 -52.33156134 
0 -14.794789509 -55.376307132 0 -17.667996703 -53.150924762 0 -17.493110149 -54.27129219 
0 -17.325174819 -55.300529351 0 -14.644486616 -56.305823666 0 -14.407618604 -57.773246852 
0 -17.19020426 -56.17593786 0 -17.002585272 -57.332376639 0 -16.752986824 -58.663897796 
0 -14.206005768 -58.808170055 0 -16.560363038 -59.882936569 0 -13.861815937 -60.948880919 
0 -16.320358351 -61.584336037 0 -15.842388547 -64.547190247 0 -13.256655064 -64.999363337 
0 -15.518096689 -66.709052329 0 -12.917474912 -66.420907708 0 -15.099541654 -68.590777153 
0 -15.030023663 -69.79407152 0 -12.651916479 -68.886161028 0 -14.73108485 -71.699065808 
0 -14.550177388 -72.837516746 0 -14.375897565 -73.929066258 0 -14.269691987 -74.593327214 
0 -12.337650664 -70.87142981 0 -14.011174441 -75.483345907 0 -12.052857052 -71.9114017 
0 -13.844101195 -77.294433864 0 -13.893884556 -76.228136873 0 -11.855786043 -73.169882741 
0 -11.675906873 -74.299709031 0 -13.73804784 -77.964028395 0 -13.515306912 -78.606622626 
0 -11.502415887 -75.400910262 0 -13.412529221 -79.254743804 0 -13.371058622 -80.287120899 
0 -13.25734296 -80.993436054 0 -11.485417622 -76.254809395 0 -11.333392969 -77.195158389 
0 -13.16821127 -81.559179137 0 -13.0565288 -82.254278772 0 -12.959005894 -82.828058194 
0 -11.242238458 -77.722996474 0 -12.890647037 -83.259659028 0 -12.728786461 -83.563541339 
0 -11.041949212 -78.230194877 0 -12.669337867 -83.93907651 0 -12.599701951 -84.477373949 
0 -12.558786409 -84.742867416 0 -12.572176569 -85.32218984 0 -10.793773519 -79.823072079 
0 -12.418848491 -85.49833662 0 -12.466924047 -85.941592879 0 -12.442310516 -86.124639532 
0 -12.451089399 -86.041619986 0 -10.815284489 -80.477296082 0 -12.443227762 -86.128628636 
0 -12.375806559 -85.754324082 0 -12.502195641 -85.762538166 0 -12.394033285 -85.658307836 
0 -10.902442129 -79.951991574 0 -12.63198154 -84.948196722 0 -12.580612583 -85.288359992 
0 -10.943914318 -79.679280827 0 -11.022848164 -79.178920314 0 -12.677765488 -84.659128247 
0 -12.742302911 -84.24149159 0 -12.822698708 -83.723639719 0 -11.08385001 -78.774643201 
0 -12.980865748 -82.761644007 0 -12.890577145 -83.304124716 0 -11.19968355 -78.064570666 
0 -11.328917957 -77.222339983 0 -13.059707383 -82.262593474 0 -13.164390213 -81.550400944 
0 -13.271998535 -80.871027047 0 -11.417042251 -76.619775643 0 -13.360671121 -80.311170368 
0 -13.486433093 -79.543902468 0 -11.574045238 -75.656447167 0 -11.776653674 -74.376231934 
0 -13.601683974 -78.800430132 0 -13.806775334 -77.492357572 0 -14.001369617 -76.248543583 
0 -12.153385102 -71.925197111 0 -14.268034233 -74.556296528 0 -14.446461936 -73.496091392 
0 -12.518885916 -69.707390449 0 -14.734759988 -71.643711825 0 -12.735698725 -68.310398426 
0 -15.027391847 -69.799043647 0 -15.131879461 -68.540089599 0 -13.046032977 -65.777507576 
0 -15.273590544 -67.643560735 0 -13.372284658 -64.331436382 0 -16.042437778 -63.417606828 
0 -15.864175115 -64.532872967 0 -13.531921865 -63.340393383 0 -15.673509007 -65.733920719 
0 -15.529891965 -66.648637561 0 -12.804855339 -67.281844427 0 -14.862508019 -70.837142502 
0 -14.572226487 -72.702070806 0 -12.299621377 -71.057643134 0 -14.1214414 -75.491602079 
0 -11.950397606 -73.246378064 0 -12.533748676 -85.578271586 0 -10.770382685 -79.974548115 
0 -10.741342142 -80.150625072 0 -12.439198438 -86.14428842 0 -10.81537718 -80.420212017 
0 -10.760724457 -79.990686201 0 -12.535568339 -85.545970686 0 -10.866328618 -79.492990176 
0 -10.865502976 -78.724992507 0 -12.506728574 -69.816477712 0 -14.89086069 -70.670605218 
0 -12.767795152 -67.36961296 0 -15.383640231 -67.557976989 0 -15.68850866 -65.587007877 
0 -13.529009387 -63.149002174 0 -16.12338579 -62.756853532 0 -18.233205953 -49.58187435 
0 -15.707206627 -49.608777847 0 -18.961380968 -44.978421086 0 -15.958854147 -47.995027377 
0 -19.244681834 -43.141274876 0 -19.392663231 -42.175598653 0 -19.566934686 -41.115651951 
0 -19.761071673 -39.926538164 0 -19.640973383 -40.690439657 0 -19.393507448 -42.23518149 
0 -19.326625399 -42.667506628 0 -15.958623736 -47.973767683 0 -18.937703665 -45.099070551 
0 -18.726848496 -46.432630419 0 -15.473261954 -50.744529543 0 -16.353709272 -61.438832845 
0 -18.840915177 -63.056308921 0 -19.176802451 -60.962157782 0 -19.822957143 -58.441405957 
0 -19.764951257 -57.402255997 0 -19.925947999 -56.444304311 0 -20.212136767 -54.395487898 
0 -20.465050701 -52.784070995 0 -20.770105752 -50.923899829 0 -21.008898676 -49.413283981 
0 -21.36466684 -48.66023036 0 -21.271140248 -47.820655807 0 -21.692068669 -46.627825796 
0 -21.611904381 -45.54685012 0 -22.015698749 -44.444044027 0 -21.858435585 -43.973153028 
0 -22.141283054 -42.296300124 0 -22.325037353 -41.141675266 0 -22.515011111 -39.928349235 
0 -22.755662854 -38.401170926 0 -22.82402171 -37.969570091 0 -22.88705427 -37.591133363 
0 -23.02860351 -36.702329589 0 -23.100355904 -36.233789562 0 -23.440580702 -35.508571737 
0 -23.201250037 -35.550254886 0 -23.265620658 -35.160190716 0 -23.587365212 -34.644872456 
0 -23.338464478 -34.794169541 0 -23.35860773 -34.690151387 0 -23.668230422 -34.226840031 
0 -23.377608281 -34.545403746 0 -23.376002808 -34.542529615 0 -23.647114209 -34.223262991 
0 -23.335970746 -34.692345684 0 -23.298327188 -34.923314506 0 -23.522430204 -34.821991364 
0 -23.20154798 -35.449995545 0 -23.129860501 -35.908613483 0 -23.336748894 -35.994285946 
0 -22.973361156 -36.965046322 0 -22.912799841 -37.345015016 0 -23.136588185 -37.534263223 
0 -22.731978129 -38.698437303 0 -22.558164943 -39.739249589 0 -22.398460741 -40.749637897 
0 -22.700105142 -40.883212453 0 -22.301029879 -41.866284795 0 -22.216932982 -42.414514177 
0 -21.860718288 -44.041133157 0 -21.806947851 -45.76771436 0 -21.401991259 -46.890652082 
0 -21.17116595 -48.417394812 0 -21.35803774 -48.794564198 0 -20.915250654 -50.134124992 
0 -21.007703622 -51.076098442 0 -20.519345128 -52.602964685 0 -20.597528899 -53.552816506 
0 -20.132388415 -54.961971444 0 -19.803502295 -57.04202621 0 -19.539924679 -58.71150131 
0 -19.194931032 -60.896115062 0 -18.927566345 -62.592335302 0 -18.57354642 -64.738573791 
0 -18.44514345 -65.541323716 0 -18.304210659 -66.434994299 0 -18.348205616 -67.652595353 
0 -17.882333081 -69.209770807 0 -17.587378268 -71.047195479 0 -17.330280492 -72.673038881 
0 -17.355335184 -74.013390549 0 -16.994624854 -74.830053211 0 -16.875447702 -75.585368191 
0 -16.749683151 -76.379388776 0 -16.869238163 -77.77627934 0 -16.427688522 -79.067692791 
0 -16.091996275 -80.477863991 0 -15.93087388 -82.959077206 0 -15.62221336 -83.458946334 
0 -15.419836828 -84.754985388 0 -15.48113717 -85.839639715 0 -15.126933198 -86.594002266 
0 -14.942199262 -87.706191391 0 -14.800559596 -88.595285195 0 -14.652506148 -89.550882649 
0 -14.546312933 -90.231702379 0 -14.67419326 -90.94342072 0 -14.457054772 -90.872094654 
0 -14.420560238 -91.117514589 0 -14.544422758 -91.816602499 0 -14.33578165 -91.613727913 
0 -14.284685593 -91.925610516 0 -14.423714765 -92.488056498 0 -14.235361792 -92.177082512 
0 -14.224397608 -92.262050709 0 -14.397527161 -92.726010705 0 -14.242969625 -92.261606951 
0 -14.251318442 -92.209111658 0 -14.26715309 -92.109084551 0 -14.472111021 -92.345926232 
0 -14.354837178 -91.526153449 0 -14.391445409 -91.302372603 0 -14.606870815 -91.39110298 
0 -14.520975308 -90.39530399 0 -14.640133171 -89.588617055 0 -14.758645328 -88.839824483 
0 -14.934327209 -87.842116555 0 -15.002716738 -87.413309793 0 -15.188000672 -86.194149907 
0 -15.357114038 -85.118327928 0 -15.576713037 -83.672667041 0 -15.77427132 -82.433938836 
0 -16.10635506 -81.829184279 0 -16.060156343 -80.723185945 0 -16.164074226 -80.065133509 
0 -16.281364111 -79.320342543 0 -16.632425752 -78.576192735 0 -16.685276595 -76.756860656 
0 -16.961482827 -75.048343545 0 -17.213480166 -73.457984446 0 -17.610472663 -72.424272741 
0 -17.562686474 -71.21950034 0 -17.823536498 -69.570668428 0 -18.241074954 -68.37899161 
0 -18.299422287 -66.534800264 0 -18.453302175 -65.494982634 0 -18.857452401 -64.39624995 
0 -19.827197556 -61.46479157 0 -20.423251944 -58.471981549 0 -20.943857732 -54.693000018 
0 -21.441403299 -51.16712239 0 -21.930031121 -48.250714334 0 -22.333416005 -45.705974684 
0 -22.702472247 -43.381322789 0 -22.930735911 -41.937671265 0 -23.364667422 -39.17797899 
0 -23.622267466 -37.375892809 0 -23.882904646 -35.853327826 0 -24.146775082 -34.711522553 
0 -24.195276328 -33.968845789 0 -24.35870184 -33.449490925 0 -24.263389609 -33.487033583 
0 -24.111971349 -34.177755281 0 -24.012350457 -35.282884809 0 -23.583559189 -38.624881321 
0 -22.865441243 -42.83820323 0 -22.302155673 -45.752859832 0 -22.03019249 -48.315509645 
0 -21.536585927 -51.228852831 0 -20.980582355 -54.21671014 0 -20.650111737 -56.224938288 
0 -19.98817356 -61.012983369 0 -19.306114123 -64.740520917 0 -18.811999562 -68.322263925 
0 -18.250713446 -71.473568076 0 -17.761238904 -74.612801149 0 -16.779112511 -81.45310404 
0 -16.255912977 -84.039003611 0 -15.907413043 -86.827967749 0 -15.572851287 -88.859038593 
0 -15.238094441 -90.438686515 0 -15.130860839 -91.897561872 0 -14.888180744 -92.761833332 
0 -14.781442383 -93.388523622 0 -14.756834531 -93.602011874 0 -14.922842577 -93.318649177 
0 -15.078852291 -92.41551166 0 -15.14571331 -91.003942237 0 -15.400271679 -89.458355562 
0 -15.786142103 -87.637628437 0 -16.132983951 -84.780404935 0 -16.585884969 -82.008974799 
0 -17.092449121 -78.85027403 0 -17.644275775 -75.970964222 0 -18.125885327 -72.276844768 
0 -18.844401656 -68.379214136 0 -19.392628232 -64.711694029 0 -20.568947256 -62.723701348 
0 -21.554862296 -56.91971533 0 -22.160213789 -52.335574098 0 -22.6332104 -49.073106412 
0 -23.226721576 -45.407642311 0 -23.676537806 -42.645142308 0 -24.064826058 -40.155959179 
0 -24.369116735 -38.241140275 0 -24.597537399 -36.592156822 0 -24.8270949 -35.121528913 
0 -25.26992783 -33.167367094 0 -25.351242411 -32.430793428 0 -25.288300787 -32.556511579 
0 -25.197462905 -32.987764458 0 -25.154424472 -33.671039818 0 -24.963696316 -35.164983715 
0 -24.02285114 -39.938165467 0 -23.672051496 -41.507114629 0 -23.323712137 -44.653746392 
0 -22.637778729 -50.180623975 0 -21.909064996 -53.979500472 0 -20.350782795 -64.322944969 
0 -19.955302586 -67.618489518 0 -19.151534206 -71.779368318 0 -18.604283196 -74.592020604 
0 -18.189749408 -77.138114548 0 -17.666701467 -79.562766277 0 -17.283290443 -81.89868419 
0 -17.016263101 -84.629314379 0 -16.059915435 -91.233401914 0 -15.451253572 -94.511595863 
0 -15.403711029 -94.802051142 0 -15.853500009 -92.844151765 0 -15.969698056 -91.181895059 
0 -16.965560464 -85.553943897 0 -17.155011721 -83.893292276 0 -17.755426939 -80.233892909 
0 -18.867652121 -73.505769259 0 -21.565922637 -60.126202955 0 -25.699227165 -33.701877491 
0 -25.83201733 -32.288500329 0 -25.592861536 -33.71118786 0 -25.268724176 -35.681216921 
0 -24.859437792 -36.828695657 0 -23.613780704 -46.884841141 0 -21.805142887 -57.582528979 
0 -21.047587284 -60.885251661 0 -20.288763138 -69.604550568 0 -17.045736059 -87.696464593 
0 -16.493987485 -89.620278648 0 -16.351471468 -93.100969161 0 -15.995721143 -95.257034906 
0 -15.914593446 -94.597756358 0 -16.794753403 -90.004636611 0 -16.905072834 -87.920431776 
0 -18.714088105 -78.288603826 0 -19.876894186 -69.895137442 0 -20.149406141 -66.221262503 
0 -21.469557713 -63.038656236 0 -22.626617825 -57.908567314 0 -22.70066635 -56.023273558 
0 -23.234087548 -52.684278872 0 -23.509016806 -49.736661832 0 -23.795081873 -48.015502553 
0 -24.261529023 -45.231898233 0 -24.650997985 -42.740073968 0 -25.216882394 -40.06379637 
0 -25.551641658 -37.815148606 0 -25.805694219 -35.958455944 0 -25.934595623 -34.509353251 
0 -26.77587623 -32.419797533 0 -26.748215872 -31.725147637 0 -26.672086646 -31.485994278 
0 -26.56843686 -31.510077732 0 -26.517398893 -31.821976613 0 -26.409507883 -32.366274079 
0 -26.586460662 -32.981937435 0 -26.265540287 -34.032551224 0 -26.056147166 -35.353087953 
0 -25.90872392 -36.963208432 0 -25.445648996 -39.065819189 0 -24.858299851 -41.439265401 
0 -24.41018679 -43.988305668 0 -23.963381736 -49.225633519 0 -23.025574101 -52.988245134 
0 -22.512894674 -56.67426801 0 -22.12753616 -60.584697167 0 -21.548659077 -63.765759057 
0 -19.709361414 -74.972589127 0 -19.05257287 -77.841021132 0 -18.783992946 -79.559993206 
0 -18.361367002 -82.346836362 0 -17.960585667 -84.875635807 0 -17.770582976 -87.74663535 
0 -17.474968493 -90.160363558 0 -17.056864523 -92.021160843 0 -16.582060712 -95.199916398 
0 -16.296676674 -95.676214511 0 -16.310583517 -96.045533658 0 -16.22712147 -96.010606529 
0 -16.743066804 -93.937641863 0 -16.771564243 -92.218253593 0 -18.022443303 -86.813932348 
0 -18.315580127 -83.535704057 0 -18.805811269 -81.010972358 0 -19.983832025 -77.266070074 
0 -20.252643911 -70.973223793 0 -21.135605057 -66.520129598 0 -22.525228 -64.00204939 
0 -22.77186258 -60.87166409 0 -24.833120871 -49.667103556 0 -25.175493127 -46.398060163 
0 -25.651864863 -43.464218084 0 -27.257676919 -34.135157742 0 -27.151817224 -33.076031221 
0 -26.208822896 -40.694836031 0 -25.773751305 -42.505893793 0 -25.066480655 -45.90459914 
0 -24.530915985 -51.487126834 0 -23.850465728 -54.81233224 0 -21.851499592 -67.013709655 
0 -21.350148606 -69.36950278 0 -20.289070767 -78.34819465 0 -19.606302389 -81.563764185 
0 -19.145789213 -84.511191955 0 -17.651490836 -93.879349866 0 -17.254537039 -94.785110696 
0 -17.242105317 -95.719664264 0 -17.279741246 -96.644971633 0 -17.279230321 -97.232325272 
0 -17.135963008 -96.750034054 0 -17.130907573 -95.714948277 0 -17.375741228 -94.796438908 
0 -17.698513933 -93.581819311 0 -17.936815381 -91.348682659 0 -18.112564994 -89.470224926 
0 -20.726661807 -75.928394088 0 -20.709600169 -73.926022595 0 -24.244500951 -57.787578498 
0 -24.365121906 -54.041413424 0 -26.854952934 -40.993525622 0 -26.864045019 -38.009314538 
0 -27.169408376 -35.886650968 0 -28.306922336 -30.635002837 0 -28.32534444 -30.813046013 
0 -27.87250316 -31.394433758 0 -27.78700741 -32.990856753 0 -27.319256955 -34.592702942 
0 -27.094695762 -36.370178339 0 -26.917012536 -37.596839402 0 -25.543213646 -48.197549199 
0 -23.756826548 -60.585850222 0 -22.754319091 -63.391067452 0 -21.78628223 -71.334442311 
0 -21.125531636 -73.743021131 0 -19.525646262 -87.228522917 0 -18.618659552 -90.058976839 
0 -18.209620703 -92.3351121 0 -17.886561803 -97.606750912 0 -17.568141164 -97.438303516 
0 -19.683448541 -84.102581688 0 -19.824434738 -82.520615934 0 -22.402114233 -67.328676177 
0 -24.055988588 -62.063784526 0 -24.976168061 -58.549793655 0 -25.863211144 -54.812166376 
0 -25.856141501 -52.044973165 0 -26.185264186 -49.419414363 0 -26.525800517 -46.670069068 
0 -26.90705909 -44.144702876 0 -28.03904904 -39.273717648 0 -28.107252022 -37.615116227 
0 -28.377559385 -35.931713412 0 -28.637063364 -34.202858857 0 -28.768982259 -32.539237645 
0 -28.706964661 -31.662839691 0 -28.657926678 -31.271612345 0 -28.699300539 -30.764806447 
0 -29.496773872 -30.069941439 0 -29.065310039 -30.289812903 0 -29.370576324 -30.777766049 
0 -28.851137085 -31.572525415 0 -28.712719262 -32.469775705 0 -28.712788911 -33.765974767 
0 -28.352363481 -35.965053846 0 -28.114459563 -37.778853216 0 -27.67957594 -40.060748064 
0 -27.092732594 -43.147955113 0 -26.726489892 -45.241105028 0 -26.321336421 -48.052768894 
0 -25.956173434 -51.126088618 0 -25.358041415 -54.237748924 0 -24.660130901 -57.762238778 
0 -24.345810135 -63.093722223 0 -23.413894143 -66.540024813 0 -22.815419367 -71.064277312 
0 -22.088113378 -76.02511316 0 -21.499891977 -79.001805159 0 -20.974169608 -81.721814811 
0 -20.549833981 -84.251884186 0 -20.127738572 -89.223766095 0 -19.680067437 -90.822265665 
0 -19.355131377 -92.657054413 0 -18.893091368 -94.888204698 0 -18.668664587 -95.933998202 
0 -18.551545654 -96.689150035 0 -18.494979253 -97.417107387 0 -18.695004262 -98.420370861 
0 -18.408637014 -98.146532806 0 -18.479436757 -97.628300365 0 -18.50948794 -97.265888884 
0 -18.64817524 -96.454347593 0 -18.836748556 -95.372679959 0 -19.077330322 -93.726536195 
0 -19.280715154 -92.408809265 0 -19.474339143 -91.007370598 0 -19.837243052 -89.204758968 
0 -20.056841738 -86.921231831 0 -20.460266033 -84.647948508 0 -21.542047921 -79.109927071 
0 -21.742358742 -75.925019839 0 -22.401900384 -72.862405584 0 -22.690162399 -69.912043768 
0 -23.022523364 -68.414044633 0 -23.653111356 -65.432691834 0 -28.527563445 -40.754682441 
0 -30.235277886 -29.979786243 0 -30.414478418 -30.124428012 0 -21.04998667 -87.966244132 
0 -19.171400127 -98.665352316 0 -22.061152617 -81.588352116 0 -25.507214564 -63.4212267 
0 -25.924531417 -60.189942791 0 -26.328812919 -57.46456808 0 -27.4409887 -52.387148112 
0 -27.758331839 -49.466415336 0 -28.171058078 -46.584186139 0 -28.593989695 -44.047021207 
0 -28.785682093 -42.754777378 0 -29.779651663 -38.797608615 0 -29.641938355 -37.785206034 
0 -29.878602258 -36.086768742 0 -30.126723043 -34.590726744 0 -30.451356918 -33.241195092 
0 -30.463969461 -32.104861943 0 -30.749488615 -31.270548696 0 -30.778195572 -30.353768196 
0 -31.362232649 -29.60881389 0 -30.863884159 -29.755703877 0 -31.283481046 -30.315313864 
0 -30.780039311 -30.992036317 0 -30.560232729 -31.779267359 0 -30.239883925 -32.811857208 
0 -30.153146361 -34.214320893 0 -29.998830737 -35.506033586 0 -29.759185065 -37.035044163 
0 -29.287323264 -38.856399989 0 -29.126861302 -40.978132719 0 -28.782288385 -42.945573243 
0 -28.481079205 -44.85943732 0 -28.028339513 -47.258092902 0 -27.532307133 -50.453515992 
0 -27.165934094 -53.62498874 0 -26.304143833 -57.680613523 0 -25.8054742 -60.880123768 
0 -25.557454737 -62.446044263 0 -25.186457479 -65.481200302 0 -24.693446968 -69.081470511 
0 -23.619926407 -76.57991643 0 -23.010477454 -79.443188155 0 -22.512345629 -82.311890436 
0 -22.130550417 -84.855570735 0 -21.913535417 -86.143803858 0 -21.636024257 -90.214448485 
0 -21.192201516 -91.134744804 0 -20.892436276 -92.823187827 0 -20.661371214 -94.326597569 
0 -20.554287039 -95.71037236 0 -20.218676698 -96.791094648 0 -20.252277649 -97.59213359 
0 -20.022597262 -98.23422377 0 -19.960044509 -98.706834658 0 -20.121501238 -99.349320058 
0 -19.898988722 -99.069292072 0 -19.946994801 -98.652991652 0 -19.943223241 -97.849125062 
0 -20.28438962 -96.889987913 0 -20.453260779 -95.74195939 0 -20.570699838 -94.563107105 
0 -20.827323321 -93.412652424 0 -21.056980904 -91.869252864 0 -21.282560236 -89.958319369 
0 -21.644171543 -87.804140467 0 -22.009570119 -85.910076067 0 -22.300783536 -83.810370346 
0 -23.290777203 -79.565945665 0 -23.253464267 -77.592534145 0 -23.903440288 -73.591670704 
0 -24.247133454 -70.417415357 0 -24.923998123 -67.027987078 0 -27.42105519 -60.946588435 
0 -30.251418595 -40.947411517 0 -31.968328048 -29.577216975 0 -27.876360773 -58.006886961 
0 -22.749026903 -88.315648426 0 -20.677877179 -99.577847438 0 -21.410161636 -99.037572495 
0 -21.378796362 -98.021065111 0 -23.93542919 -82.020578496 0 -24.194253071 -80.307011247 
0 -25.761162976 -71.357991972 0 -28.678664916 -58.207349087 0 -29.43994312 -52.385597777 
0 -29.440601382 -50.675508666 0 -29.980515013 -46.945255093 0 -30.35810384 -44.310117317 
0 -31.573350462 -38.714287791 0 -31.659268778 -36.567662409 0 -31.886134476 -34.774168603 
0 -32.368842517 -32.412959619 0 -32.732757696 -30.618033525 0 -32.752202774 -29.778550404 
0 -32.907310676 -29.528270598 0 -32.889561618 -29.468206986 0 -32.58261244 -29.723653207 
0 -32.547948437 -30.178671882 0 -32.520339883 -31.561549889 0 -32.308081947 -34.081440612 
0 -31.938808785 -34.82881426 0 -31.650127825 -36.748945777 0 -31.512932247 -40.888100897 
0 -30.787012364 -42.056652586 0 -30.370083399 -44.539013297 0 -30.168406332 -45.851333192 
0 -29.644341537 -49.067975176 0 -28.723707871 -55.27296554 0 -28.189443678 -61.191906116 
0 -27.175542965 -64.624712458 0 -26.19314417 -71.336641065 0 -25.511861804 -77.186527136 
0 -24.984041251 -78.813121943 0 -24.344817881 -82.527646398 0 -23.88962384 -85.150492716 
0 -23.316185637 -90.847974709 0 -22.734555088 -92.916086986 0 -22.394871583 -94.691881066 
0 -22.125499384 -97.086665779 0 -21.898015836 -98.794658303 0 -21.700250014 -99.363618317 
0 -21.656416749 -99.758041466 0 -21.728577391 -99.990318465 0 -21.698852286 -100.03980625 
0 -21.600403034 -99.734183746 0 -22.195081767 -97.980661463 0 -22.312334736 -95.407124396 
0 -22.463079805 -94.656212462 0 -22.781347169 -92.742065268 0 -23.299836158 -88.706837494 
0 -23.662770444 -86.769190171 0 -24.044529192 -84.654748238 0 -25.18985106 -79.835913585 
0 -25.722765659 -74.199944309 0 -26.961639885 -68.818609741 0 -27.068390383 -65.307350387 
0 -29.900666726 -53.627676402 0 -32.13882318 -40.795768975 0 -33.09767933 -33.74023424 
0 -33.36176106 -31.570309886 0 -33.710825627 -29.441670892 0 -33.454965019 -30.747037894 
0 -26.333859395 -76.14761159 0 -24.49719521 -89.043109145 0 -23.228814799 -96.049575564 
0 -22.80945461 -98.194950716 0 -22.466004741 -100.32097946 0 -22.685341622 -98.993507958 
0 -23.793008903 -89.810447209 0 -29.034623996 -63.871141281 0 -29.746518693 -62.407536346 
0 -29.316293939 -60.910702132 0 -29.699799018 -58.725479591 0 -30.510109288 -57.810725042 
0 -30.246588056 -56.280975572 0 -30.719115547 -53.676830805 0 -31.3532503 -52.725084216 
0 -31.547292662 -51.499948956 0 -31.303611059 -50.013756806 0 -32.217897251 -47.026963237 
0 -31.628350381 -47.712578573 0 -31.946716728 -45.548866792 0 -32.870557896 -42.890151062 
0 -32.271608589 -43.54773341 0 -33.032513084 -41.865627195 0 -33.259293933 -39.197288202 
0 -33.578317637 -38.474455696 0 -33.270660954 -37.339760489 0 -34.071268416 -35.278494224 
0 -33.526823083 -35.724510426 0 -34.183733583 -34.562875747 0 -34.295956589 -32.822601293 
0 -34.565860771 -32.395520367 0 -34.334162982 -31.722184671 0 -34.786194062 -30.731536426 
0 -34.440006819 -30.927827997 0 -34.363415524 -30.302535269 0 -34.862517947 -30.223318566 
0 -34.455629009 -29.737929443 0 -34.963243546 -29.631297193 0 -34.6669882 -29.503265819 
0 -35.149920454 -29.512813648 0 -34.972488149 -29.55179786 0 -34.66726046 -29.48469295 
0 -34.464770197 -29.628094874 0 -34.882200302 -30.179526398 0 -34.421099193 -29.974889981 
0 -34.839653291 -30.447978894 0 -34.471590871 -30.748626045 0 -34.905392702 -31.027730299 
0 -34.366637704 -31.442683788 0 -34.623715016 -31.842769033 0 -34.063044717 -32.429542707 
0 -34.279937781 -34.116625303 0 -33.908574191 -33.636112581 0 -34.175105744 -34.778508731 
0 -33.585021429 -35.461197151 0 -33.335437175 -36.772761527 0 -33.705173209 -37.489188083 
0 -32.941075323 -38.604341054 0 -33.152981012 -41.191871244 0 -32.678351281 -40.562297482 
0 -32.995470102 -42.186355987 0 -32.348860923 -43.16953166 0 -32.058829896 -44.930593094 
0 -32.392565623 -45.884760947 0 -31.697559851 -47.107489607 0 -31.372730919 -49.128233286 
0 -31.694938435 -50.153629693 0 -31.047520402 -51.520703477 0 -31.414774714 -52.377505041 
0 -30.510125662 -54.932640958 0 -30.715358612 -56.349178491 0 -29.746635699 -57.928093025 
0 -29.388042359 -60.586300735 0 -29.948010632 -61.537089026 0 -29.735272496 -62.888002221 
0 -29.013378236 -64.320270743 0 -28.895997442 -68.207686226 0 -28.551130392 -67.259498625 
0 -27.997673339 -70.88854131 0 -28.206106833 -72.357624031 0 -27.482764664 -73.731069694 
0 -27.127440025 -76.353777569 0 -27.436432144 -77.45490078 0 -27.242389781 -78.68003604 
0 -26.551376174 -80.018187012 0 -26.497944042 -83.14132647 0 -26.14911844 -82.307087535 
0 -25.783279118 -84.463280335 0 -25.840315937 -87.277351877 0 -25.473885416 -86.466868385 
0 -25.677749188 -88.301778882 0 -25.068868497 -90.909599205 0 -25.148910541 -91.695637517 
0 -24.505671546 -92.679725644 0 -24.630128183 -94.887507668 0 -24.250156488 -94.295078193 
0 -24.515950643 -95.602854932 0 -24.084906682 -97.292633107 0 -24.209625549 -97.782216184 
0 -23.781195684 -98.350997931 0 -23.904975646 -99.432845685 0 -23.636389444 -99.139183566 
0 -23.370320713 -99.710204278 0 -23.820516017 -99.939774971 0 -23.283548154 -100.27567186 
0 -23.733367089 -100.53394668 0 -23.412047642 -100.56416381 0 -23.874293951 -100.70431756 
0 -23.717592585 -100.61241177 0 -23.406567244 -100.58191179 0 -23.258301192 -100.38295553 
0 -23.682261369 -99.947552351 0 -23.180492024 -99.99968507 0 -23.724753141 -99.679091105 
0 -23.467610056 -99.279421131 0 -24.109869229 -99.187982978 0 -23.725710457 -98.626854308 
0 -24.09383865 -98.325791887 0 -23.741932546 -97.594480311 0 -24.4695473 -96.056993056 
0 -23.967872942 -96.399230151 0 -24.574379337 -95.395109628 0 -24.224138128 -94.563488276 
0 -24.392065077 -93.238990654 0 -24.965092923 -92.671883227 0 -24.636533076 -91.597676816 
0 -24.946791552 -89.925578943 0 -25.537469645 -89.249675243 0 -25.246421685 -87.931031071 
0 -25.779636486 -87.512446277 0 -25.642586974 -85.26647619 0 -26.300801245 -84.266923508 
0 -25.866720301 -82.626625185 0 -26.197617272 -80.583963657 0 -26.980401971 -79.972224661 
0 -26.787662392 -78.466835198 0 -27.388079996 -77.799318451 0 -27.317404709 -75.089704565 
0 -27.949784485 -73.811079641 0 -27.515551466 -72.010876195 0 -27.924666938 -69.74422904 
0 -28.75175569 -69.01221329 0 -28.546438502 -67.285151176 0 -29.108161642 -66.622092908 
0 -29.228629693 -65.861487569 0 -28.881483367 -68.200882441 0 -28.217614368 -70.742313766 
0 -28.089266115 -72.878601574 0 -27.678839618 -75.97952011 0 -27.502852169 -77.07467547 
0 -27.095302761 -79.2385342 0 -26.548149223 -81.440536809 0 -26.421650893 -83.453500399 
0 -26.017137219 -85.971646397 0 -25.871092822 -86.89695199 0 -25.629825794 -88.666561462 
0 -25.274154801 -90.736235326 0 -25.047826584 -92.054362806 0 -24.803053905 -93.816343649 
0 -24.644441056 -94.96064803 0 -24.529902398 -95.675925965 0 -24.298139862 -97.121507679 
0 -24.130759705 -97.964732393 0 -24.151646373 -98.976382923 0 -23.755326027 -99.4860615 
0 -23.705433885 -99.801068085 0 -23.749509994 -100.35727993 0 -23.72512668 -100.55144963 
0 -23.874293951 -100.70431756 0 -23.87381511 -100.70734085 0 -23.723072983 -100.59466379 
0 -23.765667918 -100.26730313 0 -23.793734861 -100.08581812 0 -23.87440276 -99.625875291 
0 -24.128998997 -99.100961229 0 -24.168986206 -98.88908172 0 -24.130194108 -98.136957259 
0 -24.257922507 -95.954953454 0 -24.560427581 -95.322038595 0 -24.840821559 -93.620673964 
0 -25.038368158 -92.307887938 0 -25.385396164 -88.856219338 0 -25.742903948 -87.890407919 
0 -26.109139125 -85.486555511 0 -26.359365041 -83.950051716 0 -26.776468361 -81.43675112 
0 -27.128055882 -79.413811738 0 -27.321659971 -78.179543761 0 -27.74089406 -75.144083394 
0 -28.037226001 -73.282361258 0 -28.595793404 -70.143115148 0 -28.765632441 -69.018955189 
0 -29.098339457 -66.589636573 0 -29.218807508 -65.829031233 0 -29.614804445 -63.648607561 
0 -29.820673964 -62.348798575 0 -30.022329848 -59.351516957 0 -30.559978076 -57.279140188 
0 -31.128838812 -54.198065614 0 -31.300002541 -53.102148022 0 -31.577492759 -50.886917083 
0 -31.972264213 -48.458153802 0 -32.247621474 -46.694271804 0 -32.626106336 -44.387732762 
0 -32.892252052 -42.799987402 0 -33.060624862 -41.774985024 0 -33.28128956 -39.620656545 
0 -33.595089639 -38.101325125 0 -33.904722664 -36.350668731 0 -34.107482381 -35.213356527 
0 -34.219582683 -34.497692394 0 -34.445872728 -33.051243923 0 -34.547255507 -32.197566251 
0 -34.879737114 -31.241883758 0 -34.809080405 -30.6410085 0 -34.858972547 -30.326001915 
0 -34.924003334 -29.804305681 0 -34.960815161 -29.612104468 0 -35.149920454 -29.512813648 
0 -35.150399296 -29.509790363 0 -34.972215889 -29.57037073 0 -34.911566073 -29.894871777 
0 -34.882177368 -30.076147444 0 -34.816766948 -30.538506821 0 -34.896694993 -31.116404324 
0 -34.869250719 -31.330270439 0 -34.599938002 -32.033595891 0 -34.047138671 -34.148275074 
0 -34.139256645 -34.843692084 0 -33.88017658 -36.548432507 0 -33.662381369 -37.858011468 
0 -32.925800359 -41.247980934 0 -32.967358324 -42.276998158 0 -32.572837429 -44.676370548 
0 -32.336010633 -46.214996556 0 -31.956046868 -48.734179479 0 -31.665303823 -50.766755679 
0 -31.468022473 -52.000441236 0 -30.928728946 -55.016886055 0 -30.635253591 -56.87906063 
0 -30.038295651 -59.619251264 0 -29.873230106 -61.595688712 0 -29.661117225 -62.946739992 
0 -29.399787385 -64.780840432 0 -26.196309167 -75.451607085 0 -22.897425286 -96.157225981 
0 -22.901664879 -98.552541191 0 -22.460524342 -100.33872744 0 -22.704635578 -98.771256843 
0 -23.110571395 -96.854076671 0 -24.295758074 -90.273679434 0 -27.032442982 -70.165915911 
0 -29.561938705 -54.223819623 0 -33.096330265 -33.548854536 0 -33.37566744 -31.226942178 
0 -33.711097886 -29.423098023 0 -33.440160624 -30.989819326 0 -33.233827684 -32.938568998 
0 -32.327512211 -39.563179585 0 -27.453683772 -67.170862726 0 -26.339628322 -72.515640123 
0 -25.320304901 -77.051706001 0 -25.66499539 -78.452475587 0 -24.699342811 -83.027600081 
0 -24.496453767 -85.668342616 0 -24.129644453 -87.711214133 0 -23.010690208 -90.804763971 
0 -23.526851132 -91.781337195 0 -23.279313475 -93.440231792 0 -23.174018724 -94.386100861 
0 -22.135626573 -96.794035798 0 -22.649866912 -97.5090126 0 -22.108199364 -99.666623212 
0 -22.181486893 -100.0929212 0 -22.255050504 -99.860927622 0 -22.306619303 -99.367306852 
0 -22.048662157 -97.723916076 0 -22.368501524 -95.540600158 0 -23.157256167 -94.10470456 
0 -23.492305395 -92.165512299 0 -23.746715125 -87.944491683 0 -24.333640319 -86.535747421 
0 -24.704008931 -84.058338505 0 -25.134955567 -81.701147843 0 -25.459081063 -79.980197161 
0 -25.98492689 -74.190403789 0 -26.520378124 -72.983556069 0 -26.703346672 -68.151329748 
0 -27.493549016 -66.801607586 0 -28.062584274 -63.353561236 0 -28.784246962 -57.084653766 
0 -29.261835219 -52.268058852 0 -30.013931592 -51.024161031 0 -30.399220761 -48.264486092 
0 -30.644988645 -46.811478915 0 -31.062991607 -44.131773364 0 -31.284455754 -42.886989096 
0 -31.940535714 -38.08880429 0 -32.339334445 -36.237510675 0 -32.531482802 -35.305397867 
0 -32.56199516 -32.71686762 0 -32.991411075 -32.182424449 0 -32.700404676 -30.536514081 
0 -33.198216462 -29.954964754 0 -33.346262035 -29.567367626 0 -33.353330878 -29.865687859 
0 -33.298320819 -30.199677807 0 -32.492646731 -31.783192652 0 -32.123364094 -33.958801895 
0 -32.428584424 -35.567841737 0 -32.147991811 -37.515659079 0 -31.085582739 -41.608705172 
0 -31.208455851 -43.129870441 0 -30.795135876 -45.600476529 0 -30.476578509 -47.975467903 
0 -30.253037167 -49.71234955 0 -28.964001721 -55.381265561 0 -29.100309651 -56.69450948 
0 -28.036519101 -61.823024603 0 -27.916449775 -63.751334346 0 -26.078217895 -69.298078372 
0 -21.753931265 -98.745207309 0 -22.519934551 -89.988561164 0 -24.611026336 -76.009741699 
0 -24.939752958 -74.223760149 0 -27.544676178 -60.086837413 0 -30.798367101 -40.074866674 
0 -31.024798312 -38.786706817 0 -31.535836214 -33.609123807 0 -31.695890453 -32.779083742 
0 -30.550497287 -39.285583525 0 -28.207387064 -53.235683227 0 -27.968126009 -55.035834731 
0 -27.789354785 -58.887438416 0 -25.850415472 -65.124429021 0 -25.117274237 -68.729962961 
0 -24.675868476 -71.880218294 0 -24.371872124 -74.753748568 0 -24.073886929 -76.488115612 
0 -22.79254177 -82.587395705 0 -22.788857336 -84.870701294 0 -22.43155865 -86.794970566 
0 -22.045575041 -88.773983433 0 -21.754502657 -90.885490193 0 -21.567664492 -92.749254715 
0 -21.274706128 -94.138605502 0 -21.074492621 -95.285722511 0 -20.929304181 -96.500171092 
0 -20.580000621 -97.606866473 0 -20.398249353 -98.555688885 0 -20.451110754 -99.202435797 
0 -20.565646396 -99.547925074 0 -19.999071937 -99.098855686 0 -20.494293755 -99.172995819 
0 -20.567367013 -98.794571001 0 -20.746876796 -98.230622539 0 -20.843552594 -97.499066309 
0 -20.952633502 -96.574274398 0 -21.18722853 -95.400402309 0 -21.279618105 -93.980907417 
0 -21.584988674 -92.345543903 0 -22.002021161 -87.467004278 0 -22.772707904 -84.422359708 
0 -23.270070514 -81.509331338 0 -23.731691189 -78.569326282 0 -24.313615479 -72.606978725 
0 -25.031555457 -70.926707361 0 -25.52593937 -67.476818052 0 -26.04585873 -63.97881687 
0 -26.536152002 -60.03667645 0 -27.082546601 -56.714430034 0 -27.56879517 -54.945931927 
0 -28.020743309 -51.996261582 0 -28.403808987 -48.769127407 0 -28.916606734 -45.927707826 
0 -29.235750074 -43.957659791 0 -29.514053315 -42.113124638 0 -29.685255205 -40.108426445 
0 -29.995506822 -38.114832834 0 -30.498068667 -36.367059633 0 -30.648648909 -34.95386007 
0 -30.671060504 -33.616958279 0 -30.877452863 -32.365188741 0 -31.308586434 -31.430907794 
0 -31.435937285 -30.673156063 0 -31.336308644 -29.808178456 0 -31.653487539 -29.572017988 
0 -31.156400463 -29.823264692 0 -31.466566028 -29.975574309 0 -31.469690877 -30.715878681 
0 -31.277037029 -31.624638153 0 -31.095043132 -32.537837292 0 -30.958707394 -33.731938507 
0 -30.605762448 -35.105712448 0 -30.38965864 -36.755045569 0 -29.278728453 -41.523682594 
0 -29.070848188 -44.657466954 0 -28.643692867 -47.581615066 0 -28.174208692 -50.520374665 
0 -26.727277401 -55.96618836 0 -26.816659326 -58.527547699 0 -26.250587354 -61.654216798 
0 -22.300564169 -80.280469325 0 -20.913082118 -89.040775601 0 -30.381199852 -30.369869939 
0 -30.285112812 -29.868000471 0 -28.729407964 -39.690436452 0 -23.884979437 -67.078762534 
0 -23.193254997 -70.929656371 0 -22.683350653 -74.061616981 0 -22.057371687 -77.349108755 
0 -21.204391379 -82.277363284 0 -21.265269848 -83.712931129 0 -20.716492503 -85.784762498 
0 -20.562532246 -88.0557153 0 -20.155867543 -90.13752007 0 -19.903510083 -91.811932567 
0 -19.693844805 -93.12952727 0 -19.506802548 -94.434162952 0 -19.412939264 -95.195280248 
0 -19.23215551 -96.309175922 0 -19.063631969 -97.277418172 0 -18.925195729 -98.10269605 
0 -18.897180448 -98.391873011 0 -18.96630013 -98.625346852 0 -18.62171298 -98.118968582 
0 -18.915135544 -98.086310792 0 -18.995118466 -97.477284023 0 -19.084425304 -96.807600834 
0 -19.211641037 -96.010559297 0 -19.501780565 -94.804838011 0 -19.677636373 -93.801754636 
0 -19.951684388 -92.024177756 0 -20.228032166 -90.410476637 0 -20.381087599 -86.802849757 
0 -20.83671819 -85.74606356 0 -21.218366225 -83.451703104 0 -21.625991525 -81.015213171 
0 -22.12665302 -78.232339241 0 -22.86017303 -75.246552222 0 -23.22513548 -73.059596066 
0 -23.565790877 -68.766423121 0 -24.202068343 -64.859454454 0 -24.724462495 -59.774381438 
0 -25.509134438 -56.511918182 0 -26.066855986 -53.112346744 0 -26.566815366 -50.095985024 
0 -26.911358714 -46.899265357 0 -27.407943161 -44.531662067 0 -27.712406949 -42.463643818 
0 -27.962419532 -41.084602511 0 -28.446085769 -38.702251816 0 -28.719375302 -36.853212718 
0 -28.892935314 -35.285859244 0 -29.065238787 -34.35031413 0 -29.369519906 -32.824880461 
0 -29.265863147 -31.87083107 0 -29.616959543 -31.042090228 0 -29.223073643 -30.367325589 
0 -29.784290329 -29.994440748 0 -29.137231673 -30.409554273 0 -29.418252501 -30.717927145 
0 -29.403907904 -31.668056593 0 -29.301495402 -32.621953538 0 -29.216300049 -33.355309891 
0 -29.040135883 -34.947532295 0 -28.736986355 -36.555964155 0 -28.50114764 -38.176081279 
0 -27.534864649 -41.666450192 0 -27.641630197 -42.812311187 0 -27.292630827 -45.100293004 
0 -26.927369276 -47.543516456 0 -26.54359196 -50.344884316 0 -26.337661388 -53.033277633 
0 -24.888218079 -60.342023162 0 -24.348929135 -63.678714057 0 -22.797689592 -65.609876347 
0 -20.638618751 -79.770861488 0 -20.540373762 -81.63041491 0 -19.20983918 -87.044978669 
0 -17.848430302 -97.735578571 0 -18.651106963 -91.861818989 0 -19.051067014 -89.652300172 
0 -19.409201787 -88.574907786 0 -20.927462666 -77.535644166 0 -21.369161266 -75.505383449 
0 -22.685761375 -65.826089522 0 -23.626193652 -62.339270512 0 -25.262057875 -50.253722746 
0 -26.844230241 -39.827853161 0 -27.195293459 -38.251392068 0 -27.53980302 -35.682910227 
0 -27.833415179 -33.865326344 0 -27.971131338 -31.724590448 0 -28.506125688 -30.978044545 
0 -28.212676497 -30.577623295 0 -28.616629609 -30.407175775 0 -27.681644125 -34.603219207 
0 -27.462251118 -36.470471736 0 -27.149618953 -38.529708287 0 -27.157292805 -39.665039067 
0 -25.189744412 -50.636773265 0 -25.013733612 -52.316944394 0 -24.733079551 -55.548330939 
0 -21.607758009 -70.863416866 0 -21.443846835 -72.72343695 0 -19.963897563 -79.129593048 
0 -18.678758216 -87.884487229 0 -18.80047158 -88.909784058 0 -18.467808066 -90.635050363 
0 -18.32055153 -92.317879591 0 -18.197152447 -93.214533859 0 -17.953032662 -94.667426433 
0 -17.675476852 -95.646864105 0 -17.549461931 -96.510902476 0 -17.519410748 -96.873313957 
0 -17.328146788 -97.022099658 0 -17.665859133 -96.654483022 0 -17.627652625 -95.694154642 
0 -17.762669351 -94.906503458 0 -18.238936403 -93.784490011 0 -19.009024181 -86.271804591 
0 -19.702261593 -83.564802796 0 -20.20967816 -80.520957283 0 -23.843286633 -56.815506874 
0 -24.516216973 -53.484894885 0 -24.956795478 -47.585770808 0 -25.823551457 -44.78249844 
0 -26.072327887 -43.347076665 0 -27.516267554 -32.407894645 0 -27.707588686 -33.202157319 
0 -26.067973915 -41.743773817 0 -25.888650021 -44.536241838 0 -25.427071887 -47.576297266 
0 -23.206247218 -58.895779034 0 -23.087709217 -62.209935346 0 -21.537761814 -67.862079906 
0 -21.075766555 -69.898821461 0 -20.050388699 -73.140404844 0 -19.209289648 -79.848414812 
0 -19.050359706 -82.140300667 0 -18.732485866 -84.702459612 0 -18.553524266 -85.974423788 
0 -17.167221 -91.222827238 0 -16.976709096 -93.120690788 0 -16.455964503 -96.063484862 
0 -16.618209132 -96.491177478 0 -16.641726394 -96.352948113 0 -16.637804714 -95.829829475 
0 -17.045908738 -93.009010474 0 -17.633130921 -91.442122324 0 -18.019010864 -89.250511184 
0 -18.211744355 -86.520990293 0 -18.490706432 -83.779562669 0 -18.920490579 -81.077427037 
0 -19.700255206 -77.026452432 0 -20.26076333 -73.608074269 0 -21.29569548 -65.804659054 
0 -22.173020905 -62.539787588 0 -22.839467242 -59.68255674 0 -22.990258921 -57.924356053 
0 -23.072080827 -54.731993325 0 -23.818658014 -51.070815997 0 -24.360627293 -45.608805858 
0 -24.96208091 -42.810825702 0 -25.517313971 -40.248376095 0 -26.091548671 -37.952892116 
0 -26.408151518 -36.070998352 0 -26.522145345 -34.562060655 0 -27.016244127 -33.18872392 
0 -27.030362083 -32.337190666 0 -26.963236257 -31.788447542 0 -27.245884548 -31.262964297 
0 -27.290980209 -31.105054265 0 -27.312383264 -31.179074929 0 -27.304823809 -31.536327718 
0 -27.295890081 -31.808322417 0 -26.293568283 -33.69296214 0 -26.342932797 -34.825422756 
0 -26.208202591 -36.551622691 0 -25.914641344 -38.689019686 0 -25.386980903 -41.269670198 
0 -24.813234364 -43.925043581 0 -24.387002628 -46.63289106 0 -23.868436205 -50.729728623 
0 -23.460805028 -54.288507772 0 -21.951443191 -61.32353546 0 -21.727495884 -64.378898911 
0 -20.297860073 -67.478784802 0 -19.257820708 -74.646993305 0 -19.174202397 -76.770287043 
0 -17.326633165 -86.739010375 0 -17.209104712 -88.965666595 0 -16.251625043 -93.8046508 
0 -16.339730188 -94.731532017 0 -16.161992235 -94.239211871 0 -16.448921253 -93.849915791 
0 -16.497640159 -91.088824259 0 -16.89504942 -89.270856466 0 -19.860128456 -71.434543236 
0 -20.980185564 -62.961162848 0 -21.570576052 -59.734757449 0 -22.481856229 -52.503189497 
0 -23.326220324 -48.820497134 0 -24.791405286 -38.821957914 0 -25.147433185 -37.39277677 
0 -25.494514248 -34.307345317 0 -25.834805346 -32.105588908 0 -25.817084782 -33.096849461 
0 -21.806712633 -58.687119866 0 -19.284470387 -70.921094447 0 -18.141177268 -78.353569222 
0 -17.924859397 -81.331485058 0 -17.630259647 -83.07209464 0 -16.228997785 -90.107252393 
0 -16.139796917 -92.074705632 0 -15.516455595 -94.810369087 0 -15.656341044 -95.228006631 
0 -15.666865841 -95.139007219 0 -15.749921529 -94.7413887 0 -15.670981091 -93.934299137 
0 -15.924702528 -92.257697184 0 -16.810266236 -86.449933781 0 -17.429650867 -83.978309023 
0 -17.684885814 -81.363284667 0 -18.206685022 -79.028884141 0 -18.610417686 -76.458825669 
0 -19.055544589 -73.920352762 0 -20.460883942 -66.174391129 0 -21.555301251 -56.421235177 
0 -23.146837309 -46.415751548 0 -23.840215028 -43.502335794 0 -24.103335895 -41.916247365 
0 -25.527169398 -32.970872806 0 -25.633964026 -32.416694803 0 -25.655451938 -32.167044644 
0 -25.321454464 -32.78167316 0 -25.062111982 -34.298336459 0 -25.105237423 -35.341461057 
0 -24.889657019 -36.893082204 0 -24.628593001 -38.57003993 0 -24.290115765 -40.77584454 
0 -23.867321517 -43.403497907 0 -23.458692703 -46.051073023 0 -23.186645813 -47.683725013 
0 -22.722940815 -50.494793791 0 -22.311941122 -53.531992388 0 -22.032406995 -55.401574288 
0 -20.92377146 -60.642660456 0 -20.729212953 -63.922364624 0 -19.466997522 -66.601651298 
0 -18.806405508 -70.281072046 0 -18.179543908 -74.227697267 0 -17.67585484 -77.437295349 
0 -17.116999506 -80.432266794 0 -16.631352369 -83.39221494 0 -16.321019753 -85.867243202 
0 -16.197819704 -87.207660159 0 -15.833335524 -89.057940663 0 -15.466712771 -90.698690422 
0 -15.362401687 -92.256593006 0 -15.289327275 -93.459435758 0 -15.068843199 -94.010303958 
0 -14.95181691 -93.976121513 0 -15.017724232 -93.587041894 0 -15.242769646 -92.879297738 
0 -15.419232364 -91.719995215 0 -15.634620282 -90.159617494 0 -15.994493766 -88.464277402 
0 -16.28640268 -86.079767491 0 -16.654282213 -83.202919241 0 -17.331209275 -78.019562091 
0 -17.736735136 -76.466767147 0 -18.208118687 -73.417343485 0 -18.742867572 -70.507260752 
0 -19.272861706 -67.087260945 0 -19.878453856 -63.42030333 0 -20.527904219 -59.839713821 
0 -20.801051351 -57.527925806 0 -21.485285714 -53.077962953 0 -22.116287709 -49.807824828 
0 -22.465700395 -47.069366814 0 -22.780222751 -44.398746564 0 -23.480163547 -39.723634356 
0 -24.055359667 -37.501382877 0 -24.273892992 -35.709884861 0 -24.42975221 -34.333005138 
0 -24.506937118 -33.532681614 0 -24.56352509 -33.262733024 0 -24.683955779 -33.044560922 
0 -24.647382995 -33.297497368 0 -24.544707256 -33.912237438 0 -24.406219963 -34.771456059 
0 -24.096996658 -36.057588506 0 -23.844665683 -37.690528981 0 -23.596998852 -39.427664902 
0 -23.391251548 -40.741194049 0 -22.891502005 -43.865972727 0 -22.477851864 -46.489288669 
0 -22.018298447 -49.328192763 0 -21.493588227 -52.752816345 0 -21.017295582 -56.658539222 
0 -20.40851007 -60.129967423 0 -19.914771153 -63.132641958 0 -23.774842727 -36.898805286 
0 -18.174615102 -67.325802323 0 -17.698556829 -70.361891274 0 -17.09677239 -74.192115967 
0 -17.058335134 -75.910051007 0 -16.579071017 -77.421121612 0 -15.679490728 -83.024545863 
0 -15.652655119 -84.650040529 0 -15.277132363 -85.628406824 0 -15.29937031 -86.98916018 
0 -15.020897316 -88.686503939 0 -14.699581764 -89.213081884 0 -14.757571636 -90.292463093 
0 -14.480059766 -90.660797457 0 -14.330006013 -91.686084978 0 -14.224977478 -92.239480002 
0 -14.304228614 -91.797994493 0 -14.592574881 -89.930614426 0 -14.881773857 -89.524803054 
0 -14.863357627 -88.205241924 0 -15.173952821 -87.709539222 0 -15.204847441 -86.103398983 
0 -15.506962478 -84.20241867 0 -15.940466155 -81.416686642 0 -16.459907134 -80.310796013 
0 -16.534429805 -78.39163535 0 -17.44945589 -71.922318723 0 -17.916701349 -70.453550829 
0 -18.005733182 -68.438824815 0 -18.929659994 -63.955172917 0 -19.053011744 -61.789310891 
0 -19.555659467 -60.077167512 0 -19.661746553 -57.938926418 0 -20.147948205 -56.311339612 
0 -20.25149849 -54.211676486 0 -20.638826197 -51.848067411 0 -21.274819386 -47.744770999 
0 -21.708392467 -44.934341384 0 -22.352085585 -42.977061548 0 -22.476013765 -40.258851011 
0 -22.928011156 -38.997323186 0 -22.793775564 -38.306782553 0 -23.020598202 -36.676775241 
0 -23.166798978 -35.66996667 0 -23.317631756 -34.798174395 0 -23.376402128 -34.529793926 
0 -23.236268936 -35.325132312 0 -23.246093023 -36.773329043 0 -22.980777844 -38.421037283 
0 -22.596415366 -39.411165437 0 -22.707673563 -40.166991778 0 -22.24332467 -41.651472919 
0 -22.336858145 -42.511037168 0 -21.508976155 -46.290648269 0 -20.898634451 -50.104536407 
0 -20.868839109 -51.662061004 0 -20.347107325 -53.520079388 0 -20.352913837 -55.104724562 
0 -19.353842799 -59.808860934 0 -19.288517411 -61.703902612 0 -49.166104288 -69.555016464 
0 -39.269677503 -68.767262051 0 -38.934575338 -70.875276387 0 -48.840261748 -71.61230529 
0 -48.417929485 -74.242966203 0 -38.751201095 -71.997215735 0 -48.111436572 -76.21392635 
0 -38.201067724 -75.530184321 0 -38.03459842 -76.581230143 0 -47.711911015 -78.736431439 
0 -47.404249331 -80.678930863 0 -37.515177028 -79.844742082 0 -37.210791851 -81.774789877 
0 -47.101651375 -82.589459169 0 -46.713959954 -84.983620448 0 -37.040176389 -82.798387496 
0 -46.446789227 -86.724096047 0 -36.55294341 -85.916828485 0 -36.40251598 -86.828528196 
0 -46.094436128 -88.910704254 0 -45.842118633 -90.541835923 0 -35.971925724 -89.588447344 
0 -35.725189177 -91.146280586 0 -45.593504061 -92.111526559 0 -45.279730969 -94.022157518 
0 -35.584492385 -91.964150801 0 -35.219822263 -94.361747979 0 -45.079061546 -95.359588765 
0 -35.04105397 -95.498337248 0 -44.884794482 -96.610849005 0 -44.638271936 -98.142624836 
0 -34.79655993 -97.009414906 0 -34.632581694 -98.04473274 0 -44.468895525 -99.212025401 
0 -44.261960422 -100.44278355 0 -34.537088824 -98.571872321 0 -34.329686665 -100.00930714 
0 -44.147079159 -101.24389397 0 -34.234389429 -100.61099021 0 -44.044301528 -101.94497685 
0 -34.192612285 -100.82259026 0 -43.914903139 -102.70979567 0 -34.108371519 -101.35446553 
0 -34.042839277 -101.76839857 0 -43.841970527 -103.17027406 0 -43.772690194 -103.59429913 
0 -34.012012324 -101.94963856 0 -33.961756867 -102.28015401 0 -43.745437991 -103.77975651 
0 -33.957381991 -102.30777589 0 -43.733819566 -103.85311235 0 -33.957860832 -102.3047526 
0 -43.745437991 -103.77975651 0 -33.979773364 -102.17067964 0 -33.995750784 -102.04675575 
0 -43.784550712 -103.50976208 0 -43.841970527 -103.17027406 0 -34.089052264 -101.4764425 
0 -34.169517291 -100.96840631 0 -43.914903139 -102.70979567 0 -44.042511592 -101.9446974 
0 -34.232599493 -100.61071075 0 -44.147079159 -101.24389397 0 -34.452559068 -99.36870996 
0 -34.327840201 -98.879126884 0 -44.119887225 -100.13855007 0 -44.468895525 -99.212025401 
0 -34.752082991 -97.290231243 0 -34.932013804 -96.159734156 0 -44.638271936 -98.142624836 
0 -44.882592021 -96.61051837 0 -35.038490391 -95.497937284 0 -45.079061546 -95.359588765 
0 -35.406293153 -93.255867399 0 -35.410101771 -91.94041684 0 -45.30533723 -94.027096882 
0 -45.593504061 -92.111526559 0 -35.906770964 -89.999818307 0 -36.16357189 -88.380420129 
0 -45.842118633 -90.541835923 0 -46.185170458 -88.396205994 0 -36.313534191 -87.453909468 
0 -36.798510638 -84.45613777 0 -46.446789227 -86.724096047 0 -37.062390536 -82.801965528 
0 -46.735607211 -84.987113244 0 -47.101651375 -82.589459169 0 -37.435906839 -80.345234362 
0 -37.743062771 -78.405928129 0 -47.404249331 -80.678930863 0 -47.793034554 -78.134541676 
0 -37.903186223 -77.30525254 0 -38.471592612 -73.858010225 0 -48.111436572 -76.21392635 
0 -38.764098977 -71.99937446 0 -48.431464691 -74.245186815 0 -48.840261748 -71.61230529 
0 -39.184276035 -69.306465697 0 -39.510613605 -67.246051372 0 -49.166104288 -69.555016464 
0 -49.578198082 -66.953158647 0 -39.922707399 -64.644193555 0 -40.255418555 -62.53580052 
0 -49.904040621 -64.895869821 0 -50.315297698 -62.263454771 0 -40.427717612 -61.412107036 
0 -50.632865797 -60.294248762 0 -40.996140898 -57.882033517 0 -41.162610202 -56.830987696 
0 -51.032391354 -57.771743672 0 -51.340053038 -55.829244249 0 -41.677207874 -53.566713524 
0 -41.984137937 -51.637068799 0 -51.642650995 -53.918715942 0 -52.012735746 -51.521763513 
0 -42.13714673 -50.61068003 0 -52.297513142 -49.784079065 0 -42.645929324 -47.495748222 
0 -42.78459504 -46.582185639 0 -52.638104528 -47.595607985 0 -52.902183736 -45.966339188 
0 -43.220459179 -43.823008262 0 -43.467195725 -42.26517502 0 -53.150798309 -44.396648553 
0 -53.444856148 -42.481843425 0 -43.588177266 -41.443130637 0 -43.980197297 -39.050916838 
0 -53.665240824 -41.148586346 0 -44.161403947 -37.914713767 0 -53.867142545 -39.898535317 
0 -54.106030434 -38.365550276 0 -44.395824973 -36.4020407 0 -44.559803208 -35.366722866 
0 -54.275406844 -37.29614971 0 -54.458925051 -36.061682685 0 -44.631879181 -34.835874413 
0 -44.878819795 -33.404701866 0 -54.59722321 -35.264281139 0 -44.97411703 -32.803018802 
0 -54.716122398 -34.565751666 0 -44.999772618 -32.588865343 0 -54.829399543 -33.798377466 
0 -45.084013696 -32.056988108 0 -45.149600863 -31.643065783 0 -54.902332155 -33.337899081 
0 -54.967473283 -32.913220444 0 -45.176288924 -31.461170261 0 -45.230628036 -31.131301597 
0 -54.998864379 -32.728418604 0 -55.010482803 -32.655062757 0 -45.235002911 -31.10367972 
0 -45.23452407 -31.106703005 0 -54.998864379 -32.728418604 0 -45.213933301 -31.240985315 
0 -45.190834145 -31.363781226 0 -54.952629922 -32.997285056 0 -54.902331842 -33.337901053 
0 -45.103332639 -31.935013102 0 -45.022867611 -32.443049292 0 -54.829399231 -33.798379439 
0 -54.714333712 -34.565464321 0 -44.972328344 -32.802731458 0 -54.59722321 -35.264281139 
0 -44.797722978 -34.051915653 0 -44.527818796 -34.478996579 0 -54.229792096 -36.307122886 
0 -54.275406844 -37.29614971 0 -44.440301911 -36.121224363 0 -44.262083471 -37.251992664 
0 -54.106030434 -38.365550276 0 -53.864945708 -39.898169172 0 -44.158842243 -37.914301966 
0 -53.665240824 -41.148586346 0 -43.815805759 -40.160294444 0 -43.412931393 -41.412539197 
0 -53.46867915 -42.485784466 0 -53.150798309 -44.396648553 0 -43.285613939 -43.411637299 
0 -43.029424575 -45.031132339 0 -52.902183736 -45.966339188 0 -52.565409297 -48.112963357 
0 -42.885739659 -45.95863724 0 -42.420617269 -48.959553512 0 -52.297513142 -49.784079065 
0 -42.160414632 -50.614308175 0 -52.035438163 -51.525297543 0 -51.642650995 -53.918715942 
0 -41.756478064 -53.066221244 0 -41.449322131 -55.005527477 0 -51.340053038 -55.829244249 
0 -50.923550258 -58.369243406 0 -41.261481122 -56.101813036 0 -40.736811263 -59.555982537 
0 -50.632865797 -60.294248762 0 -40.44065131 -61.414039631 0 -50.328856651 -62.265525452 
0 -49.904040621 -64.895869821 0 -40.008108867 -64.104989909 0 -39.681771297 -66.165404235 
0 -49.578198082 -66.953158647 0 -39.922707399 -64.644193555 0 -40.2547933 -62.535662435 
0 -40.979463617 -57.882401484 0 -41.677207874 -53.566713524 0 -41.984703422 -51.637162913 
0 -42.641800973 -47.496826429 0 -43.220459179 -43.823008262 0 -43.26812685 -42.230642539 
0 -43.97800046 -39.050550692 0 -44.395824973 -36.4020407 0 -44.362853198 -35.333189285 
0 -44.877031108 -33.404414522 0 -44.999772618 -32.588865343 0 -45.084013383 -32.056990081 
0 -45.14603253 -31.642370179 0 -45.230628036 -31.131301597 0 -45.23452407 -31.106703005 
0 -45.211232657 -31.240365459 0 -45.103332951 -31.935011129 0 -45.022867611 -32.443049292 
0 -44.757129387 -34.045075739 0 -44.440301911 -36.121224363 0 -44.262448337 -37.252038319 
0 -43.791982758 -40.156353403 0 -43.285613939 -43.411637299 0 -43.023006953 -45.03161085 
0 -42.397914852 -48.956019482 0 -41.756478064 -53.066221244 0 -41.449322131 -55.005527477 
0 -40.72325231 -59.553911856 0 -40.008108867 -64.104989909 0 -39.681771297 -66.165404235 
0 -39.269677503 -68.767262051 0 -38.933938014 -70.8752145 0 -38.185203728 -75.524664093 
0 -37.515177028 -79.844742082 0 -37.211358742 -81.774875114 0 -36.556861314 -85.915623418 
0 -35.971925724 -89.588447344 0 -35.525192304 -91.117607262 0 -35.217619801 -94.361417344 
0 -34.79655993 -97.009414906 0 -34.434908656 -98.015764171 0 -34.327896728 -100.00902769 
0 -34.192612285 -100.82259026 0 -34.108371519 -101.35446553 0 -34.039230637 -101.76795746 
0 -33.961756867 -102.28015401 0 -33.957860832 -102.3047526 0 -33.977013353 -102.17043461 
0 -34.089052264 -101.4764425 0 -34.169517291 -100.96840631 0 -34.411838619 -99.362670995 
0 -34.752082991 -97.290231243 0 -34.932374921 -96.159803485 0 -35.380686893 -93.250928034 
0 -35.906770964 -89.999818307 0 -36.157616236 -88.377981884 0 -36.776863381 -84.452644974 
0 -37.435906839 -80.345234362 0 -37.743062771 -78.405928129 0 -38.458057406 -73.855789613 
0 -39.184276035 -69.306465697 0 -39.510613605 -67.246051372 0 -60.620309597 -60.507344359 
0 -60.381351576 -62.016065924 0 -60.144858524 -63.50922429 0 -59.911802271 -64.980683558 
0 -59.683140501 -66.424397156 0 -59.459812734 -67.834433183 0 -59.242736776 -69.204996844 
0 -59.032804693 -70.530455852 0 -58.830879024 -71.805364348 0 -58.637789501 -73.024483617 
0 -58.454329688 -74.182803289 0 -58.281253389 -75.275564034 0 -58.119271757 -76.298275805 
0 -57.969050563 -77.246735101 0 -57.831207065 -78.117044695 0 -57.706307593 -78.905628923 
0 -57.594865359 -79.609247496 0 -57.497338426 -80.225008317 0 -57.414127521 -80.750381297 
0 -57.345574628 -81.183207227 0 -57.291961272 -81.521708633 0 -57.253507892 -81.76449372 
0 -57.230372592 -81.91056426 0 -57.222650201 -81.959321514 0 -57.230372592 -81.91056426 
0 -57.253507892 -81.76449372 0 -57.291961272 -81.521708633 0 -57.345574628 -81.183207227 
0 -57.414127521 -80.750381297 0 -57.497338426 -80.225008317 0 -57.594865359 -79.609247496 
0 -57.706307593 -78.905628923 0 -57.831207065 -78.117044695 0 -57.969050563 -77.246735101 
0 -58.119271757 -76.298275805 0 -58.281253389 -75.275564034 0 -58.454329688 -74.182803289 
0 -58.637789501 -73.024483617 0 -58.830879024 -71.805364348 0 -59.032804693 -70.530455852 
0 -59.242736776 -69.204996844 0 -59.459812734 -67.834433183 0 -59.683140501 -66.424397156 
0 -59.911802271 -64.980683558 0 -60.144858524 -63.50922429 0 -60.381351576 -62.016065924 
0 -60.620309597 -60.507344359 0 -60.860750668 -58.989259179 0 -61.10168677 -57.468048499 
0 -61.342127842 -55.949963319 0 -61.581085863 -54.441241754 0 -61.817578915 -52.948083387 
0 -62.050635168 -51.47662412 0 -62.279296938 -50.032910521 0 -62.502624705 -48.622874495 
0 -62.719700663 -47.252310834 0 -62.929632746 -45.926851826 0 -63.131558415 -44.651943329 
0 -63.324647938 -43.432824061 0 -63.508107751 -42.274504388 0 -63.68118405 -41.181743643 
0 -63.843165681 -40.159031872 0 -63.993386876 -39.210572577 0 -64.131230374 -38.340262983 
0 -64.256129846 -37.551678754 0 -64.36757208 -36.848060182 0 -64.465099013 -36.23229936 
0 -64.548309918 -35.706926381 0 -64.616862811 -35.274100451 0 -64.670476167 -34.935599044 
0 -64.708929547 -34.692813958 0 -64.732064847 -34.546743418 0 -64.739787238 -34.497986163 
0 -64.732064847 -34.546743418 0 -64.708929547 -34.692813958 0 -64.548309918 -35.706926381 
0 -64.465099013 -36.23229936 0 -64.36757208 -36.848060182 0 -64.256129846 -37.551678754 
0 -64.131230374 -38.340262983 0 -63.993386876 -39.210572577 0 -63.843165681 -40.159031872 
0 -63.68118405 -41.181743643 0 -63.508107751 -42.274504388 0 -63.324647938 -43.432824061 
0 -63.131558415 -44.651943329 0 -62.929632746 -45.926851826 0 -62.719700663 -47.252310834 
0 -62.502624705 -48.622874495 0 -62.279296938 -50.032910521 0 -62.050635168 -51.47662412 
0 -61.817578915 -52.948083387 0 -61.581085863 -54.441241754 0 -61.342127842 -55.949963319 
0 -61.10168677 -57.468048499 0 -60.860750668 -58.989259179 
