# vtk DataFile Version 4.2
Generated by LIGGGHTS
ASCII
DATASET POLYDATA
POINTS 17232 float
-5.88785 -5.13741 9.50821 5.88488 -5.01609 9.65026 5.86119 -4.77394 9.93379 
5.86119 -4.77394 9.93379 5.81389 -4.53324 10.2156 -5.88785 -5.13741 9.50821 
5.81389 -4.53324 10.2156 5.74318 -4.29498 10.4946 -5.88785 -5.13741 9.50821 
5.74318 -4.29498 10.4946 5.64935 -4.06011 10.7696 -5.88785 -5.13741 9.50821 
5.64935 -4.06011 10.7696 5.53277 -3.82958 11.0395 -5.88785 -5.13741 9.50821 
5.53277 -3.82958 11.0395 5.39391 -3.60432 11.3032 -5.88785 -5.13741 9.50821 
5.39391 -3.60432 11.3032 5.23333 -3.38523 11.5598 -5.88785 -5.13741 9.50821 
5.23333 -3.38523 11.5598 5.05167 -3.17319 11.808 -5.88785 -5.13741 9.50821 
5.05167 -3.17319 11.808 4.84968 -2.96906 12.047 -5.88785 -5.13741 9.50821 
4.84968 -2.96906 12.047 4.62816 -2.77367 12.2758 -5.88785 -5.13741 9.50821 
4.62816 -2.77367 12.2758 4.388 -2.58779 12.4934 -5.88785 -5.13741 9.50821 
4.388 -2.58779 12.4934 4.13018 -2.41218 12.699 -5.88785 -5.13741 9.50821 
4.13018 -2.41218 12.699 3.85572 -2.24754 12.8918 -5.88785 -5.13741 9.50821 
3.85572 -2.24754 12.8918 3.56574 -2.09454 13.071 -5.88785 -5.13741 9.50821 
3.56574 -2.09454 13.071 3.2614 -1.95379 13.2358 -5.88785 -5.13741 9.50821 
3.2614 -1.95379 13.2358 2.94392 -1.82586 13.3855 -5.88785 -5.13741 9.50821 
2.94392 -1.82586 13.3855 2.6146 -1.71127 13.5197 -5.88785 -5.13741 9.50821 
2.6146 -1.71127 13.5197 2.27474 -1.61047 13.6377 -5.88785 -5.13741 9.50821 
2.27474 -1.61047 13.6377 1.92573 -1.52387 13.7391 -5.88785 -5.13741 9.50821 
1.92573 -1.52387 13.7391 1.56896 -1.45183 13.8235 -5.88785 -5.13741 9.50821 
1.56896 -1.45183 13.8235 1.20587 -1.39462 13.8905 -5.88785 -5.13741 9.50821 
1.20587 -1.39462 13.8905 0.837928 -1.35249 13.9398 -5.88785 -5.13741 9.50821 
0.837928 -1.35249 13.9398 0.466612 -1.32559 13.9713 -5.88785 -5.13741 9.50821 
0.466612 -1.32559 13.9713 0.0934164 -1.31405 13.9848 -5.88785 -5.13741 9.50821 
0.0934164 -1.31405 13.9848 -0.280155 -1.3179 13.9803 -5.88785 -5.13741 9.50821 
-0.280155 -1.3179 13.9803 -0.652598 -1.33713 13.9578 -5.88785 -5.13741 9.50821 
-0.652598 -1.33713 13.9578 -1.02241 -1.37166 13.9173 -5.88785 -5.13741 9.50821 
-1.02241 -1.37166 13.9173 -1.38811 -1.42135 13.8592 -5.88785 -5.13741 9.50821 
-1.38811 -1.42135 13.8592 -1.74822 -1.48601 13.7835 -5.88785 -5.13741 9.50821 
-1.74822 -1.48601 13.7835 -2.10129 -1.56537 13.6905 -5.88785 -5.13741 9.50821 
-2.10129 -1.56537 13.6905 -2.4459 -1.65912 13.5808 -5.88785 -5.13741 9.50821 
-2.4459 -1.65912 13.5808 -2.78066 -1.76687 13.4546 -5.88785 -5.13741 9.50821 
-2.78066 -1.76687 13.4546 -3.10422 -1.88819 13.3126 -5.88785 -5.13741 9.50821 
-3.10422 -1.88819 13.3126 -3.41529 -2.0226 13.1552 -5.88785 -5.13741 9.50821 
-3.41529 -2.0226 13.1552 -3.7126 -2.16955 12.9831 -5.88785 -5.13741 9.50821 
-3.7126 -2.16955 12.9831 -3.99496 -2.32845 12.7971 -5.88785 -5.13741 9.50821 
-3.99496 -2.32845 12.7971 -4.26124 -2.49866 12.5978 -5.88785 -5.13741 9.50821 
-4.26124 -2.49866 12.5978 -4.51035 -2.67949 12.3861 -5.88785 -5.13741 9.50821 
-4.51035 -2.67949 12.3861 -4.74131 -2.87023 12.1627 -5.88785 -5.13741 9.50821 
-4.74131 -2.87023 12.1627 -4.95317 -3.07009 11.9287 -5.88785 -5.13741 9.50821 
-4.95317 -3.07009 11.9287 -5.14509 -3.27827 11.685 -5.88785 -5.13741 9.50821 
-5.14509 -3.27827 11.685 -5.31629 -3.49395 11.4325 -5.88785 -5.13741 9.50821 
-5.31629 -3.49395 11.4325 -5.46609 -3.71623 11.1722 -5.88785 -5.13741 9.50821 
-5.46609 -3.71623 11.1722 -5.59387 -3.94425 10.9052 -5.88785 -5.13741 9.50821 
-5.59387 -3.94425 10.9052 -5.69913 -4.17706 10.6326 -5.88785 -5.13741 9.50821 
-5.69913 -4.17706 10.6326 -5.78145 -4.41375 10.3555 -5.88785 -5.13741 9.50821 
-5.78145 -4.41375 10.3555 -5.84048 -4.65335 10.075 -5.88785 -5.13741 9.50821 
-5.84048 -4.65335 10.075 -5.87599 -4.89489 9.79217 -5.88785 -5.13741 9.50821 
-5.87599 -5.37994 9.22425 -5.84048 -5.62149 8.94143 -5.88785 -5.13741 9.50821 
-5.84048 -5.62149 8.94143 -5.78145 -5.86108 8.6609 -5.88785 -5.13741 9.50821 
-5.78145 -5.86108 8.6609 -5.69913 -6.09777 8.38378 -5.88785 -5.13741 9.50821 
-5.69913 -6.09777 8.38378 -5.59387 -6.33059 8.11119 -5.88785 -5.13741 9.50821 
-5.59387 -6.33059 8.11119 -5.46609 -6.5586 7.84422 -5.88785 -5.13741 9.50821 
-5.46609 -6.5586 7.84422 -5.31629 -6.78089 7.58395 -5.88785 -5.13741 9.50821 
-5.31629 -6.78089 7.58395 -5.14509 -6.99656 7.33143 -5.88785 -5.13741 9.50821 
-5.14509 -6.99656 7.33143 -4.95317 -7.20475 7.08768 -5.88785 -5.13741 9.50821 
-4.95317 -7.20475 7.08768 -4.74131 -7.40461 6.85367 -5.88785 -5.13741 9.50821 
-4.74131 -7.40461 6.85367 -4.51035 -7.59534 6.63035 -5.88785 -5.13741 9.50821 
-4.51035 -7.59534 6.63035 -4.26124 -7.77618 6.41862 -5.88785 -5.13741 9.50821 
-4.26124 -7.77618 6.41862 -3.99496 -7.94639 6.21933 -5.88785 -5.13741 9.50821 
-3.99496 -7.94639 6.21933 -3.7126 -8.10528 6.03328 -5.88785 -5.13741 9.50821 
-3.7126 -8.10528 6.03328 -3.41529 -8.25223 5.86123 -5.88785 -5.13741 9.50821 
-3.41529 -8.25223 5.86123 -3.10422 -8.38664 5.70386 -5.88785 -5.13741 9.50821 
-3.10422 -8.38664 5.70386 -2.78066 -8.50796 5.56181 -5.88785 -5.13741 9.50821 
-2.78066 -8.50796 5.56181 -2.4459 -8.61571 5.43565 -5.88785 -5.13741 9.50821 
-2.4459 -8.61571 5.43565 -2.10129 -8.70946 5.32588 -5.88785 -5.13741 9.50821 
-2.10129 -8.70946 5.32588 -1.74822 -8.78882 5.23296 -5.88785 -5.13741 9.50821 
-1.74822 -8.78882 5.23296 -1.38811 -8.85348 5.15726 -5.88785 -5.13741 9.50821 
-1.38811 -8.85348 5.15726 -1.02241 -8.90317 5.09907 -5.88785 -5.13741 9.50821 
-1.02241 -8.90317 5.09907 -0.652598 -8.93771 5.05864 -5.88785 -5.13741 9.50821 
-0.652598 -8.93771 5.05864 -0.280155 -8.95694 5.03613 -5.88785 -5.13741 9.50821 
-0.280155 -8.95694 5.03613 0.0934164 -8.96079 5.03162 -5.88785 -5.13741 9.50821 
0.0934164 -8.96079 5.03162 0.466612 -8.94924 5.04514 -5.88785 -5.13741 9.50821 
0.466612 -8.94924 5.04514 0.837928 -8.92235 5.07663 -5.88785 -5.13741 9.50821 
0.837928 -8.92235 5.07663 1.20587 -8.88021 5.12596 -5.88785 -5.13741 9.50821 
1.20587 -8.88021 5.12596 1.56896 -8.823 5.19294 -5.88785 -5.13741 9.50821 
1.56896 -8.823 5.19294 1.92573 -8.75096 5.27729 -5.88785 -5.13741 9.50821 
1.92573 -8.75096 5.27729 2.27474 -8.66436 5.37869 -5.88785 -5.13741 9.50821 
2.27474 -8.66436 5.37869 2.6146 -8.56356 5.49671 -5.88785 -5.13741 9.50821 
2.6146 -8.56356 5.49671 2.94392 -8.44897 5.63088 -5.88785 -5.13741 9.50821 
2.94392 -8.44897 5.63088 3.2614 -8.32104 5.78066 -5.88785 -5.13741 9.50821 
3.2614 -8.32104 5.78066 3.56574 -8.18029 5.94546 -5.88785 -5.13741 9.50821 
3.56574 -8.18029 5.94546 3.85572 -8.02729 6.1246 -5.88785 -5.13741 9.50821 
3.85572 -8.02729 6.1246 4.13018 -7.86265 6.31737 -5.88785 -5.13741 9.50821 
4.13018 -7.86265 6.31737 4.388 -7.68704 6.52298 -5.88785 -5.13741 9.50821 
4.388 -7.68704 6.52298 4.62816 -7.50116 6.74062 -5.88785 -5.13741 9.50821 
4.62816 -7.50116 6.74062 4.84968 -7.30577 6.96939 -5.88785 -5.13741 9.50821 
4.84968 -7.30577 6.96939 5.05167 -7.10164 7.2084 -5.88785 -5.13741 9.50821 
5.05167 -7.10164 7.2084 5.23333 -6.88961 7.45666 -5.88785 -5.13741 9.50821 
5.23333 -6.88961 7.45666 5.39391 -6.67052 7.71318 -5.88785 -5.13741 9.50821 
5.39391 -6.67052 7.71318 5.53277 -6.44525 7.97693 -5.88785 -5.13741 9.50821 
5.53277 -6.44525 7.97693 5.64935 -6.21472 8.24685 -5.88785 -5.13741 9.50821 
5.64935 -6.21472 8.24685 5.74318 -5.97985 8.52184 -5.88785 -5.13741 9.50821 
5.74318 -5.97985 8.52184 5.81389 -5.74159 8.80081 -5.88785 -5.13741 9.50821 
5.81389 -5.74159 8.80081 5.86119 -5.5009 9.08263 -5.88785 -5.13741 9.50821 
5.86119 -5.5009 9.08263 5.88488 -5.25874 9.36616 -5.88785 -5.13741 9.50821 
5.88488 -5.25874 9.36616 5.88785 -5.13742 9.50821 -5.88785 -5.13741 9.50821 
5.88785 -5.13742 9.50821 5.88488 -5.01609 9.65026 -5.88785 -5.13741 9.50821 
-5.88785 -5.13741 9.50821 -5.87599 -4.89489 9.79217 -5.88192 -1.20041 6.49308 
-5.87599 -4.89489 9.79217 -5.87599 -1.12944 6.57617 -5.88192 -1.20041 6.49308 
-5.84048 -4.65335 10.075 -5.84048 -0.887894 6.85898 -5.86414 -1.0292 6.69354 
-5.86414 -1.0292 6.69354 -5.87599 -4.89489 9.79217 -5.84048 -4.65335 10.075 
-5.84048 -4.65335 10.075 -5.78145 -4.41375 10.3555 -5.78884 -0.674278 7.11497 
-5.78884 -0.674278 7.11497 -5.83456 -0.858677 6.89319 -5.84048 -4.65335 10.075 
-5.78145 -4.41375 10.3555 -5.69913 -4.17706 10.6326 -5.74023 -0.521078 7.28847 
-5.69913 -4.17706 10.6326 -5.68561 -0.378076 7.45929 -5.74023 -0.521078 7.28847 
-5.69913 -4.17706 10.6326 -5.59737 -0.183592 7.68024 -5.68561 -0.378076 7.45929 
-5.59737 -0.183592 7.68024 -5.69913 -4.17706 10.6326 -5.59387 -3.94425 10.9052 
-5.59387 -3.94425 10.9052 -5.46609 -3.71623 11.1722 -5.51241 -0.0283599 7.86537 
-5.46609 -3.71623 11.1722 -5.46609 0.0492168 7.9562 -5.51241 -0.0283599 7.86537 
-5.31629 -3.49395 11.4325 -5.31011 0.351827 8.16575 -5.41404 0.130904 8.05184 
-5.41404 0.130904 8.05184 -5.46609 -3.71623 11.1722 -5.31629 -3.49395 11.4325 
-5.31629 -3.49395 11.4325 -5.14509 -3.27827 11.685 -5.16928 0.454721 8.44097 
-5.16928 0.454721 8.44097 -5.31011 0.351827 8.16575 -5.31629 -3.49395 11.4325 
-4.95317 -3.07009 11.9287 -4.93126 0.719865 8.73798 -5.05441 0.589285 8.58854 
-5.05441 0.589285 8.58854 -5.14509 -3.27827 11.685 -4.95317 -3.07009 11.9287 
-4.74131 -2.87023 12.1627 -4.76337 0.875638 8.92381 -4.93126 0.719865 8.73798 
-4.93126 0.719865 8.73798 -4.95317 -3.07009 11.9287 -4.74131 -2.87023 12.1627 
-4.74131 -2.87023 12.1627 -4.74131 0.895227 8.94675 -4.76337 0.875638 8.92381 
-4.74131 -2.87023 12.1627 -4.51035 -2.67949 12.3861 -4.6033 1.01217 9.08367 
-4.51035 -2.67949 12.3861 -4.51035 1.08596 9.17007 -4.6033 1.01217 9.08367 
-4.26124 -2.49866 12.5978 -4.25814 1.34261 9.32128 -4.43397 1.14389 9.2379 
-4.43397 1.14389 9.2379 -4.51035 -2.67949 12.3861 -4.26124 -2.49866 12.5978 
-4.26124 -2.49866 12.5978 -3.99496 -2.32845 12.7971 -4.06887 1.39189 9.52827 
-4.06887 1.39189 9.52827 -4.25814 1.34261 9.32128 -4.26124 -2.49866 12.5978 
-3.99496 -2.32845 12.7971 -3.99496 1.437 9.58109 -4.06887 1.39189 9.52827 
-3.7126 -2.16955 12.9831 -3.68989 1.61015 9.78006 -3.87384 1.50767 9.66383 
-3.87384 1.50767 9.66383 -3.99496 -2.32845 12.7971 -3.7126 -2.16955 12.9831 
-3.7126 -2.16955 12.9831 -3.41529 -2.0226 13.1552 -3.44125 1.73007 9.92661 
-3.44125 1.73007 9.92661 -3.68989 1.61015 9.78006 -3.7126 -2.16955 12.9831 
-3.41529 -2.0226 13.1552 -3.10422 -1.88819 13.3126 -3.2436 1.81932 10.0287 
-3.10422 -1.88819 13.3126 -3.10422 1.87726 10.0966 -3.2436 1.81932 10.0287 
-3.10422 -1.88819 13.3126 -2.78606 1.99835 10.2352 -3.01987 1.91061 10.1356 
-2.78606 1.99835 10.2352 -3.10422 -1.88819 13.3126 -2.78066 -1.76687 13.4546 
-3.01987 1.91061 10.1356 -3.10422 1.87726 10.0966 -3.10422 -1.88819 13.3126 
-2.78066 -1.76687 13.4546 -2.4459 -1.65912 13.5808 -2.55464 2.07321 10.326 
-2.4459 -1.65912 13.5808 -2.4459 2.10633 10.3648 -2.55464 2.07321 10.326 
-2.10129 -1.56537 13.6905 -2.08415 2.20404 10.4803 -2.31407 2.14417 10.4091 
-2.31407 2.14417 10.4091 -2.4459 -1.65912 13.5808 -2.10129 -1.56537 13.6905 
-2.10129 -1.56537 13.6905 -1.74822 -1.48601 13.7835 -1.78965 2.26804 10.561 
-1.78965 2.26804 10.561 -2.08415 2.20404 10.4803 -2.10129 -1.56537 13.6905 
-1.74822 -1.48601 13.7835 -1.38811 -1.42135 13.8592 -1.56638 2.31409 10.608 
-1.38811 -1.42135 13.8592 -1.34266 2.34946 10.6538 -1.56638 2.31409 10.608 
-1.02241 -1.37166 13.9173 -1.03773 2.392 10.6997 -1.34266 2.34946 10.6538 
-1.34266 2.34946 10.6538 -1.38811 -1.42135 13.8592 -1.02241 -1.37166 13.9173 
-1.02241 -1.37166 13.9173 -0.652598 -1.33713 13.9578 -0.790345 2.41728 10.7288 
-0.652598 -1.33713 13.9578 -0.652598 2.42832 10.7418 -0.790345 2.41728 10.7288 
-0.280155 -1.3179 13.9803 -0.271477 2.52607 10.6977 -0.527782 2.43649 10.7513 
-0.527782 2.43649 10.7513 -0.652598 -1.33713 13.9578 -0.280155 -1.3179 13.9803 
-0.280155 -1.3179 13.9803 0.0934164 -1.31405 13.9848 -9.76996e-10 2.45189 10.7694 
-9.76996e-10 2.45189 10.7694 -0.271477 2.52607 10.6977 -0.280155 -1.3179 13.9803 
0.0934164 -1.31405 13.9848 0.0934164 2.4514 10.7688 -9.76996e-10 2.45189 10.7694 
0.466612 -1.32559 13.9713 0.501291 2.4395 10.7527 0.264157 2.44804 10.7649 
0.264157 2.44804 10.7649 0.0934164 -1.31405 13.9848 0.466612 -1.32559 13.9713 
0.837928 -1.35249 13.9398 0.811957 2.41658 10.7262 0.501291 2.4395 10.7527 
0.501291 2.4395 10.7527 0.466612 -1.32559 13.9713 0.837928 -1.35249 13.9398 
0.837928 -1.35249 13.9398 1.20587 -1.39462 13.8905 1.05132 2.39043 10.6974 
1.20587 -1.39462 13.8905 1.20587 2.37083 10.6745 1.05132 2.39043 10.6974 
1.20587 -1.39462 13.8905 1.56767 2.31385 10.6077 1.31017 2.35601 10.6571 
1.56767 2.31385 10.6077 1.20587 -1.39462 13.8905 1.56896 -1.45183 13.8235 
1.31017 2.35601 10.6571 1.20587 2.37083 10.6745 1.20587 -1.39462 13.8905 
1.56896 -1.45183 13.8235 1.92573 -1.52387 13.7391 1.81944 2.26473 10.5502 
1.92573 -1.52387 13.7391 1.92573 2.24158 10.5231 1.81944 2.26473 10.5502 
2.27474 -1.61047 13.6377 2.27474 2.15498 10.4217 2.06884 2.20806 10.4839 
2.06884 2.20806 10.4839 1.92573 -1.52387 13.7391 2.27474 -1.61047 13.6377 
2.27474 -1.61047 13.6377 2.6146 -1.71127 13.5197 2.58085 2.06227 10.3196 
2.58085 2.06227 10.3196 2.31407 2.14417 10.4091 2.27474 -1.61047 13.6377 
2.6146 -1.71127 13.5197 2.94392 -1.82586 13.3855 2.79007 1.9953 10.2348 
2.94392 -1.82586 13.3855 2.99072 1.92391 10.1482 2.79007 1.9953 10.2348 
2.94392 -1.82586 13.3855 3.2525 1.81549 10.0242 2.99072 1.92391 10.1482 
3.2525 1.81549 10.0242 2.94392 -1.82586 13.3855 3.2614 -1.95379 13.2358 
3.2614 -1.95379 13.2358 3.56574 -2.09454 13.071 3.46079 1.7216 9.9143 
3.56574 -2.09454 13.071 3.56574 1.67091 9.85496 3.46079 1.7216 9.9143 
3.85572 -2.24754 12.8918 3.86585 1.58698 9.60569 3.67101 1.61764 9.79259 
3.67101 1.61764 9.79259 3.56574 -2.09454 13.071 3.85572 -2.24754 12.8918 
3.85572 -2.24754 12.8918 4.13018 -2.41218 12.699 4.09436 1.37156 9.51475 
4.09436 1.37156 9.51475 3.86585 1.58698 9.60569 3.85572 -2.24754 12.8918 
4.388 -2.58779 12.4934 4.41491 1.15788 9.25586 4.25571 1.27056 9.3862 
4.25571 1.27056 9.3862 4.13018 -2.41218 12.699 4.388 -2.58779 12.4934 
4.62816 -2.77367 12.2758 4.61515 1.00239 9.07335 4.41491 1.15788 9.25586 
4.41491 1.15788 9.25586 4.388 -2.58779 12.4934 4.62816 -2.77367 12.2758 
4.62816 -2.77367 12.2758 4.84968 -2.96906 12.047 4.76337 0.875638 8.92381 
4.84968 -2.96906 12.047 4.84968 0.796387 8.83102 4.76337 0.875638 8.92381 
5.05167 -3.17319 11.808 5.05311 0.590774 8.5903 4.91384 0.734583 8.75866 
4.91384 0.734583 8.75866 4.84968 -2.96906 12.047 5.05167 -3.17319 11.808 
5.05167 -3.17319 11.808 5.23333 -3.38523 11.5598 5.18481 0.440038 8.41379 
5.18481 0.440038 8.41379 5.05311 0.590774 8.5903 5.05167 -3.17319 11.808 
5.23333 -3.38523 11.5598 5.23333 0.380225 8.34376 5.18481 0.440038 8.41379 
5.39391 -3.60432 11.3032 5.40553 0.145454 8.06724 5.30477 0.287142 8.23477 
5.30477 0.287142 8.23477 5.23333 -3.38523 11.5598 5.39391 -3.60432 11.3032 
5.39391 -3.60432 11.3032 5.53277 -3.82958 11.0395 5.51241 -0.0283599 7.86537 
5.51241 -0.0283599 7.86537 5.40553 0.145454 8.06724 5.39391 -3.60432 11.3032 
5.53277 -3.82958 11.0395 5.53277 -0.0641309 7.82349 5.51241 -0.0283599 7.86537 
5.53277 -3.82958 11.0395 5.64935 -4.06011 10.7696 5.59968 -0.19033 7.67573 
5.64935 -4.06011 10.7696 5.64935 -0.294662 7.55357 5.59968 -0.19033 7.67573 
5.64935 -4.06011 10.7696 5.7417 -0.525304 7.28352 5.67567 -0.35468 7.4833 
5.7417 -0.525304 7.28352 5.64935 -4.06011 10.7696 5.74318 -4.29498 10.4946 
5.67567 -0.35468 7.4833 5.64935 -0.294662 7.55357 5.64935 -4.06011 10.7696 
5.74318 -4.29498 10.4946 5.81389 -4.53324 10.2156 5.79323 -0.68919 7.09164 
5.81389 -4.53324 10.2156 5.81389 -0.767791 6.99961 5.79323 -0.68919 7.09164 
5.86119 -4.77394 9.93379 5.86322 -0.947977 6.64242 5.83456 -0.858677 6.89319 
5.83456 -0.858677 6.89319 5.81389 -4.53324 10.2156 5.86119 -4.77394 9.93379 
5.86119 -4.77394 9.93379 5.88488 -5.01609 9.65026 5.88411 -1.22453 6.46884 
5.88411 -1.22453 6.46884 5.86322 -0.947977 6.64242 5.86119 -4.77394 9.93379 
5.88488 -5.25874 9.36616 5.884 -1.51982 6.11372 5.88785 -1.37196 6.29221 
5.88411 -1.22453 6.46884 5.88488 -5.01609 9.65026 5.88785 -5.13742 9.50821 
5.88785 -5.13742 9.50821 5.88785 -1.37196 6.29221 5.88411 -1.22453 6.46884 
5.86119 -5.5009 9.08263 5.86267 -1.72509 5.87875 5.884 -1.51982 6.11372 
5.884 -1.51982 6.11372 5.88488 -5.25874 9.36616 5.86119 -5.5009 9.08263 
5.86119 -5.5009 9.08263 5.81389 -5.74159 8.80081 5.83456 -1.88525 5.69123 
5.81389 -5.74159 8.80081 5.81389 -1.97614 5.58481 5.83456 -1.88525 5.69123 
5.74318 -5.97985 8.52184 5.7417 -2.21863 5.3009 5.79323 -2.05474 5.49278 
5.79323 -2.05474 5.49278 5.81389 -5.74159 8.80081 5.74318 -5.97985 8.52184 
5.74318 -5.97985 8.52184 5.64935 -6.21472 8.24685 5.66654 -2.40746 5.07003 
5.66654 -2.40746 5.07003 5.7417 -2.21863 5.3009 5.74318 -5.97985 8.52184 
5.53277 -6.44525 7.97693 5.53277 -2.6798 4.76093 5.59968 -2.5536 4.90869 
5.59968 -2.5536 4.90869 5.64935 -6.21472 8.24685 5.53277 -6.44525 7.97693 
5.39391 -6.67052 7.71318 5.40553 -2.88766 4.51572 5.51241 -2.71557 4.71905 
5.51241 -2.71557 4.71905 5.53277 -6.44525 7.97693 5.39391 -6.67052 7.71318 
5.39391 -6.67052 7.71318 5.23333 -6.88961 7.45666 5.30477 -3.03107 4.34964 
5.23333 -6.88961 7.45666 5.23333 -3.12415 4.24066 5.30477 -3.03107 4.34964 
5.23333 -6.88961 7.45666 5.0533 -3.3335 3.99349 5.18481 -3.18397 4.17063 
5.0533 -3.3335 3.99349 5.23333 -6.88961 7.45666 5.05167 -7.10164 7.2084 
5.18481 -3.18397 4.17063 5.23333 -3.12415 4.24066 5.23333 -6.88961 7.45666 
5.05167 -7.10164 7.2084 4.84968 -7.30577 6.96939 4.91384 -3.47851 3.82576 
4.84968 -7.30577 6.96939 4.84968 -3.54032 3.75339 4.91384 -3.47851 3.82576 
4.62816 -7.50116 6.74062 4.61515 -3.74768 3.51223 4.76337 -3.61957 3.6606 
4.76337 -3.61957 3.6606 4.84968 -7.30577 6.96939 4.62816 -7.50116 6.74062 
4.62816 -7.50116 6.74062 4.388 -7.68704 6.52298 4.41491 -3.90263 3.32926 
4.41491 -3.90263 3.32926 4.61515 -3.74768 3.51223 4.62816 -7.50116 6.74062 
4.388 -7.68704 6.52298 4.13018 -7.86265 6.31737 4.25571 -4.01449 3.19821 
4.13018 -7.86265 6.31737 4.09375 -4.11957 3.07232 4.25571 -4.01449 3.19821 
4.13018 -7.86265 6.31737 3.87384 -4.2516 2.92059 4.09375 -4.11957 3.07232 
3.85572 -8.02729 6.1246 3.85572 -4.26184 2.9086 3.87384 -4.2516 2.92059 
3.87384 -4.2516 2.92059 4.13018 -7.86265 6.31737 3.85572 -8.02729 6.1246 
3.85572 -8.02729 6.1246 3.56574 -8.18029 5.94546 3.67101 -4.36157 2.79183 
3.56574 -8.18029 5.94546 3.56574 -4.41484 2.72946 3.67101 -4.36157 2.79183 
3.2614 -8.32104 5.78066 3.25197 -4.48475 2.49597 3.46079 -4.46553 2.67012 
3.46079 -4.46553 2.67012 3.56574 -8.18029 5.94546 3.2614 -8.32104 5.78066 
3.2614 -8.32104 5.78066 2.94392 -8.44897 5.63088 3.01987 -4.65454 2.4488 
3.01987 -4.65454 2.4488 3.25197 -4.48475 2.49597 3.2614 -8.32104 5.78066 
2.94392 -8.44897 5.63088 2.94392 -4.68352 2.41488 3.01987 -4.65454 2.4488 
2.6146 -8.56356 5.49671 2.58081 -4.80802 2.26636 2.79007 -4.73923 2.34965 
2.79007 -4.73923 2.34965 2.94392 -8.44897 5.63088 2.6146 -8.56356 5.49671 
2.27474 -8.66436 5.37869 2.31407 -4.8881 2.17534 2.58081 -4.80802 2.26636 
2.58081 -4.80802 2.26636 2.6146 -8.56356 5.49671 2.27474 -8.66436 5.37869 
2.27474 -8.66436 5.37869 2.27474 -4.89891 2.16269 2.31407 -4.8881 2.17534 
2.27474 -8.66436 5.37869 1.92573 -8.75096 5.27729 2.06884 -4.95199 2.10054 
1.92573 -8.75096 5.27729 1.92573 -4.98551 2.06129 2.06884 -4.95199 2.10054 
1.56896 -8.823 5.19294 1.56767 -5.05778 1.97667 1.81944 -5.00866 2.03418 
1.81944 -5.00866 2.03418 1.92573 -8.75096 5.27729 1.56896 -8.823 5.19294 
1.56896 -8.823 5.19294 1.20587 -8.88021 5.12596 1.31017 -5.09994 1.92731 
1.31017 -5.09994 1.92731 1.56767 -5.05778 1.97667 1.56896 -8.823 5.19294 
1.20587 -8.88021 5.12596 1.20587 -5.11476 1.90996 1.31017 -5.09994 1.92731 
0.837928 -8.92235 5.07663 0.811959 -5.15881 1.85675 1.05132 -5.13436 1.887 
1.05132 -5.13436 1.887 1.20587 -8.88021 5.12596 0.837928 -8.92235 5.07663 
0.837928 -8.92235 5.07663 0.466612 -8.94924 5.04514 0.501267 -5.18515 1.83323 
0.501267 -5.18515 1.83323 0.811959 -5.15881 1.85675 0.837928 -8.92235 5.07663 
0.466612 -8.94924 5.04514 0.0934164 -8.96079 5.03162 0.264157 -5.19197 1.81956 
0.0934164 -8.96079 5.03162 0.0346292 -5.19395 1.81253 0.264157 -5.19197 1.81956 
0.0934164 -8.96079 5.03162 -0.272156 -5.19172 1.81984 0.0346292 -5.19395 1.81253 
-0.272156 -5.19172 1.81984 0.0934164 -8.96079 5.03162 -0.280155 -8.95694 5.03613 
-0.280155 -8.95694 5.03613 -0.652598 -8.93771 5.05864 -0.527782 -5.18042 1.83308 
-0.652598 -8.93771 5.05864 -0.652598 -5.17225 1.84264 -0.527782 -5.18042 1.83308 
-1.02241 -8.90317 5.09907 -1.03772 -5.13652 1.88519 -0.790345 -5.16121 1.85557 
-0.790345 -5.16121 1.85557 -0.652598 -8.93771 5.05864 -1.02241 -8.90317 5.09907 
-1.02241 -8.90317 5.09907 -1.38811 -8.85348 5.15726 -1.34268 -5.09764 1.93425 
-1.34268 -5.09764 1.93425 -1.03772 -5.13652 1.88519 -1.02241 -8.90317 5.09907 
-1.74822 -8.78882 5.23296 -1.78967 -5.01591 2.02679 -1.56638 -5.05801 1.9764 
-1.56638 -5.05801 1.9764 -1.38811 -8.85348 5.15726 -1.74822 -8.78882 5.23296 
-2.10129 -8.70946 5.32588 -2.08414 -4.94888 2.10493 -1.78967 -5.01591 2.02679 
-1.78967 -5.01591 2.02679 -1.74822 -8.78882 5.23296 -2.10129 -8.70946 5.32588 
-2.10129 -8.70946 5.32588 -2.4459 -8.61571 5.43565 -2.31407 -4.8881 2.17534 
-2.4459 -8.61571 5.43565 -2.4459 -4.85026 2.21965 -2.31407 -4.8881 2.17534 
-2.78066 -8.50796 5.56181 -2.78551 -4.74094 2.34771 -2.55464 -4.81714 2.25843 
-2.55464 -4.81714 2.25843 -2.4459 -8.61571 5.43565 -2.78066 -8.50796 5.56181 
-2.78066 -8.50796 5.56181 -3.10422 -8.38664 5.70386 -3.05236 -4.64298 2.4635 
-3.05236 -4.64298 2.4635 -2.78551 -4.74094 2.34771 -2.78066 -8.50796 5.56181 
-3.41529 -8.25223 5.86123 -3.44211 -4.40481 2.59954 -3.2436 -4.56325 2.5557 
-3.2436 -4.56325 2.5557 -3.10422 -8.38664 5.70386 -3.41529 -8.25223 5.86123 
-3.7126 -8.10528 6.03328 -3.68998 -4.3546 2.80491 -3.44211 -4.40481 2.59954 
-3.44211 -4.40481 2.59954 -3.41529 -8.25223 5.86123 -3.7126 -8.10528 6.03328 
-3.7126 -8.10528 6.03328 -3.99496 -7.94639 6.21933 -3.87384 -4.2516 2.92059 
-3.99496 -7.94639 6.21933 -3.99496 -4.18093 3.00333 -3.87384 -4.2516 2.92059 
-3.99496 -7.94639 6.21933 -4.25847 -4.0126 3.20042 -4.06887 -4.13582 3.05614 
-4.25847 -4.0126 3.20042 -3.99496 -7.94639 6.21933 -4.26124 -7.77618 6.41862 
-4.06887 -4.13582 3.05614 -3.99496 -4.18093 3.00333 -3.99496 -7.94639 6.21933 
-4.26124 -7.77618 6.41862 -4.51035 -7.59534 6.63035 -4.43397 -3.88782 3.34652 
-4.51035 -7.59534 6.63035 -4.51035 -3.82989 3.41435 -4.43397 -3.88782 3.34652 
-4.74131 -7.40461 6.85367 -4.74131 -3.63916 3.63767 -4.6033 -3.7561 3.50075 
-4.6033 -3.7561 3.50075 -4.51035 -7.59534 6.63035 -4.74131 -7.40461 6.85367 
-4.74131 -7.40461 6.85367 -4.95317 -7.20475 7.08768 -4.93127 -3.46232 3.8452 
-4.93127 -3.46232 3.8452 -4.76337 -3.61957 3.6606 -4.74131 -7.40461 6.85367 
-4.95317 -7.20475 7.08768 -5.14509 -6.99656 7.33143 -5.05441 -3.33321 3.99588 
-5.14509 -6.99656 7.33143 -5.16959 -3.19992 4.14528 -5.05441 -3.33321 3.99588 
-5.31629 -6.78089 7.58395 -5.31053 -3.02325 4.3588 -5.16959 -3.19992 4.14528 
-5.16959 -3.19992 4.14528 -5.14509 -6.99656 7.33143 -5.31629 -6.78089 7.58395 
-5.31629 -6.78089 7.58395 -5.46609 -6.5586 7.84422 -5.41404 -2.87483 4.53258 
-5.46609 -6.5586 7.84422 -5.46609 -2.79315 4.62822 -5.41404 -2.87483 4.53258 
-5.59387 -6.33059 8.11119 -5.59709 -2.55932 4.90224 -5.51241 -2.71557 4.71905 
-5.51241 -2.71557 4.71905 -5.46609 -6.5586 7.84422 -5.59387 -6.33059 8.11119 
-5.59387 -6.33059 8.11119 -5.69913 -6.09777 8.38378 -5.68585 -2.36787 5.12825 
-5.68585 -2.36787 5.12825 -5.59709 -2.55932 4.90224 -5.59387 -6.33059 8.11119 
-5.78145 -5.86108 8.6609 -5.78884 -2.07163 5.47116 -5.74023 -2.22285 5.29595 
-5.74023 -2.22285 5.29595 -5.69913 -6.09777 8.38378 -5.78145 -5.86108 8.6609 
-5.84048 -5.62149 8.94143 -5.83456 -1.88525 5.69123 -5.78884 -2.07163 5.47116 
-5.78884 -2.07163 5.47116 -5.78145 -5.86108 8.6609 -5.84048 -5.62149 8.94143 
-5.84048 -5.62149 8.94143 -5.84048 -1.85604 5.72543 -5.83456 -1.88525 5.69123 
-5.84048 -5.62149 8.94143 -5.87599 -5.37994 9.22425 -5.86414 -1.71473 5.89088 
-5.87599 -5.37994 9.22425 -5.87599 -1.61449 6.00825 -5.86414 -1.71473 5.89088 
-5.88785 -5.13741 9.50821 -5.88785 -1.37196 6.29221 -5.88192 -1.54352 6.09134 
-5.88192 -1.54352 6.09134 -5.87599 -5.37994 9.22425 -5.88785 -5.13741 9.50821 
-5.88192 -1.54352 6.09134 -5.87599 -1.61449 6.00825 -5.87599 -5.37994 9.22425 
-5.86414 -1.71473 5.89088 -5.84048 -1.85604 5.72543 -5.84048 -5.62149 8.94143 
-5.74023 -2.22285 5.29595 -5.68585 -2.36787 5.12825 -5.69913 -6.09777 8.38378 
-5.51241 -2.71557 4.71905 -5.46609 -2.79315 4.62822 -5.46609 -6.5586 7.84422 
-5.41404 -2.87483 4.53258 -5.31053 -3.02325 4.3588 -5.31629 -6.78089 7.58395 
-5.05441 -3.33321 3.99588 -4.93127 -3.46232 3.8452 -4.95317 -7.20475 7.08768 
-4.76337 -3.61957 3.6606 -4.74131 -3.63916 3.63767 -4.74131 -7.40461 6.85367 
-4.6033 -3.7561 3.50075 -4.51035 -3.82989 3.41435 -4.51035 -7.59534 6.63035 
-4.43397 -3.88782 3.34652 -4.25847 -4.0126 3.20042 -4.26124 -7.77618 6.41862 
-3.87384 -4.2516 2.92059 -3.68998 -4.3546 2.80491 -3.7126 -8.10528 6.03328 
-3.2436 -4.56325 2.5557 -3.05236 -4.64298 2.4635 -3.10422 -8.38664 5.70386 
-2.55464 -4.81714 2.25843 -2.4459 -4.85026 2.21965 -2.4459 -8.61571 5.43565 
-2.31407 -4.8881 2.17534 -2.08414 -4.94888 2.10493 -2.10129 -8.70946 5.32588 
-1.56638 -5.05801 1.9764 -1.34268 -5.09764 1.93425 -1.38811 -8.85348 5.15726 
-0.790345 -5.16121 1.85557 -0.652598 -5.17225 1.84264 -0.652598 -8.93771 5.05864 
-0.527782 -5.18042 1.83308 -0.272156 -5.19172 1.81984 -0.280155 -8.95694 5.03613 
0.264157 -5.19197 1.81956 0.501267 -5.18515 1.83323 0.466612 -8.94924 5.04514 
1.05132 -5.13436 1.887 1.20587 -5.11476 1.90996 1.20587 -8.88021 5.12596 
1.81944 -5.00866 2.03418 1.92573 -4.98551 2.06129 1.92573 -8.75096 5.27729 
2.06884 -4.95199 2.10054 2.27474 -4.89891 2.16269 2.27474 -8.66436 5.37869 
2.79007 -4.73923 2.34965 2.94392 -4.68352 2.41488 2.94392 -8.44897 5.63088 
3.46079 -4.46553 2.67012 3.56574 -4.41484 2.72946 3.56574 -8.18029 5.94546 
3.67101 -4.36157 2.79183 3.85572 -4.26184 2.9086 3.85572 -8.02729 6.1246 
4.25571 -4.01449 3.19821 4.41491 -3.90263 3.32926 4.388 -7.68704 6.52298 
4.76337 -3.61957 3.6606 4.84968 -3.54032 3.75339 4.84968 -7.30577 6.96939 
4.91384 -3.47851 3.82576 5.0533 -3.3335 3.99349 5.05167 -7.10164 7.2084 
5.30477 -3.03107 4.34964 5.40553 -2.88766 4.51572 5.39391 -6.67052 7.71318 
5.51241 -2.71557 4.71905 5.53277 -2.6798 4.76093 5.53277 -6.44525 7.97693 
5.59968 -2.5536 4.90869 5.66654 -2.40746 5.07003 5.64935 -6.21472 8.24685 
5.79323 -2.05474 5.49278 5.81389 -1.97614 5.58481 5.81389 -5.74159 8.80081 
5.83456 -1.88525 5.69123 5.86267 -1.72509 5.87875 5.86119 -5.5009 9.08263 
5.88785 -1.37196 6.29221 5.88785 -5.13742 9.50821 5.88488 -5.25874 9.36616 
5.83456 -0.858677 6.89319 5.81389 -0.767791 6.99961 5.81389 -4.53324 10.2156 
5.79323 -0.68919 7.09164 5.7417 -0.525304 7.28352 5.74318 -4.29498 10.4946 
5.59968 -0.19033 7.67573 5.53277 -0.0641309 7.82349 5.53277 -3.82958 11.0395 
5.30477 0.287142 8.23477 5.23333 0.380225 8.34376 5.23333 -3.38523 11.5598 
4.91384 0.734583 8.75866 4.84968 0.796387 8.83102 4.84968 -2.96906 12.047 
4.76337 0.875638 8.92381 4.61515 1.00239 9.07335 4.62816 -2.77367 12.2758 
4.25571 1.27056 9.3862 4.09436 1.37156 9.51475 4.13018 -2.41218 12.699 
3.67101 1.61764 9.79259 3.56574 1.67091 9.85496 3.56574 -2.09454 13.071 
3.46079 1.7216 9.9143 3.2525 1.81549 10.0242 3.2614 -1.95379 13.2358 
2.79007 1.9953 10.2348 2.58085 2.06227 10.3196 2.6146 -1.71127 13.5197 
2.31407 2.14417 10.4091 2.27474 2.15498 10.4217 2.27474 -1.61047 13.6377 
2.06884 2.20806 10.4839 1.92573 2.24158 10.5231 1.92573 -1.52387 13.7391 
1.81944 2.26473 10.5502 1.56767 2.31385 10.6077 1.56896 -1.45183 13.8235 
1.05132 2.39043 10.6974 0.811957 2.41658 10.7262 0.837928 -1.35249 13.9398 
0.264157 2.44804 10.7649 0.0934164 2.4514 10.7688 0.0934164 -1.31405 13.9848 
-0.527782 2.43649 10.7513 -0.652598 2.42832 10.7418 -0.652598 -1.33713 13.9578 
-0.790345 2.41728 10.7288 -1.03773 2.392 10.6997 -1.02241 -1.37166 13.9173 
-1.56638 2.31409 10.608 -1.78965 2.26804 10.561 -1.74822 -1.48601 13.7835 
-2.31407 2.14417 10.4091 -2.4459 2.10633 10.3648 -2.4459 -1.65912 13.5808 
-2.55464 2.07321 10.326 -2.78606 1.99835 10.2352 -2.78066 -1.76687 13.4546 
-3.2436 1.81932 10.0287 -3.44125 1.73007 9.92661 -3.41529 -2.0226 13.1552 
-3.87384 1.50767 9.66383 -3.99496 1.437 9.58109 -3.99496 -2.32845 12.7971 
-4.43397 1.14389 9.2379 -4.51035 1.08596 9.17007 -4.51035 -2.67949 12.3861 
-4.6033 1.01217 9.08367 -4.74131 0.895227 8.94675 -4.74131 -2.87023 12.1627 
-5.05441 0.589285 8.58854 -5.16928 0.454721 8.44097 -5.14509 -3.27827 11.685 
-5.41404 0.130904 8.05184 -5.46609 0.0492168 7.9562 -5.46609 -3.71623 11.1722 
-5.51241 -0.0283599 7.86537 -5.59737 -0.183592 7.68024 -5.59387 -3.94425 10.9052 
-5.74023 -0.521078 7.28847 -5.78884 -0.674278 7.11497 -5.78145 -4.41375 10.3555 
-5.83456 -0.858677 6.89319 -5.84048 -0.887894 6.85898 -5.84048 -4.65335 10.075 
-5.86414 -1.0292 6.69354 -5.87599 -1.12944 6.57617 -5.87599 -4.89489 9.79217 
-5.88192 -1.20041 6.49308 -5.88785 -1.37196 6.29221 -5.88785 -5.13741 9.50821 
-5.87596 -1.13086 6.20864 -5.88785 -1.37196 6.29221 -5.88192 -1.20041 6.49308 
-5.84901 -0.814034 6.63152 -5.87596 -1.13086 6.20864 -5.87599 -1.12944 6.57617 
-5.87596 -1.13086 6.20864 -5.88192 -1.20041 6.49308 -5.87599 -1.12944 6.57617 
-5.84901 -0.814034 6.63152 -5.86414 -1.0292 6.69354 -5.84048 -0.887894 6.85898 
-5.84901 -0.814034 6.63152 -5.83456 -0.858677 6.89319 -5.78884 -0.674278 7.11497 
-5.75417 -0.414695 7.04543 -5.74023 -0.521078 7.28847 -5.68561 -0.378076 7.45929 
-5.68561 -0.378076 7.45929 -5.63943 -0.118658 7.39477 -5.75417 -0.414695 7.04543 
-5.63943 -0.118658 7.39477 -5.68561 -0.378076 7.45929 -5.59737 -0.183592 7.68024 
-5.47411 0.191698 7.77752 -5.63943 -0.118658 7.39477 -5.59737 -0.183592 7.68024 
-5.47411 0.191698 7.77752 -5.51241 -0.0283599 7.86537 -5.46609 0.0492168 7.9562 
-5.47411 0.191698 7.77752 -5.41404 0.130904 8.05184 -5.31011 0.351827 8.16575 
-5.12041 0.67739 8.33729 -5.05441 0.589285 8.58854 -4.93126 0.719865 8.73798 
-4.93126 0.719865 8.73798 -4.8554 0.943773 8.67525 -5.12041 0.67739 8.33729 
-4.8554 0.943773 8.67525 -4.93126 0.719865 8.73798 -4.76337 0.875638 8.92381 
-4.51379 1.24355 9.01168 -4.8554 0.943773 8.67525 -4.74131 0.895227 8.94675 
-4.8554 0.943773 8.67525 -4.76337 0.875638 8.92381 -4.74131 0.895227 8.94675 
-4.51379 1.24355 9.01168 -4.6033 1.01217 9.08367 -4.51035 1.08596 9.17007 
-4.51379 1.24355 9.01168 -4.43397 1.14389 9.2379 -4.25814 1.34261 9.32128 
-3.98861 1.68087 9.33821 -4.06887 1.39189 9.52827 -3.99496 1.437 9.58109 
-3.98861 1.68087 9.33821 -3.87384 1.50767 9.66383 -3.68989 1.61015 9.78006 
-3.68989 1.61015 9.78006 -3.66589 1.85021 9.56068 -3.98861 1.68087 9.33821 
-3.66589 1.85021 9.56068 -3.68989 1.61015 9.78006 -3.44125 1.73007 9.92661 
-3.35872 1.99784 9.74172 -3.2436 1.81932 10.0287 -3.10422 1.87726 10.0966 
-3.10422 1.87726 10.0966 -2.93448 2.1174 10.0073 -3.35872 1.99784 9.74172 
-2.93448 2.1174 10.0073 -3.01987 1.91061 10.1356 -2.78606 1.99835 10.2352 
-2.45199 2.27516 10.2049 -2.93448 2.1174 10.0073 -2.78606 1.99835 10.2352 
-2.45199 2.27516 10.2049 -2.55464 2.07321 10.326 -2.4459 2.10633 10.3648 
-2.45199 2.27516 10.2049 -2.31407 2.14417 10.4091 -2.08415 2.20404 10.4803 
-2.08415 2.20404 10.4803 -1.94885 2.47523 10.2818 -2.45199 2.27516 10.2049 
-1.94885 2.47523 10.2818 -2.08415 2.20404 10.4803 -1.78965 2.26804 10.561 
-1.56227 2.56201 10.3624 -1.94885 2.47523 10.2818 -1.78965 2.26804 10.561 
-1.56227 2.56201 10.3624 -1.56638 2.31409 10.608 -1.34266 2.34946 10.6538 
-1.34266 2.34946 10.6538 -1.21855 2.61302 10.4327 -1.56227 2.56201 10.3624 
-1.21855 2.61302 10.4327 -1.34266 2.34946 10.6538 -1.03773 2.392 10.6997 
-0.707878 2.59296 10.5811 -1.21855 2.61302 10.4327 -1.03773 2.392 10.6997 
-0.707878 2.59296 10.5811 -0.790345 2.41728 10.7288 -0.652598 2.42832 10.7418 
-0.707878 2.59296 10.5811 -0.527782 2.43649 10.7513 -0.271477 2.52607 10.6977 
0.116053 2.61911 10.6119 -9.76996e-10 2.45189 10.7694 0.0934164 2.4514 10.7688 
0.116053 2.61911 10.6119 0.264157 2.44804 10.7649 0.501291 2.4395 10.7527 
0.501291 2.4395 10.7527 0.529736 2.60359 10.5928 0.116053 2.61911 10.6119 
0.529736 2.60359 10.5928 0.501291 2.4395 10.7527 0.811957 2.41658 10.7262 
0.910234 2.64959 10.4776 1.05132 2.39043 10.6974 1.20587 2.37083 10.6745 
1.20587 2.37083 10.6745 1.39703 2.51445 10.4797 0.910234 2.64959 10.4776 
1.39703 2.51445 10.4797 1.31017 2.35601 10.6571 1.56767 2.31385 10.6077 
1.90943 2.4229 10.3618 1.39703 2.51445 10.4797 1.56767 2.31385 10.6077 
1.90943 2.4229 10.3618 1.81944 2.26473 10.5502 1.92573 2.24158 10.5231 
1.90943 2.4229 10.3618 2.06884 2.20806 10.4839 2.27474 2.15498 10.4217 
2.27474 2.15498 10.4217 2.31178 2.25666 10.306 1.90943 2.4229 10.3618 
2.31178 2.25666 10.306 2.31407 2.14417 10.4091 2.58085 2.06227 10.3196 
2.66123 2.20515 10.1285 2.79007 1.9953 10.2348 2.99072 1.92391 10.1482 
2.99072 1.92391 10.1482 3.09713 2.03461 9.95592 2.66123 2.20515 10.1285 
3.09713 2.03461 9.95592 2.99072 1.92391 10.1482 3.2525 1.81549 10.0242 
3.55895 1.83814 9.70263 3.09713 2.03461 9.95592 3.2525 1.81549 10.0242 
3.55895 1.83814 9.70263 3.46079 1.7216 9.9143 3.56574 1.67091 9.85496 
3.55895 1.83814 9.70263 3.67101 1.61764 9.79259 3.86585 1.58698 9.60569 
4.15765 1.50204 9.30202 4.25571 1.27056 9.3862 4.41491 1.15788 9.25586 
4.41491 1.15788 9.25586 4.48552 1.27378 9.02551 4.15765 1.50204 9.30202 
4.48552 1.27378 9.02551 4.41491 1.15788 9.25586 4.61515 1.00239 9.07335 
4.815 0.994336 8.70746 4.48552 1.27378 9.02551 4.61515 1.00239 9.07335 
4.815 0.994336 8.70746 4.76337 0.875638 8.92381 4.84968 0.796387 8.83102 
4.815 0.994336 8.70746 4.91384 0.734583 8.75866 5.05311 0.590774 8.5903 
5.05311 0.590774 8.5903 5.09177 0.714429 8.36887 4.815 0.994336 8.70746 
5.09177 0.714429 8.36887 5.05311 0.590774 8.5903 5.18481 0.440038 8.41379 
5.28072 0.477205 8.10245 5.09177 0.714429 8.36887 5.23333 0.380225 8.34376 
5.09177 0.714429 8.36887 5.18481 0.440038 8.41379 5.23333 0.380225 8.34376 
5.28072 0.477205 8.10245 5.30477 0.287142 8.23477 5.40553 0.145454 8.06724 
5.40553 0.145454 8.06724 5.45171 0.240041 7.79885 5.28072 0.477205 8.10245 
5.45171 0.240041 7.79885 5.40553 0.145454 8.06724 5.51241 -0.0283599 7.86537 
5.53185 0.142044 7.56803 5.45171 0.240041 7.79885 5.53277 -0.0641309 7.82349 
5.45171 0.240041 7.79885 5.51241 -0.0283599 7.86537 5.53277 -0.0641309 7.82349 
5.53185 0.142044 7.56803 5.59968 -0.19033 7.67573 5.64935 -0.294662 7.55357 
5.64935 -0.294662 7.55357 5.69548 -0.244358 7.23093 5.53185 0.142044 7.56803 
5.69548 -0.244358 7.23093 5.67567 -0.35468 7.4833 5.7417 -0.525304 7.28352 
5.80055 -0.587296 6.88721 5.69548 -0.244358 7.23093 5.7417 -0.525304 7.28352 
5.80055 -0.587296 6.88721 5.79323 -0.68919 7.09164 5.81389 -0.767791 6.99961 
5.80055 -0.587296 6.88721 5.83456 -0.858677 6.89319 5.86322 -0.947977 6.64242 
5.87572 -1.08906 6.27294 5.88785 -1.37196 6.29221 5.884 -1.51982 6.11372 
5.884 -1.51982 6.11372 5.85653 -1.40221 5.78857 5.87572 -1.08906 6.27294 
5.85653 -1.40221 5.78857 5.884 -1.51982 6.11372 5.86267 -1.72509 5.87875 
5.80558 -1.79697 5.44562 5.85653 -1.40221 5.78857 5.86267 -1.72509 5.87875 
5.80558 -1.79697 5.44562 5.83456 -1.88525 5.69123 5.81389 -1.97614 5.58481 
5.80558 -1.79697 5.44562 5.79323 -2.05474 5.49278 5.7417 -2.21863 5.3009 
5.7417 -2.21863 5.3009 5.72914 -1.96603 5.13524 5.80558 -1.79697 5.44562 
5.72914 -1.96603 5.13524 5.7417 -2.21863 5.3009 5.66654 -2.40746 5.07003 
5.63484 -2.28859 4.87359 5.59968 -2.5536 4.90869 5.53277 -2.6798 4.76093 
5.53277 -2.6798 4.76093 5.50028 -2.53975 4.57071 5.63484 -2.28859 4.87359 
5.50028 -2.53975 4.57071 5.51241 -2.71557 4.71905 5.40553 -2.88766 4.51572 
5.36743 -2.67377 4.28188 5.30477 -3.03107 4.34964 5.23333 -3.12415 4.24066 
5.23333 -3.12415 4.24066 5.13086 -3.0531 3.96017 5.36743 -2.67377 4.28188 
5.13086 -3.0531 3.96017 5.18481 -3.18397 4.17063 5.0533 -3.3335 3.99349 
4.92809 -3.27455 3.70849 5.13086 -3.0531 3.96017 5.0533 -3.3335 3.99349 
4.68334 -3.52325 3.45314 4.92809 -3.27455 3.70849 4.84968 -3.54032 3.75339 
4.92809 -3.27455 3.70849 4.91384 -3.47851 3.82576 4.84968 -3.54032 3.75339 
4.68334 -3.52325 3.45314 4.76337 -3.61957 3.6606 4.61515 -3.74768 3.51223 
4.68334 -3.52325 3.45314 4.61515 -3.74768 3.51223 4.41491 -3.90263 3.32926 
4.3433 -3.7698 3.13291 4.25571 -4.01449 3.19821 4.09375 -4.11957 3.07232 
4.09375 -4.11957 3.07232 3.99401 -4.01269 2.87286 4.3433 -3.7698 3.13291 
3.99401 -4.01269 2.87286 4.09375 -4.11957 3.07232 3.87384 -4.2516 2.92059 
3.56214 -4.23664 2.58996 3.99401 -4.01269 2.87286 3.85572 -4.26184 2.9086 
3.99401 -4.01269 2.87286 3.87384 -4.2516 2.92059 3.85572 -4.26184 2.9086 
3.56214 -4.23664 2.58996 3.67101 -4.36157 2.79183 3.56574 -4.41484 2.72946 
3.56214 -4.23664 2.58996 3.46079 -4.46553 2.67012 3.25197 -4.48475 2.49597 
2.91496 -4.51204 2.2618 3.01987 -4.65454 2.4488 2.94392 -4.68352 2.41488 
2.91496 -4.51204 2.2618 2.79007 -4.73923 2.34965 2.58081 -4.80802 2.26636 
2.58081 -4.80802 2.26636 2.46141 -4.67862 2.0938 2.91496 -4.51204 2.2618 
2.46141 -4.67862 2.0938 2.58081 -4.80802 2.26636 2.31407 -4.8881 2.17534 
1.92496 -4.80354 1.91917 2.46141 -4.67862 2.0938 2.27474 -4.89891 2.16269 
2.46141 -4.67862 2.0938 2.31407 -4.8881 2.17534 2.27474 -4.89891 2.16269 
1.92496 -4.80354 1.91917 2.06884 -4.95199 2.10054 1.92573 -4.98551 2.06129 
1.92496 -4.80354 1.91917 1.81944 -5.00866 2.03418 1.56767 -5.05778 1.97667 
1.56767 -5.05778 1.97667 1.4737 -4.88593 1.81201 1.92496 -4.80354 1.91917 
1.4737 -4.88593 1.81201 1.56767 -5.05778 1.97667 1.31017 -5.09994 1.92731 
0.963209 -4.99003 1.75131 1.4737 -4.88593 1.81201 1.20587 -5.11476 1.90996 
1.4737 -4.88593 1.81201 1.31017 -5.09994 1.92731 1.20587 -5.11476 1.90996 
0.963209 -4.99003 1.75131 1.05132 -5.13436 1.887 0.811959 -5.15881 1.85675 
0.963209 -4.99003 1.75131 0.811959 -5.15881 1.85675 0.501267 -5.18515 1.83323 
0.401376 -5.00378 1.68335 0.264157 -5.19197 1.81956 0.0346292 -5.19395 1.81253 
0.0346292 -5.19395 1.81253 -0.0708477 -5.02883 1.68384 0.401376 -5.00378 1.68335 
-0.0708477 -5.02883 1.68384 0.0346292 -5.19395 1.81253 -0.272156 -5.19172 1.81984 
-0.638131 -4.98733 1.69598 -0.0708477 -5.02883 1.68384 -0.272156 -5.19172 1.81984 
-0.638131 -4.98733 1.69598 -0.527782 -5.18042 1.83308 -0.652598 -5.17225 1.84264 
-0.638131 -4.98733 1.69598 -0.790345 -5.16121 1.85557 -1.03772 -5.13652 1.88519 
-1.03772 -5.13652 1.88519 -1.08546 -4.94422 1.74875 -0.638131 -4.98733 1.69598 
-1.08546 -4.94422 1.74875 -1.03772 -5.13652 1.88519 -1.34268 -5.09764 1.93425 
-1.47502 -4.81757 1.76692 -1.56638 -5.05801 1.9764 -1.78967 -5.01591 2.02679 
-1.78967 -5.01591 2.02679 -1.90292 -4.80298 1.91068 -1.47502 -4.81757 1.76692 
-1.90292 -4.80298 1.91068 -1.78967 -5.01591 2.02679 -2.08414 -4.94888 2.10493 
-2.38926 -4.68415 2.05738 -1.90292 -4.80298 1.91068 -2.08414 -4.94888 2.10493 
-2.38926 -4.68415 2.05738 -2.31407 -4.8881 2.17534 -2.4459 -4.85026 2.21965 
-2.38926 -4.68415 2.05738 -2.55464 -4.81714 2.25843 -2.78551 -4.74094 2.34771 
-2.78551 -4.74094 2.34771 -2.78558 -4.47703 2.15622 -2.38926 -4.68415 2.05738 
-2.78558 -4.47703 2.15622 -2.78551 -4.74094 2.34771 -3.05236 -4.64298 2.4635 
-3.11383 -4.33631 2.29114 -3.2436 -4.56325 2.5557 -3.44211 -4.40481 2.59954 
-3.75968 -4.13147 2.70833 -3.87384 -4.2516 2.92059 -3.99496 -4.18093 3.00333 
-3.99496 -4.18093 3.00333 -4.15512 -3.82038 2.93419 -3.75968 -4.13147 2.70833 
-4.15512 -3.82038 2.93419 -4.06887 -4.13582 3.05614 -4.25847 -4.0126 3.20042 
-4.46715 -3.69414 3.24506 -4.43397 -3.88782 3.34652 -4.51035 -3.82989 3.41435 
-4.46715 -3.69414 3.24506 -4.6033 -3.7561 3.50075 -4.74131 -3.63916 3.63767 
-4.74131 -3.63916 3.63767 -4.81968 -3.37577 3.57944 -4.46715 -3.69414 3.24506 
-4.81968 -3.37577 3.57944 -4.76337 -3.61957 3.6606 -4.93127 -3.46232 3.8452 
-5.11452 -3.08731 3.94508 -4.81968 -3.37577 3.57944 -4.93127 -3.46232 3.8452 
-5.11452 -3.08731 3.94508 -5.05441 -3.33321 3.99588 -5.16959 -3.19992 4.14528 
-5.11452 -3.08731 3.94508 -5.16959 -3.19992 4.14528 -5.31053 -3.02325 4.3588 
-5.45306 -2.61625 4.47095 -5.29569 -2.83519 4.1976 -5.31053 -3.02325 4.3588 
-5.45306 -2.61625 4.47095 -5.41404 -2.87483 4.53258 -5.46609 -2.79315 4.62822 
-5.45306 -2.61625 4.47095 -5.51241 -2.71557 4.71905 -5.59709 -2.55932 4.90224 
-5.59709 -2.55932 4.90224 -5.59948 -2.35085 4.78556 -5.45306 -2.61625 4.47095 
-5.59948 -2.35085 4.78556 -5.59709 -2.55932 4.90224 -5.68585 -2.36787 5.12825 
-5.70083 -2.12273 5.05487 -5.74023 -2.22285 5.29595 -5.78884 -2.07163 5.47116 
-5.78884 -2.07163 5.47116 -5.80299 -1.82659 5.43379 -5.70083 -2.12273 5.05487 
-5.80299 -1.82659 5.43379 -5.78884 -2.07163 5.47116 -5.83456 -1.88525 5.69123 
-5.86589 -1.44173 5.85522 -5.80299 -1.82659 5.43379 -5.84048 -1.85604 5.72543 
-5.80299 -1.82659 5.43379 -5.83456 -1.88525 5.69123 -5.84048 -1.85604 5.72543 
-5.86589 -1.44173 5.85522 -5.86414 -1.71473 5.89088 -5.87599 -1.61449 6.00825 
-5.86589 -1.44173 5.85522 -5.88192 -1.54352 6.09134 -5.88785 -1.37196 6.29221 
-5.8 -0.573035 6.64359 -5.84901 -0.814034 6.63152 -5.75417 -0.414695 7.04543 
-5.233 0.679692 7.92807 -5.31011 0.351827 8.16575 -5.12041 0.67739 8.33729 
-4.59479 1.3111 8.74441 -4.8554 0.943773 8.67525 -4.51379 1.24355 9.01168 
-4.25353 1.53336 9.09318 -4.25814 1.34261 9.32128 -3.98861 1.68087 9.33821 
-0.159803 2.75143 10.4528 -0.271477 2.52607 10.6977 0.116053 2.61911 10.6119 
2.42853 2.39442 10.0721 2.31178 2.25666 10.306 2.66123 2.20515 10.1285 
3.40411 2.04162 9.62646 3.09713 2.03461 9.95592 3.55895 1.83814 9.70263 
3.9178 1.76368 9.32211 3.86585 1.58698 9.60569 4.15765 1.50204 9.30202 
5.80135 -0.599922 6.44573 5.86322 -0.947977 6.64242 5.87572 -1.08906 6.27294 
4.49337 -3.49144 3.17894 4.68334 -3.52325 3.45314 4.3433 -3.7698 3.13291 
3.85065 -3.9463 2.69401 3.99401 -4.01269 2.87286 3.56214 -4.23664 2.58996 
3.13867 -4.26679 2.27405 3.25197 -4.48475 2.49597 2.91496 -4.51204 2.2618 
2.30004 -4.57898 1.95324 2.46141 -4.67862 2.0938 1.92496 -4.80354 1.91917 
0.698706 -4.84758 1.61959 0.963209 -4.99003 1.75131 0.401376 -5.00378 1.68335 
-0.15458 -4.84948 1.57678 -0.0708477 -5.02883 1.68384 -0.638131 -4.98733 1.69598 
-3.5325 -4.0936 2.484 -3.44211 -4.40481 2.59954 -3.75968 -4.13147 2.70833 
-5.80011 -1.59354 5.44873 -5.80299 -1.82659 5.43379 -5.86589 -1.44173 5.85522 
-5.79664 -0.69833 6.17562 -5.87596 -1.13086 6.20864 -5.84901 -0.814034 6.63152 
-5.79664 -0.69833 6.17562 -5.84901 -0.814034 6.63152 -5.8 -0.573035 6.64359 
-5.71507 -0.253025 6.88442 -5.75417 -0.414695 7.04543 -5.63943 -0.118658 7.39477 
-5.50511 0.236118 7.46644 -5.63943 -0.118658 7.39477 -5.47411 0.191698 7.77752 
-5.28031 0.645259 7.73822 -5.47411 0.191698 7.77752 -5.233 0.679692 7.92807 
-4.94196 0.99076 8.35908 -5.12041 0.67739 8.33729 -4.8554 0.943773 8.67525 
-4.94196 0.99076 8.35908 -4.8554 0.943773 8.67525 -4.59479 1.3111 8.74441 
-4.59479 1.3111 8.74441 -4.51379 1.24355 9.01168 -4.25353 1.53336 9.09318 
-2.86322 2.30601 9.82725 -2.93448 2.1174 10.0073 -2.45199 2.27516 10.2049 
-2.42953 2.48554 9.94311 -2.45199 2.27516 10.2049 -1.94885 2.47523 10.2818 
-0.675848 2.74239 10.4003 -0.707878 2.59296 10.5811 -0.159803 2.75143 10.4528 
0.393396 2.75572 10.4256 0.116053 2.61911 10.6119 0.529736 2.60359 10.5928 
0.393396 2.75572 10.4256 0.529736 2.60359 10.5928 0.910234 2.64959 10.4776 
1.41487 2.64446 10.3131 1.39703 2.51445 10.4797 1.90943 2.4229 10.3618 
1.89147 2.55821 10.198 1.90943 2.4229 10.3618 2.42853 2.39442 10.0721 
2.88128 2.27031 9.85724 2.66123 2.20515 10.1285 3.09713 2.03461 9.95592 
2.88128 2.27031 9.85724 3.09713 2.03461 9.95592 3.40411 2.04162 9.62646 
3.40411 2.04162 9.62646 3.55895 1.83814 9.70263 3.9178 1.76368 9.32211 
4.2862 1.55509 8.99501 4.15765 1.50204 9.30202 4.48552 1.27378 9.02551 
4.56249 1.33622 8.7641 4.48552 1.27378 9.02551 4.815 0.994336 8.70746 
4.79848 1.13192 8.52436 4.815 0.994336 8.70746 5.09177 0.714429 8.36887 
5.06335 0.854337 8.22077 5.09177 0.714429 8.36887 5.28072 0.477205 8.10245 
5.30406 0.58031 7.79418 5.28072 0.477205 8.10245 5.45171 0.240041 7.79885 
5.71431 -0.250235 6.84483 5.69548 -0.244358 7.23093 5.80055 -0.587296 6.88721 
5.8109 -0.964111 5.89351 5.87572 -1.08906 6.27294 5.85653 -1.40221 5.78857 
5.72753 -1.57335 5.18206 5.80558 -1.79697 5.44562 5.72914 -1.96603 5.13524 
5.49219 -2.18277 4.48053 5.63484 -2.28859 4.87359 5.50028 -2.53975 4.57071 
5.49219 -2.18277 4.48053 5.50028 -2.53975 4.57071 5.36743 -2.67377 4.28188 
5.12347 -2.85689 3.87029 5.36743 -2.67377 4.28188 5.13086 -3.0531 3.96017 
5.12347 -2.85689 3.87029 5.13086 -3.0531 3.96017 4.92809 -3.27455 3.70849 
4.79837 -3.17122 3.4659 4.92809 -3.27455 3.70849 4.68334 -3.52325 3.45314 
4.79837 -3.17122 3.4659 4.68334 -3.52325 3.45314 4.49337 -3.49144 3.17894 
4.12687 -3.70739 2.85825 4.3433 -3.7698 3.13291 3.99401 -4.01269 2.87286 
4.12687 -3.70739 2.85825 3.99401 -4.01269 2.87286 3.85065 -3.9463 2.69401 
3.56018 -4.0142 2.47319 3.56214 -4.23664 2.58996 3.13867 -4.26679 2.27405 
2.64928 -4.4044 2.04215 2.91496 -4.51204 2.2618 2.46141 -4.67862 2.0938 
2.64928 -4.4044 2.04215 2.46141 -4.67862 2.0938 2.30004 -4.57898 1.95324 
1.85699 -4.49021 1.72432 1.92496 -4.80354 1.91917 1.4737 -4.88593 1.81201 
1.17322 -4.72927 1.644 1.4737 -4.88593 1.81201 0.963209 -4.99003 1.75131 
1.17322 -4.72927 1.644 0.963209 -4.99003 1.75131 0.698706 -4.84758 1.61959 
0.261815 -4.81291 1.5644 0.401376 -5.00378 1.68335 -0.0708477 -5.02883 1.68384 
-0.661928 -4.7941 1.58746 -0.638131 -4.98733 1.69598 -1.08546 -4.94422 1.74875 
-1.0503 -4.6941 1.60057 -1.08546 -4.94422 1.74875 -1.47502 -4.81757 1.76692 
-1.92156 -4.60597 1.80406 -1.90292 -4.80298 1.91068 -2.38926 -4.68415 2.05738 
-2.41464 -4.47779 1.95623 -2.38926 -4.68415 2.05738 -2.78558 -4.47703 2.15622 
-3.93863 -3.82428 2.72139 -3.75968 -4.13147 2.70833 -4.15512 -3.82038 2.93419 
-4.47669 -3.46011 3.14884 -4.46715 -3.69414 3.24506 -4.81968 -3.37577 3.57944 
-4.94276 -3.04296 3.63621 -4.81968 -3.37577 3.57944 -5.11452 -3.08731 3.94508 
-5.15489 -2.70179 3.88349 -5.11452 -3.08731 3.94508 -5.29569 -2.83519 4.1976 
-5.15489 -2.70179 3.88349 -5.29569 -2.83519 4.1976 -5.45306 -2.61625 4.47095 
-5.41772 -2.43736 4.34526 -5.45306 -2.61625 4.47095 -5.59948 -2.35085 4.78556 
-5.59037 -2.12006 4.71969 -5.59948 -2.35085 4.78556 -5.70083 -2.12273 5.05487 
-5.71855 -1.78644 5.1074 -5.70083 -2.12273 5.05487 -5.80299 -1.82659 5.43379 
-5.71855 -1.78644 5.1074 -5.80299 -1.82659 5.43379 -5.80011 -1.59354 5.44873 
-5.82386 -1.28103 5.69916 -5.86589 -1.44173 5.85522 -5.87596 -1.13086 6.20864 
-5.72023 -0.356111 6.44458 -5.8 -0.573035 6.64359 -5.71507 -0.253025 6.88442 
-5.65323 -0.0985127 6.73594 -5.71507 -0.253025 6.88442 -5.59803 0.0682662 7.04554 
-5.44438 0.390299 7.30017 -5.50511 0.236118 7.46644 -5.28031 0.645259 7.73822 
-4.89286 1.12696 8.20458 -4.94196 0.99076 8.35908 -4.59479 1.3111 8.74441 
-4.25032 1.6834 8.81404 -4.59479 1.3111 8.74441 -4.25353 1.53336 9.09318 
-4.25032 1.6834 8.81404 -4.25353 1.53336 9.09318 -3.98861 1.68087 9.33821 
-3.9088 1.90085 9.08574 -3.98861 1.68087 9.33821 -3.66589 1.85021 9.56068 
-3.59857 2.07154 9.287 -3.66589 1.85021 9.56068 -3.35872 1.99784 9.74172 
-3.18819 2.2817 9.49086 -3.35872 1.99784 9.74172 -2.86322 2.30601 9.82725 
-1.87157 2.6818 10.0195 -1.94885 2.47523 10.2818 -1.56227 2.56201 10.3624 
-1.46822 2.80097 10.0411 -1.56227 2.56201 10.3624 -1.21855 2.61302 10.4327 
-1.03001 2.82899 10.1739 -1.21855 2.61302 10.4327 -0.675848 2.74239 10.4003 
-0.662069 2.8627 10.2229 -0.675848 2.74239 10.4003 -0.159803 2.75143 10.4528 
-0.105026 2.87993 10.2641 -0.159803 2.75143 10.4528 0.393396 2.75572 10.4256 
0.561419 2.88135 10.2152 0.393396 2.75572 10.4256 0.910234 2.64959 10.4776 
1.20468 2.8041 10.1548 0.910234 2.64959 10.4776 1.41487 2.64446 10.3131 
1.66648 2.73412 10.0526 1.41487 2.64446 10.3131 1.89147 2.55821 10.198 
2.1428 2.62771 9.9243 1.89147 2.55821 10.198 2.42853 2.39442 10.0721 
2.61884 2.48148 9.76612 2.42853 2.39442 10.0721 2.88128 2.27031 9.85724 
2.96138 2.35824 9.62268 2.88128 2.27031 9.85724 3.40411 2.04162 9.62646 
3.40751 2.16417 9.41737 3.40411 2.04162 9.62646 3.9178 1.76368 9.32211 
3.89594 1.9098 9.09216 3.9178 1.76368 9.32211 4.2862 1.55509 8.99501 
4.23973 1.68572 8.83806 4.2862 1.55509 8.99501 4.56249 1.33622 8.7641 
4.59147 1.41269 8.51471 4.56249 1.33622 8.7641 4.79848 1.13192 8.52436 
4.89359 1.13654 8.17237 4.79848 1.13192 8.52436 5.06335 0.854337 8.22077 
5.11585 0.900926 7.78321 5.06335 0.854337 8.22077 5.30406 0.58031 7.79418 
5.4561 0.367592 7.30913 5.53185 0.142044 7.56803 5.60888 0.0344281 7.12598 
5.74441 -1.23983 5.40492 5.8109 -0.964111 5.89351 5.85653 -1.40221 5.78857 
5.74441 -1.23983 5.40492 5.85653 -1.40221 5.78857 5.72753 -1.57335 5.18206 
5.72753 -1.57335 5.18206 5.72914 -1.96603 5.13524 5.6163 -1.98116 4.78972 
5.25675 -2.40831 4.03759 5.36743 -2.67377 4.28188 5.12347 -2.85689 3.87029 
4.88955 -2.85656 3.51985 5.12347 -2.85689 3.87029 4.79837 -3.17122 3.4659 
4.58702 -3.13402 3.18724 4.79837 -3.17122 3.4659 4.49337 -3.49144 3.17894 
4.26429 -3.37061 2.89135 4.49337 -3.49144 3.17894 4.12687 -3.70739 2.85825 
3.98868 -3.56991 2.68171 4.12687 -3.70739 2.85825 3.85065 -3.9463 2.69401 
3.70027 -3.73603 2.48302 3.85065 -3.9463 2.69401 3.56018 -4.0142 2.47319 
3.28436 -3.9314 2.23857 3.56018 -4.0142 2.47319 3.13867 -4.26679 2.27405 
2.85539 -4.10291 2.0339 3.13867 -4.26679 2.27405 2.64928 -4.4044 2.04215 
2.38397 -4.26819 1.85212 2.64928 -4.4044 2.04215 2.30004 -4.57898 1.95324 
2.38397 -4.26819 1.85212 2.30004 -4.57898 1.95324 1.85699 -4.49021 1.72432 
1.13729 -4.53248 1.54817 1.17322 -4.72927 1.644 0.698706 -4.84758 1.61959 
0.652971 -4.59292 1.49363 0.698706 -4.84758 1.61959 0.261815 -4.81291 1.5644 
0.0730592 -4.62257 1.47039 0.261815 -4.81291 1.5644 -0.15458 -4.84948 1.57678 
-0.400177 -4.61054 1.47908 -0.15458 -4.84948 1.57678 -0.661928 -4.7941 1.58746 
-0.919874 -4.49073 1.4942 -0.661928 -4.7941 1.58746 -1.0503 -4.6941 1.60057 
-1.39156 -4.49897 1.5931 -1.47502 -4.81757 1.76692 -1.92156 -4.60597 1.80406 
-1.90429 -4.40131 1.70838 -1.92156 -4.60597 1.80406 -2.41464 -4.47779 1.95623 
-2.39075 -4.27449 1.858 -2.41464 -4.47779 1.95623 -2.78558 -4.47703 2.15622 
-2.73609 -4.16095 1.9897 -2.78558 -4.47703 2.15622 -3.11383 -4.33631 2.29114 
-3.08533 -4.03491 2.14506 -3.11383 -4.33631 2.29114 -3.5325 -4.0936 2.484 
-3.51016 -3.84933 2.37087 -3.5325 -4.0936 2.484 -3.93863 -3.82428 2.72139 
-3.90581 -3.6268 2.62133 -3.93863 -3.82428 2.72139 -4.15512 -3.82038 2.93419 
-4.24585 -3.39377 2.87679 -4.15512 -3.82038 2.93419 -4.47669 -3.46011 3.14884 
-5.44551 -2.08779 4.3961 -5.41772 -2.43736 4.34526 -5.59037 -2.12006 4.71969 
-5.56474 -1.85674 4.68757 -5.59037 -2.12006 4.71969 -5.71855 -1.78644 5.1074 
-5.66134 -1.60796 4.98509 -5.71855 -1.78644 5.1074 -5.80011 -1.59354 5.44873 
-5.73582 -1.28687 5.35035 -5.80011 -1.59354 5.44873 -5.82386 -1.28103 5.69916 
-4.97371 1.08492 7.86456 -5.233 0.679692 7.92807 -4.89286 1.12696 8.20458 
-2.64529 2.54626 9.6007 -2.86322 2.30601 9.82725 -2.42953 2.48554 9.94311 
-2.22512 2.6644 9.77173 -2.42953 2.48554 9.94311 -1.87157 2.6818 10.0195 
5.26726 0.688688 7.45847 5.30406 0.58031 7.79418 5.4561 0.367592 7.30913 
5.67468 -0.222307 6.49062 5.71431 -0.250235 6.84483 5.80135 -0.599922 6.44573 
5.70511 -0.518726 6.03088 5.80135 -0.599922 6.44573 5.81672 -0.805123 6.16663 
5.70511 -0.518726 6.03088 5.81672 -0.805123 6.16663 5.8109 -0.964111 5.89351 
5.57077 -1.71767 4.73977 5.72753 -1.57335 5.18206 5.6163 -1.98116 4.78972 
5.57077 -1.71767 4.73977 5.6163 -1.98116 4.78972 5.49219 -2.18277 4.48053 
-0.919874 -4.49073 1.4942 -1.0503 -4.6941 1.60057 -1.39156 -4.49897 1.5931 
-5.67427 -0.600313 5.81025 -5.79872 -0.957021 5.84674 -5.79664 -0.69833 6.17562 
-5.61924 -0.230741 6.17262 -5.79664 -0.69833 6.17562 -5.72023 -0.356111 6.44458 
-5.61924 -0.230741 6.17262 -5.72023 -0.356111 6.44458 -5.65323 -0.0985127 6.73594 
-5.5298 0.099703 6.53127 -5.65323 -0.0985127 6.73594 -5.59803 0.0682662 7.04554 
-5.47702 0.282069 6.86737 -5.59803 0.0682662 7.04554 -5.44438 0.390299 7.30017 
-5.31959 0.586556 7.10669 -5.44438 0.390299 7.30017 -5.20935 0.779019 7.52676 
-5.20935 0.779019 7.52676 -5.28031 0.645259 7.73822 -4.97371 1.08492 7.86456 
-4.5961 1.4947 8.13732 -4.89286 1.12696 8.20458 -4.59125 1.41354 8.52203 
-4.40379 1.64955 8.37146 -4.59125 1.41354 8.52203 -4.25032 1.6834 8.81404 
-4.05611 1.91272 8.65299 -4.25032 1.6834 8.81404 -3.9088 1.90085 9.08574 
-3.63238 2.14402 9.0261 -3.9088 1.90085 9.08574 -3.59857 2.07154 9.287 
-3.63238 2.14402 9.0261 -3.59857 2.07154 9.287 -3.18819 2.2817 9.49086 
-3.1739 2.36689 9.29765 -3.18819 2.2817 9.49086 -2.64529 2.54626 9.6007 
-2.64529 2.54626 9.6007 -2.42953 2.48554 9.94311 -2.22512 2.6644 9.77173 
-1.79591 2.84443 9.71459 -1.87157 2.6818 10.0195 -1.46822 2.80097 10.0411 
-1.03244 2.95844 9.90928 -1.46822 2.80097 10.0411 -1.03001 2.82899 10.1739 
-1.03244 2.95844 9.90928 -1.03001 2.82899 10.1739 -0.662069 2.8627 10.2229 
0.131403 3.02112 9.97103 -0.105026 2.87993 10.2641 0.561419 2.88135 10.2152 
0.798733 2.9782 9.95004 0.561419 2.88135 10.2152 1.20468 2.8041 10.1548 
1.27794 2.91744 9.87941 1.20468 2.8041 10.1548 1.66648 2.73412 10.0526 
1.75997 2.84671 9.74457 1.66648 2.73412 10.0526 2.1428 2.62771 9.9243 
2.35427 2.66558 9.63677 2.1428 2.62771 9.9243 2.61884 2.48148 9.76612 
2.82963 2.51776 9.42703 2.61884 2.48148 9.76612 2.96138 2.35824 9.62268 
2.82963 2.51776 9.42703 2.96138 2.35824 9.62268 3.40751 2.16417 9.41737 
3.54253 2.18536 9.09583 3.40751 2.16417 9.41737 3.89594 1.9098 9.09216 
3.92192 2.00241 8.74766 3.89594 1.9098 9.09216 4.23973 1.68572 8.83806 
4.36232 1.66996 8.47105 4.23973 1.68572 8.83806 4.59147 1.41269 8.51471 
4.72706 1.35666 8.09754 4.59147 1.41269 8.51471 4.89359 1.13654 8.17237 
4.72706 1.35666 8.09754 4.89359 1.13654 8.17237 5.11585 0.900926 7.78321 
5.34253 0.537567 7.00399 5.4561 0.367592 7.30913 5.55874 0.137721 6.87752 
5.53723 0.0852814 6.53261 5.55874 0.137721 6.87752 5.67468 -0.222307 6.49062 
5.60386 -0.211955 6.15656 5.67468 -0.222307 6.49062 5.70511 -0.518726 6.03088 
5.67427 -0.775229 5.60545 5.8109 -0.964111 5.89351 5.74441 -1.23983 5.40492 
5.47571 -1.52681 4.62834 5.57077 -1.71767 4.73977 5.40149 -1.93284 4.34461 
5.40149 -1.93284 4.34461 5.49219 -2.18277 4.48053 5.25675 -2.40831 4.03759 
5.13105 -2.16546 3.87561 5.25675 -2.40831 4.03759 5.08296 -2.63678 3.77427 
4.92026 -2.45833 3.55672 5.08296 -2.63678 3.77427 4.88955 -2.85656 3.51985 
4.63413 -2.74499 3.21359 4.88955 -2.85656 3.51985 4.58702 -3.13402 3.18724 
4.25782 -3.08886 2.84745 4.58702 -3.13402 3.18724 4.26429 -3.37061 2.89135 
4.25782 -3.08886 2.84745 4.26429 -3.37061 2.89135 3.98868 -3.56991 2.68171 
3.91269 -3.31491 2.57668 3.98868 -3.56991 2.68171 3.70027 -3.73603 2.48302 
3.63238 -3.52217 2.39184 3.70027 -3.73603 2.48302 3.28436 -3.9314 2.23857 
3.22939 -3.72831 2.15845 3.28436 -3.9314 2.23857 2.85539 -4.10291 2.0339 
2.69949 -3.91107 1.90511 2.85539 -4.10291 2.0339 2.38397 -4.26819 1.85212 
2.1063 -4.11073 1.70007 2.38397 -4.26819 1.85212 1.85699 -4.49021 1.72432 
1.59734 -4.20212 1.55898 1.85699 -4.49021 1.72432 1.55302 -4.54456 1.65384 
1.59734 -4.20212 1.55898 1.55302 -4.54456 1.65384 1.13729 -4.53248 1.54817 
1.11597 -4.25512 1.46324 1.13729 -4.53248 1.54817 0.652971 -4.59292 1.49363 
-0.150259 -4.31647 1.37797 0.0730592 -4.62257 1.47039 -0.400177 -4.61054 1.47908 
-0.740927 -4.29458 1.41334 -0.400177 -4.61054 1.47908 -0.919874 -4.49073 1.4942 
-1.39703 -4.20362 1.50983 -1.39156 -4.49897 1.5931 -1.90429 -4.40131 1.70838 
-1.90191 -4.06672 1.61709 -1.90429 -4.40131 1.70838 -2.39075 -4.27449 1.858 
-2.3518 -3.98629 1.76682 -2.39075 -4.27449 1.858 -2.73609 -4.16095 1.9897 
-2.75859 -3.82332 1.91719 -2.73609 -4.16095 1.9897 -3.08533 -4.03491 2.14506 
-3.22362 -3.6655 2.14413 -3.08533 -4.03491 2.14506 -3.51016 -3.84933 2.37087 
-3.51934 -3.52344 2.31313 -3.51016 -3.84933 2.37087 -3.90581 -3.6268 2.62133 
-3.94001 -3.33532 2.59932 -3.90581 -3.6268 2.62133 -4.24585 -3.39377 2.87679 
-4.36232 -3.04812 2.94689 -4.24585 -3.39377 2.87679 -4.64185 -3.1657 3.25302 
-4.63013 -2.73193 3.20894 -4.64185 -3.1657 3.25302 -4.81804 -2.92474 3.4371 
-4.63013 -2.73193 3.20894 -4.81804 -2.92474 3.4371 -4.95031 -2.54583 3.59048 
-5.33991 -1.8473 4.26772 -5.44551 -2.08779 4.3961 -5.56474 -1.85674 4.68757 
-5.4526 -1.60944 4.54705 -5.56474 -1.85674 4.68757 -5.66134 -1.60796 4.98509 
-5.542 -1.39009 4.82004 -5.66134 -1.60796 4.98509 -5.73582 -1.28687 5.35035 
-5.54923 -0.493991 5.59051 -5.67427 -0.600313 5.81025 -5.61924 -0.230741 6.17262 
-5.27724 0.547205 6.7137 -5.47702 0.282069 6.86737 -5.31959 0.586556 7.10669 
-5.06842 0.95676 7.35453 -5.20935 0.779019 7.52676 -4.97371 1.08492 7.86456 
-4.83574 1.2522 7.69722 -4.97371 1.08492 7.86456 -4.5961 1.4947 8.13732 
-3.56187 2.23558 8.84332 -3.63238 2.14402 9.0261 -3.1739 2.36689 9.29765 
-2.72932 2.5822 9.3717 -3.1739 2.36689 9.29765 -2.64529 2.54626 9.6007 
-2.31856 2.72071 9.51511 -2.64529 2.54626 9.6007 -2.22512 2.6644 9.77173 
-2.31856 2.72071 9.51511 -2.22512 2.6644 9.77173 -1.79591 2.84443 9.71459 
-1.79591 2.84443 9.71459 -1.46822 2.80097 10.0411 -1.03244 2.95844 9.90928 
-0.643026 3.0828 9.67407 -1.03244 2.95844 9.90928 -0.314371 3.00686 9.99074 
2.30693 2.7472 9.44165 2.35427 2.66558 9.63677 2.82963 2.51776 9.42703 
3.53434 2.25106 8.85241 3.54253 2.18536 9.09583 3.92192 2.00241 8.74766 
4.28279 1.76738 8.29513 4.36232 1.66996 8.47105 4.72706 1.35666 8.09754 
4.90969 1.16617 7.71374 4.72706 1.35666 8.09754 5.11585 0.900926 7.78321 
5.10869 0.908659 7.39348 5.11585 0.900926 7.78321 5.26726 0.688688 7.45847 
5.10869 0.908659 7.39348 5.26726 0.688688 7.45847 5.34253 0.537567 7.00399 
5.34253 0.537567 7.00399 5.55874 0.137721 6.87752 5.53723 0.0852814 6.53261 
5.57498 -0.538796 5.59603 5.70511 -0.518726 6.03088 5.67427 -0.775229 5.60545 
5.57498 -0.538796 5.59603 5.67427 -0.775229 5.60545 5.63214 -0.998051 5.2841 
5.2957 -1.80033 4.21917 5.40149 -1.93284 4.34461 5.13105 -2.16546 3.87561 
3.56866 -3.30896 2.33372 3.63238 -3.52217 2.39184 3.22939 -3.72831 2.15845 
3.15071 -3.46144 2.08785 3.22939 -3.72831 2.15845 2.69949 -3.91107 1.90511 
2.58615 -3.77669 1.83395 2.69949 -3.91107 1.90511 2.1063 -4.11073 1.70007 
1.86643 -3.87282 1.58584 2.1063 -4.11073 1.70007 1.59734 -4.20212 1.55898 
-0.740927 -4.29458 1.41334 -0.919874 -4.49073 1.4942 -1.39703 -4.20362 1.50983 
-3.89787 -3.15613 2.55762 -3.94001 -3.33532 2.59932 -4.36232 -3.04812 2.94689 
-4.27933 -2.85294 2.87558 -4.36232 -3.04812 2.94689 -4.63013 -2.73193 3.20894 
-4.85621 -2.31252 3.512 -4.95031 -2.54583 3.59048 -5.20368 -2.36737 3.94934 
-5.091 -2.05077 3.85413 -5.20368 -2.36737 3.94934 -5.33991 -1.8473 4.26772 
-5.45245 -0.0342144 6.01209 -5.61924 -0.230741 6.17262 -5.5298 0.099703 6.53127 
-5.3649 0.279254 6.35589 -5.5298 0.099703 6.53127 -5.27724 0.547205 6.7137 
-5.08408 0.872586 7.03331 -5.31959 0.586556 7.10669 -5.06842 0.95676 7.35453 
-4.1951 1.84202 8.18491 -4.40379 1.64955 8.37146 -4.05611 1.91272 8.65299 
-3.82094 2.10423 8.49004 -4.05611 1.91272 8.65299 -3.56187 2.23558 8.84332 
-2.60458 2.68442 9.17885 -2.72932 2.5822 9.3717 -2.31856 2.72071 9.51511 
-1.9516 2.87609 9.41944 -2.31856 2.72071 9.51511 -1.79591 2.84443 9.71459 
-1.22216 3.02336 9.56543 -1.79591 2.84443 9.71459 -1.03244 2.95844 9.90928 
-1.22216 3.02336 9.56543 -1.03244 2.95844 9.90928 -0.643026 3.0828 9.67407 
-0.104961 3.11015 9.67126 -0.314371 3.00686 9.99074 0.131403 3.02112 9.97103 
1.10435 3.03973 9.58949 0.798733 2.9782 9.95004 1.27794 2.91744 9.87941 
1.10435 3.03973 9.58949 1.27794 2.91744 9.87941 1.75997 2.84671 9.74457 
1.69437 2.94864 9.42838 1.75997 2.84671 9.74457 2.30693 2.7472 9.44165 
2.91986 2.56395 9.02785 2.82963 2.51776 9.42703 3.24173 2.37238 9.14798 
4.03703 1.95777 8.30588 3.92192 2.00241 8.74766 4.28279 1.76738 8.29513 
4.82555 1.24428 7.49675 4.90969 1.16617 7.71374 5.10869 0.908659 7.39348 
5.13784 0.796868 6.95387 5.10869 0.908659 7.39348 5.34253 0.537567 7.00399 
5.36662 0.30669 6.41072 5.34253 0.537567 7.00399 5.53723 0.0852814 6.53261 
5.36662 0.30669 6.41072 5.53723 0.0852814 6.53261 5.60386 -0.211955 6.15656 
5.45208 -0.0500709 5.98056 5.60386 -0.211955 6.15656 5.57498 -0.538796 5.59603 
5.49248 -0.902797 5.07501 5.63214 -0.998051 5.2841 5.59089 -1.299 4.97029 
5.3516 -1.26021 4.57089 5.59089 -1.299 4.97029 5.47571 -1.52681 4.62834 
5.3516 -1.26021 4.57089 5.47571 -1.52681 4.62834 5.2957 -1.80033 4.21917 
5.15875 -1.64664 4.09786 5.2957 -1.80033 4.21917 5.13105 -2.16546 3.87561 
4.97515 -1.93755 3.75686 5.13105 -2.16546 3.87561 4.92026 -2.45833 3.55672 
4.70421 -2.29982 3.35543 4.92026 -2.45833 3.55672 4.63413 -2.74499 3.21359 
4.35983 -2.61361 2.97489 4.63413 -2.74499 3.21359 4.25782 -3.08886 2.84745 
4.06935 -2.91283 2.70384 4.25782 -3.08886 2.84745 3.91269 -3.31491 2.57668 
3.80033 -3.01203 2.50233 3.91269 -3.31491 2.57668 3.56866 -3.30896 2.33372 
1.34259 -3.90403 1.46182 1.59734 -4.20212 1.55898 1.11597 -4.25512 1.46324 
0.703234 -4.00366 1.36981 1.11597 -4.25512 1.46324 0.742671 -4.29967 1.41839 
0.703234 -4.00366 1.36981 0.742671 -4.29967 1.41839 0.324856 -4.34961 1.39134 
0.107494 -4.02699 1.33718 0.324856 -4.34961 1.39134 -0.150259 -4.31647 1.37797 
-0.506187 -4.01275 1.35336 -0.150259 -4.31647 1.37797 -0.740927 -4.29458 1.41334 
-0.972136 -3.9671 1.40289 -0.740927 -4.29458 1.41334 -1.39703 -4.20362 1.50983 
-1.34879 -3.9059 1.46455 -1.39703 -4.20362 1.50983 -1.90191 -4.06672 1.61709 
-2.41686 -3.6461 1.76152 -2.3518 -3.98629 1.76682 -2.75859 -3.82332 1.91719 
-2.97069 -3.40524 1.99979 -2.75859 -3.82332 1.91719 -3.22362 -3.6655 2.14413 
-3.43899 -3.22443 2.25588 -3.22362 -3.6655 2.14413 -3.51934 -3.52344 2.31313 
-3.43899 -3.22443 2.25588 -3.51934 -3.52344 2.31313 -3.89787 -3.15613 2.55762 
-4.63285 -2.33079 3.28338 -4.63013 -2.73193 3.20894 -4.85621 -2.31252 3.512 
-5.17825 -1.62811 4.1317 -5.33991 -1.8473 4.26772 -5.4526 -1.60944 4.54705 
-5.33846 -1.23589 4.56734 -5.4526 -1.60944 4.54705 -5.542 -1.39009 4.82004 
-5.33846 -1.23589 4.56734 -5.542 -1.39009 4.82004 -5.60303 -1.13735 5.10859 
-5.49226 -0.89913 5.07507 -5.60303 -1.13735 5.10859 -5.65778 -0.88231 5.44495 
-5.39383 -0.153091 5.70509 -5.54923 -0.493991 5.59051 -5.45245 -0.0342144 6.01209 
-4.78508 1.26901 7.42623 -5.06842 0.95676 7.35453 -4.83574 1.2522 7.69722 
-4.47447 1.60017 7.84077 -4.83574 1.2522 7.69722 -4.5961 1.4947 8.13732 
-4.47447 1.60017 7.84077 -4.5961 1.4947 8.13732 -4.1951 1.84202 8.18491 
-3.21834 2.44276 8.79074 -3.56187 2.23558 8.84332 -3.15812 2.43573 9.07543 
-3.21834 2.44276 8.79074 -3.15812 2.43573 9.07543 -2.60458 2.68442 9.17885 
2.37361 2.77131 9.17463 2.30693 2.7472 9.44165 2.63933 2.63972 9.31141 
2.37361 2.77131 9.17463 2.63933 2.63972 9.31141 2.91986 2.56395 9.02785 
3.29438 2.40044 8.7554 3.24173 2.37238 9.14798 3.53434 2.25106 8.85241 
3.677 2.19247 8.53155 3.53434 2.25106 8.85241 3.92192 2.00241 8.74766 
3.677 2.19247 8.53155 3.92192 2.00241 8.74766 4.03703 1.95777 8.30588 
4.37125 1.68687 7.81779 4.28279 1.76738 8.29513 4.58666 1.50848 7.99393 
4.37125 1.68687 7.81779 4.58666 1.50848 7.99393 4.82555 1.24428 7.49675 
5.43924 -0.409947 5.46513 5.57498 -0.538796 5.59603 5.49248 -0.902797 5.07501 
5.35113 -0.775134 4.94837 5.49248 -0.902797 5.07501 5.3516 -1.26021 4.57089 
3.96514 -2.72915 2.6579 4.06935 -2.91283 2.70384 3.80033 -3.01203 2.50233 
3.4261 -3.07025 2.26793 3.56866 -3.30896 2.33372 3.15071 -3.46144 2.08785 
2.75022 -3.45877 1.90086 3.15071 -3.46144 2.08785 2.58615 -3.77669 1.83395 
2.24572 -3.6216 1.7045 2.58615 -3.77669 1.83395 1.86643 -3.87282 1.58584 
-1.87711 -3.74535 1.58744 -1.90191 -4.06672 1.61709 -2.41686 -3.6461 1.76152 
-2.41686 -3.6461 1.76152 -2.75859 -3.82332 1.91719 -2.97069 -3.40524 1.99979 
-3.93305 -2.84776 2.61262 -3.89787 -3.15613 2.55762 -4.27933 -2.85294 2.87558 
-4.33531 -2.55567 2.97024 -4.27933 -2.85294 2.87558 -4.63013 -2.73193 3.20894 
-4.33531 -2.55567 2.97024 -4.63013 -2.73193 3.20894 -4.63285 -2.33079 3.28338 
-4.86261 -1.88381 3.65683 -4.85621 -2.31252 3.512 -5.091 -2.05077 3.85413 
-4.86261 -1.88381 3.65683 -5.091 -2.05077 3.85413 -5.17825 -1.62811 4.1317 
-5.35602 -0.74311 4.98335 -5.49226 -0.89913 5.07507 -5.54923 -0.493991 5.59051 
-5.23268 0.20378 5.92812 -5.45245 -0.0342144 6.01209 -5.3649 0.279254 6.35589 
-5.14295 0.506852 6.2743 -5.3649 0.279254 6.35589 -5.27724 0.547205 6.7137 
-4.98178 0.860783 6.69013 -5.27724 0.547205 6.7137 -5.08408 0.872586 7.03331 
-4.76898 1.19874 7.08306 -5.08408 0.872586 7.03331 -4.78508 1.26901 7.42623 
-4.47445 1.54438 7.4866 -4.78508 1.26901 7.42623 -4.47447 1.60017 7.84077 
-4.20987 1.79581 7.79596 -4.47447 1.60017 7.84077 -4.1951 1.84202 8.18491 
-3.86834 2.06015 8.09465 -4.1951 1.84202 8.18491 -3.82094 2.10423 8.49004 
-3.55105 2.26209 8.33938 -3.82094 2.10423 8.49004 -3.21834 2.44276 8.79074 
-2.70924 2.66881 8.79927 -3.21834 2.44276 8.79074 -2.60458 2.68442 9.17885 
-2.18248 2.84702 9.02805 -2.60458 2.68442 9.17885 -1.9516 2.87609 9.41944 
-1.58913 2.99611 9.20215 -1.9516 2.87609 9.41944 -1.22216 3.02336 9.56543 
-0.940558 3.09961 9.29047 -1.22216 3.02336 9.56543 -0.643026 3.0828 9.67407 
-0.364724 3.14403 9.37146 -0.643026 3.0828 9.67407 -0.104961 3.11015 9.67126 
0.138879 3.15158 9.38394 -0.104961 3.11015 9.67126 0.518785 3.09014 9.69078 
0.618792 3.1293 9.33938 0.518785 3.09014 9.69078 1.10435 3.03973 9.58949 
1.19689 3.06362 9.2756 1.10435 3.03973 9.58949 1.69437 2.94864 9.42838 
1.86217 2.93491 9.08258 1.69437 2.94864 9.42838 2.37361 2.77131 9.17463 
2.50345 2.74524 8.89314 2.37361 2.77131 9.17463 2.91986 2.56395 9.02785 
2.99708 2.54678 8.66747 2.91986 2.56395 9.02785 3.29438 2.40044 8.7554 
3.38593 2.35498 8.43605 3.29438 2.40044 8.7554 3.677 2.19247 8.53155 
3.82955 2.08665 8.11425 3.677 2.19247 8.53155 4.03703 1.95777 8.30588 
3.82955 2.08665 8.11425 4.03703 1.95777 8.30588 4.37125 1.68687 7.81779 
4.85396 1.08009 6.94812 4.82555 1.24428 7.49675 5.13784 0.796868 6.95387 
5.06618 0.702444 6.51196 5.13784 0.796868 6.95387 5.36662 0.30669 6.41072 
5.17229 0.406462 6.15371 5.36662 0.30669 6.41072 5.45208 -0.0500709 5.98056 
5.25145 0.0883268 5.78425 5.45208 -0.0500709 5.98056 5.43924 -0.409947 5.46513 
5.27881 -0.291971 5.33344 5.43924 -0.409947 5.46513 5.35113 -0.775134 4.94837 
5.06872 -1.26972 4.2085 5.3516 -1.26021 4.57089 5.15875 -1.64664 4.09786 
4.90621 -1.56172 3.86246 5.15875 -1.64664 4.09786 4.97515 -1.93755 3.75686 
4.70623 -1.85568 3.52331 4.97515 -1.93755 3.75686 4.70421 -2.29982 3.35543 
4.47973 -2.11928 3.22023 4.70421 -2.29982 3.35543 4.35983 -2.61361 2.97489 
4.19176 -2.3791 2.90761 4.35983 -2.61361 2.97489 3.96514 -2.72915 2.6579 
3.50821 -2.82208 2.3601 3.80033 -3.01203 2.50233 3.4261 -3.07025 2.26793 
3.01229 -3.10089 2.05775 3.15071 -3.46144 2.08785 2.75022 -3.45877 1.90086 
2.51547 -3.27497 1.82692 2.75022 -3.45877 1.90086 2.24572 -3.6216 1.7045 
1.85859 -3.49076 1.5948 2.24572 -3.6216 1.7045 1.86643 -3.87282 1.58584 
1.85859 -3.49076 1.5948 1.86643 -3.87282 1.58584 1.34259 -3.90403 1.46182 
1.29565 -3.59343 1.46552 1.34259 -3.90403 1.46182 0.848537 -3.71051 1.38724 
0.360513 -3.71919 1.34916 0.703234 -4.00366 1.36981 0.107494 -4.02699 1.33718 
-0.12626 -3.78372 1.33827 0.107494 -4.02699 1.33718 -0.506187 -4.01275 1.35336 
-0.60269 -3.69825 1.36632 -0.506187 -4.01275 1.35336 -0.972136 -3.9671 1.40289 
-1.0737 -3.64228 1.42398 -0.972136 -3.9671 1.40289 -1.34879 -3.9059 1.46455 
-1.63436 -3.55112 1.53552 -1.34879 -3.9059 1.46455 -1.87711 -3.74535 1.58744 
-2.20355 -3.39306 1.70689 -1.87711 -3.74535 1.58744 -2.41686 -3.6461 1.76152 
-2.66714 -3.20575 1.89662 -2.41686 -3.6461 1.76152 -2.97069 -3.40524 1.99979 
-3.63538 -2.76637 2.44193 -3.43899 -3.22443 2.25588 -3.93305 -2.84776 2.61262 
-4.04898 -2.48022 2.77816 -3.93305 -2.84776 2.61262 -4.33531 -2.55567 2.97024 
-4.42828 -2.15317 3.1625 -4.33531 -2.55567 2.97024 -4.63285 -2.33079 3.28338 
-4.42828 -2.15317 3.1625 -4.63285 -2.33079 3.28338 -4.86261 -1.88381 3.65683 
-4.99486 -1.41211 4.03996 -5.17825 -1.62811 4.1317 -5.33846 -1.23589 4.56734 
-5.15448 -1.0413 4.46536 -5.33846 -1.23589 4.56734 -5.35602 -0.74311 4.98335 
-5.22048 -0.136031 5.4416 -5.39129 -0.4338 5.35617 -5.39383 -0.153091 5.70509 
-5.22048 -0.136031 5.4416 -5.39383 -0.153091 5.70509 -5.23268 0.20378 5.92812 
4.23098 1.74693 7.63004 4.37125 1.68687 7.81779 4.60827 1.40235 7.33436 
5.18806 -0.637639 4.85812 5.35113 -0.775134 4.94837 5.17667 -0.979907 4.54376 
3.7314 -2.4677 2.59227 3.96514 -2.72915 2.6579 3.50821 -2.82208 2.3601 
3.50821 -2.82208 2.3601 3.4261 -3.07025 2.26793 3.01229 -3.10089 2.05775 
-0.380146 -3.49669 1.38047 -0.12626 -3.78372 1.33827 -0.60269 -3.69825 1.36632 
-2.66714 -3.20575 1.89662 -2.97069 -3.40524 1.99979 -3.21835 -3.00544 2.17085 
-4.72393 -1.7562 3.58881 -4.86261 -1.88381 3.65683 -4.99486 -1.41211 4.03996 
-5.20091 -0.563809 4.94249 -5.35602 -0.74311 4.98335 -5.39129 -0.4338 5.35617 
-5.07011 0.0834112 5.52209 -5.22048 -0.136031 5.4416 -5.23268 0.20378 5.92812 
-5.00644 0.383767 5.86406 -5.23268 0.20378 5.92812 -5.14295 0.506852 6.2743 
-4.90754 0.705922 6.24992 -5.14295 0.506852 6.2743 -4.98178 0.860783 6.69013 
-4.75859 1.00403 6.59911 -4.98178 0.860783 6.69013 -4.76898 1.19874 7.08306 
-4.56993 1.29803 6.94545 -4.76898 1.19874 7.08306 -4.47445 1.54438 7.4866 
-4.2912 1.61943 7.3235 -4.47445 1.54438 7.4866 -4.20987 1.79581 7.79596 
-4.03289 1.86071 7.60746 -4.20987 1.79581 7.79596 -3.86834 2.06015 8.09465 
-3.37643 2.31848 8.14466 -3.86834 2.06015 8.09465 -3.55105 2.26209 8.33938 
-3.37643 2.31848 8.14466 -3.55105 2.26209 8.33938 -3.19726 2.45172 8.54712 
-2.99251 2.51581 8.36919 -3.19726 2.45172 8.54712 -2.70924 2.66881 8.79927 
-2.58313 2.69493 8.58466 -2.70924 2.66881 8.79927 -2.18248 2.84702 9.02805 
-2.07712 2.86232 8.77885 -2.18248 2.84702 9.02805 -1.58913 2.99611 9.20215 
-1.11133 3.0705 9.00804 -1.58913 2.99611 9.20215 -0.940558 3.09961 9.29047 
-0.464176 3.13852 9.1018 -0.940558 3.09961 9.29047 -0.364724 3.14403 9.37146 
-0.464176 3.13852 9.1018 -0.364724 3.14403 9.37146 0.138879 3.15158 9.38394 
0.109471 3.15041 9.12191 0.138879 3.15158 9.38394 0.618792 3.1293 9.33938 
0.676179 3.12334 9.0854 0.618792 3.1293 9.33938 1.19689 3.06362 9.2756 
1.25959 3.04814 8.99422 1.19689 3.06362 9.2756 1.86217 2.93491 9.08258 
2.19707 2.825 8.72182 1.86217 2.93491 9.08258 2.50345 2.74524 8.89314 
2.66658 2.6576 8.52822 2.50345 2.74524 8.89314 2.99708 2.54678 8.66747 
2.98466 2.51948 8.37334 2.99708 2.54678 8.66747 3.38593 2.35498 8.43605 
3.27718 2.37298 8.20572 3.38593 2.35498 8.43605 3.82955 2.08665 8.11425 
3.90776 1.95487 7.7036 3.82955 2.08665 8.11425 4.23098 1.74693 7.63004 
4.2344 1.67868 7.39542 4.23098 1.74693 7.63004 4.60827 1.40235 7.33436 
4.52382 1.34228 6.97837 4.60827 1.40235 7.33436 4.85396 1.08009 6.94812 
4.75521 1.00976 6.60574 4.85396 1.08009 6.94812 5.06618 0.702444 6.51196 
4.90705 0.704557 6.24568 5.06618 0.702444 6.51196 5.17229 0.406462 6.15371 
5.01926 0.352538 5.83366 5.17229 0.406462 6.15371 5.25145 0.0883268 5.78425 
5.07815 -0.00721407 5.41527 5.25145 0.0883268 5.78425 5.27881 -0.291971 5.33344 
5.06311 -0.357867 4.99595 5.27881 -0.291971 5.33344 5.18806 -0.637639 4.85812 
5.01032 -0.650375 4.65135 5.18806 -0.637639 4.85812 5.17667 -0.979907 4.54376 
4.95198 -0.883704 4.38884 5.17667 -0.979907 4.54376 5.06872 -1.26972 4.2085 
4.8113 -1.19492 4.015 5.06872 -1.26972 4.2085 4.90621 -1.56172 3.86246 
4.56699 -1.6138 3.54221 4.90621 -1.56172 3.86246 4.70623 -1.85568 3.52331 
4.56699 -1.6138 3.54221 4.70623 -1.85568 3.52331 4.47973 -2.11928 3.22023 
4.3071 -1.91277 3.19229 4.47973 -2.11928 3.22023 4.19176 -2.3791 2.90761 
3.99799 -2.18168 2.86444 4.19176 -2.3791 2.90761 3.7314 -2.4677 2.59227 
3.33206 -2.65408 2.32466 3.50821 -2.82208 2.3601 3.01229 -3.10089 2.05775 
2.89046 -2.86674 2.0696 3.01229 -3.10089 2.05775 2.51547 -3.27497 1.82692 
1.98794 -3.19578 1.68884 2.51547 -3.27497 1.82692 1.85859 -3.49076 1.5948 
1.47545 -3.29711 1.55433 1.85859 -3.49076 1.5948 1.29565 -3.59343 1.46552 
1.07158 -3.36867 1.47371 1.29565 -3.59343 1.46552 0.848537 -3.71051 1.38724 
0.683954 -3.41838 1.42106 0.848537 -3.71051 1.38724 0.360513 -3.71919 1.34916 
-0.801506 -3.40231 1.43527 -0.60269 -3.69825 1.36632 -1.0737 -3.64228 1.42398 
-1.23366 -3.35136 1.49945 -1.0737 -3.64228 1.42398 -1.63436 -3.55112 1.53552 
-1.70456 -3.26025 1.60774 -1.63436 -3.55112 1.53552 -2.20355 -3.39306 1.70689 
-2.21625 -3.10532 1.77408 -2.20355 -3.39306 1.70689 -2.66714 -3.20575 1.89662 
-2.72802 -2.93373 1.9889 -2.66714 -3.20575 1.89662 -3.21835 -3.00544 2.17085 
-3.10336 -2.76445 2.18774 -3.21835 -3.00544 2.17085 -3.63538 -2.76637 2.44193 
-3.53525 -2.5336 2.4663 -3.63538 -2.76637 2.44193 -4.04898 -2.48022 2.77816 
-3.90401 -2.27562 2.76891 -4.04898 -2.48022 2.77816 -4.42828 -2.15317 3.1625 
-4.2465 -1.96959 3.11995 -4.42828 -2.15317 3.1625 -4.72393 -1.7562 3.58881 
-4.78335 -1.2708 3.93658 -4.72393 -1.7562 3.58881 -4.99486 -1.41211 4.03996 
-4.78335 -1.2708 3.93658 -4.99486 -1.41211 4.03996 -5.15448 -1.0413 4.46536 
-4.96602 -0.858497 4.41966 -5.15448 -1.0413 4.46536 -5.20091 -0.563809 4.94249 
-5.0821 -0.208381 5.1818 -5.20091 -0.563809 4.94249 -5.22048 -0.136031 5.4416 
-5.20091 -0.563809 4.94249 -5.0821 -0.208381 5.1818 -5.04388 -0.49684 4.83281 
-5.20091 -0.563809 4.94249 -5.04388 -0.49684 4.83281 -4.96602 -0.858497 4.41966 
-5.15448 -1.0413 4.46536 -4.96602 -0.858497 4.41966 -4.78335 -1.2708 3.93658 
-4.72393 -1.7562 3.58881 -4.78335 -1.2708 3.93658 -4.52524 -1.65659 3.4871 
-4.72393 -1.7562 3.58881 -4.52524 -1.65659 3.4871 -4.2465 -1.96959 3.11995 
-4.42828 -2.15317 3.1625 -4.2465 -1.96959 3.11995 -3.90401 -2.27562 2.76891 
-4.04898 -2.48022 2.77816 -3.90401 -2.27562 2.76891 -3.53525 -2.5336 2.4663 
-3.63538 -2.76637 2.44193 -3.53525 -2.5336 2.4663 -3.10336 -2.76445 2.18774 
-3.21835 -3.00544 2.17085 -3.10336 -2.76445 2.18774 -2.72802 -2.93373 1.9889 
-2.66714 -3.20575 1.89662 -2.72802 -2.93373 1.9889 -2.21625 -3.10532 1.77408 
-2.20355 -3.39306 1.70689 -2.21625 -3.10532 1.77408 -1.70456 -3.26025 1.60774 
-1.63436 -3.55112 1.53552 -1.70456 -3.26025 1.60774 -1.23366 -3.35136 1.49945 
-1.0737 -3.64228 1.42398 -1.23366 -3.35136 1.49945 -0.801506 -3.40231 1.43527 
-0.60269 -3.69825 1.36632 -0.801506 -3.40231 1.43527 -0.380146 -3.49669 1.38047 
0.360513 -3.71919 1.34916 0.171139 -3.48085 1.37738 0.683954 -3.41838 1.42106 
0.848537 -3.71051 1.38724 0.683954 -3.41838 1.42106 1.07158 -3.36867 1.47371 
1.29565 -3.59343 1.46552 1.07158 -3.36867 1.47371 1.47545 -3.29711 1.55433 
1.85859 -3.49076 1.5948 1.47545 -3.29711 1.55433 1.98794 -3.19578 1.68884 
2.51547 -3.27497 1.82692 1.98794 -3.19578 1.68884 2.48846 -3.01818 1.88204 
2.51547 -3.27497 1.82692 2.48846 -3.01818 1.88204 2.89046 -2.86674 2.0696 
3.01229 -3.10089 2.05775 2.89046 -2.86674 2.0696 3.33206 -2.65408 2.32466 
3.50821 -2.82208 2.3601 3.33206 -2.65408 2.32466 3.7314 -2.4677 2.59227 
4.19176 -2.3791 2.90761 3.99799 -2.18168 2.86444 4.3071 -1.91277 3.19229 
4.47973 -2.11928 3.22023 4.3071 -1.91277 3.19229 4.56699 -1.6138 3.54221 
4.90621 -1.56172 3.86246 4.56699 -1.6138 3.54221 4.8113 -1.19492 4.015 
5.06872 -1.26972 4.2085 4.8113 -1.19492 4.015 4.95198 -0.883704 4.38884 
5.17667 -0.979907 4.54376 4.95198 -0.883704 4.38884 5.01032 -0.650375 4.65135 
5.18806 -0.637639 4.85812 5.01032 -0.650375 4.65135 5.06311 -0.357867 4.99595 
5.27881 -0.291971 5.33344 5.06311 -0.357867 4.99595 5.07815 -0.00721407 5.41527 
5.25145 0.0883268 5.78425 5.07815 -0.00721407 5.41527 5.01926 0.352538 5.83366 
5.17229 0.406462 6.15371 5.01926 0.352538 5.83366 4.90705 0.704557 6.24568 
5.06618 0.702444 6.51196 4.90705 0.704557 6.24568 4.75521 1.00976 6.60574 
4.85396 1.08009 6.94812 4.75521 1.00976 6.60574 4.52382 1.34228 6.97837 
4.60827 1.40235 7.33436 4.52382 1.34228 6.97837 4.2344 1.67868 7.39542 
4.23098 1.74693 7.63004 4.2344 1.67868 7.39542 3.90776 1.95487 7.7036 
3.82955 2.08665 8.11425 3.90776 1.95487 7.7036 3.6082 2.17495 7.97131 
3.82955 2.08665 8.11425 3.6082 2.17495 7.97131 3.27718 2.37298 8.20572 
3.38593 2.35498 8.43605 3.27718 2.37298 8.20572 2.98466 2.51948 8.37334 
2.99708 2.54678 8.66747 2.98466 2.51948 8.37334 2.66658 2.6576 8.52822 
2.50345 2.74524 8.89314 2.66658 2.6576 8.52822 2.19707 2.825 8.72182 
1.86217 2.93491 9.08258 2.19707 2.825 8.72182 1.69894 2.95857 8.87877 
1.86217 2.93491 9.08258 1.69894 2.95857 8.87877 1.25959 3.04814 8.99422 
1.19689 3.06362 9.2756 1.25959 3.04814 8.99422 0.676179 3.12334 9.0854 
0.618792 3.1293 9.33938 0.676179 3.12334 9.0854 0.109471 3.15041 9.12191 
0.138879 3.15158 9.38394 0.109471 3.15041 9.12191 -0.464176 3.13852 9.1018 
-0.940558 3.09961 9.29047 -0.464176 3.13852 9.1018 -1.11133 3.0705 9.00804 
-1.58913 2.99611 9.20215 -1.11133 3.0705 9.00804 -1.68421 2.96421 8.89737 
-1.58913 2.99611 9.20215 -1.68421 2.96421 8.89737 -2.07712 2.86232 8.77885 
-2.18248 2.84702 9.02805 -2.07712 2.86232 8.77885 -2.58313 2.69493 8.58466 
-2.70924 2.66881 8.79927 -2.58313 2.69493 8.58466 -2.99251 2.51581 8.36919 
-3.19726 2.45172 8.54712 -2.99251 2.51581 8.36919 -3.37643 2.31848 8.14466 
-3.86834 2.06015 8.09465 -3.37643 2.31848 8.14466 -3.7286 2.08804 7.85956 
-3.86834 2.06015 8.09465 -3.7286 2.08804 7.85956 -4.03289 1.86071 7.60746 
-4.20987 1.79581 7.79596 -4.03289 1.86071 7.60746 -4.2912 1.61943 7.3235 
-4.47445 1.54438 7.4866 -4.2912 1.61943 7.3235 -4.56993 1.29803 6.94545 
-4.76898 1.19874 7.08306 -4.56993 1.29803 6.94545 -4.75859 1.00403 6.59911 
-4.98178 0.860783 6.69013 -4.75859 1.00403 6.59911 -4.90754 0.705922 6.24992 
-5.14295 0.506852 6.2743 -4.90754 0.705922 6.24992 -5.00644 0.383767 5.86406 
-5.23268 0.20378 5.92812 -5.00644 0.383767 5.86406 -5.07011 0.0834112 5.52209 
-5.22048 -0.136031 5.4416 -5.07011 0.0834112 5.52209 -5.0821 -0.208381 5.1818 
-5.39129 -0.4338 5.35617 -5.22048 -0.136031 5.4416 -5.20091 -0.563809 4.94249 
-5.35602 -0.74311 4.98335 -5.20091 -0.563809 4.94249 -5.15448 -1.0413 4.46536 
-0.12626 -3.78372 1.33827 -0.380146 -3.49669 1.38047 0.171139 -3.48085 1.37738 
-0.12626 -3.78372 1.33827 0.171139 -3.48085 1.37738 0.360513 -3.71919 1.34916 
3.96514 -2.72915 2.6579 3.7314 -2.4677 2.59227 4.19176 -2.3791 2.90761 
5.35113 -0.775134 4.94837 5.18806 -0.637639 4.85812 5.27881 -0.291971 5.33344 
4.37125 1.68687 7.81779 4.23098 1.74693 7.63004 3.82955 2.08665 8.11425 
1.69437 2.94864 9.42838 1.86217 2.93491 9.08258 1.19689 3.06362 9.2756 
-5.33846 -1.23589 4.56734 -5.15448 -1.0413 4.46536 -4.99486 -1.41211 4.03996 
-5.17825 -1.62811 4.1317 -4.99486 -1.41211 4.03996 -4.86261 -1.88381 3.65683 
-4.86261 -1.88381 3.65683 -4.72393 -1.7562 3.58881 -4.42828 -2.15317 3.1625 
-4.33531 -2.55567 2.97024 -4.42828 -2.15317 3.1625 -4.04898 -2.48022 2.77816 
-3.93305 -2.84776 2.61262 -4.04898 -2.48022 2.77816 -3.63538 -2.76637 2.44193 
-3.43899 -3.22443 2.25588 -3.63538 -2.76637 2.44193 -3.21835 -3.00544 2.17085 
-3.43899 -3.22443 2.25588 -3.21835 -3.00544 2.17085 -2.97069 -3.40524 1.99979 
-2.41686 -3.6461 1.76152 -2.66714 -3.20575 1.89662 -2.20355 -3.39306 1.70689 
-1.87711 -3.74535 1.58744 -2.20355 -3.39306 1.70689 -1.63436 -3.55112 1.53552 
-1.34879 -3.9059 1.46455 -1.63436 -3.55112 1.53552 -1.0737 -3.64228 1.42398 
-0.972136 -3.9671 1.40289 -1.0737 -3.64228 1.42398 -0.60269 -3.69825 1.36632 
-0.506187 -4.01275 1.35336 -0.60269 -3.69825 1.36632 -0.12626 -3.78372 1.33827 
0.107494 -4.02699 1.33718 -0.12626 -3.78372 1.33827 0.360513 -3.71919 1.34916 
0.703234 -4.00366 1.36981 0.360513 -3.71919 1.34916 0.848537 -3.71051 1.38724 
1.34259 -3.90403 1.46182 1.29565 -3.59343 1.46552 1.85859 -3.49076 1.5948 
2.24572 -3.6216 1.7045 1.85859 -3.49076 1.5948 2.51547 -3.27497 1.82692 
2.75022 -3.45877 1.90086 2.51547 -3.27497 1.82692 3.01229 -3.10089 2.05775 
3.15071 -3.46144 2.08785 3.01229 -3.10089 2.05775 3.4261 -3.07025 2.26793 
3.80033 -3.01203 2.50233 3.50821 -2.82208 2.3601 3.96514 -2.72915 2.6579 
4.35983 -2.61361 2.97489 4.19176 -2.3791 2.90761 4.47973 -2.11928 3.22023 
4.70421 -2.29982 3.35543 4.47973 -2.11928 3.22023 4.70623 -1.85568 3.52331 
4.97515 -1.93755 3.75686 4.70623 -1.85568 3.52331 4.90621 -1.56172 3.86246 
5.15875 -1.64664 4.09786 4.90621 -1.56172 3.86246 5.06872 -1.26972 4.2085 
5.3516 -1.26021 4.57089 5.06872 -1.26972 4.2085 5.17667 -0.979907 4.54376 
5.3516 -1.26021 4.57089 5.17667 -0.979907 4.54376 5.35113 -0.775134 4.94837 
5.43924 -0.409947 5.46513 5.27881 -0.291971 5.33344 5.25145 0.0883268 5.78425 
5.45208 -0.0500709 5.98056 5.25145 0.0883268 5.78425 5.17229 0.406462 6.15371 
5.36662 0.30669 6.41072 5.17229 0.406462 6.15371 5.06618 0.702444 6.51196 
5.13784 0.796868 6.95387 5.06618 0.702444 6.51196 4.85396 1.08009 6.94812 
4.82555 1.24428 7.49675 4.85396 1.08009 6.94812 4.60827 1.40235 7.33436 
4.82555 1.24428 7.49675 4.60827 1.40235 7.33436 4.37125 1.68687 7.81779 
3.677 2.19247 8.53155 3.82955 2.08665 8.11425 3.38593 2.35498 8.43605 
3.29438 2.40044 8.7554 3.38593 2.35498 8.43605 2.99708 2.54678 8.66747 
2.91986 2.56395 9.02785 2.99708 2.54678 8.66747 2.50345 2.74524 8.89314 
2.37361 2.77131 9.17463 2.50345 2.74524 8.89314 1.86217 2.93491 9.08258 
1.10435 3.03973 9.58949 1.19689 3.06362 9.2756 0.618792 3.1293 9.33938 
0.518785 3.09014 9.69078 0.618792 3.1293 9.33938 0.138879 3.15158 9.38394 
-0.104961 3.11015 9.67126 0.138879 3.15158 9.38394 -0.364724 3.14403 9.37146 
-0.643026 3.0828 9.67407 -0.364724 3.14403 9.37146 -0.940558 3.09961 9.29047 
-1.22216 3.02336 9.56543 -0.940558 3.09961 9.29047 -1.58913 2.99611 9.20215 
-1.9516 2.87609 9.41944 -1.58913 2.99611 9.20215 -2.18248 2.84702 9.02805 
-2.60458 2.68442 9.17885 -2.18248 2.84702 9.02805 -2.70924 2.66881 8.79927 
-3.21834 2.44276 8.79074 -2.70924 2.66881 8.79927 -3.19726 2.45172 8.54712 
-3.21834 2.44276 8.79074 -3.19726 2.45172 8.54712 -3.55105 2.26209 8.33938 
-3.82094 2.10423 8.49004 -3.55105 2.26209 8.33938 -3.86834 2.06015 8.09465 
-4.1951 1.84202 8.18491 -3.86834 2.06015 8.09465 -4.20987 1.79581 7.79596 
-4.47447 1.60017 7.84077 -4.20987 1.79581 7.79596 -4.47445 1.54438 7.4866 
-4.78508 1.26901 7.42623 -4.47445 1.54438 7.4866 -4.76898 1.19874 7.08306 
-5.08408 0.872586 7.03331 -4.76898 1.19874 7.08306 -4.98178 0.860783 6.69013 
-5.27724 0.547205 6.7137 -4.98178 0.860783 6.69013 -5.14295 0.506852 6.2743 
-5.3649 0.279254 6.35589 -5.14295 0.506852 6.2743 -5.23268 0.20378 5.92812 
-5.45245 -0.0342144 6.01209 -5.23268 0.20378 5.92812 -5.39383 -0.153091 5.70509 
-5.54923 -0.493991 5.59051 -5.39129 -0.4338 5.35617 -5.35602 -0.74311 4.98335 
-5.49226 -0.89913 5.07507 -5.35602 -0.74311 4.98335 -5.33846 -1.23589 4.56734 
-4.85621 -2.31252 3.512 -4.86261 -1.88381 3.65683 -4.63285 -2.33079 3.28338 
-4.27933 -2.85294 2.87558 -4.33531 -2.55567 2.97024 -3.93305 -2.84776 2.61262 
-3.89787 -3.15613 2.55762 -3.93305 -2.84776 2.61262 -3.43899 -3.22443 2.25588 
0.703234 -4.00366 1.36981 0.848537 -3.71051 1.38724 1.34259 -3.90403 1.46182 
2.58615 -3.77669 1.83395 2.24572 -3.6216 1.7045 2.75022 -3.45877 1.90086 
3.56866 -3.30896 2.33372 3.4261 -3.07025 2.26793 3.80033 -3.01203 2.50233 
4.06935 -2.91283 2.70384 3.96514 -2.72915 2.6579 4.35983 -2.61361 2.97489 
5.49248 -0.902797 5.07501 5.35113 -0.775134 4.94837 5.43924 -0.409947 5.46513 
5.57498 -0.538796 5.59603 5.43924 -0.409947 5.46513 5.45208 -0.0500709 5.98056 
4.28279 1.76738 8.29513 4.37125 1.68687 7.81779 4.03703 1.95777 8.30588 
3.53434 2.25106 8.85241 3.677 2.19247 8.53155 3.29438 2.40044 8.7554 
3.24173 2.37238 9.14798 3.29438 2.40044 8.7554 2.91986 2.56395 9.02785 
2.30693 2.7472 9.44165 2.37361 2.77131 9.17463 1.69437 2.94864 9.42838 
-3.56187 2.23558 8.84332 -3.21834 2.44276 8.79074 -3.82094 2.10423 8.49004 
-4.83574 1.2522 7.69722 -4.47447 1.60017 7.84077 -4.78508 1.26901 7.42623 
-5.06842 0.95676 7.35453 -4.78508 1.26901 7.42623 -5.08408 0.872586 7.03331 
-5.54923 -0.493991 5.59051 -5.39383 -0.153091 5.70509 -5.39129 -0.4338 5.35617 
-5.65778 -0.88231 5.44495 -5.54923 -0.493991 5.59051 -5.49226 -0.89913 5.07507 
-5.60303 -1.13735 5.10859 -5.49226 -0.89913 5.07507 -5.33846 -1.23589 4.56734 
-5.4526 -1.60944 4.54705 -5.33846 -1.23589 4.56734 -5.17825 -1.62811 4.1317 
-5.33991 -1.8473 4.26772 -5.17825 -1.62811 4.1317 -5.091 -2.05077 3.85413 
-3.22362 -3.6655 2.14413 -3.43899 -3.22443 2.25588 -2.97069 -3.40524 1.99979 
-2.3518 -3.98629 1.76682 -2.41686 -3.6461 1.76152 -1.90191 -4.06672 1.61709 
-1.90191 -4.06672 1.61709 -1.87711 -3.74535 1.58744 -1.34879 -3.9059 1.46455 
-1.39703 -4.20362 1.50983 -1.34879 -3.9059 1.46455 -0.972136 -3.9671 1.40289 
-0.740927 -4.29458 1.41334 -0.972136 -3.9671 1.40289 -0.506187 -4.01275 1.35336 
-0.150259 -4.31647 1.37797 -0.506187 -4.01275 1.35336 0.107494 -4.02699 1.33718 
0.324856 -4.34961 1.39134 0.107494 -4.02699 1.33718 0.703234 -4.00366 1.36981 
1.11597 -4.25512 1.46324 0.703234 -4.00366 1.36981 1.34259 -3.90403 1.46182 
1.59734 -4.20212 1.55898 1.34259 -3.90403 1.46182 1.86643 -3.87282 1.58584 
3.91269 -3.31491 2.57668 3.80033 -3.01203 2.50233 4.06935 -2.91283 2.70384 
4.25782 -3.08886 2.84745 4.06935 -2.91283 2.70384 4.35983 -2.61361 2.97489 
4.63413 -2.74499 3.21359 4.35983 -2.61361 2.97489 4.70421 -2.29982 3.35543 
4.92026 -2.45833 3.55672 4.70421 -2.29982 3.35543 4.97515 -1.93755 3.75686 
5.13105 -2.16546 3.87561 4.97515 -1.93755 3.75686 5.15875 -1.64664 4.09786 
5.2957 -1.80033 4.21917 5.15875 -1.64664 4.09786 5.3516 -1.26021 4.57089 
5.59089 -1.299 4.97029 5.3516 -1.26021 4.57089 5.49248 -0.902797 5.07501 
5.63214 -0.998051 5.2841 5.49248 -0.902797 5.07501 5.57498 -0.538796 5.59603 
5.60386 -0.211955 6.15656 5.45208 -0.0500709 5.98056 5.36662 0.30669 6.41072 
5.34253 0.537567 7.00399 5.36662 0.30669 6.41072 5.13784 0.796868 6.95387 
5.10869 0.908659 7.39348 5.13784 0.796868 6.95387 4.82555 1.24428 7.49675 
4.90969 1.16617 7.71374 4.82555 1.24428 7.49675 4.58666 1.50848 7.99393 
2.82963 2.51776 9.42703 2.91986 2.56395 9.02785 2.63933 2.63972 9.31141 
1.75997 2.84671 9.74457 1.69437 2.94864 9.42838 1.10435 3.03973 9.58949 
0.798733 2.9782 9.95004 1.10435 3.03973 9.58949 0.518785 3.09014 9.69078 
0.131403 3.02112 9.97103 0.518785 3.09014 9.69078 -0.104961 3.11015 9.67126 
-0.314371 3.00686 9.99074 -0.104961 3.11015 9.67126 -0.643026 3.0828 9.67407 
-1.79591 2.84443 9.71459 -1.22216 3.02336 9.56543 -1.9516 2.87609 9.41944 
-2.31856 2.72071 9.51511 -1.9516 2.87609 9.41944 -2.60458 2.68442 9.17885 
-2.72932 2.5822 9.3717 -2.60458 2.68442 9.17885 -3.15812 2.43573 9.07543 
-4.05611 1.91272 8.65299 -3.82094 2.10423 8.49004 -4.1951 1.84202 8.18491 
-4.40379 1.64955 8.37146 -4.1951 1.84202 8.18491 -4.5961 1.4947 8.13732 
-5.31959 0.586556 7.10669 -5.08408 0.872586 7.03331 -5.27724 0.547205 6.7137 
-5.5298 0.099703 6.53127 -5.3649 0.279254 6.35589 -5.45245 -0.0342144 6.01209 
-5.61924 -0.230741 6.17262 -5.45245 -0.0342144 6.01209 -5.54923 -0.493991 5.59051 
-5.67427 -0.600313 5.81025 -5.54923 -0.493991 5.59051 -5.65778 -0.88231 5.44495 
-5.20368 -2.36737 3.94934 -5.091 -2.05077 3.85413 -4.85621 -2.31252 3.512 
-4.95031 -2.54583 3.59048 -4.85621 -2.31252 3.512 -4.63013 -2.73193 3.20894 
-4.36232 -3.04812 2.94689 -4.27933 -2.85294 2.87558 -3.89787 -3.15613 2.55762 
-3.94001 -3.33532 2.59932 -3.89787 -3.15613 2.55762 -3.51934 -3.52344 2.31313 
2.1063 -4.11073 1.70007 1.86643 -3.87282 1.58584 2.58615 -3.77669 1.83395 
2.69949 -3.91107 1.90511 2.58615 -3.77669 1.83395 3.15071 -3.46144 2.08785 
3.22939 -3.72831 2.15845 3.15071 -3.46144 2.08785 3.56866 -3.30896 2.33372 
3.63238 -3.52217 2.39184 3.56866 -3.30896 2.33372 3.91269 -3.31491 2.57668 
5.40149 -1.93284 4.34461 5.2957 -1.80033 4.21917 5.47571 -1.52681 4.62834 
5.70511 -0.518726 6.03088 5.57498 -0.538796 5.59603 5.60386 -0.211955 6.15656 
5.11585 0.900926 7.78321 5.10869 0.908659 7.39348 4.90969 1.16617 7.71374 
4.72706 1.35666 8.09754 4.90969 1.16617 7.71374 4.58666 1.50848 7.99393 
4.72706 1.35666 8.09754 4.58666 1.50848 7.99393 4.28279 1.76738 8.29513 
4.36232 1.66996 8.47105 4.28279 1.76738 8.29513 3.92192 2.00241 8.74766 
3.54253 2.18536 9.09583 3.53434 2.25106 8.85241 3.24173 2.37238 9.14798 
2.82963 2.51776 9.42703 2.63933 2.63972 9.31141 2.30693 2.7472 9.44165 
2.35427 2.66558 9.63677 2.30693 2.7472 9.44165 1.75997 2.84671 9.74457 
0.798733 2.9782 9.95004 0.518785 3.09014 9.69078 0.131403 3.02112 9.97103 
-2.64529 2.54626 9.6007 -2.31856 2.72071 9.51511 -2.72932 2.5822 9.3717 
-3.1739 2.36689 9.29765 -2.72932 2.5822 9.3717 -3.15812 2.43573 9.07543 
-3.1739 2.36689 9.29765 -3.15812 2.43573 9.07543 -3.56187 2.23558 8.84332 
-3.63238 2.14402 9.0261 -3.56187 2.23558 8.84332 -4.05611 1.91272 8.65299 
-4.97371 1.08492 7.86456 -4.83574 1.2522 7.69722 -5.06842 0.95676 7.35453 
-5.20935 0.779019 7.52676 -5.06842 0.95676 7.35453 -5.31959 0.586556 7.10669 
-5.47702 0.282069 6.86737 -5.27724 0.547205 6.7137 -5.5298 0.099703 6.53127 
-5.79872 -0.957021 5.84674 -5.67427 -0.600313 5.81025 -5.65778 -0.88231 5.44495 
-5.73582 -1.28687 5.35035 -5.65778 -0.88231 5.44495 -5.60303 -1.13735 5.10859 
-5.73582 -1.28687 5.35035 -5.60303 -1.13735 5.10859 -5.542 -1.39009 4.82004 
-5.66134 -1.60796 4.98509 -5.542 -1.39009 4.82004 -5.4526 -1.60944 4.54705 
-5.56474 -1.85674 4.68757 -5.4526 -1.60944 4.54705 -5.33991 -1.8473 4.26772 
-5.44551 -2.08779 4.3961 -5.33991 -1.8473 4.26772 -5.20368 -2.36737 3.94934 
-4.64185 -3.1657 3.25302 -4.63013 -2.73193 3.20894 -4.36232 -3.04812 2.94689 
-4.24585 -3.39377 2.87679 -4.36232 -3.04812 2.94689 -3.94001 -3.33532 2.59932 
-3.90581 -3.6268 2.62133 -3.94001 -3.33532 2.59932 -3.51934 -3.52344 2.31313 
-3.51016 -3.84933 2.37087 -3.51934 -3.52344 2.31313 -3.22362 -3.6655 2.14413 
-3.08533 -4.03491 2.14506 -3.22362 -3.6655 2.14413 -2.75859 -3.82332 1.91719 
-2.73609 -4.16095 1.9897 -2.75859 -3.82332 1.91719 -2.3518 -3.98629 1.76682 
-2.39075 -4.27449 1.858 -2.3518 -3.98629 1.76682 -1.90191 -4.06672 1.61709 
-1.90429 -4.40131 1.70838 -1.90191 -4.06672 1.61709 -1.39703 -4.20362 1.50983 
-1.39156 -4.49897 1.5931 -1.39703 -4.20362 1.50983 -0.919874 -4.49073 1.4942 
-0.400177 -4.61054 1.47908 -0.740927 -4.29458 1.41334 -0.150259 -4.31647 1.37797 
0.0730592 -4.62257 1.47039 -0.150259 -4.31647 1.37797 0.324856 -4.34961 1.39134 
0.652971 -4.59292 1.49363 0.324856 -4.34961 1.39134 0.742671 -4.29967 1.41839 
0.652971 -4.59292 1.49363 0.742671 -4.29967 1.41839 1.11597 -4.25512 1.46324 
1.13729 -4.53248 1.54817 1.11597 -4.25512 1.46324 1.59734 -4.20212 1.55898 
1.85699 -4.49021 1.72432 1.59734 -4.20212 1.55898 2.1063 -4.11073 1.70007 
2.38397 -4.26819 1.85212 2.1063 -4.11073 1.70007 2.69949 -3.91107 1.90511 
2.85539 -4.10291 2.0339 2.69949 -3.91107 1.90511 3.22939 -3.72831 2.15845 
3.28436 -3.9314 2.23857 3.22939 -3.72831 2.15845 3.63238 -3.52217 2.39184 
3.70027 -3.73603 2.48302 3.63238 -3.52217 2.39184 3.91269 -3.31491 2.57668 
3.98868 -3.56991 2.68171 3.91269 -3.31491 2.57668 4.25782 -3.08886 2.84745 
4.58702 -3.13402 3.18724 4.25782 -3.08886 2.84745 4.63413 -2.74499 3.21359 
4.88955 -2.85656 3.51985 4.63413 -2.74499 3.21359 4.92026 -2.45833 3.55672 
5.08296 -2.63678 3.77427 4.92026 -2.45833 3.55672 5.13105 -2.16546 3.87561 
5.25675 -2.40831 4.03759 5.13105 -2.16546 3.87561 5.40149 -1.93284 4.34461 
5.57077 -1.71767 4.73977 5.47571 -1.52681 4.62834 5.59089 -1.299 4.97029 
5.74441 -1.23983 5.40492 5.59089 -1.299 4.97029 5.63214 -0.998051 5.2841 
5.74441 -1.23983 5.40492 5.63214 -0.998051 5.2841 5.67427 -0.775229 5.60545 
5.8109 -0.964111 5.89351 5.67427 -0.775229 5.60545 5.70511 -0.518726 6.03088 
5.67468 -0.222307 6.49062 5.60386 -0.211955 6.15656 5.53723 0.0852814 6.53261 
5.4561 0.367592 7.30913 5.34253 0.537567 7.00399 5.26726 0.688688 7.45847 
4.59147 1.41269 8.51471 4.72706 1.35666 8.09754 4.36232 1.66996 8.47105 
4.23973 1.68572 8.83806 4.36232 1.66996 8.47105 3.92192 2.00241 8.74766 
3.89594 1.9098 9.09216 3.92192 2.00241 8.74766 3.54253 2.18536 9.09583 
3.40751 2.16417 9.41737 3.54253 2.18536 9.09583 3.24173 2.37238 9.14798 
3.40751 2.16417 9.41737 3.24173 2.37238 9.14798 2.82963 2.51776 9.42703 
2.61884 2.48148 9.76612 2.82963 2.51776 9.42703 2.35427 2.66558 9.63677 
2.1428 2.62771 9.9243 2.35427 2.66558 9.63677 1.75997 2.84671 9.74457 
1.66648 2.73412 10.0526 1.75997 2.84671 9.74457 1.27794 2.91744 9.87941 
1.20468 2.8041 10.1548 1.27794 2.91744 9.87941 0.798733 2.9782 9.95004 
0.561419 2.88135 10.2152 0.798733 2.9782 9.95004 0.131403 3.02112 9.97103 
-0.105026 2.87993 10.2641 0.131403 3.02112 9.97103 -0.314371 3.00686 9.99074 
-0.662069 2.8627 10.2229 -0.314371 3.00686 9.99074 -1.03244 2.95844 9.90928 
-1.87157 2.6818 10.0195 -1.79591 2.84443 9.71459 -2.22512 2.6644 9.77173 
-3.18819 2.2817 9.49086 -3.1739 2.36689 9.29765 -3.63238 2.14402 9.0261 
-3.9088 1.90085 9.08574 -3.63238 2.14402 9.0261 -4.05611 1.91272 8.65299 
-4.25032 1.6834 8.81404 -4.05611 1.91272 8.65299 -4.40379 1.64955 8.37146 
-4.59125 1.41354 8.52203 -4.40379 1.64955 8.37146 -4.5961 1.4947 8.13732 
-4.89286 1.12696 8.20458 -4.5961 1.4947 8.13732 -4.97371 1.08492 7.86456 
-5.44438 0.390299 7.30017 -5.31959 0.586556 7.10669 -5.47702 0.282069 6.86737 
-5.59803 0.0682662 7.04554 -5.47702 0.282069 6.86737 -5.5298 0.099703 6.53127 
-5.65323 -0.0985127 6.73594 -5.5298 0.099703 6.53127 -5.61924 -0.230741 6.17262 
-5.79664 -0.69833 6.17562 -5.61924 -0.230741 6.17262 -5.67427 -0.600313 5.81025 
-5.79872 -0.957021 5.84674 -5.65778 -0.88231 5.44495 -5.73582 -1.28687 5.35035 
-5.15489 -2.70179 3.88349 -5.20368 -2.36737 3.94934 -4.95031 -2.54583 3.59048 
-5.15489 -2.70179 3.88349 -4.95031 -2.54583 3.59048 -4.81804 -2.92474 3.4371 
0.0730592 -4.62257 1.47039 0.324856 -4.34961 1.39134 0.652971 -4.59292 1.49363 
5.49219 -2.18277 4.48053 5.40149 -1.93284 4.34461 5.57077 -1.71767 4.73977 
5.72753 -1.57335 5.18206 5.57077 -1.71767 4.73977 5.59089 -1.299 4.97029 
5.72753 -1.57335 5.18206 5.59089 -1.299 4.97029 5.74441 -1.23983 5.40492 
5.80135 -0.599922 6.44573 5.70511 -0.518726 6.03088 5.67468 -0.222307 6.49062 
5.71431 -0.250235 6.84483 5.67468 -0.222307 6.49062 5.55874 0.137721 6.87752 
5.60888 0.0344281 7.12598 5.55874 0.137721 6.87752 5.4561 0.367592 7.30913 
5.30406 0.58031 7.79418 5.26726 0.688688 7.45847 5.11585 0.900926 7.78321 
-0.105026 2.87993 10.2641 -0.314371 3.00686 9.99074 -0.662069 2.8627 10.2229 
-2.86322 2.30601 9.82725 -2.64529 2.54626 9.6007 -3.18819 2.2817 9.49086 
-5.233 0.679692 7.92807 -4.97371 1.08492 7.86456 -5.28031 0.645259 7.73822 
-5.28031 0.645259 7.73822 -5.20935 0.779019 7.52676 -5.44438 0.390299 7.30017 
-5.82386 -1.28103 5.69916 -5.79872 -0.957021 5.84674 -5.73582 -1.28687 5.35035 
-5.80011 -1.59354 5.44873 -5.73582 -1.28687 5.35035 -5.66134 -1.60796 4.98509 
-5.71855 -1.78644 5.1074 -5.66134 -1.60796 4.98509 -5.56474 -1.85674 4.68757 
-5.59037 -2.12006 4.71969 -5.56474 -1.85674 4.68757 -5.44551 -2.08779 4.3961 
-5.41772 -2.43736 4.34526 -5.44551 -2.08779 4.3961 -5.20368 -2.36737 3.94934 
-5.41772 -2.43736 4.34526 -5.20368 -2.36737 3.94934 -5.15489 -2.70179 3.88349 
-4.94276 -3.04296 3.63621 -5.15489 -2.70179 3.88349 -4.81804 -2.92474 3.4371 
-4.94276 -3.04296 3.63621 -4.81804 -2.92474 3.4371 -4.64185 -3.1657 3.25302 
-4.47669 -3.46011 3.14884 -4.64185 -3.1657 3.25302 -4.24585 -3.39377 2.87679 
-4.15512 -3.82038 2.93419 -4.24585 -3.39377 2.87679 -3.90581 -3.6268 2.62133 
-3.93863 -3.82428 2.72139 -3.90581 -3.6268 2.62133 -3.51016 -3.84933 2.37087 
-3.5325 -4.0936 2.484 -3.51016 -3.84933 2.37087 -3.08533 -4.03491 2.14506 
-3.11383 -4.33631 2.29114 -3.08533 -4.03491 2.14506 -2.73609 -4.16095 1.9897 
-2.78558 -4.47703 2.15622 -2.73609 -4.16095 1.9897 -2.39075 -4.27449 1.858 
-2.41464 -4.47779 1.95623 -2.39075 -4.27449 1.858 -1.90429 -4.40131 1.70838 
-1.92156 -4.60597 1.80406 -1.90429 -4.40131 1.70838 -1.39156 -4.49897 1.5931 
-1.47502 -4.81757 1.76692 -1.39156 -4.49897 1.5931 -1.0503 -4.6941 1.60057 
-0.661928 -4.7941 1.58746 -0.919874 -4.49073 1.4942 -0.400177 -4.61054 1.47908 
-0.15458 -4.84948 1.57678 -0.400177 -4.61054 1.47908 0.0730592 -4.62257 1.47039 
0.261815 -4.81291 1.5644 0.0730592 -4.62257 1.47039 0.652971 -4.59292 1.49363 
0.698706 -4.84758 1.61959 0.652971 -4.59292 1.49363 1.13729 -4.53248 1.54817 
1.17322 -4.72927 1.644 1.13729 -4.53248 1.54817 1.55302 -4.54456 1.65384 
2.64928 -4.4044 2.04215 2.38397 -4.26819 1.85212 2.85539 -4.10291 2.0339 
3.13867 -4.26679 2.27405 2.85539 -4.10291 2.0339 3.28436 -3.9314 2.23857 
3.56018 -4.0142 2.47319 3.28436 -3.9314 2.23857 3.70027 -3.73603 2.48302 
3.85065 -3.9463 2.69401 3.70027 -3.73603 2.48302 3.98868 -3.56991 2.68171 
4.12687 -3.70739 2.85825 3.98868 -3.56991 2.68171 4.26429 -3.37061 2.89135 
4.49337 -3.49144 3.17894 4.26429 -3.37061 2.89135 4.58702 -3.13402 3.18724 
4.79837 -3.17122 3.4659 4.58702 -3.13402 3.18724 4.88955 -2.85656 3.51985 
5.12347 -2.85689 3.87029 4.88955 -2.85656 3.51985 5.08296 -2.63678 3.77427 
5.12347 -2.85689 3.87029 5.08296 -2.63678 3.77427 5.25675 -2.40831 4.03759 
5.36743 -2.67377 4.28188 5.25675 -2.40831 4.03759 5.49219 -2.18277 4.48053 
5.71431 -0.250235 6.84483 5.55874 0.137721 6.87752 5.60888 0.0344281 7.12598 
5.53185 0.142044 7.56803 5.4561 0.367592 7.30913 5.30406 0.58031 7.79418 
5.06335 0.854337 8.22077 5.11585 0.900926 7.78321 4.89359 1.13654 8.17237 
4.79848 1.13192 8.52436 4.89359 1.13654 8.17237 4.59147 1.41269 8.51471 
4.56249 1.33622 8.7641 4.59147 1.41269 8.51471 4.23973 1.68572 8.83806 
4.2862 1.55509 8.99501 4.23973 1.68572 8.83806 3.89594 1.9098 9.09216 
3.9178 1.76368 9.32211 3.89594 1.9098 9.09216 3.40751 2.16417 9.41737 
3.40411 2.04162 9.62646 3.40751 2.16417 9.41737 2.96138 2.35824 9.62268 
2.88128 2.27031 9.85724 2.96138 2.35824 9.62268 2.61884 2.48148 9.76612 
2.42853 2.39442 10.0721 2.61884 2.48148 9.76612 2.1428 2.62771 9.9243 
1.89147 2.55821 10.198 2.1428 2.62771 9.9243 1.66648 2.73412 10.0526 
1.41487 2.64446 10.3131 1.66648 2.73412 10.0526 1.20468 2.8041 10.1548 
0.910234 2.64959 10.4776 1.20468 2.8041 10.1548 0.561419 2.88135 10.2152 
0.393396 2.75572 10.4256 0.561419 2.88135 10.2152 -0.105026 2.87993 10.2641 
-0.159803 2.75143 10.4528 -0.105026 2.87993 10.2641 -0.662069 2.8627 10.2229 
-0.675848 2.74239 10.4003 -0.662069 2.8627 10.2229 -1.03001 2.82899 10.1739 
-1.21855 2.61302 10.4327 -1.03001 2.82899 10.1739 -1.46822 2.80097 10.0411 
-1.56227 2.56201 10.3624 -1.46822 2.80097 10.0411 -1.87157 2.6818 10.0195 
-1.94885 2.47523 10.2818 -1.87157 2.6818 10.0195 -2.42953 2.48554 9.94311 
-3.35872 1.99784 9.74172 -3.18819 2.2817 9.49086 -3.59857 2.07154 9.287 
-3.66589 1.85021 9.56068 -3.59857 2.07154 9.287 -3.9088 1.90085 9.08574 
-3.98861 1.68087 9.33821 -3.9088 1.90085 9.08574 -4.25032 1.6834 8.81404 
-4.59479 1.3111 8.74441 -4.25032 1.6834 8.81404 -4.59125 1.41354 8.52203 
-4.59479 1.3111 8.74441 -4.59125 1.41354 8.52203 -4.89286 1.12696 8.20458 
-4.94196 0.99076 8.35908 -4.89286 1.12696 8.20458 -5.233 0.679692 7.92807 
-5.50511 0.236118 7.46644 -5.44438 0.390299 7.30017 -5.59803 0.0682662 7.04554 
-5.71507 -0.253025 6.88442 -5.65323 -0.0985127 6.73594 -5.72023 -0.356111 6.44458 
-5.8 -0.573035 6.64359 -5.72023 -0.356111 6.44458 -5.79664 -0.69833 6.17562 
-5.87596 -1.13086 6.20864 -5.79872 -0.957021 5.84674 -5.82386 -1.28103 5.69916 
-5.86589 -1.44173 5.85522 -5.82386 -1.28103 5.69916 -5.80011 -1.59354 5.44873 
-5.70083 -2.12273 5.05487 -5.71855 -1.78644 5.1074 -5.59037 -2.12006 4.71969 
-5.59948 -2.35085 4.78556 -5.59037 -2.12006 4.71969 -5.41772 -2.43736 4.34526 
-5.45306 -2.61625 4.47095 -5.41772 -2.43736 4.34526 -5.15489 -2.70179 3.88349 
-5.11452 -3.08731 3.94508 -5.15489 -2.70179 3.88349 -4.94276 -3.04296 3.63621 
-4.81968 -3.37577 3.57944 -4.94276 -3.04296 3.63621 -4.64185 -3.1657 3.25302 
-4.81968 -3.37577 3.57944 -4.64185 -3.1657 3.25302 -4.47669 -3.46011 3.14884 
-4.46715 -3.69414 3.24506 -4.47669 -3.46011 3.14884 -4.15512 -3.82038 2.93419 
-3.75968 -4.13147 2.70833 -3.93863 -3.82428 2.72139 -3.5325 -4.0936 2.484 
-2.38926 -4.68415 2.05738 -2.41464 -4.47779 1.95623 -1.92156 -4.60597 1.80406 
-1.90292 -4.80298 1.91068 -1.92156 -4.60597 1.80406 -1.47502 -4.81757 1.76692 
-1.08546 -4.94422 1.74875 -1.0503 -4.6941 1.60057 -0.661928 -4.7941 1.58746 
-0.638131 -4.98733 1.69598 -0.661928 -4.7941 1.58746 -0.15458 -4.84948 1.57678 
-0.0708477 -5.02883 1.68384 -0.15458 -4.84948 1.57678 0.261815 -4.81291 1.5644 
0.401376 -5.00378 1.68335 0.261815 -4.81291 1.5644 0.698706 -4.84758 1.61959 
1.4737 -4.88593 1.81201 1.17322 -4.72927 1.644 1.55302 -4.54456 1.65384 
1.4737 -4.88593 1.81201 1.55302 -4.54456 1.65384 1.85699 -4.49021 1.72432 
1.92496 -4.80354 1.91917 1.85699 -4.49021 1.72432 2.30004 -4.57898 1.95324 
2.91496 -4.51204 2.2618 2.64928 -4.4044 2.04215 3.13867 -4.26679 2.27405 
3.56214 -4.23664 2.58996 3.56018 -4.0142 2.47319 3.85065 -3.9463 2.69401 
4.3433 -3.7698 3.13291 4.12687 -3.70739 2.85825 4.49337 -3.49144 3.17894 
4.92809 -3.27455 3.70849 4.79837 -3.17122 3.4659 5.12347 -2.85689 3.87029 
5.63484 -2.28859 4.87359 5.49219 -2.18277 4.48053 5.6163 -1.98116 4.78972 
5.63484 -2.28859 4.87359 5.6163 -1.98116 4.78972 5.72914 -1.96603 5.13524 
5.80558 -1.79697 5.44562 5.72753 -1.57335 5.18206 5.85653 -1.40221 5.78857 
5.87572 -1.08906 6.27294 5.8109 -0.964111 5.89351 5.81672 -0.805123 6.16663 
5.87572 -1.08906 6.27294 5.81672 -0.805123 6.16663 5.80135 -0.599922 6.44573 
5.80055 -0.587296 6.88721 5.80135 -0.599922 6.44573 5.71431 -0.250235 6.84483 
5.69548 -0.244358 7.23093 5.71431 -0.250235 6.84483 5.60888 0.0344281 7.12598 
5.69548 -0.244358 7.23093 5.60888 0.0344281 7.12598 5.53185 0.142044 7.56803 
5.45171 0.240041 7.79885 5.53185 0.142044 7.56803 5.30406 0.58031 7.79418 
5.28072 0.477205 8.10245 5.30406 0.58031 7.79418 5.06335 0.854337 8.22077 
5.09177 0.714429 8.36887 5.06335 0.854337 8.22077 4.79848 1.13192 8.52436 
4.815 0.994336 8.70746 4.79848 1.13192 8.52436 4.56249 1.33622 8.7641 
4.48552 1.27378 9.02551 4.56249 1.33622 8.7641 4.2862 1.55509 8.99501 
4.15765 1.50204 9.30202 4.2862 1.55509 8.99501 3.9178 1.76368 9.32211 
2.66123 2.20515 10.1285 2.88128 2.27031 9.85724 2.42853 2.39442 10.0721 
1.90943 2.4229 10.3618 1.89147 2.55821 10.198 1.41487 2.64446 10.3131 
1.39703 2.51445 10.4797 1.41487 2.64446 10.3131 0.910234 2.64959 10.4776 
0.116053 2.61911 10.6119 0.393396 2.75572 10.4256 -0.159803 2.75143 10.4528 
-0.707878 2.59296 10.5811 -0.675848 2.74239 10.4003 -1.21855 2.61302 10.4327 
-2.45199 2.27516 10.2049 -2.42953 2.48554 9.94311 -2.86322 2.30601 9.82725 
-2.93448 2.1174 10.0073 -2.86322 2.30601 9.82725 -3.35872 1.99784 9.74172 
-5.12041 0.67739 8.33729 -4.94196 0.99076 8.35908 -5.233 0.679692 7.92807 
-5.47411 0.191698 7.77752 -5.28031 0.645259 7.73822 -5.50511 0.236118 7.46644 
-5.63943 -0.118658 7.39477 -5.50511 0.236118 7.46644 -5.59803 0.0682662 7.04554 
-5.63943 -0.118658 7.39477 -5.59803 0.0682662 7.04554 -5.71507 -0.253025 6.88442 
-5.75417 -0.414695 7.04543 -5.71507 -0.253025 6.88442 -5.8 -0.573035 6.64359 
-5.87596 -1.13086 6.20864 -5.79664 -0.69833 6.17562 -5.79872 -0.957021 5.84674 
-3.44211 -4.40481 2.59954 -3.5325 -4.0936 2.484 -3.11383 -4.33631 2.29114 
3.25197 -4.48475 2.49597 3.13867 -4.26679 2.27405 3.56214 -4.23664 2.58996 
5.86322 -0.947977 6.64242 5.80135 -0.599922 6.44573 5.80055 -0.587296 6.88721 
3.86585 1.58698 9.60569 3.9178 1.76368 9.32211 3.55895 1.83814 9.70263 
2.31178 2.25666 10.306 2.42853 2.39442 10.0721 1.90943 2.4229 10.3618 
-0.271477 2.52607 10.6977 -0.159803 2.75143 10.4528 -0.707878 2.59296 10.5811 
-4.25814 1.34261 9.32128 -4.25353 1.53336 9.09318 -4.51379 1.24355 9.01168 
-5.31011 0.351827 8.16575 -5.233 0.679692 7.92807 -5.47411 0.191698 7.77752 
-5.88785 -1.37196 6.29221 -5.87596 -1.13086 6.20864 -5.86589 -1.44173 5.85522 
-5.87599 -1.61449 6.00825 -5.88192 -1.54352 6.09134 -5.86589 -1.44173 5.85522 
-5.84048 -1.85604 5.72543 -5.86414 -1.71473 5.89088 -5.86589 -1.44173 5.85522 
-5.68585 -2.36787 5.12825 -5.74023 -2.22285 5.29595 -5.70083 -2.12273 5.05487 
-5.68585 -2.36787 5.12825 -5.70083 -2.12273 5.05487 -5.59948 -2.35085 4.78556 
-5.46609 -2.79315 4.62822 -5.51241 -2.71557 4.71905 -5.45306 -2.61625 4.47095 
-5.31053 -3.02325 4.3588 -5.41404 -2.87483 4.53258 -5.45306 -2.61625 4.47095 
-5.31053 -3.02325 4.3588 -5.29569 -2.83519 4.1976 -5.11452 -3.08731 3.94508 
-4.93127 -3.46232 3.8452 -5.05441 -3.33321 3.99588 -5.11452 -3.08731 3.94508 
-4.74131 -3.63916 3.63767 -4.76337 -3.61957 3.6606 -4.81968 -3.37577 3.57944 
-4.51035 -3.82989 3.41435 -4.6033 -3.7561 3.50075 -4.46715 -3.69414 3.24506 
-4.25847 -4.0126 3.20042 -4.43397 -3.88782 3.34652 -4.46715 -3.69414 3.24506 
-4.25847 -4.0126 3.20042 -4.46715 -3.69414 3.24506 -4.15512 -3.82038 2.93419 
-3.99496 -4.18093 3.00333 -4.06887 -4.13582 3.05614 -4.15512 -3.82038 2.93419 
-3.68998 -4.3546 2.80491 -3.87384 -4.2516 2.92059 -3.75968 -4.13147 2.70833 
-3.68998 -4.3546 2.80491 -3.75968 -4.13147 2.70833 -3.44211 -4.40481 2.59954 
-3.05236 -4.64298 2.4635 -3.2436 -4.56325 2.5557 -3.11383 -4.33631 2.29114 
-3.05236 -4.64298 2.4635 -3.11383 -4.33631 2.29114 -2.78558 -4.47703 2.15622 
-2.4459 -4.85026 2.21965 -2.55464 -4.81714 2.25843 -2.38926 -4.68415 2.05738 
-2.08414 -4.94888 2.10493 -2.31407 -4.8881 2.17534 -2.38926 -4.68415 2.05738 
-1.34268 -5.09764 1.93425 -1.56638 -5.05801 1.9764 -1.47502 -4.81757 1.76692 
-1.34268 -5.09764 1.93425 -1.47502 -4.81757 1.76692 -1.08546 -4.94422 1.74875 
-0.652598 -5.17225 1.84264 -0.790345 -5.16121 1.85557 -0.638131 -4.98733 1.69598 
-0.272156 -5.19172 1.81984 -0.527782 -5.18042 1.83308 -0.638131 -4.98733 1.69598 
0.501267 -5.18515 1.83323 0.264157 -5.19197 1.81956 0.401376 -5.00378 1.68335 
0.501267 -5.18515 1.83323 0.401376 -5.00378 1.68335 0.963209 -4.99003 1.75131 
1.20587 -5.11476 1.90996 1.05132 -5.13436 1.887 0.963209 -4.99003 1.75131 
1.92573 -4.98551 2.06129 1.81944 -5.00866 2.03418 1.92496 -4.80354 1.91917 
2.27474 -4.89891 2.16269 2.06884 -4.95199 2.10054 1.92496 -4.80354 1.91917 
2.94392 -4.68352 2.41488 2.79007 -4.73923 2.34965 2.91496 -4.51204 2.2618 
3.01987 -4.65454 2.4488 2.91496 -4.51204 2.2618 3.25197 -4.48475 2.49597 
3.56574 -4.41484 2.72946 3.46079 -4.46553 2.67012 3.56214 -4.23664 2.58996 
3.85572 -4.26184 2.9086 3.67101 -4.36157 2.79183 3.56214 -4.23664 2.58996 
4.41491 -3.90263 3.32926 4.25571 -4.01449 3.19821 4.3433 -3.7698 3.13291 
4.41491 -3.90263 3.32926 4.3433 -3.7698 3.13291 4.68334 -3.52325 3.45314 
4.84968 -3.54032 3.75339 4.76337 -3.61957 3.6606 4.68334 -3.52325 3.45314 
5.0533 -3.3335 3.99349 4.91384 -3.47851 3.82576 4.92809 -3.27455 3.70849 
5.23333 -3.12415 4.24066 5.18481 -3.18397 4.17063 5.13086 -3.0531 3.96017 
5.40553 -2.88766 4.51572 5.30477 -3.03107 4.34964 5.36743 -2.67377 4.28188 
5.40553 -2.88766 4.51572 5.36743 -2.67377 4.28188 5.50028 -2.53975 4.57071 
5.53277 -2.6798 4.76093 5.51241 -2.71557 4.71905 5.50028 -2.53975 4.57071 
5.66654 -2.40746 5.07003 5.59968 -2.5536 4.90869 5.63484 -2.28859 4.87359 
5.66654 -2.40746 5.07003 5.63484 -2.28859 4.87359 5.72914 -1.96603 5.13524 
5.81389 -1.97614 5.58481 5.79323 -2.05474 5.49278 5.80558 -1.79697 5.44562 
5.86267 -1.72509 5.87875 5.83456 -1.88525 5.69123 5.80558 -1.79697 5.44562 
5.88411 -1.22453 6.46884 5.88785 -1.37196 6.29221 5.87572 -1.08906 6.27294 
5.88411 -1.22453 6.46884 5.87572 -1.08906 6.27294 5.86322 -0.947977 6.64242 
5.81389 -0.767791 6.99961 5.83456 -0.858677 6.89319 5.80055 -0.587296 6.88721 
5.7417 -0.525304 7.28352 5.79323 -0.68919 7.09164 5.80055 -0.587296 6.88721 
5.64935 -0.294662 7.55357 5.67567 -0.35468 7.4833 5.69548 -0.244358 7.23093 
5.53277 -0.0641309 7.82349 5.59968 -0.19033 7.67573 5.53185 0.142044 7.56803 
5.23333 0.380225 8.34376 5.30477 0.287142 8.23477 5.28072 0.477205 8.10245 
4.84968 0.796387 8.83102 4.91384 0.734583 8.75866 4.815 0.994336 8.70746 
4.61515 1.00239 9.07335 4.76337 0.875638 8.92381 4.815 0.994336 8.70746 
4.09436 1.37156 9.51475 4.25571 1.27056 9.3862 4.15765 1.50204 9.30202 
4.09436 1.37156 9.51475 4.15765 1.50204 9.30202 3.86585 1.58698 9.60569 
3.56574 1.67091 9.85496 3.67101 1.61764 9.79259 3.55895 1.83814 9.70263 
3.2525 1.81549 10.0242 3.46079 1.7216 9.9143 3.55895 1.83814 9.70263 
2.58085 2.06227 10.3196 2.79007 1.9953 10.2348 2.66123 2.20515 10.1285 
2.58085 2.06227 10.3196 2.66123 2.20515 10.1285 2.31178 2.25666 10.306 
2.27474 2.15498 10.4217 2.31407 2.14417 10.4091 2.31178 2.25666 10.306 
1.92573 2.24158 10.5231 2.06884 2.20806 10.4839 1.90943 2.4229 10.3618 
1.56767 2.31385 10.6077 1.81944 2.26473 10.5502 1.90943 2.4229 10.3618 
1.20587 2.37083 10.6745 1.31017 2.35601 10.6571 1.39703 2.51445 10.4797 
0.811957 2.41658 10.7262 1.05132 2.39043 10.6974 0.910234 2.64959 10.4776 
0.811957 2.41658 10.7262 0.910234 2.64959 10.4776 0.529736 2.60359 10.5928 
0.0934164 2.4514 10.7688 0.264157 2.44804 10.7649 0.116053 2.61911 10.6119 
-9.76996e-10 2.45189 10.7694 0.116053 2.61911 10.6119 -0.271477 2.52607 10.6977 
-0.652598 2.42832 10.7418 -0.527782 2.43649 10.7513 -0.707878 2.59296 10.5811 
-1.03773 2.392 10.6997 -0.790345 2.41728 10.7288 -0.707878 2.59296 10.5811 
-1.78965 2.26804 10.561 -1.56638 2.31409 10.608 -1.56227 2.56201 10.3624 
-2.4459 2.10633 10.3648 -2.31407 2.14417 10.4091 -2.45199 2.27516 10.2049 
-2.78606 1.99835 10.2352 -2.55464 2.07321 10.326 -2.45199 2.27516 10.2049 
-3.10422 1.87726 10.0966 -3.01987 1.91061 10.1356 -2.93448 2.1174 10.0073 
-3.44125 1.73007 9.92661 -3.2436 1.81932 10.0287 -3.35872 1.99784 9.74172 
-3.44125 1.73007 9.92661 -3.35872 1.99784 9.74172 -3.66589 1.85021 9.56068 
-3.99496 1.437 9.58109 -3.87384 1.50767 9.66383 -3.98861 1.68087 9.33821 
-4.06887 1.39189 9.52827 -3.98861 1.68087 9.33821 -4.25814 1.34261 9.32128 
-4.51035 1.08596 9.17007 -4.43397 1.14389 9.2379 -4.51379 1.24355 9.01168 
-4.74131 0.895227 8.94675 -4.6033 1.01217 9.08367 -4.51379 1.24355 9.01168 
-5.16928 0.454721 8.44097 -5.05441 0.589285 8.58854 -5.12041 0.67739 8.33729 
-5.16928 0.454721 8.44097 -5.12041 0.67739 8.33729 -5.31011 0.351827 8.16575 
-5.46609 0.0492168 7.9562 -5.41404 0.130904 8.05184 -5.47411 0.191698 7.77752 
-5.59737 -0.183592 7.68024 -5.51241 -0.0283599 7.86537 -5.47411 0.191698 7.77752 
-5.78884 -0.674278 7.11497 -5.74023 -0.521078 7.28847 -5.75417 -0.414695 7.04543 
-5.78884 -0.674278 7.11497 -5.75417 -0.414695 7.04543 -5.84901 -0.814034 6.63152 
-5.84048 -0.887894 6.85898 -5.83456 -0.858677 6.89319 -5.84901 -0.814034 6.63152 
-5.87599 -1.12944 6.57617 -5.86414 -1.0292 6.69354 -5.84901 -0.814034 6.63152 
0.450188 6.28244 -0.262521 0.448935 6.30072 -0.217781 0.458681 6.02799 0.0195171 
0.448935 6.30072 -0.217781 0.444512 6.30976 -0.172731 0.458681 6.02799 0.0195171 
0.444512 6.30976 -0.172731 0.434324 6.34785 -0.145556 0.458681 6.02799 0.0195171 
0.434324 6.34785 -0.145556 0.423936 6.36193 -0.11449 0.408232 6.15136 0.145475 
0.411846 6.39905 -0.106009 0.394232 6.40522 -0.0636029 0.408232 6.15136 0.145475 
0.394232 6.40522 -0.0636029 0.369665 6.46521 -0.0635966 0.408232 6.15136 0.145475 
0.369665 6.46521 -0.0635966 0.348775 6.45263 -0.0165282 0.309442 6.22011 0.253207 
0.327087 6.47406 -0.00228493 0.30432 6.48344 0.0190089 0.309442 6.22011 0.253207 
0.272103 6.5369 0.00920221 0.228648 6.50791 0.0725633 0.207917 6.27257 0.297449 
0.228648 6.50791 0.0725633 0.186867 6.54431 0.0696356 0.207917 6.27257 0.297449 
0.186867 6.54431 0.0696356 0.155624 6.5419 0.0884043 0.0964883 6.28738 0.340551 
0.0964883 6.28738 0.340551 0.155624 6.5419 0.0884043 0.124493 6.55643 0.0895936 
0.124493 6.55643 0.0895936 0.0850226 6.53686 0.119162 0.0964883 6.28738 0.340551 
0.0850226 6.53686 0.119162 0.0391996 6.57524 0.0943863 0.0964883 6.28738 0.340551 
0.0391996 6.57524 0.0943863 0.00461801 6.5589 0.11045 -0.0281912 6.29895 0.339868 
-0.0282704 6.56725 0.102251 -0.0683429 6.55 0.111695 -0.0281912 6.29895 0.339868 
-0.0683429 6.55 0.111695 -0.156045 6.29635 0.310883 -0.0281912 6.29895 0.339868 
-0.0683429 6.55 0.111695 -0.113422 6.55819 0.0920932 -0.156045 6.29635 0.310883 
-0.113422 6.55819 0.0920932 -0.150125 6.52758 0.103705 -0.156045 6.29635 0.310883 
-0.150125 6.52758 0.103705 -0.18603 6.53379 0.0789097 -0.156045 6.29635 0.310883 
-0.18603 6.53379 0.0789097 -0.213624 6.50609 0.0851398 -0.156045 6.29635 0.310883 
-0.213624 6.50609 0.0851398 -0.252882 6.51662 0.0444384 -0.301733 6.05651 0.419255 
-0.252882 6.51662 0.0444384 -0.28538 6.48238 0.0422916 -0.301733 6.05651 0.419255 
-0.28538 6.48238 0.0422916 -0.374568 6.19439 0.17745 -0.301733 6.05651 0.419255 
-0.28538 6.48238 0.0422916 -0.319585 6.48303 0.000308321 -0.374568 6.19439 0.17745 
-0.319585 6.48303 0.000308321 -0.342795 6.45564 -0.00970863 -0.374568 6.19439 0.17745 
-0.363218 6.45023 -0.0389562 -0.385806 6.41737 -0.0547868 -0.374568 6.19439 0.17745 
-0.385806 6.41737 -0.0547868 -0.407292 6.39916 -0.0928778 -0.374568 6.19439 0.17745 
-0.407292 6.39916 -0.0928778 -0.420749 6.36314 -0.10404 -0.437801 6.09388 0.0885025 
-0.431333 6.35872 -0.141224 -0.4414 6.32527 -0.16402 -0.437801 6.09388 0.0885025 
-0.4414 6.32527 -0.16402 -0.457593 6.01277 -0.00152072 -0.437801 6.09388 0.0885025 
-0.4414 6.32527 -0.16402 -0.447975 6.30495 -0.206559 -0.457593 6.01277 -0.00152072 
-0.447975 6.30495 -0.206559 -0.450435 6.25893 -0.220041 -0.457593 6.01277 -0.00152072 
-0.450435 6.25893 -0.220041 -0.448091 6.23797 -0.263857 -0.457593 6.01277 -0.00152072 
-0.448091 6.23797 -0.263857 -0.443477 6.2181 -0.290716 -0.432701 5.93226 -0.152577 
-0.432701 5.93226 -0.152577 -0.443477 6.2181 -0.290716 -0.436864 6.20459 -0.321432 
-0.436864 6.20459 -0.321432 -0.425595 6.15854 -0.333484 -0.432701 5.93226 -0.152577 
-0.425595 6.15854 -0.333484 -0.407939 6.15135 -0.383584 -0.432701 5.93226 -0.152577 
-0.407939 6.15135 -0.383584 -0.392055 6.12308 -0.399828 -0.432701 5.93226 -0.152577 
-0.332979 5.82007 -0.264321 -0.432701 5.93226 -0.152577 -0.392055 6.12308 -0.399828 
-0.374915 6.11604 -0.43072 -0.351738 6.09638 -0.456275 -0.332979 5.82007 -0.264321 
-0.351738 6.09638 -0.456275 -0.320872 6.07461 -0.482955 -0.332979 5.82007 -0.264321 
-0.320872 6.07461 -0.482955 -0.295412 6.04036 -0.48506 -0.332979 5.82007 -0.264321 
-0.269796 6.01838 -0.493563 -0.243707 6.022 -0.520322 -0.225185 5.74956 -0.313982 
-0.243707 6.022 -0.520322 -0.206917 6.09764 -0.613364 -0.225185 5.74956 -0.313982 
-0.206917 6.09764 -0.613364 -0.159167 5.98923 -0.549015 -0.0859126 5.70021 -0.342087 
-0.159167 5.98923 -0.549015 -0.114739 5.99313 -0.570607 -0.0859126 5.70021 -0.342087 
-0.114739 5.99313 -0.570607 -0.0811423 5.97876 -0.56806 -0.0859126 5.70021 -0.342087 
-0.0486067 5.98385 -0.578731 -0.00844419 5.96771 -0.56872 -0.0859126 5.70021 -0.342087 
-0.00844419 5.96771 -0.56872 0.0782662 5.7376 -0.374054 -0.0859126 5.70021 -0.342087 
-0.00844419 5.96771 -0.56872 0.0376113 5.99319 -0.588136 0.0782662 5.7376 -0.374054 
0.0376113 5.99319 -0.588136 0.0719892 5.96595 -0.559232 0.0782662 5.7376 -0.374054 
0.104252 5.99157 -0.572684 0.143095 5.98419 -0.552174 0.0782662 5.7376 -0.374054 
0.143095 5.98419 -0.552174 0.203563 5.73495 -0.315824 0.0782662 5.7376 -0.374054 
0.143095 5.98419 -0.552174 0.185843 6.00934 -0.551185 0.203563 5.73495 -0.315824 
0.185843 6.00934 -0.551185 0.221852 6.01885 -0.535699 0.203563 5.73495 -0.315824 
0.221852 6.01885 -0.535699 0.261238 6.03897 -0.519423 0.299871 5.77711 -0.269259 
0.261238 6.03897 -0.519423 0.287853 6.04304 -0.495682 0.299871 5.77711 -0.269259 
0.299871 5.77711 -0.269259 0.287853 6.04304 -0.495682 0.312379 6.06384 -0.484778 
0.312379 6.06384 -0.484778 0.340562 6.05216 -0.436306 0.299871 5.77711 -0.269259 
0.340562 6.05216 -0.436306 0.391337 5.86166 -0.200664 0.299871 5.77711 -0.269259 
0.340562 6.05216 -0.436306 0.36878 6.10785 -0.435621 0.391337 5.86166 -0.200664 
0.36878 6.10785 -0.435621 0.387438 6.11789 -0.405911 0.391337 5.86166 -0.200664 
0.403173 6.14672 -0.392549 0.419453 6.15223 -0.349768 0.391337 5.86166 -0.200664 
0.419453 6.15223 -0.349768 0.443771 5.93546 -0.0944918 0.391337 5.86166 -0.200664 
0.419453 6.15223 -0.349768 0.433861 6.19835 -0.331248 0.443771 5.93546 -0.0944918 
0.433861 6.19835 -0.331248 0.441773 6.20022 -0.288208 0.443771 5.93546 -0.0944918 
0.44692 6.23039 -0.271202 0.450188 6.28244 -0.262521 0.458681 6.02799 0.0195171 
0.458681 6.02799 0.0195171 0.408232 6.15136 0.145475 0.487509 5.63907 0.407647 
0.408232 6.15136 0.145475 0.309442 6.22011 0.253207 0.415963 5.78165 0.518413 
0.309442 6.22011 0.253207 0.207917 6.27257 0.297449 0.31933 5.84581 0.614583 
0.207917 6.27257 0.297449 0.0964883 6.28738 0.340551 0.217973 5.87405 0.681166 
0.0964883 6.28738 0.340551 -0.0281912 6.29895 0.339868 0.0250206 5.89784 0.734759 
-0.0281912 6.29895 0.339868 -0.156045 6.29635 0.310883 0.0250206 5.89784 0.734759 
-0.374568 6.19439 0.17745 -0.437801 6.09388 0.0885025 -0.417497 5.89565 0.388274 
-0.437801 6.09388 0.0885025 -0.457593 6.01277 -0.00152072 -0.476987 5.68187 0.388498 
-0.457593 6.01277 -0.00152072 -0.432701 5.93226 -0.152577 -0.485013 5.60804 0.2893 
-0.432701 5.93226 -0.152577 -0.332979 5.82007 -0.264321 -0.38033 5.49578 0.0354916 
-0.332979 5.82007 -0.264321 -0.225185 5.74956 -0.313982 -0.243622 5.30119 0.0320449 
-0.225185 5.74956 -0.313982 -0.0859126 5.70021 -0.342087 -0.0860385 5.27247 -0.0214524 
-0.0859126 5.70021 -0.342087 0.0782662 5.7376 -0.374054 -0.0860385 5.27247 -0.0214524 
0.0782662 5.7376 -0.374054 0.203563 5.73495 -0.315824 0.24378 5.34675 -0.00210313 
0.203563 5.73495 -0.315824 0.299871 5.77711 -0.269259 0.24378 5.34675 -0.00210313 
0.299871 5.77711 -0.269259 0.391337 5.86166 -0.200664 0.353442 5.39775 0.0713704 
0.391337 5.86166 -0.200664 0.443771 5.93546 -0.0944918 0.422185 5.61155 0.0395777 
0.443771 5.93546 -0.0944918 0.458681 6.02799 0.0195171 0.47708 5.55311 0.250124 
-0.165442 5.93133 0.655214 -0.301733 6.05651 0.419255 -0.272712 5.60704 0.927888 
-0.301733 6.05651 0.419255 -0.417497 5.89565 0.388274 -0.383017 5.58308 0.81949 
-0.417497 5.89565 0.388274 -0.476987 5.68187 0.388498 -0.472552 5.48446 0.747521 
-0.485013 5.60804 0.2893 -0.453901 5.65902 0.107178 -0.503965 5.2308 0.455004 
-0.453901 5.65902 0.107178 -0.38033 5.49578 0.0354916 -0.455745 5.16542 0.362658 
0.353442 5.39775 0.0713704 0.422185 5.61155 0.0395777 0.475046 5.1404 0.410795 
0.487509 5.63907 0.407647 0.415963 5.78165 0.518413 0.509545 5.28705 0.91867 
0.415963 5.78165 0.518413 0.31933 5.84581 0.614583 0.433964 5.34114 1.03593 
0.31933 5.84581 0.614583 0.217973 5.87405 0.681166 0.341043 5.38217 1.12323 
0.217973 5.87405 0.681166 0.0250206 5.89784 0.734759 0.175023 5.48328 1.14241 
0.0250206 5.89784 0.734759 -0.165442 5.93133 0.655214 -0.139864 5.56469 1.06539 
-0.165442 5.93133 0.655214 -0.272712 5.60704 0.927888 -0.139864 5.56469 1.06539 
-0.472552 5.48446 0.747521 -0.476987 5.68187 0.388498 -0.540249 5.30122 0.641496 
-0.476987 5.68187 0.388498 -0.485013 5.60804 0.2893 -0.540249 5.30122 0.641496 
-0.38033 5.49578 0.0354916 -0.243622 5.30119 0.0320449 -0.350515 4.96781 0.326526 
-0.243622 5.30119 0.0320449 -0.0860385 5.27247 -0.0214524 -0.173773 4.9016 0.25304 
-0.0860385 5.27247 -0.0214524 0.102498 5.32567 -0.0529712 -0.012359 4.88271 0.234639 
0.102498 5.32567 -0.0529712 0.24378 5.34675 -0.00210313 0.30154 4.82705 0.372604 
0.24378 5.34675 -0.00210313 0.353442 5.39775 0.0713704 0.399908 4.98689 0.369945 
0.353442 5.39775 0.0713704 0.475046 5.1404 0.410795 0.399908 4.98689 0.369945 
0.475046 5.1404 0.410795 0.47708 5.55311 0.250124 0.534463 5.15021 0.57371 
0.47708 5.55311 0.250124 0.487509 5.63907 0.407647 0.544091 5.26951 0.68856 
0.544091 5.26951 0.68856 0.509545 5.28705 0.91867 0.599627 4.96355 1.1317 
0.0190862 5.49092 1.17139 -0.139864 5.56469 1.06539 -0.114835 5.23682 1.46256 
-0.139864 5.56469 1.06539 -0.272712 5.60704 0.927888 -0.244959 5.22768 1.41049 
-0.272712 5.60704 0.927888 -0.383017 5.58308 0.81949 -0.364201 5.1896 1.35298 
-0.383017 5.58308 0.81949 -0.472552 5.48446 0.747521 -0.469538 5.22081 1.14308 
-0.472552 5.48446 0.747521 -0.540249 5.30122 0.641496 -0.558115 5.1186 1.03108 
-0.540249 5.30122 0.641496 -0.503965 5.2308 0.455004 -0.582466 4.87501 0.763052 
-0.503965 5.2308 0.455004 -0.455745 5.16542 0.362658 -0.582466 4.87501 0.763052 
-0.455745 5.16542 0.362658 -0.350515 4.96781 0.326526 -0.490402 4.74692 0.614503 
-0.350515 4.96781 0.326526 -0.173773 4.9016 0.25304 -0.351057 4.65776 0.500954 
-0.173773 4.9016 0.25304 -0.012359 4.88271 0.234639 -0.0224644 4.42833 0.511652 
-0.012359 4.88271 0.234639 0.137208 4.89048 0.249207 0.125063 4.41063 0.535254 
0.137208 4.89048 0.249207 0.30154 4.82705 0.372604 0.277912 4.45726 0.567449 
0.399908 4.98689 0.369945 0.475046 5.1404 0.410795 0.502934 4.63959 0.680458 
0.475046 5.1404 0.410795 0.534463 5.15021 0.57371 0.583651 4.74252 0.799023 
0.534463 5.15021 0.57371 0.544091 5.26951 0.68856 0.600646 4.94781 0.859643 
0.600646 4.94781 0.859643 0.599627 4.96355 1.1317 0.708732 4.57097 1.237 
0.509545 5.28705 0.91867 0.433964 5.34114 1.03593 0.578532 4.852 1.4752 
0.433964 5.34114 1.03593 0.341043 5.38217 1.12323 0.493094 4.91783 1.55941 
0.341043 5.38217 1.12323 0.175023 5.48328 1.14241 0.394459 4.94886 1.6573 
0.175023 5.48328 1.14241 0.0190862 5.49092 1.17139 0.0230119 5.14338 1.59865 
-0.364201 5.1896 1.35298 -0.469538 5.22081 1.14308 -0.467865 4.89016 1.65415 
-0.469538 5.22081 1.14308 -0.558115 5.1186 1.03108 -0.620094 4.81716 1.4222 
-0.558115 5.1186 1.03108 -0.595126 5.00658 0.905647 -0.693165 4.64435 1.26693 
-0.595126 5.00658 0.905647 -0.582466 4.87501 0.763052 -0.690286 4.52399 1.12614 
-0.582466 4.87501 0.763052 -0.490402 4.74692 0.614503 -0.637889 4.4117 0.984495 
-0.490402 4.74692 0.614503 -0.351057 4.65776 0.500954 -0.520861 4.30236 0.84203 
-0.351057 4.65776 0.500954 -0.172699 4.45525 0.523018 -0.336734 4.12295 0.765717 
0.277912 4.45726 0.567449 0.30154 4.82705 0.372604 0.4617 4.24017 0.804588 
0.30154 4.82705 0.372604 0.502934 4.63959 0.680458 0.4617 4.24017 0.804588 
0.583651 4.74252 0.799023 0.600646 4.94781 0.859643 0.705883 4.35837 1.1464 
0.708732 4.57097 1.237 0.599627 4.96355 1.1317 0.747127 4.47449 1.63031 
0.394459 4.94886 1.6573 0.192405 5.14916 1.54897 0.265326 4.81184 1.97793 
0.192405 5.14916 1.54897 0.0230119 5.14338 1.59865 0.0771368 4.84936 1.9904 
0.0230119 5.14338 1.59865 -0.114835 5.23682 1.46256 -0.083308 4.86584 1.96583 
-0.114835 5.23682 1.46256 -0.244959 5.22768 1.41049 -0.282085 4.91121 1.82209 
-0.244959 5.22768 1.41049 -0.364201 5.1896 1.35298 -0.282085 4.91121 1.82209 
-0.172699 4.45525 0.523018 -0.0224644 4.42833 0.511652 -0.132792 3.99807 0.752463 
-0.0224644 4.42833 0.511652 0.125063 4.41063 0.535254 0.125173 4.02187 0.73551 
0.125063 4.41063 0.535254 0.277912 4.45726 0.567449 0.125173 4.02187 0.73551 
0.277912 4.45726 0.567449 0.4617 4.24017 0.804588 0.364909 3.8471 0.913959 
0.4617 4.24017 0.804588 0.502934 4.63959 0.680458 0.632253 4.19799 1.02161 
0.502934 4.63959 0.680458 0.583651 4.74252 0.799023 0.632253 4.19799 1.02161 
0.708732 4.57097 1.237 0.747127 4.47449 1.63031 0.826592 4.24139 1.56239 
0.747127 4.47449 1.63031 0.578532 4.852 1.4752 0.686795 4.51955 1.85052 
0.578532 4.852 1.4752 0.493094 4.91783 1.55941 0.555316 4.60987 1.9844 
0.493094 4.91783 1.55941 0.394459 4.94886 1.6573 0.555316 4.60987 1.9844 
0.394459 4.94886 1.6573 0.265326 4.81184 1.97793 0.420073 4.6722 2.06147 
-0.083308 4.86584 1.96583 -0.282085 4.91121 1.82209 -0.257075 4.72649 2.11272 
-0.282085 4.91121 1.82209 -0.467865 4.89016 1.65415 -0.42877 4.67215 2.05243 
-0.467865 4.89016 1.65415 -0.620094 4.81716 1.4222 -0.590969 4.58924 1.9569 
-0.620094 4.81716 1.4222 -0.693165 4.64435 1.26693 -0.818493 4.28301 1.58399 
-0.693165 4.64435 1.26693 -0.690286 4.52399 1.12614 -0.818493 4.28301 1.58399 
-0.690286 4.52399 1.12614 -0.637889 4.4117 0.984495 -0.811325 4.11753 1.41172 
-0.637889 4.4117 0.984495 -0.520861 4.30236 0.84203 -0.731708 3.76201 1.27482 
-0.520861 4.30236 0.84203 -0.336734 4.12295 0.765717 -0.571574 3.71489 1.10848 
-0.336734 4.12295 0.765717 -0.132792 3.99807 0.752463 -0.238795 3.5698 0.982728 
-0.132792 3.99807 0.752463 0.125173 4.02187 0.73551 -0.005185 3.50229 0.976466 
0.364909 3.8471 0.913959 0.4617 4.24017 0.804588 0.568017 3.61836 1.14303 
0.4617 4.24017 0.804588 0.632253 4.19799 1.02161 0.700307 3.75206 1.23899 
0.632253 4.19799 1.02161 0.705883 4.35837 1.1464 0.805032 3.82916 1.38157 
0.705883 4.35837 1.1464 0.708732 4.57097 1.237 0.835844 3.99367 1.45394 
0.826592 4.24139 1.56239 0.747127 4.47449 1.63031 0.940192 4.00103 1.99289 
0.747127 4.47449 1.63031 0.686795 4.51955 1.85052 0.863738 4.12765 2.19613 
0.686795 4.51955 1.85052 0.555316 4.60987 1.9844 0.750428 4.23393 2.33326 
0.555316 4.60987 1.9844 0.420073 4.6722 2.06147 0.491717 4.35336 2.53981 
0.420073 4.6722 2.06147 0.265326 4.81184 1.97793 0.272608 4.53077 2.41689 
0.265326 4.81184 1.97793 0.0771368 4.84936 1.9904 0.272608 4.53077 2.41689 
0.0771368 4.84936 1.9904 -0.083308 4.86584 1.96583 0.0555328 4.56147 2.43316 
-0.083308 4.86584 1.96583 -0.257075 4.72649 2.11272 -0.122363 4.5642 2.41972 
-0.257075 4.72649 2.11272 -0.42877 4.67215 2.05243 -0.496297 4.38668 2.47536 
-0.42877 4.67215 2.05243 -0.590969 4.58924 1.9569 -0.63794 4.40193 2.23427 
-0.590969 4.58924 1.9569 -0.728078 4.48164 1.77878 -0.811581 4.24846 2.0893 
-0.728078 4.48164 1.77878 -0.818493 4.28301 1.58399 -0.924445 4.03873 1.94859 
-0.818493 4.28301 1.58399 -0.811325 4.11753 1.41172 -0.92358 3.94358 1.71675 
-0.811325 4.11753 1.41172 -0.798141 3.89622 1.36469 -0.958244 3.63447 1.68272 
-0.571574 3.71489 1.10848 -0.390259 3.59042 1.03357 -0.613962 3.2961 1.28197 
-0.238795 3.5698 0.982728 -0.005185 3.50229 0.976466 -0.207582 3.19835 1.12227 
0.364909 3.8471 0.913959 0.568017 3.61836 1.14303 0.499064 3.35361 1.18424 
0.835844 3.99367 1.45394 0.826592 4.24139 1.56239 1.00239 3.7748 1.88963 
0.491717 4.35336 2.53981 0.272608 4.53077 2.41689 0.347121 4.29619 2.77525 
0.272608 4.53077 2.41689 0.0555328 4.56147 2.43316 0.0836088 4.27827 2.91606 
0.0555328 4.56147 2.43316 -0.122363 4.5642 2.41972 0.0836088 4.27827 2.91606 
-0.496297 4.38668 2.47536 -0.63794 4.40193 2.23427 -0.758 4.1062 2.64171 
-0.63794 4.40193 2.23427 -0.811581 4.24846 2.0893 -0.906571 3.97906 2.52942 
-0.924445 4.03873 1.94859 -0.92358 3.94358 1.71675 -1.0702 3.70973 2.15132 
-0.92358 3.94358 1.71675 -0.958244 3.63447 1.68272 -1.08083 3.54994 1.97462 
-0.958244 3.63447 1.68272 -0.798141 3.89622 1.36469 -0.93605 3.43358 1.61572 
-0.798141 3.89622 1.36469 -0.731708 3.76201 1.27482 -0.93605 3.43358 1.61572 
-0.731708 3.76201 1.27482 -0.571574 3.71489 1.10848 -0.792167 3.3057 1.43745 
-0.613962 3.2961 1.28197 -0.390259 3.59042 1.03357 -0.496527 2.95313 1.31659 
-0.390259 3.59042 1.03357 -0.238795 3.5698 0.982728 -0.496527 2.95313 1.31659 
-0.207582 3.19835 1.12227 -0.005185 3.50229 0.976466 -0.102179 2.88693 1.22807 
-0.005185 3.50229 0.976466 0.142716 3.5386 0.974226 0.237537 2.87848 1.25195 
0.142716 3.5386 0.974226 0.291959 3.52794 1.01735 0.387035 2.93016 1.27978 
0.499064 3.35361 1.18424 0.568017 3.61836 1.14303 0.713387 3.06832 1.42471 
0.568017 3.61836 1.14303 0.700307 3.75206 1.23899 0.855409 3.10983 1.54608 
0.700307 3.75206 1.23899 0.805032 3.82916 1.38157 0.911604 3.46801 1.56988 
0.805032 3.82916 1.38157 0.835844 3.99367 1.45394 1.02016 3.56829 1.80522 
0.835844 3.99367 1.45394 1.00239 3.7748 1.88963 1.02016 3.56829 1.80522 
1.00239 3.7748 1.88963 0.940192 4.00103 1.99289 1.21432 3.44548 2.41355 
0.940192 4.00103 1.99289 0.863738 4.12765 2.19613 1.14654 3.60941 2.56357 
0.863738 4.12765 2.19613 0.750428 4.23393 2.33326 0.901642 3.94238 2.68887 
0.750428 4.23393 2.33326 0.621043 4.31974 2.42787 0.773687 4.02715 2.79982 
0.621043 4.31974 2.42787 0.491717 4.35336 2.53981 0.593947 4.12017 2.8912 
0.491717 4.35336 2.53981 0.347121 4.29619 2.77525 0.447733 4.08321 3.11781 
-0.150415 4.28428 2.88825 -0.30336 4.41248 2.59279 -0.346337 4.09666 3.16489 
-0.30336 4.41248 2.59279 -0.496297 4.38668 2.47536 -0.488975 4.08175 3.08405 
-0.980624 3.89936 2.42119 -0.924445 4.03873 1.94859 -1.15488 3.59499 2.544 
-1.08083 3.54994 1.97462 -0.958244 3.63447 1.68272 -1.17211 3.1617 2.02284 
-0.958244 3.63447 1.68272 -0.93605 3.43358 1.61572 -1.11457 3.01077 1.8873 
-0.93605 3.43358 1.61572 -0.792167 3.3057 1.43745 -1.01502 2.85517 1.756 
-0.792167 3.3057 1.43745 -0.613962 3.2961 1.28197 -0.758889 2.71634 1.54284 
-0.496527 2.95313 1.31659 -0.207582 3.19835 1.12227 -0.31252 2.75411 1.31114 
0.387035 2.93016 1.27978 0.499064 3.35361 1.18424 0.592266 2.85399 1.39549 
0.911604 3.46801 1.56988 1.02016 3.56829 1.80522 1.18383 3.15288 2.04352 
1.02016 3.56829 1.80522 1.00239 3.7748 1.88963 1.15103 3.41276 2.09176 
1.15103 3.41276 2.09176 1.21432 3.44548 2.41355 1.35546 3.05928 2.40956 
1.08298 3.70702 2.69048 0.901642 3.94238 2.68887 1.10395 3.58197 3.23534 
0.901642 3.94238 2.68887 0.773687 4.02715 2.79982 0.909408 3.76441 3.21252 
0.773687 4.02715 2.79982 0.593947 4.12017 2.8912 0.708125 3.85196 3.36562 
0.447733 4.08321 3.11781 0.347121 4.29619 2.77525 0.275413 3.96529 3.48542 
0.347121 4.29619 2.77525 0.0836088 4.27827 2.91606 0.275413 3.96529 3.48542 
0.0836088 4.27827 2.91606 -0.150415 4.28428 2.88825 -0.196624 3.97109 3.49899 
-0.150415 4.28428 2.88825 -0.346337 4.09666 3.16489 -0.196624 3.97109 3.49899 
-0.488975 4.08175 3.08405 -0.616572 4.10564 2.8911 -0.735641 3.84119 3.34574 
-0.616572 4.10564 2.8911 -0.758 4.1062 2.64171 -0.951462 3.72866 3.22406 
-0.758 4.1062 2.64171 -0.906571 3.97906 2.52942 -1.1192 3.59915 3.06328 
-0.906571 3.97906 2.52942 -0.980624 3.89936 2.42119 -1.20848 3.50475 2.91649 
-1.15488 3.59499 2.544 -1.0702 3.70973 2.15132 -1.26567 3.37322 2.53184 
-1.0702 3.70973 2.15132 -1.08083 3.54994 1.97462 -1.28106 3.20231 2.31162 
-0.758889 2.71634 1.54284 -0.496527 2.95313 1.31659 -0.678406 2.34942 1.57425 
-0.496527 2.95313 1.31659 -0.31252 2.75411 1.31114 -0.496466 2.28852 1.50908 
-0.31252 2.75411 1.31114 -0.102179 2.88693 1.22807 -0.28494 2.29842 1.44529 
-0.102179 2.88693 1.22807 0.0758263 2.8603 1.23575 0.128556 2.40122 1.38815 
0.0758263 2.8603 1.23575 0.237537 2.87848 1.25195 0.128556 2.40122 1.38815 
0.237537 2.87848 1.25195 0.387035 2.93016 1.27978 0.457348 2.45293 1.44363 
0.387035 2.93016 1.27978 0.592266 2.85399 1.39549 0.457348 2.45293 1.44363 
0.592266 2.85399 1.39549 0.713387 3.06832 1.42471 0.770263 2.59543 1.57207 
0.713387 3.06832 1.42471 0.855409 3.10983 1.54608 1.03019 2.53543 1.80021 
0.855409 3.10983 1.54608 1.08709 3.04509 1.84459 1.17429 2.64065 1.9535 
1.18383 3.15288 2.04352 1.15103 3.41276 2.09176 1.35546 3.05928 2.40956 
1.35546 3.05928 2.40956 1.21432 3.44548 2.41355 1.41396 3.09726 2.67302 
1.21432 3.44548 2.41355 1.14654 3.60941 2.56357 1.37923 3.22533 2.82198 
1.14654 3.60941 2.56357 1.08298 3.70702 2.69048 1.36383 3.28139 3.09154 
1.08298 3.70702 2.69048 1.10395 3.58197 3.23534 1.26486 3.39763 3.27795 
0.708125 3.85196 3.36562 0.447733 4.08321 3.11781 0.506719 3.86008 3.5765 
0.447733 4.08321 3.11781 0.275413 3.96529 3.48542 0.506719 3.86008 3.5765 
-0.196624 3.97109 3.49899 -0.346337 4.09666 3.16489 -0.461292 3.80121 3.75277 
-0.346337 4.09666 3.16489 -0.488975 4.08175 3.08405 -0.582966 3.83879 3.55268 
-1.20848 3.50475 2.91649 -1.15488 3.59499 2.544 -1.365 3.26285 2.86087 
-1.15488 3.59499 2.544 -1.26567 3.37322 2.53184 -1.365 3.26285 2.86087 
-1.26567 3.37322 2.53184 -1.28106 3.20231 2.31162 -1.47648 3.00642 2.7761 
-1.28106 3.20231 2.31162 -1.17211 3.1617 2.02284 -1.39021 2.83271 2.34296 
-1.17211 3.1617 2.02284 -1.11457 3.01077 1.8873 -1.34102 2.6863 2.1989 
-1.11457 3.01077 1.8873 -1.01502 2.85517 1.756 -1.30509 2.45358 2.1066 
-1.01502 2.85517 1.756 -0.899895 2.76454 1.64723 -1.17314 2.31373 1.95327 
-0.899895 2.76454 1.64723 -0.758889 2.71634 1.54284 -0.997177 2.12951 1.81259 
-0.0967045 2.41703 1.38301 0.128556 2.40122 1.38815 0.109423 1.89065 1.53032 
0.128556 2.40122 1.38815 0.457348 2.45293 1.44363 0.313957 1.90915 1.55319 
0.457348 2.45293 1.44363 0.770263 2.59543 1.57207 0.712596 2.19588 1.62469 
0.770263 2.59543 1.57207 1.03019 2.53543 1.80021 0.918172 2.30113 1.72933 
1.08709 3.04509 1.84459 1.18383 3.15288 2.04352 1.48339 2.64369 2.44595 
1.35546 3.05928 2.40956 1.41396 3.09726 2.67302 1.57196 2.75398 2.73038 
1.41396 3.09726 2.67302 1.37923 3.22533 2.82198 1.63739 2.80689 3.04486 
1.10395 3.58197 3.23534 0.909408 3.76441 3.21252 1.05816 3.52367 3.64411 
0.909408 3.76441 3.21252 0.708125 3.85196 3.36562 0.883011 3.55503 3.93086 
0.708125 3.85196 3.36562 0.506719 3.86008 3.5765 0.628273 3.64884 4.00771 
0.506719 3.86008 3.5765 0.275413 3.96529 3.48542 0.383155 3.75756 3.92047 
0.275413 3.96529 3.48542 0.0183677 3.97224 3.52792 0.139297 3.78285 3.95885 
0.0183677 3.97224 3.52792 -0.196624 3.97109 3.49899 -0.202379 3.79036 3.92921 
-0.196624 3.97109 3.49899 -0.461292 3.80121 3.75277 -0.202379 3.79036 3.92921 
-0.582966 3.83879 3.55268 -0.735641 3.84119 3.34574 -0.732712 3.62421 3.9489 
-0.735641 3.84119 3.34574 -0.951462 3.72866 3.22406 -0.979843 3.51804 3.8598 
-0.951462 3.72866 3.22406 -1.1192 3.59915 3.06328 -1.16703 3.45594 3.56336 
-1.1192 3.59915 3.06328 -1.20848 3.50475 2.91649 -1.3997 3.21841 3.53774 
-1.20848 3.50475 2.91649 -1.365 3.26285 2.86087 -1.51814 3.07677 3.38027 
-1.49081 2.87142 2.63223 -1.39021 2.83271 2.34296 -1.63963 2.48625 2.67428 
-1.39021 2.83271 2.34296 -1.34102 2.6863 2.1989 -1.56808 2.30515 2.45357 
-0.997177 2.12951 1.81259 -0.678406 2.34942 1.57425 -0.842351 1.90151 1.74638 
-0.678406 2.34942 1.57425 -0.496466 2.28852 1.50908 -0.63745 1.8319 1.66294 
-0.496466 2.28852 1.50908 -0.28494 2.29842 1.44529 -0.368475 1.74302 1.59757 
0.535952 1.95004 1.60263 0.712596 2.19588 1.62469 0.764091 1.68963 1.7432 
0.712596 2.19588 1.62469 0.918172 2.30113 1.72933 0.970535 1.79523 1.83643 
0.918172 2.30113 1.72933 1.03019 2.53543 1.80021 1.1977 1.90777 1.98834 
1.03019 2.53543 1.80021 1.17429 2.64065 1.9535 1.36972 2.05519 2.15398 
1.17429 2.64065 1.9535 1.39409 2.56316 2.25686 1.49937 2.18213 2.32199 
1.36383 3.28139 3.09154 1.26486 3.39763 3.27795 1.51792 3.08813 3.60776 
1.26486 3.39763 3.27795 1.10395 3.58197 3.23534 1.32472 3.27039 3.81452 
1.10395 3.58197 3.23534 1.05816 3.52367 3.64411 1.32472 3.27039 3.81452 
1.05816 3.52367 3.64411 0.883011 3.55503 3.93086 1.08936 3.41867 3.97526 
0.628273 3.64884 4.00771 0.383155 3.75756 3.92047 0.4535 3.56747 4.39793 
0.383155 3.75756 3.92047 0.139297 3.78285 3.95885 0.201234 3.60039 4.42675 
0.139297 3.78285 3.95885 -0.202379 3.79036 3.92921 -0.031127 3.60525 4.43705 
-0.202379 3.79036 3.92921 -0.461292 3.80121 3.75277 -0.558909 3.54616 4.38566 
-0.979843 3.51804 3.8598 -1.16703 3.45594 3.56336 -1.27882 3.30546 3.84328 
-1.62775 2.89011 3.22379 -1.47648 3.00642 2.7761 -1.72536 2.66863 3.10577 
-1.47648 3.00642 2.7761 -1.49081 2.87142 2.63223 -1.73665 2.5103 2.91899 
-1.49081 2.87142 2.63223 -1.63963 2.48625 2.67428 -1.73665 2.5103 2.91899 
-1.30509 2.45358 2.1066 -1.17314 2.31373 1.95327 -1.41698 1.73639 2.18286 
-1.17314 2.31373 1.95327 -0.997177 2.12951 1.81259 -1.26191 1.5786 2.05271 
-0.997177 2.12951 1.81259 -0.842351 1.90151 1.74638 -1.09852 1.46015 1.94956 
-0.842351 1.90151 1.74638 -0.63745 1.8319 1.66294 -0.763252 1.32712 1.79596 
-0.63745 1.8319 1.66294 -0.368475 1.74302 1.59757 -0.483545 1.26873 1.7157 
-0.368475 1.74302 1.59757 -0.0792005 1.90355 1.52582 -0.200012 1.26612 1.67222 
-0.0792005 1.90355 1.52582 0.109423 1.89065 1.53032 0.0331969 1.28481 1.65767 
0.109423 1.89065 1.53032 0.313957 1.90915 1.55319 0.322822 1.30497 1.67857 
0.313957 1.90915 1.55319 0.535952 1.95004 1.60263 0.612192 1.29853 1.74748 
1.49937 2.18213 2.32199 1.39409 2.56316 2.25686 1.73349 2.05305 2.62338 
1.39409 2.56316 2.25686 1.48339 2.64369 2.44595 1.80218 2.17405 2.79606 
1.48339 2.64369 2.44595 1.57196 2.75398 2.73038 1.83476 2.38831 3.03432 
1.83476 2.38831 3.03432 1.63739 2.80689 3.04486 1.878 2.53805 3.39704 
1.63739 2.80689 3.04486 1.5818 2.98086 3.28855 1.878 2.53805 3.39704 
1.5818 2.98086 3.28855 1.51792 3.08813 3.60776 1.68613 2.89704 3.8242 
1.51792 3.08813 3.60776 1.32472 3.27039 3.81452 1.55789 3.02503 4.11403 
1.32472 3.27039 3.81452 1.08936 3.41867 3.97526 1.29885 3.19561 4.37281 
1.08936 3.41867 3.97526 0.883011 3.55503 3.93086 1.03071 3.30718 4.57366 
0.883011 3.55503 3.93086 0.628273 3.64884 4.00771 0.774525 3.39444 4.65903 
-0.558909 3.54616 4.38566 -0.732712 3.62421 3.9489 -0.85965 3.42048 4.44455 
-0.732712 3.62421 3.9489 -0.979843 3.51804 3.8598 -1.10504 3.3255 4.33416 
-0.979843 3.51804 3.8598 -1.27882 3.30546 3.84328 -1.34212 3.16665 4.34411 
-1.27882 3.30546 3.84328 -1.3997 3.21841 3.53774 -1.56009 3.01678 4.18186 
-1.3997 3.21841 3.53774 -1.51814 3.07677 3.38027 -1.74377 2.83501 3.96566 
-1.51814 3.07677 3.38027 -1.62775 2.89011 3.22379 -1.93555 2.53851 3.65252 
-1.62775 2.89011 3.22379 -1.72536 2.66863 3.10577 -1.97877 2.3943 3.47353 
-1.72536 2.66863 3.10577 -1.73665 2.5103 2.91899 -1.98292 2.27421 3.28998 
-1.73665 2.5103 2.91899 -1.63963 2.48625 2.67428 -1.89515 2.20552 2.9992 
-1.63963 2.48625 2.67428 -1.56808 2.30515 2.45357 -1.85497 2.00994 2.79599 
-1.56808 2.30515 2.45357 -1.51357 1.98544 2.30448 -1.7575 1.83296 2.57445 
-1.51357 1.98544 2.30448 -1.41698 1.73639 2.18286 -1.70853 1.48669 2.44289 
0.612192 1.29853 1.74748 0.764091 1.68963 1.7432 0.898587 0.987806 1.8863 
0.764091 1.68963 1.7432 0.970535 1.79523 1.83643 0.898587 0.987806 1.8863 
0.970535 1.79523 1.83643 1.1977 1.90777 1.98834 1.33949 1.44191 2.10693 
1.1977 1.90777 1.98834 1.36972 2.05519 2.15398 1.54919 1.58626 2.29484 
1.36972 2.05519 2.15398 1.49937 2.18213 2.32199 1.70586 1.77781 2.49345 
1.83476 2.38831 3.03432 1.878 2.53805 3.39704 2.1572 2.21263 3.68288 
1.878 2.53805 3.39704 1.79711 2.73478 3.64327 2.05255 2.48479 4.02308 
1.79711 2.73478 3.64327 1.68613 2.89704 3.8242 2.05255 2.48479 4.02308 
1.68613 2.89704 3.8242 1.55789 3.02503 4.11403 1.80458 2.78732 4.40817 
0.774525 3.39444 4.65903 0.4535 3.56747 4.39793 0.536601 3.37122 5.00036 
0.4535 3.56747 4.39793 0.201234 3.60039 4.42675 0.225644 3.40793 5.04443 
0.201234 3.60039 4.42675 -0.031127 3.60525 4.43705 -0.0389473 3.44967 4.93203 
-0.031127 3.60525 4.43705 -0.244881 3.59748 4.41945 -0.284737 3.44193 4.90522 
-0.244881 3.59748 4.41945 -0.558909 3.54616 4.38566 -0.593607 3.39796 4.86025 
-0.558909 3.54616 4.38566 -0.85965 3.42048 4.44455 -0.901498 3.2899 4.88824 
-0.85965 3.42048 4.44455 -1.10504 3.3255 4.33416 -1.25844 3.14639 4.80472 
-1.89515 2.20552 2.9992 -1.85497 2.00994 2.79599 -2.08467 1.87966 3.10891 
-1.85497 2.00994 2.79599 -1.7575 1.83296 2.57445 -2.07186 1.55105 2.90126 
-1.70853 1.48669 2.44289 -1.41698 1.73639 2.18286 -1.65881 1.10513 2.34531 
-1.41698 1.73639 2.18286 -1.26191 1.5786 2.05271 -1.65881 1.10513 2.34531 
-1.26191 1.5786 2.05271 -1.09852 1.46015 1.94956 -1.44301 0.943369 2.17681 
-1.09852 1.46015 1.94956 -0.956129 1.38965 1.87457 -1.07674 0.770234 1.97784 
-0.956129 1.38965 1.87457 -0.763252 1.32712 1.79596 -1.07674 0.770234 1.97784 
-0.763252 1.32712 1.79596 -0.483545 1.26873 1.7157 -0.646272 0.65697 1.83532 
-0.483545 1.26873 1.7157 -0.200012 1.26612 1.67222 -0.373201 0.762078 1.76552 
-0.200012 1.26612 1.67222 0.0331969 1.28481 1.65767 -0.126189 0.73243 1.74516 
0.0331969 1.28481 1.65767 0.322822 1.30497 1.67857 0.123141 0.735596 1.74385 
0.322822 1.30497 1.67857 0.612192 1.29853 1.74748 0.664635 0.800836 1.82423 
1.13013 1.17321 1.98412 1.33949 1.44191 2.10693 1.38751 0.908418 2.13952 
1.33949 1.44191 2.10693 1.54919 1.58626 2.29484 1.80495 1.17031 2.48046 
1.54919 1.58626 2.29484 1.70586 1.77781 2.49345 1.80495 1.17031 2.48046 
1.70586 1.77781 2.49345 1.73349 2.05305 2.62338 2.07465 1.55595 2.9114 
1.73349 2.05305 2.62338 1.80218 2.17405 2.79606 2.11855 1.7006 3.05515 
1.80218 2.17405 2.79606 1.83476 2.38831 3.03432 2.14894 1.83718 3.20666 
1.80458 2.78732 4.40817 1.55789 3.02503 4.11403 1.70325 2.86806 4.69977 
1.55789 3.02503 4.11403 1.29885 3.19561 4.37281 1.70325 2.86806 4.69977 
1.29885 3.19561 4.37281 1.03071 3.30718 4.57366 1.23908 3.12382 4.98464 
1.03071 3.30718 4.57366 0.774525 3.39444 4.65903 1.01047 3.20947 5.0788 
0.225644 3.40793 5.04443 -0.0389473 3.44967 4.93203 -0.0410984 3.32076 5.41722 
-0.0389473 3.44967 4.93203 -0.284737 3.44193 4.90522 -0.256604 3.31231 5.40356 
-0.284737 3.44193 4.90522 -0.593607 3.39796 4.86025 -0.50892 3.32382 5.2195 
-1.25844 3.14639 4.80472 -1.34212 3.16665 4.34411 -1.60398 2.93491 4.77819 
-1.34212 3.16665 4.34411 -1.56009 3.01678 4.18186 -1.60398 2.93491 4.77819 
-1.56009 3.01678 4.18186 -1.74377 2.83501 3.96566 -1.96947 2.63182 4.40858 
-1.74377 2.83501 3.96566 -1.86731 2.67426 3.83545 -2.08826 2.48345 4.22875 
-1.86731 2.67426 3.83545 -1.93555 2.53851 3.65252 -2.19837 2.2868 3.99136 
-1.93555 2.53851 3.65252 -1.97877 2.3943 3.47353 -2.26575 2.09032 3.77471 
-1.97877 2.3943 3.47353 -1.98292 2.27421 3.28998 -2.283 1.91539 3.55192 
-1.98292 2.27421 3.28998 -2.08467 1.87966 3.10891 -2.37001 1.62662 3.43023 
-1.98631 1.36396 2.72191 -1.70853 1.48669 2.44289 -1.94941 1.0948 2.60581 
-0.646272 0.65697 1.83532 -0.373201 0.762078 1.76552 -0.417705 0.229827 1.82208 
-0.373201 0.762078 1.76552 -0.126189 0.73243 1.74516 -0.140436 0.204387 1.79912 
-0.126189 0.73243 1.74516 0.123141 0.735596 1.74385 0.137264 0.190409 1.79892 
0.123141 0.735596 1.74385 0.414171 0.764412 1.77149 0.375284 0.233521 1.81849 
0.414171 0.764412 1.77149 0.664635 0.800836 1.82423 0.613211 0.283927 1.85387 
0.664635 0.800836 1.82423 0.898587 0.987806 1.8863 0.868301 0.335814 1.91922 
0.898587 0.987806 1.8863 1.13013 1.17321 1.98412 1.29704 0.454659 2.08608 
2.15778 2.01027 3.39095 2.1572 2.21263 3.68288 2.54704 1.78558 3.99175 
2.1572 2.21263 3.68288 2.05255 2.48479 4.02308 2.40514 2.08196 4.17484 
2.05255 2.48479 4.02308 1.91463 2.67203 4.24874 2.17066 2.45798 4.62522 
1.91463 2.67203 4.24874 1.80458 2.78732 4.40817 2.11053 2.53827 4.89183 
1.80458 2.78732 4.40817 1.70325 2.86806 4.69977 1.96204 2.66298 5.06105 
1.70325 2.86806 4.69977 1.4537 3.02466 4.85558 1.79986 2.7757 5.20255 
1.4537 3.02466 4.85558 1.23908 3.12382 4.98464 1.54768 2.9166 5.34806 
1.23908 3.12382 4.98464 1.01047 3.20947 5.0788 1.2982 3.01975 5.49528 
1.01047 3.20947 5.0788 0.760824 3.2323 5.36028 1.05245 3.10014 5.60652 
0.536601 3.37122 5.00036 0.225644 3.40793 5.04443 0.542256 3.21282 5.69365 
-0.256604 3.31231 5.40356 -0.50892 3.32382 5.2195 -0.541318 3.20778 5.72739 
-0.7372 3.23882 5.35954 -0.901498 3.2899 4.88824 -1.03174 3.13912 5.42077 
-0.901498 3.2899 4.88824 -1.25844 3.14639 4.80472 -1.29822 3.04567 5.31331 
-1.25844 3.14639 4.80472 -1.60398 2.93491 4.77819 -1.82226 2.76152 5.2062 
-1.60398 2.93491 4.77819 -1.81483 2.7814 4.57072 -1.85617 2.74433 4.96018 
-1.81483 2.7814 4.57072 -1.96947 2.63182 4.40858 -2.12395 2.52531 4.84569 
-1.96947 2.63182 4.40858 -2.08826 2.48345 4.22875 -2.33224 2.29968 4.6452 
-2.08826 2.48345 4.22875 -2.19837 2.2868 3.99136 -2.46596 2.08311 4.39167 
-2.19837 2.2868 3.99136 -2.26575 2.09032 3.77471 -2.5656 1.80831 4.06349 
-2.26575 2.09032 3.77471 -2.283 1.91539 3.55192 -2.5656 1.80831 4.06349 
-2.33277 1.48047 3.25176 -2.07186 1.55105 2.90126 -2.38912 1.20757 3.16221 
-2.07186 1.55105 2.90126 -1.98631 1.36396 2.72191 -2.26908 1.02053 2.92479 
-1.98631 1.36396 2.72191 -1.94941 1.0948 2.60581 -2.14034 0.840942 2.72975 
-1.94941 1.0948 2.60581 -1.65881 1.10513 2.34531 -1.92367 0.64612 2.49268 
-1.65881 1.10513 2.34531 -1.44301 0.943369 2.17681 -1.64267 0.452958 2.2731 
-1.44301 0.943369 2.17681 -1.2769 0.813668 2.07644 -1.40201 0.326868 2.13233 
-1.2769 0.813668 2.07644 -1.07674 0.770234 1.97784 -1.40201 0.326868 2.13233 
-1.07674 0.770234 1.97784 -0.844905 0.684811 1.89211 -1.13347 0.235566 2.01069 
-0.844905 0.684811 1.89211 -0.646272 0.65697 1.83532 -0.762579 0.146344 1.89165 
-0.646272 0.65697 1.83532 -0.417705 0.229827 1.82208 -0.762579 0.146344 1.89165 
1.29704 0.454659 2.08608 1.38751 0.908418 2.13952 1.65768 0.256785 2.26764 
1.38751 0.908418 2.13952 1.59668 1.00654 2.28901 1.86586 0.574924 2.43865 
1.59668 1.00654 2.28901 1.80495 1.17031 2.48046 1.86586 0.574924 2.43865 
1.80495 1.17031 2.48046 2.00231 1.36907 2.74127 2.28605 0.993735 2.92965 
2.00231 1.36907 2.74127 2.07465 1.55595 2.9114 2.28605 0.993735 2.92965 
2.07465 1.55595 2.9114 2.11855 1.7006 3.05515 2.40144 1.23861 3.19752 
2.11855 1.7006 3.05515 2.14894 1.83718 3.20666 2.45297 1.43412 3.40689 
2.14894 1.83718 3.20666 2.15778 2.01027 3.39095 2.48504 1.659 3.67481 
2.54704 1.78558 3.99175 2.40514 2.08196 4.17484 2.60822 1.90853 4.3736 
2.40514 2.08196 4.17484 2.29039 2.29893 4.42876 2.60135 2.06191 4.79907 
2.29039 2.29893 4.42876 2.17066 2.45798 4.62522 2.45893 2.24987 5.02633 
1.05245 3.10014 5.60652 0.760824 3.2323 5.36028 0.914913 3.08214 5.99753 
0.243869 3.23739 5.75049 -0.0410984 3.32076 5.41722 0.0190684 3.2158 5.93096 
-0.0410984 3.32076 5.41722 -0.256604 3.31231 5.40356 -0.296806 3.2054 5.91407 
-0.541318 3.20778 5.72739 -0.7372 3.23882 5.35954 -0.947421 3.08059 5.95891 
-0.7372 3.23882 5.35954 -1.03174 3.13912 5.42077 -0.947421 3.08059 5.95891 
-1.03174 3.13912 5.42077 -1.29822 3.04567 5.31331 -1.2923 2.98376 5.84021 
-1.29822 3.04567 5.31331 -1.60079 2.88849 5.32333 -1.57154 2.87369 5.72255 
-1.85617 2.74433 4.96018 -2.12395 2.52531 4.84569 -2.23201 2.47226 5.2846 
-2.60126 1.55657 3.79418 -2.37001 1.62662 3.43023 -2.79626 1.19102 3.75729 
-2.37001 1.62662 3.43023 -2.33277 1.48047 3.25176 -2.7262 0.975446 3.47912 
-2.33277 1.48047 3.25176 -2.38912 1.20757 3.16221 -2.7262 0.975446 3.47912 
-2.38912 1.20757 3.16221 -2.26908 1.02053 2.92479 -2.64042 0.766213 3.24324 
-2.26908 1.02053 2.92479 -2.14034 0.840942 2.72975 -2.43419 0.400165 2.87415 
-2.14034 0.840942 2.72975 -1.92367 0.64612 2.49268 -2.2206 0.243059 2.64778 
-1.92367 0.64612 2.49268 -1.64267 0.452958 2.2731 -1.99036 0.103259 2.45552 
-1.64267 0.452958 2.2731 -1.40201 0.326868 2.13233 -1.59048 -0.167942 2.19496 
-1.40201 0.326868 2.13233 -1.13347 0.235566 2.01069 -1.30514 -0.279497 2.06398 
-1.13347 0.235566 2.01069 -0.762579 0.146344 1.89165 -0.888208 -0.20132 1.92932 
-0.762579 0.146344 1.89165 -0.417705 0.229827 1.82208 -0.560116 -0.415254 1.86548 
-0.417705 0.229827 1.82208 -0.140436 0.204387 1.79912 -0.270653 -0.443339 1.83328 
-0.140436 0.204387 1.79912 0.137264 0.190409 1.79892 0.0422456 -0.454738 1.82148 
0.137264 0.190409 1.79892 0.375284 0.233521 1.81849 0.42093 -0.406013 1.8447 
0.375284 0.233521 1.81849 0.613211 0.283927 1.85387 0.68265 -0.214276 1.88238 
0.613211 0.283927 1.85387 0.868301 0.335814 1.91922 1.03431 -0.331022 1.97198 
0.868301 0.335814 1.91922 1.09168 0.384417 1.99509 1.23708 -0.0989893 2.04511 
1.09168 0.384417 1.99509 1.29704 0.454659 2.08608 1.52339 -0.17559 2.16422 
1.65768 0.256785 2.26764 1.86586 0.574924 2.43865 1.96847 0.259819 2.46524 
1.86586 0.574924 2.43865 2.18668 0.690906 2.73374 2.1401 0.389872 2.61748 
2.28605 0.993735 2.92965 2.40144 1.23861 3.19752 2.67384 0.782199 3.29061 
2.40144 1.23861 3.19752 2.45297 1.43412 3.40689 2.63723 1.08085 3.42654 
2.45297 1.43412 3.40689 2.48504 1.659 3.67481 2.69079 1.2755 3.65919 
2.54704 1.78558 3.99175 2.60822 1.90853 4.3736 2.85611 1.6365 4.45649 
2.45893 2.24987 5.02633 2.11053 2.53827 4.89183 2.3457 2.39822 5.3676 
2.11053 2.53827 4.89183 1.96204 2.66298 5.06105 2.3457 2.39822 5.3676 
1.96204 2.66298 5.06105 1.79986 2.7757 5.20255 2.05615 2.61256 5.61082 
1.79986 2.7757 5.20255 1.54768 2.9166 5.34806 1.87149 2.7162 5.91292 
1.54768 2.9166 5.34806 1.2982 3.01975 5.49528 1.57796 2.85066 6.08865 
1.2982 3.01975 5.49528 1.05245 3.10014 5.60652 1.21112 2.99035 6.06835 
0.914913 3.08214 5.99753 0.542256 3.21282 5.69365 0.638381 3.09547 6.36454 
0.542256 3.21282 5.69365 0.243869 3.23739 5.75049 0.227364 3.13209 6.42943 
0.243869 3.23739 5.75049 0.0190684 3.2158 5.93096 0.227364 3.13209 6.42943 
0.0190684 3.2158 5.93096 -0.296806 3.2054 5.91407 -0.186581 3.13071 6.44514 
-0.296806 3.2054 5.91407 -0.541318 3.20778 5.72739 -0.476989 3.11153 6.3934 
-0.541318 3.20778 5.72739 -0.947421 3.08059 5.95891 -0.803268 3.08978 6.16694 
-1.57154 2.87369 5.72255 -1.60079 2.88849 5.32333 -1.95348 2.67388 5.92505 
-1.60079 2.88849 5.32333 -1.82226 2.76152 5.2062 -2.07988 2.59598 5.6029 
-2.23201 2.47226 5.2846 -2.12395 2.52531 4.84569 -2.53634 2.20772 5.14264 
-2.12395 2.52531 4.84569 -2.33224 2.29968 4.6452 -2.53634 2.20772 5.14264 
-2.33224 2.29968 4.6452 -2.46596 2.08311 4.39167 -2.79837 1.91982 4.99866 
-2.46596 2.08311 4.39167 -2.5656 1.80831 4.06349 -2.82667 1.74415 4.59863 
-2.5656 1.80831 4.06349 -2.60126 1.55657 3.79418 -2.92233 1.26191 4.0409 
-1.30514 -0.279497 2.06398 -0.888208 -0.20132 1.92932 -0.983732 -0.701368 1.94047 
1.03431 -0.331022 1.97198 1.23708 -0.0989893 2.04511 1.39067 -0.609138 2.07186 
1.52339 -0.17559 2.16422 1.65768 0.256785 2.26764 1.92827 -0.354801 2.34238 
1.65768 0.256785 2.26764 1.96847 0.259819 2.46524 2.14987 -0.209297 2.50078 
1.96847 0.259819 2.46524 2.1401 0.389872 2.61748 2.36753 -0.0625944 2.68191 
2.1401 0.389872 2.61748 2.18668 0.690906 2.73374 2.55145 0.136093 2.8889 
2.67384 0.782199 3.29061 2.63723 1.08085 3.42654 2.97851 0.728351 3.63876 
2.63723 1.08085 3.42654 2.69079 1.2755 3.65919 3.03569 0.911945 3.86646 
2.69079 1.2755 3.65919 2.77915 1.44561 3.99746 3.05912 1.14813 4.14323 
2.77915 1.44561 3.99746 2.85611 1.6365 4.45649 3.25708 1.22389 4.60027 
2.85611 1.6365 4.45649 2.79812 1.80903 4.68246 3.18126 1.48243 4.89165 
2.79812 1.80903 4.68246 2.60135 2.06191 4.79907 3.05238 1.72522 5.15509 
2.60135 2.06191 4.79907 2.45893 2.24987 5.02633 2.88085 1.96654 5.4173 
2.45893 2.24987 5.02633 2.3457 2.39822 5.3676 2.71922 2.14575 5.63402 
2.3457 2.39822 5.3676 2.05615 2.61256 5.61082 2.23273 2.51616 5.88094 
1.57796 2.85066 6.08865 1.21112 2.99035 6.06835 1.35714 2.90432 6.58399 
1.21112 2.99035 6.06835 0.914913 3.08214 5.99753 1.05005 2.98406 6.66183 
-0.476989 3.11153 6.3934 -0.803268 3.08978 6.16694 -0.849513 3.04257 6.51274 
-0.803268 3.08978 6.16694 -0.947421 3.08059 5.95891 -1.28832 2.92571 6.58619 
-0.947421 3.08059 5.95891 -1.2923 2.98376 5.84021 -1.45131 2.88877 6.32885 
-1.2923 2.98376 5.84021 -1.57154 2.87369 5.72255 -1.77312 2.7624 6.19193 
-1.95348 2.67388 5.92505 -2.07988 2.59598 5.6029 -2.33425 2.46268 6.04681 
-2.07988 2.59598 5.6029 -2.23201 2.47226 5.2846 -2.46385 2.36465 5.8813 
-2.23201 2.47226 5.2846 -2.53634 2.20772 5.14264 -2.59223 2.23453 5.56053 
-2.79837 1.91982 4.99866 -2.82667 1.74415 4.59863 -3.04713 1.59808 4.82061 
-2.98672 1.41399 4.36774 -2.92233 1.26191 4.0409 -3.15495 1.01761 4.14826 
-2.92233 1.26191 4.0409 -2.79626 1.19102 3.75729 -3.15495 1.01761 4.14826 
-2.79626 1.19102 3.75729 -2.7262 0.975446 3.47912 -3.11811 0.771022 3.85667 
-2.7262 0.975446 3.47912 -2.64042 0.766213 3.24324 -2.97606 0.387444 3.41223 
-2.64042 0.766213 3.24324 -2.54979 0.578968 3.05376 -2.81969 0.161018 3.13553 
-2.54979 0.578968 3.05376 -2.43419 0.400165 2.87415 -2.81969 0.161018 3.13553 
-2.43419 0.400165 2.87415 -2.2206 0.243059 2.64778 -2.62793 -0.0602653 2.88335 
-2.2206 0.243059 2.64778 -1.99036 0.103259 2.45552 -2.2415 -0.370911 2.52041 
-1.99036 0.103259 2.45552 -1.80169 -0.0571664 2.31636 -1.95375 -0.531714 2.32469 
-1.80169 -0.0571664 2.31636 -1.59048 -0.167942 2.19496 -1.95375 -0.531714 2.32469 
-1.59048 -0.167942 2.19496 -1.30514 -0.279497 2.06398 -1.6408 -0.677819 2.16028 
-0.983732 -0.701368 1.94047 -0.560116 -0.415254 1.86548 -0.676332 -1.10773 1.85491 
-0.560116 -0.415254 1.86548 -0.270653 -0.443339 1.83328 -0.357767 -1.14164 1.81651 
-0.270653 -0.443339 1.83328 0.0422456 -0.454738 1.82148 -0.115102 -0.976006 1.81218 
0.0422456 -0.454738 1.82148 0.42093 -0.406013 1.8447 0.204883 -0.968906 1.81494 
0.844256 -0.711059 1.90903 1.03431 -0.331022 1.97198 1.20972 -1.00444 1.97834 
1.39067 -0.609138 2.07186 1.52339 -0.17559 2.16422 1.77582 -0.798172 2.20203 
2.55145 0.136093 2.8889 2.53907 0.590057 3.04636 2.85788 0.197013 3.18889 
2.53907 0.590057 3.04636 2.67384 0.782199 3.29061 2.99563 0.424698 3.45585 
2.23273 2.51616 5.88094 1.87149 2.7162 5.91292 2.17988 2.57842 6.51943 
1.87149 2.7162 5.91292 1.57796 2.85066 6.08865 1.77174 2.76243 6.55801 
1.05005 2.98406 6.66183 0.638381 3.09547 6.36454 0.711496 3.02627 7.05908 
0.638381 3.09547 6.36454 0.227364 3.13209 6.42943 0.302272 3.0661 7.05791 
0.227364 3.13209 6.42943 -0.186581 3.13071 6.44514 -0.0343354 3.07325 7.07392 
-0.186581 3.13071 6.44514 -0.476989 3.11153 6.3934 -0.393158 3.06193 7.03835 
-0.476989 3.11153 6.3934 -0.849513 3.04257 6.51274 -0.698049 3.0376 6.8887 
-0.849513 3.04257 6.51274 -1.28832 2.92571 6.58619 -1.11878 2.95437 6.98339 
-1.45131 2.88877 6.32885 -1.77312 2.7624 6.19193 -1.94385 2.68995 6.64889 
-1.77312 2.7624 6.19193 -1.95348 2.67388 5.92505 -2.12269 2.60051 6.35762 
-2.46385 2.36465 5.8813 -2.59223 2.23453 5.56053 -2.78195 2.13836 5.81344 
-2.59223 2.23453 5.56053 -2.78793 2.0264 5.33017 -3.11625 1.84711 5.69266 
-2.78793 2.0264 5.33017 -2.79837 1.91982 4.99866 -3.2816 1.60934 5.40471 
-2.79837 1.91982 4.99866 -3.04713 1.59808 4.82061 -3.2816 1.60934 5.40471 
-3.04713 1.59808 4.82061 -2.98672 1.41399 4.36774 -3.36128 1.1582 4.68047 
-2.98672 1.41399 4.36774 -3.15495 1.01761 4.14826 -3.3887 0.936227 4.42938 
-3.15495 1.01761 4.14826 -3.11811 0.771022 3.85667 -3.47931 0.618111 4.20956 
-3.11811 0.771022 3.85667 -3.06103 0.573564 3.62913 -3.41973 0.286394 3.84462 
-3.06103 0.573564 3.62913 -2.97606 0.387444 3.41223 -3.30583 0.0252349 3.54667 
-2.97606 0.387444 3.41223 -2.81969 0.161018 3.13553 -3.16326 -0.252385 3.2569 
-2.81969 0.161018 3.13553 -2.62793 -0.0602653 2.88335 -2.92977 -0.475632 2.96885 
-2.62793 -0.0602653 2.88335 -2.44837 -0.223482 2.6959 -2.65137 -0.688552 2.69633 
-2.44837 -0.223482 2.6959 -2.2415 -0.370911 2.52041 -2.65137 -0.688552 2.69633 
-2.2415 -0.370911 2.52041 -1.95375 -0.531714 2.32469 -2.24157 -0.76394 2.43245 
-1.95375 -0.531714 2.32469 -1.6408 -0.677819 2.16028 -1.85606 -0.936167 2.2114 
-1.6408 -0.677819 2.16028 -1.37272 -0.776283 2.04865 -1.493 -1.09534 2.05118 
-1.37272 -0.776283 2.04865 -0.983732 -0.701368 1.94047 -1.0989 -1.18951 1.92653 
-0.357767 -1.14164 1.81651 -0.115102 -0.976006 1.81218 0.0287689 -1.49029 1.77248 
-0.115102 -0.976006 1.81218 0.204883 -0.968906 1.81494 0.0287689 -1.49029 1.77248 
0.204883 -0.968906 1.81494 0.573846 -0.94626 1.84964 0.4535 -1.29805 1.81081 
0.573846 -0.94626 1.84964 0.844256 -0.711059 1.90903 0.861201 -1.35667 1.8619 
1.20972 -1.00444 1.97834 1.39067 -0.609138 2.07186 1.55123 -1.07445 2.07409 
1.77582 -0.798172 2.20203 1.92827 -0.354801 2.34238 2.15576 -0.805511 2.37671 
1.92827 -0.354801 2.34238 2.14987 -0.209297 2.50078 2.47102 -0.624684 2.60039 
2.14987 -0.209297 2.50078 2.36753 -0.0625944 2.68191 2.47102 -0.624684 2.60039 
2.36753 -0.0625944 2.68191 2.55145 0.136093 2.8889 2.91328 -0.233784 3.04927 
2.55145 0.136093 2.8889 2.85788 0.197013 3.18889 2.91328 -0.233784 3.04927 
2.85788 0.197013 3.18889 2.99563 0.424698 3.45585 3.14161 0.0587385 3.39714 
2.99563 0.424698 3.45585 2.97851 0.728351 3.63876 3.26944 0.301228 3.6848 
2.97851 0.728351 3.63876 3.03569 0.911945 3.86646 3.34109 0.510499 3.92984 
3.03569 0.911945 3.86646 3.05912 1.14813 4.14323 3.37594 0.733961 4.18182 
3.38897 0.93763 4.42994 3.25708 1.22389 4.60027 3.748 0.851737 4.88302 
3.25708 1.22389 4.60027 3.18126 1.48243 4.89165 3.55723 1.18613 5.07911 
3.18126 1.48243 4.89165 3.05238 1.72522 5.15509 3.45525 1.43874 5.38212 
3.05238 1.72522 5.15509 2.88085 1.96654 5.4173 3.31932 1.66147 5.63188 
2.88085 1.96654 5.4173 2.71922 2.14575 5.63402 3.10389 1.93448 5.95822 
2.71922 2.14575 5.63402 2.52578 2.32169 5.84344 2.80463 2.2057 6.27013 
2.17988 2.57842 6.51943 1.77174 2.76243 6.55801 2.20795 2.59683 6.9613 
1.77174 2.76243 6.55801 1.35714 2.90432 6.58399 1.72062 2.78452 6.95371 
1.35714 2.90432 6.58399 1.05005 2.98406 6.66183 1.33908 2.89836 7.09112 
1.05005 2.98406 6.66183 0.711496 3.02627 7.05908 1.03478 2.96212 7.37997 
-0.393158 3.06193 7.03835 -0.698049 3.0376 6.8887 -0.7667 3.00571 7.39653 
-1.11878 2.95437 6.98339 -1.28832 2.92571 6.58619 -1.55544 2.83675 7.20313 
-2.12269 2.60051 6.35762 -2.33425 2.46268 6.04681 -2.74924 2.29203 6.61071 
-2.33425 2.46268 6.04681 -2.46385 2.36465 5.8813 -2.83754 2.17832 6.23651 
-2.46385 2.36465 5.8813 -2.78195 2.13836 5.81344 -2.83754 2.17832 6.23651 
-3.2816 1.60934 5.40471 -3.29029 1.41321 4.98677 -3.6807 1.18582 5.30752 
-3.29029 1.41321 4.98677 -3.36128 1.1582 4.68047 -3.7487 0.905686 4.95451 
-3.36128 1.1582 4.68047 -3.3887 0.936227 4.42938 -3.7807 0.596763 4.60157 
-3.3887 0.936227 4.42938 -3.47931 0.618111 4.20956 -3.7807 0.596763 4.60157 
-2.65137 -0.688552 2.69633 -2.24157 -0.76394 2.43245 -2.54521 -1.17455 2.49227 
-2.24157 -0.76394 2.43245 -1.85606 -0.936167 2.2114 -2.20835 -1.37816 2.27566 
-1.85606 -0.936167 2.2114 -1.493 -1.09534 2.05118 -1.79636 -1.53451 2.08295 
-1.493 -1.09534 2.05118 -1.0989 -1.18951 1.92653 -1.48279 -1.65005 1.96447 
-1.0989 -1.18951 1.92653 -0.676332 -1.10773 1.85491 -0.747366 -1.61 1.81296 
-0.676332 -1.10773 1.85491 -0.357767 -1.14164 1.81651 -0.396417 -1.64489 1.77165 
0.0287689 -1.49029 1.77248 0.4535 -1.29805 1.81081 0.500987 -1.89256 1.74752 
0.861201 -1.35667 1.8619 1.20972 -1.00444 1.97834 1.15153 -1.53688 1.89722 
1.20972 -1.00444 1.97834 1.55123 -1.07445 2.07409 1.63121 -1.5385 2.02723 
1.55123 -1.07445 2.07409 1.77582 -0.798172 2.20203 1.96365 -1.47921 2.1554 
1.77582 -0.798172 2.20203 2.15576 -0.805511 2.37671 2.18286 -1.37429 2.2667 
2.15576 -0.805511 2.37671 2.47102 -0.624684 2.60039 2.45109 -1.04517 2.47524 
2.78602 -0.611125 2.81648 2.91328 -0.233784 3.04927 3.11051 -0.508358 3.09111 
2.91328 -0.233784 3.04927 3.14161 0.0587385 3.39714 3.39977 -0.42709 3.37557 
3.14161 0.0587385 3.39714 3.26944 0.301228 3.6848 3.53386 0.116395 3.84276 
3.26944 0.301228 3.6848 3.34109 0.510499 3.92984 3.53386 0.116395 3.84276 
3.34109 0.510499 3.92984 3.37594 0.733961 4.18182 3.59868 0.411348 4.16666 
3.37594 0.733961 4.18182 3.38897 0.93763 4.42994 3.72759 0.637078 4.57405 
3.748 0.851737 4.88302 3.55723 1.18613 5.07911 3.81129 1.03057 5.24934 
3.55723 1.18613 5.07911 3.45525 1.43874 5.38212 3.69948 1.31483 5.59219 
3.45525 1.43874 5.38212 3.31932 1.66147 5.63188 3.56315 1.54661 5.86175 
3.31932 1.66147 5.63188 3.10389 1.93448 5.95822 3.45806 1.78025 6.31105 
3.10389 1.93448 5.95822 2.80463 2.2057 6.27013 3.08105 2.07288 6.47976 
2.80463 2.2057 6.27013 2.43674 2.43489 6.38676 2.79429 2.29067 6.73958 
2.43674 2.43489 6.38676 2.17988 2.57842 6.51943 2.48861 2.47024 6.94326 
2.20795 2.59683 6.9613 1.72062 2.78452 6.95371 1.86314 2.74872 7.26034 
1.72062 2.78452 6.95371 1.33908 2.89836 7.09112 1.43438 2.87782 7.42223 
1.03478 2.96212 7.37997 0.711496 3.02627 7.05908 0.70656 3.0137 7.58133 
0.711496 3.02627 7.05908 0.302272 3.0661 7.05791 0.335258 3.0469 7.62036 
0.302272 3.0661 7.05791 -0.0343354 3.07325 7.07392 -0.048007 3.05549 7.63025 
-0.0343354 3.07325 7.07392 -0.393158 3.06193 7.03835 -0.427265 3.0412 7.61254 
-0.7667 3.00571 7.39653 -1.11878 2.95437 6.98339 -1.2308 2.92746 7.48516 
-1.55544 2.83675 7.20313 -1.69294 2.78966 6.81117 -1.86442 2.74689 7.26893 
-1.69294 2.78966 6.81117 -1.94385 2.68995 6.64889 -2.18908 2.61894 7.11788 
-3.20376 1.90284 6.12968 -3.11625 1.84711 5.69266 -3.55367 1.66432 6.1741 
-3.11625 1.84711 5.69266 -3.2816 1.60934 5.40471 -3.67194 1.46525 5.88531 
-3.7807 0.596763 4.60157 -3.47931 0.618111 4.20956 -3.86197 0.225713 4.30982 
-3.47931 0.618111 4.20956 -3.41973 0.286394 3.84462 -3.86197 0.225713 4.30982 
-3.41973 0.286394 3.84462 -3.30583 0.0252349 3.54667 -3.62147 -0.371706 3.59809 
-3.30583 0.0252349 3.54667 -3.16326 -0.252385 3.2569 -3.62147 -0.371706 3.59809 
-3.16326 -0.252385 3.2569 -2.92977 -0.475632 2.96885 -3.40034 -0.719484 3.21981 
-2.92977 -0.475632 2.96885 -2.65137 -0.688552 2.69633 -3.13575 -0.967145 2.91748 
-1.13226 -1.7558 1.86225 -0.747366 -1.61 1.81296 -0.850486 -2.18025 1.74104 
-0.747366 -1.61 1.81296 -0.396417 -1.64489 1.77165 -0.425208 -1.98599 1.72743 
-0.396417 -1.64489 1.77165 0.0287689 -1.49029 1.77248 0.0388086 -1.99677 1.70884 
0.500987 -1.89256 1.74752 0.861201 -1.35667 1.8619 0.981464 -1.91357 1.80453 
0.861201 -1.35667 1.8619 1.15153 -1.53688 1.89722 0.981464 -1.91357 1.80453 
1.15153 -1.53688 1.89722 1.63121 -1.5385 2.02723 1.43522 -1.81993 1.91899 
2.18286 -1.37429 2.2667 2.45109 -1.04517 2.47524 2.71294 -1.50668 2.47617 
2.8087 -1.0313 2.68714 2.78602 -0.611125 2.81648 3.24859 -1.09519 2.93913 
2.78602 -0.611125 2.81648 3.11051 -0.508358 3.09111 3.24859 -1.09519 2.93913 
3.51988 -0.267108 3.57461 3.53386 0.116395 3.84276 3.85743 -0.316115 3.86471 
3.53386 0.116395 3.84276 3.59868 0.411348 4.16666 3.8862 0.252677 4.36369 
3.59868 0.411348 4.16666 3.72759 0.637078 4.57405 3.8862 0.252677 4.36369 
3.72759 0.637078 4.57405 3.748 0.851737 4.88302 4.12921 0.649363 5.14627 
3.748 0.851737 4.88302 3.81129 1.03057 5.24934 4.12921 0.649363 5.14627 
3.81129 1.03057 5.24934 3.69948 1.31483 5.59219 4.06419 1.17463 5.93508 
3.69948 1.31483 5.59219 3.56315 1.54661 5.86175 4.06419 1.17463 5.93508 
3.45806 1.78025 6.31105 3.08105 2.07288 6.47976 3.42142 1.9712 6.89794 
3.08105 2.07288 6.47976 2.79429 2.29067 6.73958 3.02486 2.21037 6.97561 
2.79429 2.29067 6.73958 2.48861 2.47024 6.94326 2.81954 2.37314 7.32121 
2.48861 2.47024 6.94326 2.20795 2.59683 6.9613 2.32126 2.59992 7.41641 
2.20795 2.59683 6.9613 1.86314 2.74872 7.26034 2.32126 2.59992 7.41641 
1.86314 2.74872 7.26034 1.43438 2.87782 7.42223 1.84548 2.79098 7.8003 
1.43438 2.87782 7.42223 1.03478 2.96212 7.37997 1.39168 2.91117 7.95238 
1.03478 2.96212 7.37997 0.70656 3.0137 7.58133 0.773 3.01664 8.08114 
0.70656 3.0137 7.58133 0.335258 3.0469 7.62036 0.378858 3.04759 7.95572 
0.335258 3.0469 7.62036 -0.048007 3.05549 7.63025 -0.114668 3.05896 7.97138 
-0.048007 3.05549 7.63025 -0.427265 3.0412 7.61254 -0.114668 3.05896 7.97138 
-0.427265 3.0412 7.61254 -0.7667 3.00571 7.39653 -0.854736 3.00072 7.90195 
-0.7667 3.00571 7.39653 -1.2308 2.92746 7.48516 -1.27316 2.93578 7.96975 
-1.2308 2.92746 7.48516 -1.55544 2.83675 7.20313 -1.66248 2.84397 7.87764 
-1.55544 2.83675 7.20313 -1.86442 2.74689 7.26893 -1.95001 2.75697 7.78166 
-1.86442 2.74689 7.26893 -2.18908 2.61894 7.11788 -2.2186 2.65941 7.65783 
-2.18908 2.61894 7.11788 -2.41603 2.4891 6.81146 -2.75509 2.41342 7.39128 
-2.41603 2.4891 6.81146 -2.74924 2.29203 6.61071 -3.04449 2.23867 7.17207 
-2.74924 2.29203 6.61071 -3.1388 2.02307 6.42144 -3.31399 2.03968 6.92913 
-3.1388 2.02307 6.42144 -3.20376 1.90284 6.12968 -3.57451 1.8156 6.67791 
-3.66722 1.37285 5.65726 -3.6807 1.18582 5.30752 -4.0799 1.10143 5.82239 
-3.6807 1.18582 5.30752 -3.7487 0.905686 4.95451 -4.11338 0.745294 5.26371 
-3.7487 0.905686 4.95451 -3.7807 0.596763 4.60157 -4.14793 0.491955 4.96456 
-3.7807 0.596763 4.60157 -3.86197 0.225713 4.30982 -4.14639 0.228733 4.65332 
-3.86197 0.225713 4.30982 -3.77563 -0.0814081 3.95454 -4.08793 -0.100888 4.26461 
-3.77563 -0.0814081 3.95454 -3.62147 -0.371706 3.59809 -4.10044 -0.512311 3.94701 
-3.62147 -0.371706 3.59809 -3.40034 -0.719484 3.21981 -3.79125 -1.01887 3.36165 
-3.40034 -0.719484 3.21981 -3.13575 -0.967145 2.91748 -3.58005 -1.25098 3.08888 
-3.13575 -0.967145 2.91748 -2.89911 -1.16025 2.69424 -3.32287 -1.45542 2.83336 
-2.89911 -1.16025 2.69424 -2.54521 -1.17455 2.49227 -2.86124 -1.56441 2.53066 
-2.54521 -1.17455 2.49227 -2.20835 -1.37816 2.27566 -2.55436 -1.92276 2.2758 
-2.20835 -1.37816 2.27566 -1.79636 -1.53451 2.08295 -2.1636 -1.94062 2.11544 
-1.79636 -1.53451 2.08295 -1.48279 -1.65005 1.96447 -1.80723 -2.0668 1.96864 
-1.48279 -1.65005 1.96447 -1.13226 -1.7558 1.86225 -1.27824 -2.37151 1.77271 
-0.850486 -2.18025 1.74104 -0.425208 -1.98599 1.72743 -0.384228 -2.33186 1.66433 
-0.425208 -1.98599 1.72743 0.0388086 -1.99677 1.70884 -0.384228 -2.33186 1.66433 
0.0388086 -1.99677 1.70884 0.500987 -1.89256 1.74752 0.361577 -2.48014 1.63759 
0.500987 -1.89256 1.74752 0.981464 -1.91357 1.80453 0.756832 -2.2889 1.70621 
0.981464 -1.91357 1.80453 1.43522 -1.81993 1.91899 1.25575 -2.2046 1.80139 
1.43522 -1.81993 1.91899 1.63121 -1.5385 2.02723 1.7179 -2.09401 1.93679 
1.63121 -1.5385 2.02723 1.96365 -1.47921 2.1554 2.08107 -1.96277 2.08094 
1.96365 -1.47921 2.1554 2.18286 -1.37429 2.2667 2.41734 -1.83156 2.24407 
2.71294 -1.50668 2.47617 2.8087 -1.0313 2.68714 3.19773 -1.58495 2.70835 
3.51762 -0.845229 3.24927 3.39977 -0.42709 3.37557 3.88691 -0.907366 3.50128 
3.39977 -0.42709 3.37557 3.51988 -0.267108 3.57461 4.00784 -0.718422 3.71911 
3.93654 -0.132777 4.08344 3.8862 0.252677 4.36369 4.24663 -0.12904 4.41238 
3.8862 0.252677 4.36369 3.72759 0.637078 4.57405 4.15248 0.360877 4.81222 
4.15248 0.360877 4.81222 4.12921 0.649363 5.14627 4.56251 0.332324 5.28013 
3.89871 1.45384 6.28201 3.45806 1.78025 6.31105 3.99396 1.54978 6.68704 
3.42142 1.9712 6.89794 3.02486 2.21037 6.97561 3.31146 2.16101 7.41158 
2.81954 2.37314 7.32121 2.32126 2.59992 7.41641 2.73711 2.49236 7.80689 
0.773 3.01664 8.08114 0.378858 3.04759 7.95572 0.485109 3.06675 8.48108 
0.378858 3.04759 7.95572 -0.114668 3.05896 7.97138 0.157338 3.08085 8.48162 
-0.572171 3.03811 8.12719 -0.854736 3.00072 7.90195 -0.933128 3.02626 8.46465 
-3.57451 1.8156 6.67791 -3.55367 1.66432 6.1741 -3.9102 1.54464 6.5242 
-3.55367 1.66432 6.1741 -3.67194 1.46525 5.88531 -4.09308 1.2934 6.23072 
-4.19978 0.877488 5.60385 -4.11338 0.745294 5.26371 -4.53524 0.551563 5.54846 
-4.11338 0.745294 5.26371 -4.14793 0.491955 4.96456 -4.56821 0.273628 5.21255 
-4.14793 0.491955 4.96456 -4.14639 0.228733 4.65332 -4.58828 0.00425363 4.91169 
-4.14639 0.228733 4.65332 -4.08793 -0.100888 4.26461 -4.54062 -0.321141 4.53006 
-3.32287 -1.45542 2.83336 -2.86124 -1.56441 2.53066 -3.31514 -1.92414 2.63163 
-2.55436 -1.92276 2.2758 -2.1636 -1.94062 2.11544 -2.36426 -2.44 2.04202 
-2.1636 -1.94062 2.11544 -1.80723 -2.0668 1.96864 -1.98588 -2.56274 1.88953 
-1.27824 -2.37151 1.77271 -0.850486 -2.18025 1.74104 -1.03001 -2.77318 1.63696 
-0.850486 -2.18025 1.74104 -0.384228 -2.33186 1.66433 -0.714109 -2.80725 1.59106 
0.361577 -2.48014 1.63759 0.756832 -2.2889 1.70621 0.791655 -2.62929 1.63905 
0.756832 -2.2889 1.70621 1.25575 -2.2046 1.80139 1.3258 -2.53116 1.74005 
1.25575 -2.2046 1.80139 1.7179 -2.09401 1.93679 1.90115 -2.61635 1.85117 
1.7179 -2.09401 1.93679 2.08107 -1.96277 2.08094 2.29359 -2.4723 2.00902 
2.08107 -1.96277 2.08094 2.41734 -1.83156 2.24407 2.6644 -2.30487 2.19441 
2.41734 -1.83156 2.24407 2.71294 -1.50668 2.47617 2.96945 -1.91736 2.45778 
3.19773 -1.58495 2.70835 3.24859 -1.09519 2.93913 3.60813 -1.69204 2.89471 
3.24859 -1.09519 2.93913 3.51762 -0.845229 3.24927 3.97473 -1.31575 3.32586 
4.00784 -0.718422 3.71911 3.85743 -0.316115 3.86471 4.38214 -0.729512 4.03333 
3.85743 -0.316115 3.86471 3.93654 -0.132777 4.08344 4.44335 -0.516578 4.26171 
4.28006 0.0740434 4.64777 4.15248 0.360877 4.81222 4.61201 0.0936689 5.04193 
4.5276 0.55431 5.5447 4.16458 0.885679 5.56487 4.58712 0.709096 5.85342 
4.16458 0.885679 5.56487 4.06419 1.17463 5.93508 4.47449 0.989207 6.18725 
4.06419 1.17463 5.93508 3.89871 1.45384 6.28201 4.30682 1.27013 6.51306 
3.84553 1.71373 6.88467 3.42142 1.9712 6.89794 3.65649 1.96367 7.31473 
3.42142 1.9712 6.89794 3.31146 2.16101 7.41158 3.65649 1.96367 7.31473 
3.31146 2.16101 7.41158 2.81954 2.37314 7.32121 3.10159 2.34255 7.7741 
2.44593 2.61765 7.92331 1.84548 2.79098 7.8003 2.04008 2.79686 8.28047 
1.84548 2.79098 7.8003 1.39168 2.91117 7.95238 1.52284 2.93477 8.46006 
1.39168 2.91117 7.95238 1.08919 2.97179 8.04909 1.18837 2.99939 8.53654 
1.08919 2.97179 8.04909 0.773 3.01664 8.08114 0.859948 3.04881 8.60191 
-0.267426 3.08073 8.50554 -0.572171 3.03811 8.12719 -0.627434 3.07128 8.62071 
-0.933128 3.02626 8.46465 -1.27316 2.93578 7.96975 -1.39489 2.96346 8.50657 
-1.27316 2.93578 7.96975 -1.66248 2.84397 7.87764 -1.83479 2.85814 8.37603 
-1.66248 2.84397 7.87764 -1.95001 2.75697 7.78166 -2.30949 2.70771 8.19623 
-1.95001 2.75697 7.78166 -2.2186 2.65941 7.65783 -2.30949 2.70771 8.19623 
-2.2186 2.65941 7.65783 -2.49914 2.54245 7.54638 -2.73377 2.52889 7.98566 
-2.49914 2.54245 7.54638 -2.75509 2.41342 7.39128 -3.00166 2.39555 7.82671 
-2.75509 2.41342 7.39128 -3.04449 2.23867 7.17207 -3.34547 2.19516 7.60325 
-3.04449 2.23867 7.17207 -3.31399 2.03968 6.92913 -3.64356 1.97375 7.33258 
-3.31399 2.03968 6.92913 -3.57451 1.8156 6.67791 -3.90287 1.75066 7.07889 
-3.57451 1.8156 6.67791 -3.9102 1.54464 6.5242 -4.09719 1.54065 6.82858 
-3.9102 1.54464 6.5242 -4.09308 1.2934 6.23072 -4.2994 1.27239 6.50343 
-4.09308 1.2934 6.23072 -4.0799 1.10143 5.82239 -4.49664 0.931265 6.11201 
-4.0799 1.10143 5.82239 -4.19978 0.877488 5.60385 -4.58594 0.710729 5.85686 
-4.4703 -0.548801 4.25899 -4.10044 -0.512311 3.94701 -4.50928 -0.833988 4.0566 
-4.10044 -0.512311 3.94701 -3.96413 -0.772515 3.64566 -4.34903 -1.11404 3.72198 
-3.96413 -0.772515 3.64566 -3.79125 -1.01887 3.36165 -4.1556 -1.38175 3.4084 
-3.79125 -1.01887 3.36165 -3.58005 -1.25098 3.08888 -3.93723 -1.63073 3.12245 
-3.58005 -1.25098 3.08888 -3.32287 -1.45542 2.83336 -3.65664 -1.87845 2.83094 
-3.0841 -2.07836 2.45517 -2.55436 -1.92276 2.2758 -2.78374 -2.42107 2.19622 
-2.55436 -1.92276 2.2758 -2.36426 -2.44 2.04202 -2.78374 -2.42107 2.19622 
-1.98588 -2.56274 1.88953 -1.58577 -2.32253 1.85084 -1.55184 -2.83632 1.70402 
-1.58577 -2.32253 1.85084 -1.27824 -2.37151 1.77271 -1.55184 -2.83632 1.70402 
-0.319697 -2.85133 1.5531 0.0476027 -2.50725 1.62324 -0.025338 -2.9874 1.51084 
0.0476027 -2.50725 1.62324 0.361577 -2.48014 1.63759 0.498283 -2.97122 1.52919 
0.361577 -2.48014 1.63759 0.791655 -2.62929 1.63905 0.498283 -2.97122 1.52919 
0.791655 -2.62929 1.63905 1.3258 -2.53116 1.74005 1.06523 -2.91945 1.60095 
2.6644 -2.30487 2.19441 2.96945 -1.91736 2.45778 3.15729 -2.2175 2.42934 
2.96945 -1.91736 2.45778 3.19773 -1.58495 2.70835 3.4992 -1.98893 2.69596 
3.97473 -1.31575 3.32586 3.88691 -0.907366 3.50128 4.25411 -1.24788 3.56363 
3.88691 -0.907366 3.50128 4.00784 -0.718422 3.71911 4.3878 -1.04397 3.80104 
4.44335 -0.516578 4.26171 4.24663 -0.12904 4.41238 4.69508 -0.286798 4.71026 
4.24663 -0.12904 4.41238 4.28006 0.0740434 4.64777 4.69508 -0.286798 4.71026 
4.61201 0.0936689 5.04193 4.56251 0.332324 5.28013 5.07815 -0.00721407 5.41527 
4.56251 0.332324 5.28013 4.5276 0.55431 5.5447 5.01926 0.352538 5.83366 
4.5276 0.55431 5.5447 4.58712 0.709096 5.85342 5.01926 0.352538 5.83366 
4.90705 0.704557 6.24568 5.01926 0.352538 5.83366 4.58712 0.709096 5.85342 
4.47449 0.989207 6.18725 4.75521 1.00976 6.60574 4.90705 0.704557 6.24568 
4.75521 1.00976 6.60574 4.47449 0.989207 6.18725 4.30682 1.27013 6.51306 
3.84553 1.71373 6.88467 4.2344 1.67868 7.39542 4.52382 1.34228 6.97837 
3.84553 1.71373 6.88467 3.65649 1.96367 7.31473 4.2344 1.67868 7.39542 
3.65649 1.96367 7.31473 3.31146 2.16101 7.41158 3.6082 2.17495 7.97131 
3.27718 2.37298 8.20572 3.6082 2.17495 7.97131 3.10159 2.34255 7.7741 
3.27718 2.37298 8.20572 3.10159 2.34255 7.7741 2.73711 2.49236 7.80689 
2.73711 2.49236 7.80689 2.98466 2.51948 8.37334 3.27718 2.37298 8.20572 
2.44593 2.61765 7.92331 2.66658 2.6576 8.52822 2.98466 2.51948 8.37334 
2.04008 2.79686 8.28047 2.19707 2.825 8.72182 2.66658 2.6576 8.52822 
2.04008 2.79686 8.28047 1.52284 2.93477 8.46006 1.69894 2.95857 8.87877 
1.52284 2.93477 8.46006 1.18837 2.99939 8.53654 1.25959 3.04814 8.99422 
1.18837 2.99939 8.53654 0.859948 3.04881 8.60191 1.25959 3.04814 8.99422 
0.676179 3.12334 9.0854 1.25959 3.04814 8.99422 0.859948 3.04881 8.60191 
0.676179 3.12334 9.0854 0.859948 3.04881 8.60191 0.485109 3.06675 8.48108 
0.676179 3.12334 9.0854 0.485109 3.06675 8.48108 0.157338 3.08085 8.48162 
-0.267426 3.08073 8.50554 -0.464176 3.13852 9.1018 0.109471 3.15041 9.12191 
-0.627434 3.07128 8.62071 -0.933128 3.02626 8.46465 -1.11133 3.0705 9.00804 
-0.933128 3.02626 8.46465 -1.39489 2.96346 8.50657 -1.11133 3.0705 9.00804 
-2.07712 2.86232 8.77885 -1.68421 2.96421 8.89737 -1.83479 2.85814 8.37603 
-2.07712 2.86232 8.77885 -1.83479 2.85814 8.37603 -2.30949 2.70771 8.19623 
-2.30949 2.70771 8.19623 -2.58313 2.69493 8.58466 -2.07712 2.86232 8.77885 
-2.73377 2.52889 7.98566 -2.99251 2.51581 8.36919 -2.58313 2.69493 8.58466 
-3.00166 2.39555 7.82671 -3.37643 2.31848 8.14466 -2.99251 2.51581 8.36919 
-3.00166 2.39555 7.82671 -3.34547 2.19516 7.60325 -3.37643 2.31848 8.14466 
-3.34547 2.19516 7.60325 -3.64356 1.97375 7.33258 -3.7286 2.08804 7.85956 
-4.2912 1.61943 7.3235 -4.03289 1.86071 7.60746 -3.90287 1.75066 7.07889 
-4.2912 1.61943 7.3235 -3.90287 1.75066 7.07889 -4.09719 1.54065 6.82858 
-4.09719 1.54065 6.82858 -4.56993 1.29803 6.94545 -4.2912 1.61943 7.3235 
-4.56993 1.29803 6.94545 -4.09719 1.54065 6.82858 -4.2994 1.27239 6.50343 
-4.2994 1.27239 6.50343 -4.75859 1.00403 6.59911 -4.56993 1.29803 6.94545 
-4.49664 0.931265 6.11201 -4.90754 0.705922 6.24992 -4.75859 1.00403 6.59911 
-4.49664 0.931265 6.11201 -4.58594 0.710729 5.85686 -4.90754 0.705922 6.24992 
-4.58594 0.710729 5.85686 -4.53524 0.551563 5.54846 -5.00644 0.383767 5.86406 
-4.53524 0.551563 5.54846 -4.56821 0.273628 5.21255 -5.07011 0.0834112 5.52209 
-5.0821 -0.208381 5.1818 -5.07011 0.0834112 5.52209 -4.58828 0.00425363 4.91169 
-4.58828 0.00425363 4.91169 -5.04388 -0.49684 4.83281 -5.0821 -0.208381 5.1818 
-4.54062 -0.321141 4.53006 -4.96602 -0.858497 4.41966 -5.04388 -0.49684 4.83281 
-4.50928 -0.833988 4.0566 -4.34903 -1.11404 3.72198 -4.78335 -1.2708 3.93658 
-4.34903 -1.11404 3.72198 -4.1556 -1.38175 3.4084 -4.52524 -1.65659 3.4871 
-4.2465 -1.96959 3.11995 -4.52524 -1.65659 3.4871 -4.1556 -1.38175 3.4084 
-4.2465 -1.96959 3.11995 -3.93723 -1.63073 3.12245 -3.65664 -1.87845 2.83094 
-3.31514 -1.92414 2.63163 -3.53525 -2.5336 2.4663 -3.90401 -2.27562 2.76891 
-3.0841 -2.07836 2.45517 -2.78374 -2.42107 2.19622 -3.10336 -2.76445 2.18774 
-2.78374 -2.42107 2.19622 -2.36426 -2.44 2.04202 -2.72802 -2.93373 1.9889 
-2.21625 -3.10532 1.77408 -2.72802 -2.93373 1.9889 -2.36426 -2.44 2.04202 
-2.21625 -3.10532 1.77408 -1.98588 -2.56274 1.88953 -1.55184 -2.83632 1.70402 
-1.55184 -2.83632 1.70402 -1.70456 -3.26025 1.60774 -2.21625 -3.10532 1.77408 
-1.55184 -2.83632 1.70402 -1.23366 -3.35136 1.49945 -1.70456 -3.26025 1.60774 
-0.714109 -2.80725 1.59106 -0.801506 -3.40231 1.43527 -1.23366 -3.35136 1.49945 
-0.714109 -2.80725 1.59106 -0.319697 -2.85133 1.5531 -0.380146 -3.49669 1.38047 
-0.319697 -2.85133 1.5531 -0.025338 -2.9874 1.51084 -0.380146 -3.49669 1.38047 
-0.025338 -2.9874 1.51084 0.498283 -2.97122 1.52919 0.171139 -3.48085 1.37738 
0.683954 -3.41838 1.42106 0.171139 -3.48085 1.37738 0.498283 -2.97122 1.52919 
0.498283 -2.97122 1.52919 1.07158 -3.36867 1.47371 0.683954 -3.41838 1.42106 
1.07158 -3.36867 1.47371 0.498283 -2.97122 1.52919 1.06523 -2.91945 1.60095 
1.06523 -2.91945 1.60095 1.47545 -3.29711 1.55433 1.07158 -3.36867 1.47371 
1.50995 -2.83868 1.69675 1.98794 -3.19578 1.68884 1.47545 -3.29711 1.55433 
1.90115 -2.61635 1.85117 2.29359 -2.4723 2.00902 2.48846 -3.01818 1.88204 
2.29359 -2.4723 2.00902 2.6644 -2.30487 2.19441 2.89046 -2.86674 2.0696 
3.33206 -2.65408 2.32466 2.89046 -2.86674 2.0696 2.6644 -2.30487 2.19441 
3.4992 -1.98893 2.69596 3.99799 -2.18168 2.86444 3.7314 -2.4677 2.59227 
3.80542 -1.49466 3.11623 4.3071 -1.91277 3.19229 3.99799 -2.18168 2.86444 
3.80542 -1.49466 3.11623 3.97473 -1.31575 3.32586 4.3071 -1.91277 3.19229 
3.97473 -1.31575 3.32586 4.25411 -1.24788 3.56363 4.56699 -1.6138 3.54221 
4.25411 -1.24788 3.56363 4.3878 -1.04397 3.80104 4.56699 -1.6138 3.54221 
4.8113 -1.19492 4.015 4.56699 -1.6138 3.54221 4.3878 -1.04397 3.80104 
4.8113 -1.19492 4.015 4.38214 -0.729512 4.03333 4.44335 -0.516578 4.26171 
4.44335 -0.516578 4.26171 4.95198 -0.883704 4.38884 4.8113 -1.19492 4.015 
4.69508 -0.286798 4.71026 5.06311 -0.357867 4.99595 5.01032 -0.650375 4.65135 
4.61201 0.0936689 5.04193 5.07815 -0.00721407 5.41527 5.06311 -0.357867 4.99595 
5.06311 -0.357867 4.99595 4.69508 -0.286798 4.71026 4.61201 0.0936689 5.04193 
5.01032 -0.650375 4.65135 4.44335 -0.516578 4.26171 4.69508 -0.286798 4.71026 
4.44335 -0.516578 4.26171 5.01032 -0.650375 4.65135 4.95198 -0.883704 4.38884 
4.3878 -1.04397 3.80104 4.38214 -0.729512 4.03333 4.8113 -1.19492 4.015 
4.56699 -1.6138 3.54221 4.3071 -1.91277 3.19229 3.97473 -1.31575 3.32586 
3.99799 -2.18168 2.86444 3.60813 -1.69204 2.89471 3.80542 -1.49466 3.11623 
3.99799 -2.18168 2.86444 3.4992 -1.98893 2.69596 3.60813 -1.69204 2.89471 
3.7314 -2.4677 2.59227 3.15729 -2.2175 2.42934 3.4992 -1.98893 2.69596 
3.15729 -2.2175 2.42934 3.7314 -2.4677 2.59227 3.33206 -2.65408 2.32466 
2.6644 -2.30487 2.19441 3.15729 -2.2175 2.42934 3.33206 -2.65408 2.32466 
2.89046 -2.86674 2.0696 2.48846 -3.01818 1.88204 2.29359 -2.4723 2.00902 
2.48846 -3.01818 1.88204 1.98794 -3.19578 1.68884 1.90115 -2.61635 1.85117 
1.98794 -3.19578 1.68884 1.50995 -2.83868 1.69675 1.90115 -2.61635 1.85117 
1.47545 -3.29711 1.55433 1.06523 -2.91945 1.60095 1.50995 -2.83868 1.69675 
0.171139 -3.48085 1.37738 -0.380146 -3.49669 1.38047 -0.025338 -2.9874 1.51084 
-0.380146 -3.49669 1.38047 -0.801506 -3.40231 1.43527 -0.714109 -2.80725 1.59106 
-1.23366 -3.35136 1.49945 -1.03001 -2.77318 1.63696 -0.714109 -2.80725 1.59106 
-1.23366 -3.35136 1.49945 -1.55184 -2.83632 1.70402 -1.03001 -2.77318 1.63696 
-2.36426 -2.44 2.04202 -1.98588 -2.56274 1.88953 -2.21625 -3.10532 1.77408 
-2.72802 -2.93373 1.9889 -3.10336 -2.76445 2.18774 -2.78374 -2.42107 2.19622 
-3.10336 -2.76445 2.18774 -3.53525 -2.5336 2.4663 -3.0841 -2.07836 2.45517 
-3.53525 -2.5336 2.4663 -3.31514 -1.92414 2.63163 -3.0841 -2.07836 2.45517 
-3.90401 -2.27562 2.76891 -3.65664 -1.87845 2.83094 -3.31514 -1.92414 2.63163 
-3.65664 -1.87845 2.83094 -3.90401 -2.27562 2.76891 -4.2465 -1.96959 3.11995 
-4.1556 -1.38175 3.4084 -3.93723 -1.63073 3.12245 -4.2465 -1.96959 3.11995 
-4.52524 -1.65659 3.4871 -4.78335 -1.2708 3.93658 -4.34903 -1.11404 3.72198 
-4.78335 -1.2708 3.93658 -4.96602 -0.858497 4.41966 -4.50928 -0.833988 4.0566 
-4.96602 -0.858497 4.41966 -4.4703 -0.548801 4.25899 -4.50928 -0.833988 4.0566 
-4.96602 -0.858497 4.41966 -4.54062 -0.321141 4.53006 -4.4703 -0.548801 4.25899 
-5.04388 -0.49684 4.83281 -4.58828 0.00425363 4.91169 -4.54062 -0.321141 4.53006 
-4.56821 0.273628 5.21255 -4.58828 0.00425363 4.91169 -5.07011 0.0834112 5.52209 
-5.07011 0.0834112 5.52209 -5.00644 0.383767 5.86406 -4.53524 0.551563 5.54846 
-5.00644 0.383767 5.86406 -4.90754 0.705922 6.24992 -4.58594 0.710729 5.85686 
-4.75859 1.00403 6.59911 -4.2994 1.27239 6.50343 -4.49664 0.931265 6.11201 
-3.64356 1.97375 7.33258 -3.90287 1.75066 7.07889 -4.03289 1.86071 7.60746 
-4.03289 1.86071 7.60746 -3.7286 2.08804 7.85956 -3.64356 1.97375 7.33258 
-3.7286 2.08804 7.85956 -3.37643 2.31848 8.14466 -3.34547 2.19516 7.60325 
-2.99251 2.51581 8.36919 -2.73377 2.52889 7.98566 -3.00166 2.39555 7.82671 
-2.58313 2.69493 8.58466 -2.30949 2.70771 8.19623 -2.73377 2.52889 7.98566 
-1.39489 2.96346 8.50657 -1.83479 2.85814 8.37603 -1.68421 2.96421 8.89737 
-1.68421 2.96421 8.89737 -1.11133 3.0705 9.00804 -1.39489 2.96346 8.50657 
-1.11133 3.0705 9.00804 -0.464176 3.13852 9.1018 -0.627434 3.07128 8.62071 
-0.464176 3.13852 9.1018 -0.267426 3.08073 8.50554 -0.627434 3.07128 8.62071 
0.109471 3.15041 9.12191 0.157338 3.08085 8.48162 -0.267426 3.08073 8.50554 
0.157338 3.08085 8.48162 0.109471 3.15041 9.12191 0.676179 3.12334 9.0854 
1.25959 3.04814 8.99422 1.69894 2.95857 8.87877 1.52284 2.93477 8.46006 
1.69894 2.95857 8.87877 2.19707 2.825 8.72182 2.04008 2.79686 8.28047 
2.66658 2.6576 8.52822 2.44593 2.61765 7.92331 2.04008 2.79686 8.28047 
2.98466 2.51948 8.37334 2.73711 2.49236 7.80689 2.44593 2.61765 7.92331 
3.31146 2.16101 7.41158 3.10159 2.34255 7.7741 3.6082 2.17495 7.97131 
3.6082 2.17495 7.97131 3.90776 1.95487 7.7036 3.65649 1.96367 7.31473 
3.90776 1.95487 7.7036 4.2344 1.67868 7.39542 3.65649 1.96367 7.31473 
4.52382 1.34228 6.97837 3.99396 1.54978 6.68704 3.84553 1.71373 6.88467 
4.52382 1.34228 6.97837 4.30682 1.27013 6.51306 3.99396 1.54978 6.68704 
4.30682 1.27013 6.51306 4.52382 1.34228 6.97837 4.75521 1.00976 6.60574 
4.58712 0.709096 5.85342 4.47449 0.989207 6.18725 4.90705 0.704557 6.24568 
5.01926 0.352538 5.83366 5.07815 -0.00721407 5.41527 4.56251 0.332324 5.28013 
4.61201 0.0936689 5.04193 4.69508 -0.286798 4.71026 4.28006 0.0740434 4.64777 
4.38214 -0.729512 4.03333 4.3878 -1.04397 3.80104 4.00784 -0.718422 3.71911 
4.3878 -1.04397 3.80104 4.25411 -1.24788 3.56363 3.88691 -0.907366 3.50128 
3.60813 -1.69204 2.89471 3.4992 -1.98893 2.69596 3.19773 -1.58495 2.70835 
3.4992 -1.98893 2.69596 3.15729 -2.2175 2.42934 2.96945 -1.91736 2.45778 
1.90115 -2.61635 1.85117 1.50995 -2.83868 1.69675 1.3258 -2.53116 1.74005 
1.50995 -2.83868 1.69675 1.06523 -2.91945 1.60095 1.3258 -2.53116 1.74005 
1.06523 -2.91945 1.60095 0.498283 -2.97122 1.52919 0.791655 -2.62929 1.63905 
0.498283 -2.97122 1.52919 -0.025338 -2.9874 1.51084 0.0476027 -2.50725 1.62324 
-1.03001 -2.77318 1.63696 -1.55184 -2.83632 1.70402 -1.27824 -2.37151 1.77271 
-3.31514 -1.92414 2.63163 -3.65664 -1.87845 2.83094 -3.32287 -1.45542 2.83336 
-3.65664 -1.87845 2.83094 -3.93723 -1.63073 3.12245 -3.58005 -1.25098 3.08888 
-3.93723 -1.63073 3.12245 -4.1556 -1.38175 3.4084 -3.79125 -1.01887 3.36165 
-4.1556 -1.38175 3.4084 -4.34903 -1.11404 3.72198 -3.96413 -0.772515 3.64566 
-4.34903 -1.11404 3.72198 -4.50928 -0.833988 4.0566 -4.10044 -0.512311 3.94701 
-4.53524 0.551563 5.54846 -4.58594 0.710729 5.85686 -4.19978 0.877488 5.60385 
-4.58594 0.710729 5.85686 -4.49664 0.931265 6.11201 -4.0799 1.10143 5.82239 
-4.49664 0.931265 6.11201 -4.2994 1.27239 6.50343 -4.09308 1.2934 6.23072 
-4.2994 1.27239 6.50343 -4.09719 1.54065 6.82858 -3.9102 1.54464 6.5242 
-4.09719 1.54065 6.82858 -3.90287 1.75066 7.07889 -3.57451 1.8156 6.67791 
-3.90287 1.75066 7.07889 -3.64356 1.97375 7.33258 -3.31399 2.03968 6.92913 
-3.64356 1.97375 7.33258 -3.34547 2.19516 7.60325 -3.04449 2.23867 7.17207 
-3.34547 2.19516 7.60325 -3.00166 2.39555 7.82671 -2.75509 2.41342 7.39128 
-3.00166 2.39555 7.82671 -2.73377 2.52889 7.98566 -2.49914 2.54245 7.54638 
-2.73377 2.52889 7.98566 -2.30949 2.70771 8.19623 -2.2186 2.65941 7.65783 
-2.30949 2.70771 8.19623 -1.83479 2.85814 8.37603 -1.66248 2.84397 7.87764 
-1.83479 2.85814 8.37603 -1.39489 2.96346 8.50657 -1.27316 2.93578 7.96975 
-0.933128 3.02626 8.46465 -0.627434 3.07128 8.62071 -0.572171 3.03811 8.12719 
0.485109 3.06675 8.48108 0.859948 3.04881 8.60191 0.773 3.01664 8.08114 
0.859948 3.04881 8.60191 1.18837 2.99939 8.53654 1.08919 2.97179 8.04909 
1.18837 2.99939 8.53654 1.52284 2.93477 8.46006 1.39168 2.91117 7.95238 
1.52284 2.93477 8.46006 2.04008 2.79686 8.28047 1.84548 2.79098 7.8003 
2.73711 2.49236 7.80689 3.10159 2.34255 7.7741 2.81954 2.37314 7.32121 
3.99396 1.54978 6.68704 4.30682 1.27013 6.51306 3.89871 1.45384 6.28201 
4.30682 1.27013 6.51306 4.47449 0.989207 6.18725 4.06419 1.17463 5.93508 
4.47449 0.989207 6.18725 4.58712 0.709096 5.85342 4.16458 0.885679 5.56487 
4.24663 -0.12904 4.41238 4.44335 -0.516578 4.26171 3.93654 -0.132777 4.08344 
4.44335 -0.516578 4.26171 4.38214 -0.729512 4.03333 3.85743 -0.316115 3.86471 
3.88691 -0.907366 3.50128 3.97473 -1.31575 3.32586 3.51762 -0.845229 3.24927 
3.97473 -1.31575 3.32586 3.80542 -1.49466 3.11623 3.24859 -1.09519 2.93913 
3.80542 -1.49466 3.11623 3.60813 -1.69204 2.89471 3.24859 -1.09519 2.93913 
3.19773 -1.58495 2.70835 2.96945 -1.91736 2.45778 2.71294 -1.50668 2.47617 
2.96945 -1.91736 2.45778 2.6644 -2.30487 2.19441 2.41734 -1.83156 2.24407 
2.6644 -2.30487 2.19441 2.29359 -2.4723 2.00902 2.08107 -1.96277 2.08094 
2.29359 -2.4723 2.00902 1.90115 -2.61635 1.85117 1.7179 -2.09401 1.93679 
1.90115 -2.61635 1.85117 1.3258 -2.53116 1.74005 1.25575 -2.2046 1.80139 
1.3258 -2.53116 1.74005 0.791655 -2.62929 1.63905 0.756832 -2.2889 1.70621 
0.0476027 -2.50725 1.62324 -0.319697 -2.85133 1.5531 -0.384228 -2.33186 1.66433 
-0.319697 -2.85133 1.5531 -0.714109 -2.80725 1.59106 -0.384228 -2.33186 1.66433 
-0.714109 -2.80725 1.59106 -1.03001 -2.77318 1.63696 -0.850486 -2.18025 1.74104 
-1.58577 -2.32253 1.85084 -1.98588 -2.56274 1.88953 -1.80723 -2.0668 1.96864 
-1.98588 -2.56274 1.88953 -2.36426 -2.44 2.04202 -2.1636 -1.94062 2.11544 
-2.55436 -1.92276 2.2758 -3.0841 -2.07836 2.45517 -2.86124 -1.56441 2.53066 
-3.0841 -2.07836 2.45517 -3.31514 -1.92414 2.63163 -2.86124 -1.56441 2.53066 
-4.10044 -0.512311 3.94701 -4.4703 -0.548801 4.25899 -4.08793 -0.100888 4.26461 
-4.4703 -0.548801 4.25899 -4.54062 -0.321141 4.53006 -4.08793 -0.100888 4.26461 
-4.54062 -0.321141 4.53006 -4.58828 0.00425363 4.91169 -4.14639 0.228733 4.65332 
-4.58828 0.00425363 4.91169 -4.56821 0.273628 5.21255 -4.14793 0.491955 4.96456 
-4.56821 0.273628 5.21255 -4.53524 0.551563 5.54846 -4.11338 0.745294 5.26371 
-4.0799 1.10143 5.82239 -4.09308 1.2934 6.23072 -3.67194 1.46525 5.88531 
-4.09308 1.2934 6.23072 -3.9102 1.54464 6.5242 -3.55367 1.66432 6.1741 
-1.27316 2.93578 7.96975 -0.933128 3.02626 8.46465 -0.854736 3.00072 7.90195 
-0.572171 3.03811 8.12719 -0.267426 3.08073 8.50554 -0.114668 3.05896 7.97138 
-0.267426 3.08073 8.50554 0.157338 3.08085 8.48162 -0.114668 3.05896 7.97138 
0.157338 3.08085 8.48162 0.485109 3.06675 8.48108 0.378858 3.04759 7.95572 
1.84548 2.79098 7.8003 2.44593 2.61765 7.92331 2.32126 2.59992 7.41641 
2.44593 2.61765 7.92331 2.73711 2.49236 7.80689 2.32126 2.59992 7.41641 
2.81954 2.37314 7.32121 3.31146 2.16101 7.41158 3.02486 2.21037 6.97561 
3.42142 1.9712 6.89794 3.84553 1.71373 6.88467 3.45806 1.78025 6.31105 
3.84553 1.71373 6.88467 3.99396 1.54978 6.68704 3.45806 1.78025 6.31105 
4.16458 0.885679 5.56487 4.5276 0.55431 5.5447 4.12921 0.649363 5.14627 
4.5276 0.55431 5.5447 4.56251 0.332324 5.28013 4.12921 0.649363 5.14627 
4.56251 0.332324 5.28013 4.61201 0.0936689 5.04193 4.15248 0.360877 4.81222 
4.15248 0.360877 4.81222 4.28006 0.0740434 4.64777 3.8862 0.252677 4.36369 
4.28006 0.0740434 4.64777 4.24663 -0.12904 4.41238 3.8862 0.252677 4.36369 
3.85743 -0.316115 3.86471 4.00784 -0.718422 3.71911 3.51988 -0.267108 3.57461 
4.00784 -0.718422 3.71911 3.88691 -0.907366 3.50128 3.39977 -0.42709 3.37557 
3.24859 -1.09519 2.93913 3.19773 -1.58495 2.70835 2.8087 -1.0313 2.68714 
2.71294 -1.50668 2.47617 2.41734 -1.83156 2.24407 2.18286 -1.37429 2.2667 
2.41734 -1.83156 2.24407 2.08107 -1.96277 2.08094 1.96365 -1.47921 2.1554 
2.08107 -1.96277 2.08094 1.7179 -2.09401 1.93679 1.63121 -1.5385 2.02723 
1.7179 -2.09401 1.93679 1.25575 -2.2046 1.80139 1.43522 -1.81993 1.91899 
1.25575 -2.2046 1.80139 0.756832 -2.2889 1.70621 0.981464 -1.91357 1.80453 
0.756832 -2.2889 1.70621 0.361577 -2.48014 1.63759 0.500987 -1.89256 1.74752 
0.361577 -2.48014 1.63759 0.0476027 -2.50725 1.62324 0.0388086 -1.99677 1.70884 
0.0476027 -2.50725 1.62324 -0.384228 -2.33186 1.66433 0.0388086 -1.99677 1.70884 
-0.850486 -2.18025 1.74104 -1.27824 -2.37151 1.77271 -1.13226 -1.7558 1.86225 
-1.27824 -2.37151 1.77271 -1.58577 -2.32253 1.85084 -1.48279 -1.65005 1.96447 
-1.58577 -2.32253 1.85084 -1.80723 -2.0668 1.96864 -1.48279 -1.65005 1.96447 
-1.80723 -2.0668 1.96864 -2.1636 -1.94062 2.11544 -1.79636 -1.53451 2.08295 
-2.1636 -1.94062 2.11544 -2.55436 -1.92276 2.2758 -2.20835 -1.37816 2.27566 
-2.55436 -1.92276 2.2758 -2.86124 -1.56441 2.53066 -2.54521 -1.17455 2.49227 
-2.86124 -1.56441 2.53066 -3.32287 -1.45542 2.83336 -2.89911 -1.16025 2.69424 
-3.32287 -1.45542 2.83336 -3.58005 -1.25098 3.08888 -3.13575 -0.967145 2.91748 
-3.58005 -1.25098 3.08888 -3.79125 -1.01887 3.36165 -3.40034 -0.719484 3.21981 
-3.79125 -1.01887 3.36165 -3.96413 -0.772515 3.64566 -3.62147 -0.371706 3.59809 
-3.96413 -0.772515 3.64566 -4.10044 -0.512311 3.94701 -3.62147 -0.371706 3.59809 
-4.10044 -0.512311 3.94701 -4.08793 -0.100888 4.26461 -3.77563 -0.0814081 3.95454 
-4.08793 -0.100888 4.26461 -4.14639 0.228733 4.65332 -3.86197 0.225713 4.30982 
-4.14639 0.228733 4.65332 -4.14793 0.491955 4.96456 -3.7807 0.596763 4.60157 
-4.14793 0.491955 4.96456 -4.11338 0.745294 5.26371 -3.7487 0.905686 4.95451 
-4.11338 0.745294 5.26371 -4.19978 0.877488 5.60385 -3.6807 1.18582 5.30752 
-4.19978 0.877488 5.60385 -4.0799 1.10143 5.82239 -3.6807 1.18582 5.30752 
-4.0799 1.10143 5.82239 -3.67194 1.46525 5.88531 -3.66722 1.37285 5.65726 
-3.55367 1.66432 6.1741 -3.57451 1.8156 6.67791 -3.20376 1.90284 6.12968 
-3.57451 1.8156 6.67791 -3.31399 2.03968 6.92913 -3.1388 2.02307 6.42144 
-3.31399 2.03968 6.92913 -3.04449 2.23867 7.17207 -2.74924 2.29203 6.61071 
-3.04449 2.23867 7.17207 -2.75509 2.41342 7.39128 -2.41603 2.4891 6.81146 
-2.75509 2.41342 7.39128 -2.49914 2.54245 7.54638 -2.18908 2.61894 7.11788 
-2.49914 2.54245 7.54638 -2.2186 2.65941 7.65783 -2.18908 2.61894 7.11788 
-2.2186 2.65941 7.65783 -1.95001 2.75697 7.78166 -1.86442 2.74689 7.26893 
-1.95001 2.75697 7.78166 -1.66248 2.84397 7.87764 -1.55544 2.83675 7.20313 
-1.66248 2.84397 7.87764 -1.27316 2.93578 7.96975 -1.2308 2.92746 7.48516 
-1.27316 2.93578 7.96975 -0.854736 3.00072 7.90195 -0.7667 3.00571 7.39653 
-0.854736 3.00072 7.90195 -0.572171 3.03811 8.12719 -0.427265 3.0412 7.61254 
-0.572171 3.03811 8.12719 -0.114668 3.05896 7.97138 -0.427265 3.0412 7.61254 
-0.114668 3.05896 7.97138 0.378858 3.04759 7.95572 0.335258 3.0469 7.62036 
0.378858 3.04759 7.95572 0.773 3.01664 8.08114 0.70656 3.0137 7.58133 
0.773 3.01664 8.08114 1.08919 2.97179 8.04909 1.03478 2.96212 7.37997 
1.08919 2.97179 8.04909 1.39168 2.91117 7.95238 1.03478 2.96212 7.37997 
1.39168 2.91117 7.95238 1.84548 2.79098 7.8003 1.43438 2.87782 7.42223 
1.84548 2.79098 7.8003 2.32126 2.59992 7.41641 1.86314 2.74872 7.26034 
2.32126 2.59992 7.41641 2.81954 2.37314 7.32121 2.48861 2.47024 6.94326 
2.81954 2.37314 7.32121 3.02486 2.21037 6.97561 2.79429 2.29067 6.73958 
3.02486 2.21037 6.97561 3.42142 1.9712 6.89794 3.08105 2.07288 6.47976 
3.45806 1.78025 6.31105 3.89871 1.45384 6.28201 3.56315 1.54661 5.86175 
3.89871 1.45384 6.28201 4.06419 1.17463 5.93508 3.56315 1.54661 5.86175 
4.06419 1.17463 5.93508 4.16458 0.885679 5.56487 3.81129 1.03057 5.24934 
4.16458 0.885679 5.56487 4.12921 0.649363 5.14627 3.81129 1.03057 5.24934 
4.12921 0.649363 5.14627 4.15248 0.360877 4.81222 3.72759 0.637078 4.57405 
3.8862 0.252677 4.36369 3.93654 -0.132777 4.08344 3.53386 0.116395 3.84276 
3.93654 -0.132777 4.08344 3.85743 -0.316115 3.86471 3.53386 0.116395 3.84276 
3.39977 -0.42709 3.37557 3.51762 -0.845229 3.24927 3.11051 -0.508358 3.09111 
3.51762 -0.845229 3.24927 3.24859 -1.09519 2.93913 3.11051 -0.508358 3.09111 
2.8087 -1.0313 2.68714 2.71294 -1.50668 2.47617 2.45109 -1.04517 2.47524 
1.43522 -1.81993 1.91899 0.981464 -1.91357 1.80453 1.15153 -1.53688 1.89722 
0.500987 -1.89256 1.74752 0.0388086 -1.99677 1.70884 0.0287689 -1.49029 1.77248 
0.0388086 -1.99677 1.70884 -0.425208 -1.98599 1.72743 -0.396417 -1.64489 1.77165 
-0.425208 -1.98599 1.72743 -0.850486 -2.18025 1.74104 -0.747366 -1.61 1.81296 
-2.54521 -1.17455 2.49227 -2.89911 -1.16025 2.69424 -2.65137 -0.688552 2.69633 
-2.89911 -1.16025 2.69424 -3.13575 -0.967145 2.91748 -2.65137 -0.688552 2.69633 
-3.13575 -0.967145 2.91748 -3.40034 -0.719484 3.21981 -2.92977 -0.475632 2.96885 
-3.40034 -0.719484 3.21981 -3.62147 -0.371706 3.59809 -3.16326 -0.252385 3.2569 
-3.62147 -0.371706 3.59809 -3.77563 -0.0814081 3.95454 -3.41973 0.286394 3.84462 
-3.77563 -0.0814081 3.95454 -3.86197 0.225713 4.30982 -3.41973 0.286394 3.84462 
-3.6807 1.18582 5.30752 -3.66722 1.37285 5.65726 -3.2816 1.60934 5.40471 
-3.66722 1.37285 5.65726 -3.67194 1.46525 5.88531 -3.2816 1.60934 5.40471 
-3.67194 1.46525 5.88531 -3.55367 1.66432 6.1741 -3.11625 1.84711 5.69266 
-3.20376 1.90284 6.12968 -3.1388 2.02307 6.42144 -2.83754 2.17832 6.23651 
-3.1388 2.02307 6.42144 -2.74924 2.29203 6.61071 -2.83754 2.17832 6.23651 
-2.41603 2.4891 6.81146 -2.18908 2.61894 7.11788 -1.94385 2.68995 6.64889 
-2.18908 2.61894 7.11788 -1.86442 2.74689 7.26893 -1.69294 2.78966 6.81117 
-1.55544 2.83675 7.20313 -1.2308 2.92746 7.48516 -1.11878 2.95437 6.98339 
-0.7667 3.00571 7.39653 -0.427265 3.0412 7.61254 -0.393158 3.06193 7.03835 
-0.427265 3.0412 7.61254 -0.048007 3.05549 7.63025 -0.0343354 3.07325 7.07392 
-0.048007 3.05549 7.63025 0.335258 3.0469 7.62036 0.302272 3.0661 7.05791 
0.335258 3.0469 7.62036 0.70656 3.0137 7.58133 0.711496 3.02627 7.05908 
1.03478 2.96212 7.37997 1.43438 2.87782 7.42223 1.33908 2.89836 7.09112 
1.43438 2.87782 7.42223 1.86314 2.74872 7.26034 1.72062 2.78452 6.95371 
2.20795 2.59683 6.9613 2.48861 2.47024 6.94326 2.17988 2.57842 6.51943 
2.48861 2.47024 6.94326 2.79429 2.29067 6.73958 2.43674 2.43489 6.38676 
2.79429 2.29067 6.73958 3.08105 2.07288 6.47976 2.80463 2.2057 6.27013 
3.08105 2.07288 6.47976 3.45806 1.78025 6.31105 3.10389 1.93448 5.95822 
3.45806 1.78025 6.31105 3.56315 1.54661 5.86175 3.31932 1.66147 5.63188 
3.56315 1.54661 5.86175 3.69948 1.31483 5.59219 3.45525 1.43874 5.38212 
3.69948 1.31483 5.59219 3.81129 1.03057 5.24934 3.55723 1.18613 5.07911 
3.72759 0.637078 4.57405 3.59868 0.411348 4.16666 3.37594 0.733961 4.18182 
3.59868 0.411348 4.16666 3.53386 0.116395 3.84276 3.34109 0.510499 3.92984 
3.53386 0.116395 3.84276 3.51988 -0.267108 3.57461 3.14161 0.0587385 3.39714 
3.51988 -0.267108 3.57461 3.39977 -0.42709 3.37557 3.14161 0.0587385 3.39714 
3.39977 -0.42709 3.37557 3.11051 -0.508358 3.09111 2.91328 -0.233784 3.04927 
2.78602 -0.611125 2.81648 2.8087 -1.0313 2.68714 2.47102 -0.624684 2.60039 
2.8087 -1.0313 2.68714 2.45109 -1.04517 2.47524 2.47102 -0.624684 2.60039 
2.45109 -1.04517 2.47524 2.18286 -1.37429 2.2667 2.15576 -0.805511 2.37671 
2.18286 -1.37429 2.2667 1.96365 -1.47921 2.1554 1.77582 -0.798172 2.20203 
1.96365 -1.47921 2.1554 1.63121 -1.5385 2.02723 1.55123 -1.07445 2.07409 
1.63121 -1.5385 2.02723 1.15153 -1.53688 1.89722 1.20972 -1.00444 1.97834 
0.861201 -1.35667 1.8619 0.500987 -1.89256 1.74752 0.4535 -1.29805 1.81081 
0.0287689 -1.49029 1.77248 -0.396417 -1.64489 1.77165 -0.357767 -1.14164 1.81651 
-0.396417 -1.64489 1.77165 -0.747366 -1.61 1.81296 -0.676332 -1.10773 1.85491 
-0.747366 -1.61 1.81296 -1.13226 -1.7558 1.86225 -1.0989 -1.18951 1.92653 
-1.13226 -1.7558 1.86225 -1.48279 -1.65005 1.96447 -1.0989 -1.18951 1.92653 
-1.48279 -1.65005 1.96447 -1.79636 -1.53451 2.08295 -1.493 -1.09534 2.05118 
-1.79636 -1.53451 2.08295 -2.20835 -1.37816 2.27566 -1.85606 -0.936167 2.2114 
-2.20835 -1.37816 2.27566 -2.54521 -1.17455 2.49227 -2.24157 -0.76394 2.43245 
-3.7807 0.596763 4.60157 -3.7487 0.905686 4.95451 -3.36128 1.1582 4.68047 
-3.7487 0.905686 4.95451 -3.6807 1.18582 5.30752 -3.29029 1.41321 4.98677 
-3.11625 1.84711 5.69266 -3.20376 1.90284 6.12968 -2.78195 2.13836 5.81344 
-3.20376 1.90284 6.12968 -2.83754 2.17832 6.23651 -2.78195 2.13836 5.81344 
-2.83754 2.17832 6.23651 -2.74924 2.29203 6.61071 -2.33425 2.46268 6.04681 
-2.74924 2.29203 6.61071 -2.41603 2.4891 6.81146 -2.12269 2.60051 6.35762 
-2.41603 2.4891 6.81146 -1.94385 2.68995 6.64889 -2.12269 2.60051 6.35762 
-1.69294 2.78966 6.81117 -1.55544 2.83675 7.20313 -1.28832 2.92571 6.58619 
-1.11878 2.95437 6.98339 -0.7667 3.00571 7.39653 -0.698049 3.0376 6.8887 
1.03478 2.96212 7.37997 1.33908 2.89836 7.09112 1.05005 2.98406 6.66183 
1.33908 2.89836 7.09112 1.72062 2.78452 6.95371 1.35714 2.90432 6.58399 
1.72062 2.78452 6.95371 2.20795 2.59683 6.9613 1.77174 2.76243 6.55801 
2.43674 2.43489 6.38676 2.80463 2.2057 6.27013 2.52578 2.32169 5.84344 
2.80463 2.2057 6.27013 3.10389 1.93448 5.95822 2.71922 2.14575 5.63402 
3.10389 1.93448 5.95822 3.31932 1.66147 5.63188 2.88085 1.96654 5.4173 
3.31932 1.66147 5.63188 3.45525 1.43874 5.38212 3.05238 1.72522 5.15509 
3.45525 1.43874 5.38212 3.55723 1.18613 5.07911 3.18126 1.48243 4.89165 
3.55723 1.18613 5.07911 3.748 0.851737 4.88302 3.25708 1.22389 4.60027 
3.748 0.851737 4.88302 3.72759 0.637078 4.57405 3.38897 0.93763 4.42994 
3.38897 0.93763 4.42994 3.37594 0.733961 4.18182 3.05912 1.14813 4.14323 
3.37594 0.733961 4.18182 3.34109 0.510499 3.92984 3.03569 0.911945 3.86646 
3.34109 0.510499 3.92984 3.26944 0.301228 3.6848 2.97851 0.728351 3.63876 
3.26944 0.301228 3.6848 3.14161 0.0587385 3.39714 2.99563 0.424698 3.45585 
3.14161 0.0587385 3.39714 2.91328 -0.233784 3.04927 2.85788 0.197013 3.18889 
2.91328 -0.233784 3.04927 2.78602 -0.611125 2.81648 2.36753 -0.0625944 2.68191 
2.78602 -0.611125 2.81648 2.47102 -0.624684 2.60039 2.36753 -0.0625944 2.68191 
2.47102 -0.624684 2.60039 2.15576 -0.805511 2.37671 1.92827 -0.354801 2.34238 
1.77582 -0.798172 2.20203 1.55123 -1.07445 2.07409 1.39067 -0.609138 2.07186 
1.20972 -1.00444 1.97834 0.861201 -1.35667 1.8619 0.844256 -0.711059 1.90903 
0.861201 -1.35667 1.8619 0.4535 -1.29805 1.81081 0.573846 -0.94626 1.84964 
0.4535 -1.29805 1.81081 0.0287689 -1.49029 1.77248 0.204883 -0.968906 1.81494 
-0.676332 -1.10773 1.85491 -1.0989 -1.18951 1.92653 -0.983732 -0.701368 1.94047 
-1.0989 -1.18951 1.92653 -1.493 -1.09534 2.05118 -1.37272 -0.776283 2.04865 
-1.493 -1.09534 2.05118 -1.85606 -0.936167 2.2114 -1.6408 -0.677819 2.16028 
-1.85606 -0.936167 2.2114 -2.24157 -0.76394 2.43245 -1.95375 -0.531714 2.32469 
-2.24157 -0.76394 2.43245 -2.65137 -0.688552 2.69633 -2.2415 -0.370911 2.52041 
-2.65137 -0.688552 2.69633 -2.92977 -0.475632 2.96885 -2.62793 -0.0602653 2.88335 
-2.92977 -0.475632 2.96885 -3.16326 -0.252385 3.2569 -2.81969 0.161018 3.13553 
-3.16326 -0.252385 3.2569 -3.30583 0.0252349 3.54667 -2.97606 0.387444 3.41223 
-3.30583 0.0252349 3.54667 -3.41973 0.286394 3.84462 -3.06103 0.573564 3.62913 
-3.41973 0.286394 3.84462 -3.47931 0.618111 4.20956 -3.11811 0.771022 3.85667 
-3.47931 0.618111 4.20956 -3.3887 0.936227 4.42938 -3.15495 1.01761 4.14826 
-3.3887 0.936227 4.42938 -3.36128 1.1582 4.68047 -2.98672 1.41399 4.36774 
-3.36128 1.1582 4.68047 -3.29029 1.41321 4.98677 -3.04713 1.59808 4.82061 
-3.29029 1.41321 4.98677 -3.2816 1.60934 5.40471 -3.04713 1.59808 4.82061 
-3.2816 1.60934 5.40471 -3.11625 1.84711 5.69266 -2.78793 2.0264 5.33017 
-3.11625 1.84711 5.69266 -2.78195 2.13836 5.81344 -2.59223 2.23453 5.56053 
-2.33425 2.46268 6.04681 -2.12269 2.60051 6.35762 -1.95348 2.67388 5.92505 
-2.12269 2.60051 6.35762 -1.94385 2.68995 6.64889 -1.77312 2.7624 6.19193 
-1.94385 2.68995 6.64889 -1.69294 2.78966 6.81117 -1.45131 2.88877 6.32885 
-1.69294 2.78966 6.81117 -1.28832 2.92571 6.58619 -1.45131 2.88877 6.32885 
-1.11878 2.95437 6.98339 -0.698049 3.0376 6.8887 -0.849513 3.04257 6.51274 
-0.698049 3.0376 6.8887 -0.393158 3.06193 7.03835 -0.476989 3.11153 6.3934 
-0.393158 3.06193 7.03835 -0.0343354 3.07325 7.07392 -0.186581 3.13071 6.44514 
-0.0343354 3.07325 7.07392 0.302272 3.0661 7.05791 0.227364 3.13209 6.42943 
0.302272 3.0661 7.05791 0.711496 3.02627 7.05908 0.638381 3.09547 6.36454 
1.35714 2.90432 6.58399 1.77174 2.76243 6.55801 1.57796 2.85066 6.08865 
1.77174 2.76243 6.55801 2.17988 2.57842 6.51943 1.87149 2.7162 5.91292 
2.17988 2.57842 6.51943 2.43674 2.43489 6.38676 2.23273 2.51616 5.88094 
2.43674 2.43489 6.38676 2.52578 2.32169 5.84344 2.23273 2.51616 5.88094 
3.25708 1.22389 4.60027 3.38897 0.93763 4.42994 3.05912 1.14813 4.14323 
2.97851 0.728351 3.63876 2.99563 0.424698 3.45585 2.67384 0.782199 3.29061 
2.99563 0.424698 3.45585 2.85788 0.197013 3.18889 2.53907 0.590057 3.04636 
1.92827 -0.354801 2.34238 1.77582 -0.798172 2.20203 1.52339 -0.17559 2.16422 
1.39067 -0.609138 2.07186 1.20972 -1.00444 1.97834 1.03431 -0.331022 1.97198 
0.844256 -0.711059 1.90903 0.573846 -0.94626 1.84964 0.42093 -0.406013 1.8447 
0.573846 -0.94626 1.84964 0.204883 -0.968906 1.81494 0.42093 -0.406013 1.8447 
0.204883 -0.968906 1.81494 -0.115102 -0.976006 1.81218 0.0422456 -0.454738 1.82148 
-0.115102 -0.976006 1.81218 -0.357767 -1.14164 1.81651 -0.270653 -0.443339 1.83328 
-0.357767 -1.14164 1.81651 -0.676332 -1.10773 1.85491 -0.560116 -0.415254 1.86548 
-0.983732 -0.701368 1.94047 -1.37272 -0.776283 2.04865 -1.30514 -0.279497 2.06398 
-1.37272 -0.776283 2.04865 -1.6408 -0.677819 2.16028 -1.30514 -0.279497 2.06398 
-1.6408 -0.677819 2.16028 -1.95375 -0.531714 2.32469 -1.59048 -0.167942 2.19496 
-1.95375 -0.531714 2.32469 -2.2415 -0.370911 2.52041 -1.99036 0.103259 2.45552 
-2.2415 -0.370911 2.52041 -2.44837 -0.223482 2.6959 -2.2206 0.243059 2.64778 
-2.44837 -0.223482 2.6959 -2.62793 -0.0602653 2.88335 -2.2206 0.243059 2.64778 
-2.62793 -0.0602653 2.88335 -2.81969 0.161018 3.13553 -2.43419 0.400165 2.87415 
-2.81969 0.161018 3.13553 -2.97606 0.387444 3.41223 -2.64042 0.766213 3.24324 
-2.97606 0.387444 3.41223 -3.06103 0.573564 3.62913 -2.7262 0.975446 3.47912 
-3.06103 0.573564 3.62913 -3.11811 0.771022 3.85667 -2.7262 0.975446 3.47912 
-3.11811 0.771022 3.85667 -3.15495 1.01761 4.14826 -2.79626 1.19102 3.75729 
-2.98672 1.41399 4.36774 -3.04713 1.59808 4.82061 -2.82667 1.74415 4.59863 
-2.79837 1.91982 4.99866 -2.78793 2.0264 5.33017 -2.53634 2.20772 5.14264 
-2.78793 2.0264 5.33017 -2.59223 2.23453 5.56053 -2.53634 2.20772 5.14264 
-2.59223 2.23453 5.56053 -2.46385 2.36465 5.8813 -2.23201 2.47226 5.2846 
-2.46385 2.36465 5.8813 -2.33425 2.46268 6.04681 -2.07988 2.59598 5.6029 
-1.95348 2.67388 5.92505 -1.77312 2.7624 6.19193 -1.57154 2.87369 5.72255 
-1.77312 2.7624 6.19193 -1.45131 2.88877 6.32885 -1.2923 2.98376 5.84021 
-1.45131 2.88877 6.32885 -1.28832 2.92571 6.58619 -0.947421 3.08059 5.95891 
-1.28832 2.92571 6.58619 -0.849513 3.04257 6.51274 -0.803268 3.08978 6.16694 
0.638381 3.09547 6.36454 1.05005 2.98406 6.66183 0.914913 3.08214 5.99753 
1.05005 2.98406 6.66183 1.35714 2.90432 6.58399 1.21112 2.99035 6.06835 
1.87149 2.7162 5.91292 2.23273 2.51616 5.88094 2.05615 2.61256 5.61082 
2.23273 2.51616 5.88094 2.52578 2.32169 5.84344 2.3457 2.39822 5.3676 
2.52578 2.32169 5.84344 2.71922 2.14575 5.63402 2.3457 2.39822 5.3676 
2.71922 2.14575 5.63402 2.88085 1.96654 5.4173 2.45893 2.24987 5.02633 
2.88085 1.96654 5.4173 3.05238 1.72522 5.15509 2.60135 2.06191 4.79907 
3.05238 1.72522 5.15509 3.18126 1.48243 4.89165 2.79812 1.80903 4.68246 
3.18126 1.48243 4.89165 3.25708 1.22389 4.60027 2.85611 1.6365 4.45649 
3.25708 1.22389 4.60027 3.05912 1.14813 4.14323 2.77915 1.44561 3.99746 
3.05912 1.14813 4.14323 3.03569 0.911945 3.86646 2.69079 1.2755 3.65919 
3.03569 0.911945 3.86646 2.97851 0.728351 3.63876 2.63723 1.08085 3.42654 
2.53907 0.590057 3.04636 2.55145 0.136093 2.8889 2.18668 0.690906 2.73374 
2.55145 0.136093 2.8889 2.36753 -0.0625944 2.68191 2.1401 0.389872 2.61748 
2.36753 -0.0625944 2.68191 2.14987 -0.209297 2.50078 1.96847 0.259819 2.46524 
2.14987 -0.209297 2.50078 1.92827 -0.354801 2.34238 1.65768 0.256785 2.26764 
1.52339 -0.17559 2.16422 1.39067 -0.609138 2.07186 1.23708 -0.0989893 2.04511 
1.03431 -0.331022 1.97198 0.844256 -0.711059 1.90903 0.68265 -0.214276 1.88238 
0.844256 -0.711059 1.90903 0.42093 -0.406013 1.8447 0.68265 -0.214276 1.88238 
-0.560116 -0.415254 1.86548 -0.983732 -0.701368 1.94047 -0.888208 -0.20132 1.92932 
-2.79626 1.19102 3.75729 -2.92233 1.26191 4.0409 -2.60126 1.55657 3.79418 
-2.92233 1.26191 4.0409 -2.98672 1.41399 4.36774 -2.5656 1.80831 4.06349 
-2.98672 1.41399 4.36774 -2.82667 1.74415 4.59863 -2.5656 1.80831 4.06349 
-2.82667 1.74415 4.59863 -2.79837 1.91982 4.99866 -2.46596 2.08311 4.39167 
-2.79837 1.91982 4.99866 -2.53634 2.20772 5.14264 -2.33224 2.29968 4.6452 
-2.23201 2.47226 5.2846 -2.07988 2.59598 5.6029 -1.82226 2.76152 5.2062 
-2.07988 2.59598 5.6029 -1.95348 2.67388 5.92505 -1.60079 2.88849 5.32333 
-0.803268 3.08978 6.16694 -0.476989 3.11153 6.3934 -0.541318 3.20778 5.72739 
-0.476989 3.11153 6.3934 -0.186581 3.13071 6.44514 -0.296806 3.2054 5.91407 
-0.186581 3.13071 6.44514 0.227364 3.13209 6.42943 0.0190684 3.2158 5.93096 
0.227364 3.13209 6.42943 0.638381 3.09547 6.36454 0.542256 3.21282 5.69365 
0.914913 3.08214 5.99753 1.21112 2.99035 6.06835 1.05245 3.10014 5.60652 
1.21112 2.99035 6.06835 1.57796 2.85066 6.08865 1.2982 3.01975 5.49528 
1.57796 2.85066 6.08865 1.87149 2.7162 5.91292 1.54768 2.9166 5.34806 
1.87149 2.7162 5.91292 2.05615 2.61256 5.61082 1.79986 2.7757 5.20255 
2.05615 2.61256 5.61082 2.3457 2.39822 5.3676 1.96204 2.66298 5.06105 
2.60135 2.06191 4.79907 2.79812 1.80903 4.68246 2.60822 1.90853 4.3736 
2.79812 1.80903 4.68246 2.85611 1.6365 4.45649 2.60822 1.90853 4.3736 
2.85611 1.6365 4.45649 2.77915 1.44561 3.99746 2.54704 1.78558 3.99175 
2.77915 1.44561 3.99746 2.69079 1.2755 3.65919 2.48504 1.659 3.67481 
2.69079 1.2755 3.65919 2.63723 1.08085 3.42654 2.45297 1.43412 3.40689 
2.63723 1.08085 3.42654 2.67384 0.782199 3.29061 2.40144 1.23861 3.19752 
2.67384 0.782199 3.29061 2.53907 0.590057 3.04636 2.28605 0.993735 2.92965 
2.53907 0.590057 3.04636 2.18668 0.690906 2.73374 2.28605 0.993735 2.92965 
2.1401 0.389872 2.61748 1.96847 0.259819 2.46524 1.86586 0.574924 2.43865 
1.65768 0.256785 2.26764 1.52339 -0.17559 2.16422 1.29704 0.454659 2.08608 
1.52339 -0.17559 2.16422 1.23708 -0.0989893 2.04511 1.09168 0.384417 1.99509 
1.23708 -0.0989893 2.04511 1.03431 -0.331022 1.97198 0.868301 0.335814 1.91922 
1.03431 -0.331022 1.97198 0.68265 -0.214276 1.88238 0.613211 0.283927 1.85387 
0.68265 -0.214276 1.88238 0.42093 -0.406013 1.8447 0.375284 0.233521 1.81849 
0.42093 -0.406013 1.8447 0.0422456 -0.454738 1.82148 0.137264 0.190409 1.79892 
0.0422456 -0.454738 1.82148 -0.270653 -0.443339 1.83328 -0.140436 0.204387 1.79912 
-0.270653 -0.443339 1.83328 -0.560116 -0.415254 1.86548 -0.417705 0.229827 1.82208 
-0.560116 -0.415254 1.86548 -0.888208 -0.20132 1.92932 -0.762579 0.146344 1.89165 
-0.888208 -0.20132 1.92932 -1.30514 -0.279497 2.06398 -1.13347 0.235566 2.01069 
-1.30514 -0.279497 2.06398 -1.59048 -0.167942 2.19496 -1.40201 0.326868 2.13233 
-1.59048 -0.167942 2.19496 -1.80169 -0.0571664 2.31636 -1.64267 0.452958 2.2731 
-1.80169 -0.0571664 2.31636 -1.99036 0.103259 2.45552 -1.64267 0.452958 2.2731 
-1.99036 0.103259 2.45552 -2.2206 0.243059 2.64778 -1.92367 0.64612 2.49268 
-2.2206 0.243059 2.64778 -2.43419 0.400165 2.87415 -2.14034 0.840942 2.72975 
-2.43419 0.400165 2.87415 -2.54979 0.578968 3.05376 -2.26908 1.02053 2.92479 
-2.54979 0.578968 3.05376 -2.64042 0.766213 3.24324 -2.26908 1.02053 2.92479 
-2.64042 0.766213 3.24324 -2.7262 0.975446 3.47912 -2.38912 1.20757 3.16221 
-2.7262 0.975446 3.47912 -2.79626 1.19102 3.75729 -2.37001 1.62662 3.43023 
-2.23201 2.47226 5.2846 -1.82226 2.76152 5.2062 -1.85617 2.74433 4.96018 
-1.57154 2.87369 5.72255 -1.2923 2.98376 5.84021 -1.29822 3.04567 5.31331 
-1.2923 2.98376 5.84021 -0.947421 3.08059 5.95891 -1.03174 3.13912 5.42077 
-0.541318 3.20778 5.72739 -0.296806 3.2054 5.91407 -0.256604 3.31231 5.40356 
-0.296806 3.2054 5.91407 0.0190684 3.2158 5.93096 -0.0410984 3.32076 5.41722 
0.542256 3.21282 5.69365 0.914913 3.08214 5.99753 0.760824 3.2323 5.36028 
2.11053 2.53827 4.89183 2.45893 2.24987 5.02633 2.17066 2.45798 4.62522 
2.45893 2.24987 5.02633 2.60135 2.06191 4.79907 2.29039 2.29893 4.42876 
2.60135 2.06191 4.79907 2.60822 1.90853 4.3736 2.40514 2.08196 4.17484 
2.54704 1.78558 3.99175 2.77915 1.44561 3.99746 2.48504 1.659 3.67481 
2.48504 1.659 3.67481 2.45297 1.43412 3.40689 2.14894 1.83718 3.20666 
2.45297 1.43412 3.40689 2.40144 1.23861 3.19752 2.11855 1.7006 3.05515 
2.40144 1.23861 3.19752 2.28605 0.993735 2.92965 2.07465 1.55595 2.9114 
2.28605 0.993735 2.92965 2.18668 0.690906 2.73374 1.80495 1.17031 2.48046 
2.18668 0.690906 2.73374 1.86586 0.574924 2.43865 1.80495 1.17031 2.48046 
1.86586 0.574924 2.43865 1.65768 0.256785 2.26764 1.38751 0.908418 2.13952 
-0.762579 0.146344 1.89165 -1.13347 0.235566 2.01069 -0.844905 0.684811 1.89211 
-1.13347 0.235566 2.01069 -1.40201 0.326868 2.13233 -1.07674 0.770234 1.97784 
-1.40201 0.326868 2.13233 -1.64267 0.452958 2.2731 -1.44301 0.943369 2.17681 
-1.64267 0.452958 2.2731 -1.92367 0.64612 2.49268 -1.65881 1.10513 2.34531 
-1.92367 0.64612 2.49268 -2.14034 0.840942 2.72975 -1.94941 1.0948 2.60581 
-2.14034 0.840942 2.72975 -2.26908 1.02053 2.92479 -1.98631 1.36396 2.72191 
-2.26908 1.02053 2.92479 -2.38912 1.20757 3.16221 -2.07186 1.55105 2.90126 
-2.37001 1.62662 3.43023 -2.60126 1.55657 3.79418 -2.283 1.91539 3.55192 
-2.60126 1.55657 3.79418 -2.5656 1.80831 4.06349 -2.283 1.91539 3.55192 
-2.5656 1.80831 4.06349 -2.46596 2.08311 4.39167 -2.19837 2.2868 3.99136 
-2.46596 2.08311 4.39167 -2.33224 2.29968 4.6452 -2.08826 2.48345 4.22875 
-2.33224 2.29968 4.6452 -2.12395 2.52531 4.84569 -1.96947 2.63182 4.40858 
-2.12395 2.52531 4.84569 -1.85617 2.74433 4.96018 -1.81483 2.7814 4.57072 
-1.85617 2.74433 4.96018 -1.82226 2.76152 5.2062 -1.60398 2.93491 4.77819 
-1.82226 2.76152 5.2062 -1.60079 2.88849 5.32333 -1.25844 3.14639 4.80472 
-1.60079 2.88849 5.32333 -1.29822 3.04567 5.31331 -1.25844 3.14639 4.80472 
-1.29822 3.04567 5.31331 -1.03174 3.13912 5.42077 -0.901498 3.2899 4.88824 
-0.7372 3.23882 5.35954 -0.541318 3.20778 5.72739 -0.50892 3.32382 5.2195 
-0.0410984 3.32076 5.41722 0.243869 3.23739 5.75049 0.225644 3.40793 5.04443 
0.243869 3.23739 5.75049 0.542256 3.21282 5.69365 0.225644 3.40793 5.04443 
0.542256 3.21282 5.69365 0.760824 3.2323 5.36028 0.536601 3.37122 5.00036 
1.05245 3.10014 5.60652 1.2982 3.01975 5.49528 1.01047 3.20947 5.0788 
1.2982 3.01975 5.49528 1.54768 2.9166 5.34806 1.23908 3.12382 4.98464 
1.54768 2.9166 5.34806 1.79986 2.7757 5.20255 1.4537 3.02466 4.85558 
1.79986 2.7757 5.20255 1.96204 2.66298 5.06105 1.70325 2.86806 4.69977 
1.96204 2.66298 5.06105 2.11053 2.53827 4.89183 1.80458 2.78732 4.40817 
2.11053 2.53827 4.89183 2.17066 2.45798 4.62522 1.91463 2.67203 4.24874 
2.17066 2.45798 4.62522 2.29039 2.29893 4.42876 2.05255 2.48479 4.02308 
2.29039 2.29893 4.42876 2.40514 2.08196 4.17484 2.05255 2.48479 4.02308 
2.40514 2.08196 4.17484 2.54704 1.78558 3.99175 2.1572 2.21263 3.68288 
2.54704 1.78558 3.99175 2.48504 1.659 3.67481 2.15778 2.01027 3.39095 
1.38751 0.908418 2.13952 1.29704 0.454659 2.08608 1.13013 1.17321 1.98412 
1.29704 0.454659 2.08608 1.09168 0.384417 1.99509 0.898587 0.987806 1.8863 
1.09168 0.384417 1.99509 0.868301 0.335814 1.91922 0.898587 0.987806 1.8863 
0.868301 0.335814 1.91922 0.613211 0.283927 1.85387 0.664635 0.800836 1.82423 
0.613211 0.283927 1.85387 0.375284 0.233521 1.81849 0.414171 0.764412 1.77149 
0.375284 0.233521 1.81849 0.137264 0.190409 1.79892 0.123141 0.735596 1.74385 
0.137264 0.190409 1.79892 -0.140436 0.204387 1.79912 -0.126189 0.73243 1.74516 
-0.140436 0.204387 1.79912 -0.417705 0.229827 1.82208 -0.373201 0.762078 1.76552 
-1.65881 1.10513 2.34531 -1.94941 1.0948 2.60581 -1.70853 1.48669 2.44289 
-2.07186 1.55105 2.90126 -2.33277 1.48047 3.25176 -2.08467 1.87966 3.10891 
-2.33277 1.48047 3.25176 -2.37001 1.62662 3.43023 -2.08467 1.87966 3.10891 
-2.37001 1.62662 3.43023 -2.283 1.91539 3.55192 -1.98292 2.27421 3.28998 
-2.283 1.91539 3.55192 -2.26575 2.09032 3.77471 -1.97877 2.3943 3.47353 
-2.26575 2.09032 3.77471 -2.19837 2.2868 3.99136 -1.93555 2.53851 3.65252 
-2.19837 2.2868 3.99136 -2.08826 2.48345 4.22875 -1.86731 2.67426 3.83545 
-2.08826 2.48345 4.22875 -1.96947 2.63182 4.40858 -1.74377 2.83501 3.96566 
-1.96947 2.63182 4.40858 -1.81483 2.7814 4.57072 -1.56009 3.01678 4.18186 
-1.81483 2.7814 4.57072 -1.60398 2.93491 4.77819 -1.56009 3.01678 4.18186 
-0.901498 3.2899 4.88824 -0.7372 3.23882 5.35954 -0.593607 3.39796 4.86025 
-0.7372 3.23882 5.35954 -0.50892 3.32382 5.2195 -0.593607 3.39796 4.86025 
-0.50892 3.32382 5.2195 -0.256604 3.31231 5.40356 -0.284737 3.44193 4.90522 
-0.256604 3.31231 5.40356 -0.0410984 3.32076 5.41722 -0.0389473 3.44967 4.93203 
0.536601 3.37122 5.00036 0.760824 3.2323 5.36028 0.774525 3.39444 4.65903 
0.760824 3.2323 5.36028 1.01047 3.20947 5.0788 0.774525 3.39444 4.65903 
1.01047 3.20947 5.0788 1.23908 3.12382 4.98464 1.03071 3.30718 4.57366 
1.23908 3.12382 4.98464 1.4537 3.02466 4.85558 1.29885 3.19561 4.37281 
1.4537 3.02466 4.85558 1.70325 2.86806 4.69977 1.29885 3.19561 4.37281 
2.15778 2.01027 3.39095 2.14894 1.83718 3.20666 1.83476 2.38831 3.03432 
2.14894 1.83718 3.20666 2.11855 1.7006 3.05515 1.80218 2.17405 2.79606 
2.11855 1.7006 3.05515 2.07465 1.55595 2.9114 1.73349 2.05305 2.62338 
2.07465 1.55595 2.9114 2.00231 1.36907 2.74127 1.70586 1.77781 2.49345 
2.00231 1.36907 2.74127 1.80495 1.17031 2.48046 1.70586 1.77781 2.49345 
1.80495 1.17031 2.48046 1.59668 1.00654 2.28901 1.33949 1.44191 2.10693 
1.59668 1.00654 2.28901 1.38751 0.908418 2.13952 1.33949 1.44191 2.10693 
0.898587 0.987806 1.8863 0.664635 0.800836 1.82423 0.612192 1.29853 1.74748 
0.664635 0.800836 1.82423 0.414171 0.764412 1.77149 0.322822 1.30497 1.67857 
0.414171 0.764412 1.77149 0.123141 0.735596 1.74385 0.322822 1.30497 1.67857 
0.123141 0.735596 1.74385 -0.126189 0.73243 1.74516 0.0331969 1.28481 1.65767 
-0.126189 0.73243 1.74516 -0.373201 0.762078 1.76552 -0.200012 1.26612 1.67222 
-0.373201 0.762078 1.76552 -0.646272 0.65697 1.83532 -0.483545 1.26873 1.7157 
-0.646272 0.65697 1.83532 -0.844905 0.684811 1.89211 -0.763252 1.32712 1.79596 
-0.844905 0.684811 1.89211 -1.07674 0.770234 1.97784 -0.763252 1.32712 1.79596 
-1.07674 0.770234 1.97784 -1.2769 0.813668 2.07644 -1.09852 1.46015 1.94956 
-1.2769 0.813668 2.07644 -1.44301 0.943369 2.17681 -1.09852 1.46015 1.94956 
-1.44301 0.943369 2.17681 -1.65881 1.10513 2.34531 -1.26191 1.5786 2.05271 
-1.70853 1.48669 2.44289 -1.98631 1.36396 2.72191 -1.7575 1.83296 2.57445 
-1.98631 1.36396 2.72191 -2.07186 1.55105 2.90126 -1.7575 1.83296 2.57445 
-2.07186 1.55105 2.90126 -2.08467 1.87966 3.10891 -1.85497 2.00994 2.79599 
-2.08467 1.87966 3.10891 -1.98292 2.27421 3.28998 -1.89515 2.20552 2.9992 
-1.34212 3.16665 4.34411 -1.25844 3.14639 4.80472 -1.10504 3.3255 4.33416 
-1.25844 3.14639 4.80472 -0.901498 3.2899 4.88824 -0.85965 3.42048 4.44455 
-0.901498 3.2899 4.88824 -0.593607 3.39796 4.86025 -0.558909 3.54616 4.38566 
-0.593607 3.39796 4.86025 -0.284737 3.44193 4.90522 -0.244881 3.59748 4.41945 
-0.284737 3.44193 4.90522 -0.0389473 3.44967 4.93203 -0.031127 3.60525 4.43705 
-0.0389473 3.44967 4.93203 0.225644 3.40793 5.04443 0.201234 3.60039 4.42675 
0.225644 3.40793 5.04443 0.536601 3.37122 5.00036 0.4535 3.56747 4.39793 
1.80458 2.78732 4.40817 1.91463 2.67203 4.24874 1.68613 2.89704 3.8242 
1.91463 2.67203 4.24874 2.05255 2.48479 4.02308 1.68613 2.89704 3.8242 
2.05255 2.48479 4.02308 2.1572 2.21263 3.68288 1.878 2.53805 3.39704 
2.1572 2.21263 3.68288 2.15778 2.01027 3.39095 1.83476 2.38831 3.03432 
1.73349 2.05305 2.62338 1.70586 1.77781 2.49345 1.49937 2.18213 2.32199 
1.70586 1.77781 2.49345 1.54919 1.58626 2.29484 1.36972 2.05519 2.15398 
1.54919 1.58626 2.29484 1.33949 1.44191 2.10693 1.1977 1.90777 1.98834 
1.33949 1.44191 2.10693 1.13013 1.17321 1.98412 0.970535 1.79523 1.83643 
1.13013 1.17321 1.98412 0.898587 0.987806 1.8863 0.970535 1.79523 1.83643 
-1.70853 1.48669 2.44289 -1.7575 1.83296 2.57445 -1.51357 1.98544 2.30448 
-1.7575 1.83296 2.57445 -1.85497 2.00994 2.79599 -1.56808 2.30515 2.45357 
-1.85497 2.00994 2.79599 -1.89515 2.20552 2.9992 -1.63963 2.48625 2.67428 
-1.89515 2.20552 2.9992 -1.98292 2.27421 3.28998 -1.73665 2.5103 2.91899 
-1.98292 2.27421 3.28998 -1.97877 2.3943 3.47353 -1.72536 2.66863 3.10577 
-1.97877 2.3943 3.47353 -1.93555 2.53851 3.65252 -1.62775 2.89011 3.22379 
-1.93555 2.53851 3.65252 -1.86731 2.67426 3.83545 -1.51814 3.07677 3.38027 
-1.86731 2.67426 3.83545 -1.74377 2.83501 3.96566 -1.51814 3.07677 3.38027 
-1.74377 2.83501 3.96566 -1.56009 3.01678 4.18186 -1.3997 3.21841 3.53774 
-1.56009 3.01678 4.18186 -1.34212 3.16665 4.34411 -1.27882 3.30546 3.84328 
-1.34212 3.16665 4.34411 -1.10504 3.3255 4.33416 -0.979843 3.51804 3.8598 
-1.10504 3.3255 4.33416 -0.85965 3.42048 4.44455 -0.732712 3.62421 3.9489 
0.4535 3.56747 4.39793 0.774525 3.39444 4.65903 0.628273 3.64884 4.00771 
0.774525 3.39444 4.65903 1.03071 3.30718 4.57366 0.883011 3.55503 3.93086 
1.03071 3.30718 4.57366 1.29885 3.19561 4.37281 1.08936 3.41867 3.97526 
1.29885 3.19561 4.37281 1.55789 3.02503 4.11403 1.32472 3.27039 3.81452 
1.55789 3.02503 4.11403 1.68613 2.89704 3.8242 1.51792 3.08813 3.60776 
1.68613 2.89704 3.8242 1.79711 2.73478 3.64327 1.5818 2.98086 3.28855 
1.79711 2.73478 3.64327 1.878 2.53805 3.39704 1.5818 2.98086 3.28855 
1.83476 2.38831 3.03432 1.80218 2.17405 2.79606 1.48339 2.64369 2.44595 
1.80218 2.17405 2.79606 1.73349 2.05305 2.62338 1.39409 2.56316 2.25686 
0.764091 1.68963 1.7432 0.612192 1.29853 1.74748 0.535952 1.95004 1.60263 
0.612192 1.29853 1.74748 0.322822 1.30497 1.67857 0.313957 1.90915 1.55319 
0.322822 1.30497 1.67857 0.0331969 1.28481 1.65767 0.109423 1.89065 1.53032 
0.0331969 1.28481 1.65767 -0.200012 1.26612 1.67222 -0.0792005 1.90355 1.52582 
-0.200012 1.26612 1.67222 -0.483545 1.26873 1.7157 -0.368475 1.74302 1.59757 
-0.483545 1.26873 1.7157 -0.763252 1.32712 1.79596 -0.63745 1.8319 1.66294 
-0.763252 1.32712 1.79596 -0.956129 1.38965 1.87457 -0.842351 1.90151 1.74638 
-0.956129 1.38965 1.87457 -1.09852 1.46015 1.94956 -0.842351 1.90151 1.74638 
-1.09852 1.46015 1.94956 -1.26191 1.5786 2.05271 -0.997177 2.12951 1.81259 
-1.26191 1.5786 2.05271 -1.41698 1.73639 2.18286 -1.17314 2.31373 1.95327 
-1.41698 1.73639 2.18286 -1.51357 1.98544 2.30448 -1.30509 2.45358 2.1066 
-1.51357 1.98544 2.30448 -1.56808 2.30515 2.45357 -1.30509 2.45358 2.1066 
-1.73665 2.5103 2.91899 -1.72536 2.66863 3.10577 -1.47648 3.00642 2.7761 
-1.3997 3.21841 3.53774 -1.27882 3.30546 3.84328 -1.16703 3.45594 3.56336 
-0.732712 3.62421 3.9489 -0.558909 3.54616 4.38566 -0.461292 3.80121 3.75277 
-0.558909 3.54616 4.38566 -0.244881 3.59748 4.41945 -0.202379 3.79036 3.92921 
-0.244881 3.59748 4.41945 -0.031127 3.60525 4.43705 -0.202379 3.79036 3.92921 
-0.031127 3.60525 4.43705 0.201234 3.60039 4.42675 0.139297 3.78285 3.95885 
0.201234 3.60039 4.42675 0.4535 3.56747 4.39793 0.383155 3.75756 3.92047 
1.08936 3.41867 3.97526 1.32472 3.27039 3.81452 1.05816 3.52367 3.64411 
1.32472 3.27039 3.81452 1.51792 3.08813 3.60776 1.26486 3.39763 3.27795 
1.51792 3.08813 3.60776 1.5818 2.98086 3.28855 1.36383 3.28139 3.09154 
1.63739 2.80689 3.04486 1.83476 2.38831 3.03432 1.57196 2.75398 2.73038 
1.57196 2.75398 2.73038 1.48339 2.64369 2.44595 1.35546 3.05928 2.40956 
1.49937 2.18213 2.32199 1.36972 2.05519 2.15398 1.17429 2.64065 1.9535 
1.36972 2.05519 2.15398 1.1977 1.90777 1.98834 1.03019 2.53543 1.80021 
1.1977 1.90777 1.98834 0.970535 1.79523 1.83643 0.918172 2.30113 1.72933 
0.970535 1.79523 1.83643 0.764091 1.68963 1.7432 0.712596 2.19588 1.62469 
-0.0792005 1.90355 1.52582 -0.368475 1.74302 1.59757 -0.28494 2.29842 1.44529 
-0.368475 1.74302 1.59757 -0.63745 1.8319 1.66294 -0.496466 2.28852 1.50908 
-0.63745 1.8319 1.66294 -0.842351 1.90151 1.74638 -0.678406 2.34942 1.57425 
-1.30509 2.45358 2.1066 -1.56808 2.30515 2.45357 -1.34102 2.6863 2.1989 
-1.56808 2.30515 2.45357 -1.63963 2.48625 2.67428 -1.39021 2.83271 2.34296 
-1.47648 3.00642 2.7761 -1.62775 2.89011 3.22379 -1.365 3.26285 2.86087 
-1.62775 2.89011 3.22379 -1.51814 3.07677 3.38027 -1.365 3.26285 2.86087 
-1.51814 3.07677 3.38027 -1.3997 3.21841 3.53774 -1.20848 3.50475 2.91649 
-1.3997 3.21841 3.53774 -1.16703 3.45594 3.56336 -1.1192 3.59915 3.06328 
-1.16703 3.45594 3.56336 -0.979843 3.51804 3.8598 -0.951462 3.72866 3.22406 
-0.979843 3.51804 3.8598 -0.732712 3.62421 3.9489 -0.735641 3.84119 3.34574 
-0.732712 3.62421 3.9489 -0.461292 3.80121 3.75277 -0.582966 3.83879 3.55268 
-0.202379 3.79036 3.92921 0.139297 3.78285 3.95885 0.0183677 3.97224 3.52792 
0.139297 3.78285 3.95885 0.383155 3.75756 3.92047 0.275413 3.96529 3.48542 
0.383155 3.75756 3.92047 0.628273 3.64884 4.00771 0.506719 3.86008 3.5765 
0.628273 3.64884 4.00771 0.883011 3.55503 3.93086 0.708125 3.85196 3.36562 
0.883011 3.55503 3.93086 1.05816 3.52367 3.64411 0.909408 3.76441 3.21252 
1.36383 3.28139 3.09154 1.5818 2.98086 3.28855 1.37923 3.22533 2.82198 
1.5818 2.98086 3.28855 1.63739 2.80689 3.04486 1.37923 3.22533 2.82198 
1.63739 2.80689 3.04486 1.57196 2.75398 2.73038 1.41396 3.09726 2.67302 
1.35546 3.05928 2.40956 1.48339 2.64369 2.44595 1.18383 3.15288 2.04352 
1.48339 2.64369 2.44595 1.39409 2.56316 2.25686 1.08709 3.04509 1.84459 
1.39409 2.56316 2.25686 1.17429 2.64065 1.9535 1.08709 3.04509 1.84459 
0.918172 2.30113 1.72933 0.712596 2.19588 1.62469 0.770263 2.59543 1.57207 
0.712596 2.19588 1.62469 0.535952 1.95004 1.60263 0.457348 2.45293 1.44363 
0.535952 1.95004 1.60263 0.313957 1.90915 1.55319 0.457348 2.45293 1.44363 
0.313957 1.90915 1.55319 0.109423 1.89065 1.53032 0.128556 2.40122 1.38815 
0.109423 1.89065 1.53032 -0.0792005 1.90355 1.52582 -0.0967045 2.41703 1.38301 
-0.0792005 1.90355 1.52582 -0.28494 2.29842 1.44529 -0.0967045 2.41703 1.38301 
-0.678406 2.34942 1.57425 -0.997177 2.12951 1.81259 -0.758889 2.71634 1.54284 
-0.997177 2.12951 1.81259 -1.17314 2.31373 1.95327 -0.899895 2.76454 1.64723 
-1.17314 2.31373 1.95327 -1.30509 2.45358 2.1066 -1.01502 2.85517 1.756 
-1.30509 2.45358 2.1066 -1.34102 2.6863 2.1989 -1.11457 3.01077 1.8873 
-1.34102 2.6863 2.1989 -1.39021 2.83271 2.34296 -1.17211 3.1617 2.02284 
-1.39021 2.83271 2.34296 -1.49081 2.87142 2.63223 -1.28106 3.20231 2.31162 
-1.49081 2.87142 2.63223 -1.47648 3.00642 2.7761 -1.28106 3.20231 2.31162 
-1.47648 3.00642 2.7761 -1.365 3.26285 2.86087 -1.26567 3.37322 2.53184 
-0.735641 3.84119 3.34574 -0.582966 3.83879 3.55268 -0.488975 4.08175 3.08405 
-0.582966 3.83879 3.55268 -0.461292 3.80121 3.75277 -0.346337 4.09666 3.16489 
1.26486 3.39763 3.27795 1.36383 3.28139 3.09154 1.08298 3.70702 2.69048 
1.36383 3.28139 3.09154 1.37923 3.22533 2.82198 1.14654 3.60941 2.56357 
1.37923 3.22533 2.82198 1.41396 3.09726 2.67302 1.21432 3.44548 2.41355 
1.17429 2.64065 1.9535 1.03019 2.53543 1.80021 0.855409 3.10983 1.54608 
1.03019 2.53543 1.80021 0.770263 2.59543 1.57207 0.713387 3.06832 1.42471 
0.770263 2.59543 1.57207 0.457348 2.45293 1.44363 0.592266 2.85399 1.39549 
0.457348 2.45293 1.44363 0.128556 2.40122 1.38815 0.237537 2.87848 1.25195 
0.128556 2.40122 1.38815 -0.0967045 2.41703 1.38301 -0.102179 2.88693 1.22807 
-0.0967045 2.41703 1.38301 -0.28494 2.29842 1.44529 -0.102179 2.88693 1.22807 
-0.28494 2.29842 1.44529 -0.496466 2.28852 1.50908 -0.31252 2.75411 1.31114 
-0.496466 2.28852 1.50908 -0.678406 2.34942 1.57425 -0.496527 2.95313 1.31659 
-1.17211 3.1617 2.02284 -1.28106 3.20231 2.31162 -1.08083 3.54994 1.97462 
-1.28106 3.20231 2.31162 -1.26567 3.37322 2.53184 -1.0702 3.70973 2.15132 
-1.15488 3.59499 2.544 -1.20848 3.50475 2.91649 -0.980624 3.89936 2.42119 
-1.20848 3.50475 2.91649 -1.1192 3.59915 3.06328 -0.906571 3.97906 2.52942 
-1.1192 3.59915 3.06328 -0.951462 3.72866 3.22406 -0.758 4.1062 2.64171 
-0.951462 3.72866 3.22406 -0.735641 3.84119 3.34574 -0.616572 4.10564 2.8911 
-0.196624 3.97109 3.49899 0.0183677 3.97224 3.52792 0.0836088 4.27827 2.91606 
0.0183677 3.97224 3.52792 0.275413 3.96529 3.48542 0.0836088 4.27827 2.91606 
0.447733 4.08321 3.11781 0.708125 3.85196 3.36562 0.593947 4.12017 2.8912 
0.708125 3.85196 3.36562 0.909408 3.76441 3.21252 0.773687 4.02715 2.79982 
0.909408 3.76441 3.21252 1.10395 3.58197 3.23534 0.901642 3.94238 2.68887 
1.15103 3.41276 2.09176 1.18383 3.15288 2.04352 1.02016 3.56829 1.80522 
1.18383 3.15288 2.04352 1.08709 3.04509 1.84459 0.911604 3.46801 1.56988 
1.08709 3.04509 1.84459 0.855409 3.10983 1.54608 0.911604 3.46801 1.56988 
0.713387 3.06832 1.42471 0.592266 2.85399 1.39549 0.499064 3.35361 1.18424 
-0.102179 2.88693 1.22807 -0.31252 2.75411 1.31114 -0.207582 3.19835 1.12227 
-0.496527 2.95313 1.31659 -0.758889 2.71634 1.54284 -0.613962 3.2961 1.28197 
-0.758889 2.71634 1.54284 -0.899895 2.76454 1.64723 -0.792167 3.3057 1.43745 
-0.899895 2.76454 1.64723 -1.01502 2.85517 1.756 -0.792167 3.3057 1.43745 
-1.01502 2.85517 1.756 -1.11457 3.01077 1.8873 -0.93605 3.43358 1.61572 
-1.11457 3.01077 1.8873 -1.17211 3.1617 2.02284 -0.958244 3.63447 1.68272 
-1.0702 3.70973 2.15132 -1.15488 3.59499 2.544 -0.924445 4.03873 1.94859 
-0.758 4.1062 2.64171 -0.616572 4.10564 2.8911 -0.496297 4.38668 2.47536 
-0.616572 4.10564 2.8911 -0.488975 4.08175 3.08405 -0.496297 4.38668 2.47536 
-0.488975 4.08175 3.08405 -0.346337 4.09666 3.16489 -0.30336 4.41248 2.59279 
0.447733 4.08321 3.11781 0.593947 4.12017 2.8912 0.491717 4.35336 2.53981 
0.593947 4.12017 2.8912 0.773687 4.02715 2.79982 0.621043 4.31974 2.42787 
0.773687 4.02715 2.79982 0.901642 3.94238 2.68887 0.750428 4.23393 2.33326 
0.901642 3.94238 2.68887 1.08298 3.70702 2.69048 0.863738 4.12765 2.19613 
1.08298 3.70702 2.69048 1.14654 3.60941 2.56357 0.863738 4.12765 2.19613 
1.14654 3.60941 2.56357 1.21432 3.44548 2.41355 0.940192 4.00103 1.99289 
1.21432 3.44548 2.41355 1.15103 3.41276 2.09176 1.00239 3.7748 1.88963 
1.02016 3.56829 1.80522 0.911604 3.46801 1.56988 0.805032 3.82916 1.38157 
0.911604 3.46801 1.56988 0.855409 3.10983 1.54608 0.700307 3.75206 1.23899 
0.855409 3.10983 1.54608 0.713387 3.06832 1.42471 0.568017 3.61836 1.14303 
0.499064 3.35361 1.18424 0.387035 2.93016 1.27978 0.291959 3.52794 1.01735 
0.387035 2.93016 1.27978 0.237537 2.87848 1.25195 0.142716 3.5386 0.974226 
0.237537 2.87848 1.25195 0.0758263 2.8603 1.23575 -0.005185 3.50229 0.976466 
0.0758263 2.8603 1.23575 -0.102179 2.88693 1.22807 -0.005185 3.50229 0.976466 
-0.207582 3.19835 1.12227 -0.496527 2.95313 1.31659 -0.238795 3.5698 0.982728 
-0.613962 3.2961 1.28197 -0.792167 3.3057 1.43745 -0.571574 3.71489 1.10848 
-0.792167 3.3057 1.43745 -0.93605 3.43358 1.61572 -0.731708 3.76201 1.27482 
-1.08083 3.54994 1.97462 -1.0702 3.70973 2.15132 -0.92358 3.94358 1.71675 
-0.924445 4.03873 1.94859 -0.980624 3.89936 2.42119 -0.811581 4.24846 2.0893 
-0.980624 3.89936 2.42119 -0.906571 3.97906 2.52942 -0.811581 4.24846 2.0893 
-0.906571 3.97906 2.52942 -0.758 4.1062 2.64171 -0.63794 4.40193 2.23427 
-0.30336 4.41248 2.59279 -0.150415 4.28428 2.88825 -0.122363 4.5642 2.41972 
-0.150415 4.28428 2.88825 0.0836088 4.27827 2.91606 -0.122363 4.5642 2.41972 
0.0836088 4.27827 2.91606 0.347121 4.29619 2.77525 0.272608 4.53077 2.41689 
0.499064 3.35361 1.18424 0.291959 3.52794 1.01735 0.364909 3.8471 0.913959 
-0.958244 3.63447 1.68272 -0.92358 3.94358 1.71675 -0.811325 4.11753 1.41172 
-0.92358 3.94358 1.71675 -0.924445 4.03873 1.94859 -0.818493 4.28301 1.58399 
-0.924445 4.03873 1.94859 -0.811581 4.24846 2.0893 -0.728078 4.48164 1.77878 
-0.811581 4.24846 2.0893 -0.63794 4.40193 2.23427 -0.590969 4.58924 1.9569 
-0.63794 4.40193 2.23427 -0.496297 4.38668 2.47536 -0.42877 4.67215 2.05243 
-0.496297 4.38668 2.47536 -0.30336 4.41248 2.59279 -0.257075 4.72649 2.11272 
-0.30336 4.41248 2.59279 -0.122363 4.5642 2.41972 -0.257075 4.72649 2.11272 
-0.122363 4.5642 2.41972 0.0555328 4.56147 2.43316 -0.083308 4.86584 1.96583 
0.0555328 4.56147 2.43316 0.272608 4.53077 2.41689 0.0771368 4.84936 1.9904 
0.272608 4.53077 2.41689 0.491717 4.35336 2.53981 0.420073 4.6722 2.06147 
0.491717 4.35336 2.53981 0.621043 4.31974 2.42787 0.555316 4.60987 1.9844 
0.621043 4.31974 2.42787 0.750428 4.23393 2.33326 0.555316 4.60987 1.9844 
0.750428 4.23393 2.33326 0.863738 4.12765 2.19613 0.686795 4.51955 1.85052 
0.863738 4.12765 2.19613 0.940192 4.00103 1.99289 0.747127 4.47449 1.63031 
0.940192 4.00103 1.99289 1.00239 3.7748 1.88963 0.826592 4.24139 1.56239 
0.826592 4.24139 1.56239 0.835844 3.99367 1.45394 0.708732 4.57097 1.237 
0.835844 3.99367 1.45394 0.805032 3.82916 1.38157 0.705883 4.35837 1.1464 
0.805032 3.82916 1.38157 0.700307 3.75206 1.23899 0.632253 4.19799 1.02161 
0.700307 3.75206 1.23899 0.568017 3.61836 1.14303 0.4617 4.24017 0.804588 
0.364909 3.8471 0.913959 0.291959 3.52794 1.01735 0.125173 4.02187 0.73551 
0.291959 3.52794 1.01735 0.142716 3.5386 0.974226 0.125173 4.02187 0.73551 
0.142716 3.5386 0.974226 -0.005185 3.50229 0.976466 0.125173 4.02187 0.73551 
-0.005185 3.50229 0.976466 -0.238795 3.5698 0.982728 -0.132792 3.99807 0.752463 
-0.238795 3.5698 0.982728 -0.390259 3.59042 1.03357 -0.336734 4.12295 0.765717 
-0.390259 3.59042 1.03357 -0.571574 3.71489 1.10848 -0.336734 4.12295 0.765717 
-0.571574 3.71489 1.10848 -0.731708 3.76201 1.27482 -0.520861 4.30236 0.84203 
-0.731708 3.76201 1.27482 -0.798141 3.89622 1.36469 -0.637889 4.4117 0.984495 
-0.798141 3.89622 1.36469 -0.811325 4.11753 1.41172 -0.637889 4.4117 0.984495 
-0.811325 4.11753 1.41172 -0.818493 4.28301 1.58399 -0.690286 4.52399 1.12614 
-0.818493 4.28301 1.58399 -0.728078 4.48164 1.77878 -0.620094 4.81716 1.4222 
-0.728078 4.48164 1.77878 -0.590969 4.58924 1.9569 -0.620094 4.81716 1.4222 
-0.590969 4.58924 1.9569 -0.42877 4.67215 2.05243 -0.467865 4.89016 1.65415 
-0.42877 4.67215 2.05243 -0.257075 4.72649 2.11272 -0.282085 4.91121 1.82209 
0.420073 4.6722 2.06147 0.555316 4.60987 1.9844 0.394459 4.94886 1.6573 
0.555316 4.60987 1.9844 0.686795 4.51955 1.85052 0.578532 4.852 1.4752 
0.705883 4.35837 1.1464 0.632253 4.19799 1.02161 0.583651 4.74252 0.799023 
0.364909 3.8471 0.913959 0.125173 4.02187 0.73551 0.277912 4.45726 0.567449 
0.125173 4.02187 0.73551 -0.132792 3.99807 0.752463 -0.0224644 4.42833 0.511652 
-0.132792 3.99807 0.752463 -0.336734 4.12295 0.765717 -0.172699 4.45525 0.523018 
-0.467865 4.89016 1.65415 -0.282085 4.91121 1.82209 -0.364201 5.1896 1.35298 
-0.282085 4.91121 1.82209 -0.083308 4.86584 1.96583 -0.114835 5.23682 1.46256 
-0.083308 4.86584 1.96583 0.0771368 4.84936 1.9904 0.0230119 5.14338 1.59865 
0.0771368 4.84936 1.9904 0.265326 4.81184 1.97793 0.192405 5.14916 1.54897 
0.578532 4.852 1.4752 0.747127 4.47449 1.63031 0.599627 4.96355 1.1317 
0.708732 4.57097 1.237 0.705883 4.35837 1.1464 0.600646 4.94781 0.859643 
-0.336734 4.12295 0.765717 -0.520861 4.30236 0.84203 -0.351057 4.65776 0.500954 
-0.520861 4.30236 0.84203 -0.637889 4.4117 0.984495 -0.490402 4.74692 0.614503 
-0.637889 4.4117 0.984495 -0.690286 4.52399 1.12614 -0.582466 4.87501 0.763052 
-0.690286 4.52399 1.12614 -0.693165 4.64435 1.26693 -0.595126 5.00658 0.905647 
-0.693165 4.64435 1.26693 -0.620094 4.81716 1.4222 -0.558115 5.1186 1.03108 
-0.620094 4.81716 1.4222 -0.467865 4.89016 1.65415 -0.469538 5.22081 1.14308 
-0.114835 5.23682 1.46256 0.0230119 5.14338 1.59865 0.0190862 5.49092 1.17139 
0.0230119 5.14338 1.59865 0.192405 5.14916 1.54897 0.175023 5.48328 1.14241 
0.192405 5.14916 1.54897 0.394459 4.94886 1.6573 0.175023 5.48328 1.14241 
0.394459 4.94886 1.6573 0.493094 4.91783 1.55941 0.341043 5.38217 1.12323 
0.493094 4.91783 1.55941 0.578532 4.852 1.4752 0.433964 5.34114 1.03593 
0.578532 4.852 1.4752 0.599627 4.96355 1.1317 0.509545 5.28705 0.91867 
0.600646 4.94781 0.859643 0.583651 4.74252 0.799023 0.534463 5.15021 0.57371 
0.583651 4.74252 0.799023 0.502934 4.63959 0.680458 0.475046 5.1404 0.410795 
0.502934 4.63959 0.680458 0.30154 4.82705 0.372604 0.399908 4.98689 0.369945 
0.277912 4.45726 0.567449 0.125063 4.41063 0.535254 0.137208 4.89048 0.249207 
0.125063 4.41063 0.535254 -0.0224644 4.42833 0.511652 -0.012359 4.88271 0.234639 
-0.0224644 4.42833 0.511652 -0.172699 4.45525 0.523018 -0.173773 4.9016 0.25304 
-0.172699 4.45525 0.523018 -0.351057 4.65776 0.500954 -0.173773 4.9016 0.25304 
-0.351057 4.65776 0.500954 -0.490402 4.74692 0.614503 -0.350515 4.96781 0.326526 
-0.490402 4.74692 0.614503 -0.582466 4.87501 0.763052 -0.455745 5.16542 0.362658 
-0.582466 4.87501 0.763052 -0.595126 5.00658 0.905647 -0.540249 5.30122 0.641496 
-0.595126 5.00658 0.905647 -0.558115 5.1186 1.03108 -0.540249 5.30122 0.641496 
-0.558115 5.1186 1.03108 -0.469538 5.22081 1.14308 -0.472552 5.48446 0.747521 
-0.469538 5.22081 1.14308 -0.364201 5.1896 1.35298 -0.383017 5.58308 0.81949 
-0.364201 5.1896 1.35298 -0.244959 5.22768 1.41049 -0.272712 5.60704 0.927888 
-0.244959 5.22768 1.41049 -0.114835 5.23682 1.46256 -0.139864 5.56469 1.06539 
0.599627 4.96355 1.1317 0.600646 4.94781 0.859643 0.544091 5.26951 0.68856 
0.544091 5.26951 0.68856 0.534463 5.15021 0.57371 0.47708 5.55311 0.250124 
0.399908 4.98689 0.369945 0.30154 4.82705 0.372604 0.24378 5.34675 -0.00210313 
0.30154 4.82705 0.372604 0.137208 4.89048 0.249207 0.102498 5.32567 -0.0529712 
0.137208 4.89048 0.249207 -0.012359 4.88271 0.234639 0.102498 5.32567 -0.0529712 
-0.012359 4.88271 0.234639 -0.173773 4.9016 0.25304 -0.0860385 5.27247 -0.0214524 
-0.173773 4.9016 0.25304 -0.350515 4.96781 0.326526 -0.243622 5.30119 0.0320449 
-0.350515 4.96781 0.326526 -0.455745 5.16542 0.362658 -0.38033 5.49578 0.0354916 
-0.503965 5.2308 0.455004 -0.540249 5.30122 0.641496 -0.485013 5.60804 0.2893 
-0.139864 5.56469 1.06539 0.0190862 5.49092 1.17139 0.0250206 5.89784 0.734759 
0.0190862 5.49092 1.17139 0.175023 5.48328 1.14241 0.0250206 5.89784 0.734759 
0.175023 5.48328 1.14241 0.341043 5.38217 1.12323 0.217973 5.87405 0.681166 
0.341043 5.38217 1.12323 0.433964 5.34114 1.03593 0.31933 5.84581 0.614583 
0.433964 5.34114 1.03593 0.509545 5.28705 0.91867 0.415963 5.78165 0.518413 
0.509545 5.28705 0.91867 0.544091 5.26951 0.68856 0.487509 5.63907 0.407647 
0.47708 5.55311 0.250124 0.475046 5.1404 0.410795 0.422185 5.61155 0.0395777 
-0.455745 5.16542 0.362658 -0.503965 5.2308 0.455004 -0.453901 5.65902 0.107178 
-0.472552 5.48446 0.747521 -0.383017 5.58308 0.81949 -0.417497 5.89565 0.388274 
-0.383017 5.58308 0.81949 -0.272712 5.60704 0.927888 -0.301733 6.05651 0.419255 
0.487509 5.63907 0.407647 0.47708 5.55311 0.250124 0.458681 6.02799 0.0195171 
0.47708 5.55311 0.250124 0.422185 5.61155 0.0395777 0.443771 5.93546 -0.0944918 
0.422185 5.61155 0.0395777 0.353442 5.39775 0.0713704 0.391337 5.86166 -0.200664 
0.353442 5.39775 0.0713704 0.24378 5.34675 -0.00210313 0.299871 5.77711 -0.269259 
0.24378 5.34675 -0.00210313 0.102498 5.32567 -0.0529712 0.0782662 5.7376 -0.374054 
0.102498 5.32567 -0.0529712 -0.0860385 5.27247 -0.0214524 0.0782662 5.7376 -0.374054 
-0.0860385 5.27247 -0.0214524 -0.243622 5.30119 0.0320449 -0.225185 5.74956 -0.313982 
-0.243622 5.30119 0.0320449 -0.38033 5.49578 0.0354916 -0.332979 5.82007 -0.264321 
-0.38033 5.49578 0.0354916 -0.453901 5.65902 0.107178 -0.432701 5.93226 -0.152577 
-0.453901 5.65902 0.107178 -0.485013 5.60804 0.2893 -0.432701 5.93226 -0.152577 
-0.485013 5.60804 0.2893 -0.476987 5.68187 0.388498 -0.457593 6.01277 -0.00152072 
-0.476987 5.68187 0.388498 -0.417497 5.89565 0.388274 -0.437801 6.09388 0.0885025 
-0.417497 5.89565 0.388274 -0.301733 6.05651 0.419255 -0.374568 6.19439 0.17745 
-0.301733 6.05651 0.419255 -0.165442 5.93133 0.655214 -0.156045 6.29635 0.310883 
-0.165442 5.93133 0.655214 0.0250206 5.89784 0.734759 -0.156045 6.29635 0.310883 
0.0250206 5.89784 0.734759 0.217973 5.87405 0.681166 0.0964883 6.28738 0.340551 
0.217973 5.87405 0.681166 0.31933 5.84581 0.614583 0.207917 6.27257 0.297449 
0.31933 5.84581 0.614583 0.415963 5.78165 0.518413 0.309442 6.22011 0.253207 
0.415963 5.78165 0.518413 0.487509 5.63907 0.407647 0.408232 6.15136 0.145475 
0.458681 6.02799 0.0195171 0.443771 5.93546 -0.0944918 0.44692 6.23039 -0.271202 
0.441773 6.20022 -0.288208 0.44692 6.23039 -0.271202 0.443771 5.93546 -0.0944918 
0.387438 6.11789 -0.405911 0.403173 6.14672 -0.392549 0.391337 5.86166 -0.200664 
0.299871 5.77711 -0.269259 0.203563 5.73495 -0.315824 0.221852 6.01885 -0.535699 
0.0719892 5.96595 -0.559232 0.104252 5.99157 -0.572684 0.0782662 5.7376 -0.374054 
-0.0811423 5.97876 -0.56806 -0.0486067 5.98385 -0.578731 -0.0859126 5.70021 -0.342087 
-0.0859126 5.70021 -0.342087 -0.225185 5.74956 -0.313982 -0.206917 6.09764 -0.613364 
-0.225185 5.74956 -0.313982 -0.332979 5.82007 -0.264321 -0.269796 6.01838 -0.493563 
-0.295412 6.04036 -0.48506 -0.269796 6.01838 -0.493563 -0.332979 5.82007 -0.264321 
-0.392055 6.12308 -0.399828 -0.374915 6.11604 -0.43072 -0.332979 5.82007 -0.264321 
-0.432701 5.93226 -0.152577 -0.457593 6.01277 -0.00152072 -0.448091 6.23797 -0.263857 
-0.420749 6.36314 -0.10404 -0.431333 6.35872 -0.141224 -0.437801 6.09388 0.0885025 
-0.437801 6.09388 0.0885025 -0.374568 6.19439 0.17745 -0.407292 6.39916 -0.0928778 
-0.342795 6.45564 -0.00970863 -0.363218 6.45023 -0.0389562 -0.374568 6.19439 0.17745 
-0.301733 6.05651 0.419255 -0.156045 6.29635 0.310883 -0.213624 6.50609 0.0851398 
0.00461801 6.5589 0.11045 -0.0282704 6.56725 0.102251 -0.0281912 6.29895 0.339868 
-0.0281912 6.29895 0.339868 0.0964883 6.28738 0.340551 0.0391996 6.57524 0.0943863 
0.0964883 6.28738 0.340551 0.207917 6.27257 0.297449 0.186867 6.54431 0.0696356 
0.207917 6.27257 0.297449 0.309442 6.22011 0.253207 0.272103 6.5369 0.00920221 
0.30432 6.48344 0.0190089 0.272103 6.5369 0.00920221 0.309442 6.22011 0.253207 
0.348775 6.45263 -0.0165282 0.327087 6.47406 -0.00228493 0.309442 6.22011 0.253207 
0.309442 6.22011 0.253207 0.408232 6.15136 0.145475 0.369665 6.46521 -0.0635966 
0.423936 6.36193 -0.11449 0.411846 6.39905 -0.106009 0.408232 6.15136 0.145475 
0.408232 6.15136 0.145475 0.458681 6.02799 0.0195171 0.434324 6.34785 -0.145556 
0.45 11.3145 -4.54306 0.444512 6.30976 -0.172731 0.448935 6.30072 -0.217781 
0.444512 6.30976 -0.172731 0.45 11.3145 -4.54306 0.443163 11.3653 -4.48364 
0.448935 6.30072 -0.217781 0.450188 6.28244 -0.262521 0.45 11.3145 -4.54306 
0.443163 11.3653 -4.48364 0.423936 6.36193 -0.11449 0.434324 6.34785 -0.145556 
0.434324 6.34785 -0.145556 0.444512 6.30976 -0.172731 0.443163 11.3653 -4.48364 
0.423936 6.36193 -0.11449 0.443163 11.3653 -4.48364 0.422862 11.4145 -4.42603 
0.422862 11.4145 -4.42603 0.394232 6.40522 -0.0636029 0.411846 6.39905 -0.106009 
0.394232 6.40522 -0.0636029 0.422862 11.4145 -4.42603 0.389711 11.4606 -4.37197 
0.411846 6.39905 -0.106009 0.423936 6.36193 -0.11449 0.422862 11.4145 -4.42603 
0.389711 11.4606 -4.37197 0.348775 6.45263 -0.0165282 0.369665 6.46521 -0.0635966 
0.369665 6.46521 -0.0635966 0.394232 6.40522 -0.0636029 0.389711 11.4606 -4.37197 
0.348775 6.45263 -0.0165282 0.389711 11.4606 -4.37197 0.34472 11.5024 -4.32311 
0.34472 11.5024 -4.32311 0.30432 6.48344 0.0190089 0.327087 6.47406 -0.00228493 
0.30432 6.48344 0.0190089 0.34472 11.5024 -4.32311 0.289254 11.5384 -4.28093 
0.289254 11.5384 -4.28093 0.228648 6.50791 0.0725633 0.272103 6.5369 0.00920221 
0.228648 6.50791 0.0725633 0.289254 11.5384 -4.28093 0.225 11.5676 -4.24672 
0.225 11.5676 -4.24672 0.155624 6.5419 0.0884043 0.186867 6.54431 0.0696356 
0.186867 6.54431 0.0696356 0.228648 6.50791 0.0725633 0.225 11.5676 -4.24672 
0.153909 11.5891 -4.22151 0.124493 6.55643 0.0895936 0.155624 6.5419 0.0884043 
0.155624 6.5419 0.0884043 0.225 11.5676 -4.24672 0.153909 11.5891 -4.22151 
0.153909 11.5891 -4.22151 0.0850226 6.53686 0.119162 0.124493 6.55643 0.0895936 
0.0850226 6.53686 0.119162 0.153909 11.5891 -4.22151 0.0781417 11.6023 -4.20608 
0.0781417 11.6023 -4.20608 0.00461801 6.5589 0.11045 0.0391996 6.57524 0.0943863 
0.0391996 6.57524 0.0943863 0.0850226 6.53686 0.119162 0.0781417 11.6023 -4.20608 
0.00461801 6.5589 0.11045 0.0781417 11.6023 -4.20608 -9.76996e-10 11.6068 -4.20088 
-9.76996e-10 11.6068 -4.20088 -0.0683429 6.55 0.111695 -0.0282704 6.56725 0.102251 
-0.0683429 6.55 0.111695 -9.76996e-10 11.6068 -4.20088 -0.0781417 11.6023 -4.20608 
-0.0781417 11.6023 -4.20608 -0.150125 6.52758 0.103705 -0.113422 6.55819 0.0920932 
-0.113422 6.55819 0.0920932 -0.0683429 6.55 0.111695 -0.0781417 11.6023 -4.20608 
-0.150125 6.52758 0.103705 -0.0781417 11.6023 -4.20608 -0.153909 11.5891 -4.22151 
-0.153909 11.5891 -4.22151 -0.213624 6.50609 0.0851398 -0.18603 6.53379 0.0789097 
-0.213624 6.50609 0.0851398 -0.153909 11.5891 -4.22151 -0.225 11.5676 -4.24672 
-0.18603 6.53379 0.0789097 -0.150125 6.52758 0.103705 -0.153909 11.5891 -4.22151 
-0.225 11.5676 -4.24672 -0.28538 6.48238 0.0422916 -0.252882 6.51662 0.0444384 
-0.28538 6.48238 0.0422916 -0.225 11.5676 -4.24672 -0.289254 11.5384 -4.28093 
-0.252882 6.51662 0.0444384 -0.213624 6.50609 0.0851398 -0.225 11.5676 -4.24672 
-0.289254 11.5384 -4.28093 -0.342795 6.45564 -0.00970863 -0.319585 6.48303 0.000308321 
-0.319585 6.48303 0.000308321 -0.28538 6.48238 0.0422916 -0.289254 11.5384 -4.28093 
-0.342795 6.45564 -0.00970863 -0.289254 11.5384 -4.28093 -0.34472 11.5024 -4.32311 
-0.34472 11.5024 -4.32311 -0.385806 6.41737 -0.0547868 -0.363218 6.45023 -0.0389562 
-0.385806 6.41737 -0.0547868 -0.34472 11.5024 -4.32311 -0.389711 11.4606 -4.37197 
-0.363218 6.45023 -0.0389562 -0.342795 6.45564 -0.00970863 -0.34472 11.5024 -4.32311 
-0.389711 11.4606 -4.37197 -0.420749 6.36314 -0.10404 -0.407292 6.39916 -0.0928778 
-0.407292 6.39916 -0.0928778 -0.385806 6.41737 -0.0547868 -0.389711 11.4606 -4.37197 
-0.420749 6.36314 -0.10404 -0.389711 11.4606 -4.37197 -0.422862 11.4145 -4.42603 
-0.422862 11.4145 -4.42603 -0.4414 6.32527 -0.16402 -0.431333 6.35872 -0.141224 
-0.4414 6.32527 -0.16402 -0.422862 11.4145 -4.42603 -0.443163 11.3653 -4.48364 
-0.443163 11.3653 -4.48364 -0.450435 6.25893 -0.220041 -0.447975 6.30495 -0.206559 
-0.447975 6.30495 -0.206559 -0.4414 6.32527 -0.16402 -0.443163 11.3653 -4.48364 
-0.450435 6.25893 -0.220041 -0.443163 11.3653 -4.48364 -0.45 11.3145 -4.54306 
-0.45 11.3145 -4.54306 -0.443477 6.2181 -0.290716 -0.448091 6.23797 -0.263857 
-0.448091 6.23797 -0.263857 -0.450435 6.25893 -0.220041 -0.45 11.3145 -4.54306 
-0.443163 11.2638 -4.60248 -0.436864 6.20459 -0.321432 -0.443477 6.2181 -0.290716 
-0.443477 6.2181 -0.290716 -0.45 11.3145 -4.54306 -0.443163 11.2638 -4.60248 
-0.443163 11.2638 -4.60248 -0.425595 6.15854 -0.333484 -0.436864 6.20459 -0.321432 
-0.425595 6.15854 -0.333484 -0.443163 11.2638 -4.60248 -0.422862 11.2146 -4.66009 
-0.422862 11.2146 -4.66009 -0.392055 6.12308 -0.399828 -0.407939 6.15135 -0.383584 
-0.407939 6.15135 -0.383584 -0.425595 6.15854 -0.333484 -0.422862 11.2146 -4.66009 
-0.392055 6.12308 -0.399828 -0.422862 11.2146 -4.66009 -0.389711 11.1684 -4.71415 
-0.389711 11.1684 -4.71415 -0.351738 6.09638 -0.456275 -0.374915 6.11604 -0.43072 
-0.351738 6.09638 -0.456275 -0.389711 11.1684 -4.71415 -0.34472 11.1267 -4.76301 
-0.34472 11.1267 -4.76301 -0.295412 6.04036 -0.48506 -0.320872 6.07461 -0.482955 
-0.320872 6.07461 -0.482955 -0.351738 6.09638 -0.456275 -0.34472 11.1267 -4.76301 
-0.295412 6.04036 -0.48506 -0.34472 11.1267 -4.76301 -0.289254 11.0906 -4.80519 
-0.289254 11.0906 -4.80519 -0.243707 6.022 -0.520322 -0.269796 6.01838 -0.493563 
-0.225 11.0614 -4.8394 -0.206917 6.09764 -0.613364 -0.243707 6.022 -0.520322 
-0.243707 6.022 -0.520322 -0.289254 11.0906 -4.80519 -0.225 11.0614 -4.8394 
-0.225 11.0614 -4.8394 -0.159167 5.98923 -0.549015 -0.206917 6.09764 -0.613364 
-0.159167 5.98923 -0.549015 -0.225 11.0614 -4.8394 -0.153909 11.0399 -4.86461 
-0.153909 11.0399 -4.86461 -0.0811423 5.97876 -0.56806 -0.114739 5.99313 -0.570607 
-0.114739 5.99313 -0.570607 -0.159167 5.98923 -0.549015 -0.153909 11.0399 -4.86461 
-0.0811423 5.97876 -0.56806 -0.153909 11.0399 -4.86461 -0.0781417 11.0267 -4.88005 
-0.0781417 11.0267 -4.88005 -0.00844419 5.96771 -0.56872 -0.0486067 5.98385 -0.578731 
-0.00844419 5.96771 -0.56872 -0.0781417 11.0267 -4.88005 -9.76996e-10 11.0223 -4.88524 
-0.0486067 5.98385 -0.578731 -0.0811423 5.97876 -0.56806 -0.0781417 11.0267 -4.88005 
-9.76996e-10 11.0223 -4.88524 0.0719892 5.96595 -0.559232 0.0376113 5.99319 -0.588136 
0.0376113 5.99319 -0.588136 -0.00844419 5.96771 -0.56872 -9.76996e-10 11.0223 -4.88524 
0.0719892 5.96595 -0.559232 -9.76996e-10 11.0223 -4.88524 0.0781417 11.0267 -4.88005 
0.0781417 11.0267 -4.88005 0.143095 5.98419 -0.552174 0.104252 5.99157 -0.572684 
0.143095 5.98419 -0.552174 0.0781417 11.0267 -4.88005 0.153909 11.0399 -4.86461 
0.153909 11.0399 -4.86461 0.221852 6.01885 -0.535699 0.185843 6.00934 -0.551185 
0.185843 6.00934 -0.551185 0.143095 5.98419 -0.552174 0.153909 11.0399 -4.86461 
0.221852 6.01885 -0.535699 0.153909 11.0399 -4.86461 0.225 11.0614 -4.8394 
0.225 11.0614 -4.8394 0.287853 6.04304 -0.495682 0.261238 6.03897 -0.519423 
0.261238 6.03897 -0.519423 0.221852 6.01885 -0.535699 0.225 11.0614 -4.8394 
0.289254 11.0906 -4.80519 0.312379 6.06384 -0.484778 0.287853 6.04304 -0.495682 
0.287853 6.04304 -0.495682 0.225 11.0614 -4.8394 0.289254 11.0906 -4.80519 
0.289254 11.0906 -4.80519 0.340562 6.05216 -0.436306 0.312379 6.06384 -0.484778 
0.340562 6.05216 -0.436306 0.289254 11.0906 -4.80519 0.34472 11.1267 -4.76301 
0.34472 11.1267 -4.76301 0.387438 6.11789 -0.405911 0.36878 6.10785 -0.435621 
0.36878 6.10785 -0.435621 0.340562 6.05216 -0.436306 0.34472 11.1267 -4.76301 
0.387438 6.11789 -0.405911 0.34472 11.1267 -4.76301 0.389711 11.1684 -4.71415 
0.389711 11.1684 -4.71415 0.419453 6.15223 -0.349768 0.403173 6.14672 -0.392549 
0.419453 6.15223 -0.349768 0.389711 11.1684 -4.71415 0.422862 11.2146 -4.66009 
0.422862 11.2146 -4.66009 0.441773 6.20022 -0.288208 0.433861 6.19835 -0.331248 
0.433861 6.19835 -0.331248 0.419453 6.15223 -0.349768 0.422862 11.2146 -4.66009 
0.441773 6.20022 -0.288208 0.422862 11.2146 -4.66009 0.443163 11.2638 -4.60248 
0.443163 11.2638 -4.60248 0.450188 6.28244 -0.262521 0.44692 6.23039 -0.271202 
0.450188 6.28244 -0.262521 0.443163 11.2638 -4.60248 0.45 11.3145 -4.54306 
0.44692 6.23039 -0.271202 0.441773 6.20022 -0.288208 0.443163 11.2638 -4.60248 
0.403173 6.14672 -0.392549 0.387438 6.11789 -0.405911 0.389711 11.1684 -4.71415 
0.104252 5.99157 -0.572684 0.0719892 5.96595 -0.559232 0.0781417 11.0267 -4.88005 
-0.269796 6.01838 -0.493563 -0.295412 6.04036 -0.48506 -0.289254 11.0906 -4.80519 
-0.374915 6.11604 -0.43072 -0.392055 6.12308 -0.399828 -0.389711 11.1684 -4.71415 
-0.431333 6.35872 -0.141224 -0.420749 6.36314 -0.10404 -0.422862 11.4145 -4.42603 
-0.0282704 6.56725 0.102251 0.00461801 6.5589 0.11045 -9.76996e-10 11.6068 -4.20088 
0.272103 6.5369 0.00920221 0.30432 6.48344 0.0190089 0.289254 11.5384 -4.28093 
0.327087 6.47406 -0.00228493 0.348775 6.45263 -0.0165282 0.34472 11.5024 -4.32311 
-0.225 11.5676 -4.24672 0.443163 11.2638 -4.60248 0.422862 11.2146 -4.66009 
0.422862 11.2146 -4.66009 0.389711 11.1684 -4.71415 -0.225 11.5676 -4.24672 
0.389711 11.1684 -4.71415 0.34472 11.1267 -4.76301 -0.225 11.5676 -4.24672 
0.34472 11.1267 -4.76301 0.289254 11.0906 -4.80519 -0.225 11.5676 -4.24672 
0.289254 11.0906 -4.80519 0.225 11.0614 -4.8394 -0.225 11.5676 -4.24672 
0.225 11.0614 -4.8394 0.153909 11.0399 -4.86461 -0.225 11.5676 -4.24672 
0.153909 11.0399 -4.86461 0.0781417 11.0267 -4.88005 -0.225 11.5676 -4.24672 
0.0781417 11.0267 -4.88005 -9.76996e-10 11.0223 -4.88524 -0.225 11.5676 -4.24672 
-9.76996e-10 11.0223 -4.88524 -0.0781417 11.0267 -4.88005 -0.225 11.5676 -4.24672 
-0.0781417 11.0267 -4.88005 -0.153909 11.0399 -4.86461 -0.225 11.5676 -4.24672 
-0.153909 11.0399 -4.86461 -0.225 11.0614 -4.8394 -0.225 11.5676 -4.24672 
-0.225 11.0614 -4.8394 -0.289254 11.0906 -4.80519 -0.225 11.5676 -4.24672 
-0.289254 11.0906 -4.80519 -0.34472 11.1267 -4.76301 -0.225 11.5676 -4.24672 
-0.34472 11.1267 -4.76301 -0.389711 11.1684 -4.71415 -0.225 11.5676 -4.24672 
-0.389711 11.1684 -4.71415 -0.422862 11.2146 -4.66009 -0.225 11.5676 -4.24672 
-0.422862 11.2146 -4.66009 -0.443163 11.2638 -4.60248 -0.225 11.5676 -4.24672 
-0.443163 11.2638 -4.60248 -0.45 11.3145 -4.54306 -0.225 11.5676 -4.24672 
-0.45 11.3145 -4.54306 -0.443163 11.3653 -4.48364 -0.225 11.5676 -4.24672 
-0.443163 11.3653 -4.48364 -0.422862 11.4145 -4.42603 -0.225 11.5676 -4.24672 
-0.422862 11.4145 -4.42603 -0.389711 11.4606 -4.37197 -0.225 11.5676 -4.24672 
-0.389711 11.4606 -4.37197 -0.34472 11.5024 -4.32311 -0.225 11.5676 -4.24672 
-0.34472 11.5024 -4.32311 -0.289254 11.5384 -4.28093 -0.225 11.5676 -4.24672 
-0.153909 11.5891 -4.22151 -0.0781417 11.6023 -4.20608 -0.225 11.5676 -4.24672 
-0.0781417 11.6023 -4.20608 -9.76996e-10 11.6068 -4.20088 -0.225 11.5676 -4.24672 
-9.76996e-10 11.6068 -4.20088 0.0781417 11.6023 -4.20608 -0.225 11.5676 -4.24672 
0.0781417 11.6023 -4.20608 0.153909 11.5891 -4.22151 -0.225 11.5676 -4.24672 
0.153909 11.5891 -4.22151 0.225 11.5676 -4.24672 -0.225 11.5676 -4.24672 
0.225 11.5676 -4.24672 0.289254 11.5384 -4.28093 -0.225 11.5676 -4.24672 
0.289254 11.5384 -4.28093 0.34472 11.5024 -4.32311 -0.225 11.5676 -4.24672 
0.34472 11.5024 -4.32311 0.389711 11.4606 -4.37197 -0.225 11.5676 -4.24672 
0.389711 11.4606 -4.37197 0.422862 11.4145 -4.42603 -0.225 11.5676 -4.24672 
0.422862 11.4145 -4.42603 0.443163 11.3653 -4.48364 -0.225 11.5676 -4.24672 
0.443163 11.3653 -4.48364 0.45 11.3145 -4.54306 -0.225 11.5676 -4.24672 
0.45 11.3145 -4.54306 0.443163 11.2638 -4.60248 -0.225 11.5676 -4.24672 
-0.301 10.5541 -3.89361 0.296427 10.588 -3.85387 0.282847 10.621 -3.81533 
0.282847 10.621 -3.81533 0.260674 10.6518 -3.77917 -0.301 10.5541 -3.89361 
0.260674 10.6518 -3.77917 0.230579 10.6798 -3.74649 -0.301 10.5541 -3.89361 
0.230579 10.6798 -3.74649 0.193479 10.7038 -3.71828 -0.301 10.5541 -3.89361 
0.193479 10.7038 -3.71828 0.1505 10.7234 -3.6954 -0.301 10.5541 -3.89361 
0.1505 10.7234 -3.6954 0.102948 10.7378 -3.67853 -0.301 10.5541 -3.89361 
0.102948 10.7378 -3.67853 0.0522681 10.7466 -3.66821 -0.301 10.5541 -3.89361 
0.0522681 10.7466 -3.66821 -9.76996e-10 10.7496 -3.66473 -0.301 10.5541 -3.89361 
-9.76996e-10 10.7496 -3.66473 -0.0522681 10.7466 -3.66821 -0.301 10.5541 -3.89361 
-0.0522681 10.7466 -3.66821 -0.102948 10.7378 -3.67853 -0.301 10.5541 -3.89361 
-0.102948 10.7378 -3.67853 -0.1505 10.7234 -3.6954 -0.301 10.5541 -3.89361 
-0.1505 10.7234 -3.6954 -0.193479 10.7038 -3.71828 -0.301 10.5541 -3.89361 
-0.193479 10.7038 -3.71828 -0.230579 10.6798 -3.74649 -0.301 10.5541 -3.89361 
-0.230579 10.6798 -3.74649 -0.260674 10.6518 -3.77917 -0.301 10.5541 -3.89361 
-0.260674 10.6518 -3.77917 -0.282847 10.621 -3.81533 -0.301 10.5541 -3.89361 
-0.282847 10.621 -3.81533 -0.296427 10.588 -3.85387 -0.301 10.5541 -3.89361 
-0.296427 10.5202 -3.93336 -0.282847 10.4872 -3.9719 -0.301 10.5541 -3.89361 
-0.282847 10.4872 -3.9719 -0.260674 10.4564 -4.00805 -0.301 10.5541 -3.89361 
-0.260674 10.4564 -4.00805 -0.230579 10.4284 -4.04074 -0.301 10.5541 -3.89361 
-0.230579 10.4284 -4.04074 -0.193479 10.4044 -4.06895 -0.301 10.5541 -3.89361 
-0.193479 10.4044 -4.06895 -0.1505 10.3848 -4.09183 -0.301 10.5541 -3.89361 
-0.1505 10.3848 -4.09183 -0.102948 10.3704 -4.10869 -0.301 10.5541 -3.89361 
-0.102948 10.3704 -4.10869 -0.0522681 10.3616 -4.11902 -0.301 10.5541 -3.89361 
-0.0522681 10.3616 -4.11902 -9.76996e-10 10.3586 -4.1225 -0.301 10.5541 -3.89361 
-9.76996e-10 10.3586 -4.1225 0.0522681 10.3616 -4.11902 -0.301 10.5541 -3.89361 
0.0522681 10.3616 -4.11902 0.102948 10.3704 -4.10869 -0.301 10.5541 -3.89361 
0.102948 10.3704 -4.10869 0.1505 10.3848 -4.09183 -0.301 10.5541 -3.89361 
0.1505 10.3848 -4.09183 0.193479 10.4044 -4.06895 -0.301 10.5541 -3.89361 
0.193479 10.4044 -4.06895 0.230579 10.4284 -4.04074 -0.301 10.5541 -3.89361 
0.230579 10.4284 -4.04074 0.260674 10.4564 -4.00805 -0.301 10.5541 -3.89361 
0.260674 10.4564 -4.00805 0.282847 10.4872 -3.9719 -0.301 10.5541 -3.89361 
0.282847 10.4872 -3.9719 0.296427 10.5202 -3.93336 -0.301 10.5541 -3.89361 
0.296427 10.5202 -3.93336 0.301 10.5541 -3.89361 -0.301 10.5541 -3.89361 
0.301 10.5541 -3.89361 0.296427 10.588 -3.85387 -0.301 10.5541 -3.89361 
-0.296427 10.5202 -3.93336 -0.300117 2.86756 2.64101 -0.295717 2.87143 2.59112 
-0.301 10.5541 -3.89361 -0.301002 2.91602 2.64534 -0.300117 2.86756 2.64101 
-0.300117 2.86756 2.64101 -0.296427 10.5202 -3.93336 -0.301 10.5541 -3.89361 
-0.282847 10.4872 -3.9719 -0.295717 2.87143 2.59112 -0.286972 2.82354 2.58947 
-0.295717 2.87143 2.59112 -0.282847 10.4872 -3.9719 -0.296427 10.5202 -3.93336 
-0.286972 2.82354 2.58947 -0.280176 2.80865 2.5765 -0.282847 10.4872 -3.9719 
-0.260674 10.4564 -4.00805 -0.280176 2.80865 2.5765 -0.269746 2.79578 2.55697 
-0.280176 2.80865 2.5765 -0.260674 10.4564 -4.00805 -0.282847 10.4872 -3.9719 
-0.269746 2.79578 2.55697 -0.259365 2.78095 2.5442 -0.260674 10.4564 -4.00805 
-0.230579 10.4284 -4.04074 -0.246197 2.77006 2.52685 -0.231483 2.75749 2.51221 
-0.230579 10.4284 -4.04074 -0.259365 2.78095 2.5442 -0.246197 2.77006 2.52685 
-0.259365 2.78095 2.5442 -0.230579 10.4284 -4.04074 -0.260674 10.4564 -4.00805 
-0.193479 10.4044 -4.06895 -0.216877 2.74697 2.49982 -0.190527 2.755 2.46019 
-0.230579 10.4284 -4.04074 -0.231483 2.75749 2.51221 -0.216877 2.74697 2.49982 
-0.216877 2.74697 2.49982 -0.193479 10.4044 -4.06895 -0.230579 10.4284 -4.04074 
-0.1505 10.3848 -4.09183 -0.190527 2.755 2.46019 -0.163614 2.71844 2.46642 
-0.190527 2.755 2.46019 -0.1505 10.3848 -4.09183 -0.193479 10.4044 -4.06895 
-0.163614 2.71844 2.46642 -0.145683 2.71009 2.45922 -0.1505 10.3848 -4.09183 
-0.102948 10.3704 -4.10869 -0.145683 2.71009 2.45922 -0.12313 2.70415 2.44968 
-0.145683 2.71009 2.45922 -0.102948 10.3704 -4.10869 -0.1505 10.3848 -4.09183 
-0.12313 2.70415 2.44968 -0.102095 2.69747 2.44417 -0.102948 10.3704 -4.10869 
-0.0522681 10.3616 -4.11902 -0.0797594 2.69403 2.43783 -0.0449797 2.69814 2.42406 
-0.0522681 10.3616 -4.11902 -0.102095 2.69747 2.44417 -0.0797594 2.69403 2.43783 
-0.102095 2.69747 2.44417 -0.0522681 10.3616 -4.11902 -0.102948 10.3704 -4.10869 
-9.76996e-10 10.3586 -4.1225 -0.0449797 2.69814 2.42406 -0.00845798 2.68941 2.42765 
-0.0449797 2.69814 2.42406 -9.76996e-10 10.3586 -4.1225 -0.0522681 10.3616 -4.11902 
0.0522681 10.3616 -4.11902 0.0115291 2.68718 2.42982 0.0345197 2.68833 2.43116 
-9.76996e-10 10.3586 -4.1225 -0.00845798 2.68941 2.42765 0.0115291 2.68718 2.42982 
0.0115291 2.68718 2.42982 0.0522681 10.3616 -4.11902 -9.76996e-10 10.3586 -4.1225 
0.0345197 2.68833 2.43116 0.0558809 2.6833 2.43959 0.0522681 10.3616 -4.11902 
0.102948 10.3704 -4.10869 0.0558809 2.6833 2.43959 0.0906628 2.67943 2.45424 
0.0558809 2.6833 2.43959 0.102948 10.3704 -4.10869 0.0522681 10.3616 -4.11902 
0.1505 10.3848 -4.09183 0.12313 2.70415 2.44968 0.155215 2.72789 2.45074 
0.102948 10.3704 -4.10869 0.0906628 2.67943 2.45424 0.12313 2.70415 2.44968 
0.12313 2.70415 2.44968 0.1505 10.3848 -4.09183 0.102948 10.3704 -4.10869 
0.193479 10.4044 -4.06895 0.155215 2.72789 2.45074 0.182474 2.72706 2.4765 
0.155215 2.72789 2.45074 0.193479 10.4044 -4.06895 0.1505 10.3848 -4.09183 
0.182474 2.72706 2.4765 0.198638 2.73597 2.48607 0.193479 10.4044 -4.06895 
0.230579 10.4284 -4.04074 0.198638 2.73597 2.48607 0.216877 2.74697 2.49982 
0.198638 2.73597 2.48607 0.230579 10.4284 -4.04074 0.193479 10.4044 -4.06895 
0.216877 2.74697 2.49982 0.231792 2.75586 2.51407 0.230579 10.4284 -4.04074 
0.260674 10.4564 -4.00805 0.246197 2.77006 2.52685 0.265218 2.81846 2.52499 
0.260674 10.4564 -4.00805 0.231792 2.75586 2.51407 0.246197 2.77006 2.52685 
0.231792 2.75586 2.51407 0.260674 10.4564 -4.00805 0.230579 10.4284 -4.04074 
0.282847 10.4872 -3.9719 0.265218 2.81846 2.52499 0.280474 2.81341 2.57347 
0.265218 2.81846 2.52499 0.282847 10.4872 -3.9719 0.260674 10.4564 -4.00805 
0.296427 10.5202 -3.93336 0.286972 2.82354 2.58947 0.293082 2.83798 2.60638 
0.282847 10.4872 -3.9719 0.280474 2.81341 2.57347 0.286972 2.82354 2.58947 
0.286972 2.82354 2.58947 0.296427 10.5202 -3.93336 0.282847 10.4872 -3.9719 
0.293082 2.83798 2.60638 0.297307 2.84824 2.62502 0.296427 10.5202 -3.93336 
0.301 10.5541 -3.89361 0.297307 2.84824 2.62502 0.301002 2.90079 2.62751 
0.297307 2.84824 2.62502 0.301 10.5541 -3.89361 0.296427 10.5202 -3.93336 
0.296427 10.588 -3.85387 0.300117 2.89749 2.67605 0.295717 2.94737 2.68004 
0.301 10.5541 -3.89361 0.301002 2.90079 2.62751 0.300117 2.89749 2.67605 
0.300117 2.89749 2.67605 0.296427 10.588 -3.85387 0.301 10.5541 -3.89361 
0.282847 10.621 -3.81533 0.295717 2.94737 2.68004 0.286972 2.94151 2.72759 
0.295717 2.94737 2.68004 0.282847 10.621 -3.81533 0.296427 10.588 -3.85387 
0.286972 2.94151 2.72759 0.280176 2.95199 2.74433 0.282847 10.621 -3.81533 
0.260674 10.6518 -3.77917 0.280176 2.95199 2.74433 0.269746 2.96926 2.76009 
0.280176 2.95199 2.74433 0.260674 10.6518 -3.77917 0.282847 10.621 -3.81533 
0.269746 2.96926 2.76009 0.259365 2.97955 2.77674 0.260674 10.6518 -3.77917 
0.230579 10.6798 -3.74649 0.246197 2.99499 2.79021 0.231483 3.00749 2.80492 
0.230579 10.6798 -3.74649 0.259365 2.97955 2.77674 0.246197 2.99499 2.79021 
0.259365 2.97955 2.77674 0.230579 10.6798 -3.74649 0.260674 10.6518 -3.77917 
0.193479 10.7038 -3.71828 0.216877 3.01808 2.81725 0.190527 3.05847 2.81551 
0.230579 10.6798 -3.74649 0.231483 3.00749 2.80492 0.216877 3.01808 2.81725 
0.216877 3.01808 2.81725 0.193479 10.7038 -3.71828 0.230579 10.6798 -3.74649 
0.1505 10.7234 -3.6954 0.190527 3.05847 2.81551 0.163614 3.04661 2.85065 
0.190527 3.05847 2.81551 0.1505 10.7234 -3.6954 0.193479 10.7038 -3.71828 
0.163614 3.04661 2.85065 0.145683 3.05241 2.86002 0.1505 10.7234 -3.6954 
0.102948 10.7378 -3.67853 0.145683 3.05241 2.86002 0.12313 3.0609 2.86739 
0.145683 3.05241 2.86002 0.102948 10.7378 -3.67853 0.1505 10.7234 -3.6954 
0.12313 3.0609 2.86739 0.102095 3.0653 2.87485 0.102948 10.7378 -3.67853 
0.0522681 10.7466 -3.66821 0.0797594 3.07102 2.87923 0.0449797 3.08527 2.87732 
0.0522681 10.7466 -3.66821 0.102095 3.0653 2.87485 0.0797594 3.07102 2.87923 
0.102095 3.0653 2.87485 0.0522681 10.7466 -3.66821 0.102948 10.7378 -3.67853 
-9.76996e-10 10.7496 -3.66473 0.0449797 3.08527 2.87732 0.00845798 3.08036 2.88539 
0.0449797 3.08527 2.87732 -9.76996e-10 10.7496 -3.66473 0.0522681 10.7466 -3.66821 
-0.0522681 10.7466 -3.66821 -0.0115291 3.07787 2.88725 -0.0345197 3.07672 2.8859 
-9.76996e-10 10.7496 -3.66473 0.00845798 3.08036 2.88539 -0.0115291 3.07787 2.88725 
-0.0115291 3.07787 2.88725 -0.0522681 10.7466 -3.66821 -9.76996e-10 10.7496 -3.66473 
-0.0345197 3.07672 2.8859 -0.0558809 3.06761 2.88955 -0.0522681 10.7466 -3.66821 
-0.102948 10.7378 -3.67853 -0.0558809 3.06761 2.88955 -0.0906628 3.05253 2.89109 
-0.0558809 3.06761 2.88955 -0.102948 10.7378 -3.67853 -0.0522681 10.7466 -3.66821 
-0.1505 10.7234 -3.6954 -0.12313 3.0609 2.86739 -0.155215 3.06357 2.84377 
-0.102948 10.7378 -3.67853 -0.0906628 3.05253 2.89109 -0.12313 3.0609 2.86739 
-0.12313 3.0609 2.86739 -0.1505 10.7234 -3.6954 -0.102948 10.7378 -3.67853 
-0.193479 10.7038 -3.71828 -0.155215 3.06357 2.84377 -0.182474 3.03799 2.84056 
-0.155215 3.06357 2.84377 -0.193479 10.7038 -3.71828 -0.1505 10.7234 -3.6954 
-0.182474 3.03799 2.84056 -0.198638 3.02994 2.83027 -0.193479 10.7038 -3.71828 
-0.230579 10.6798 -3.74649 -0.198638 3.02994 2.83027 -0.216877 3.01808 2.81725 
-0.198638 3.02994 2.83027 -0.230579 10.6798 -3.74649 -0.193479 10.7038 -3.71828 
-0.216877 3.01808 2.81725 -0.231792 3.00539 2.80624 -0.230579 10.6798 -3.74649 
-0.260674 10.6518 -3.77917 -0.246197 2.99499 2.79021 -0.265218 3.0044 2.7427 
-0.260674 10.6518 -3.77917 -0.231792 3.00539 2.80624 -0.246197 2.99499 2.79021 
-0.231792 3.00539 2.80624 -0.260674 10.6518 -3.77917 -0.230579 10.6798 -3.74649 
-0.282847 10.621 -3.81533 -0.265218 3.0044 2.7427 -0.280474 2.95572 2.7401 
-0.265218 3.0044 2.7427 -0.282847 10.621 -3.81533 -0.260674 10.6518 -3.77917 
-0.296427 10.588 -3.85387 -0.286972 2.94151 2.72759 -0.293082 2.92707 2.71068 
-0.282847 10.621 -3.81533 -0.280474 2.95572 2.7401 -0.286972 2.94151 2.72759 
-0.286972 2.94151 2.72759 -0.296427 10.588 -3.85387 -0.282847 10.621 -3.81533 
-0.293082 2.92707 2.71068 -0.297307 2.91026 2.69764 -0.296427 10.588 -3.85387 
-0.301 10.5541 -3.89361 -0.297307 2.91026 2.69764 -0.301002 2.91602 2.64534 
-0.297307 2.91026 2.69764 -0.301 10.5541 -3.89361 -0.296427 10.588 -3.85387 
2.02725 0.913287 4.53908 1.76869 1.04261 4.486 1.77667 0.868736 4.28325 
1.77667 0.868736 4.28325 2.03315 0.815039 4.42433 2.02725 0.913287 4.53908 
1.76869 1.04261 4.486 2.02725 0.913287 4.53908 2.0097 1.01022 4.65183 
1.76869 1.04261 4.486 2.0097 1.01022 4.65183 1.98348 1.10727 4.76681 
1.98348 1.10727 4.76681 1.70876 1.26604 4.76074 1.76869 1.04261 4.486 
1.70876 1.26604 4.76074 1.98348 1.10727 4.76681 1.94186 1.20247 4.8762 
1.70876 1.26604 4.76074 1.94186 1.20247 4.8762 1.89173 1.29266 4.98006 
1.70876 1.26604 4.76074 1.89173 1.29266 4.98006 1.82544 1.38668 5.08689 
1.82544 1.38668 5.08689 1.4756 1.56751 5.1081 1.70876 1.26604 4.76074 
1.4756 1.56751 5.1081 1.82544 1.38668 5.08689 1.75207 1.46968 5.17902 
1.4756 1.56751 5.1081 1.75207 1.46968 5.17902 1.68829 1.5504 5.2844 
1.27359 1.76277 5.39378 1.4756 1.56751 5.1081 1.53859 1.64873 5.36743 
1.4756 1.56751 5.1081 1.68829 1.5504 5.2844 1.53859 1.64873 5.36743 
0.920206 1.93397 5.59936 1.27359 1.76277 5.39378 1.21236 1.87266 5.65843 
0.825732 2.02179 5.83725 0.685361 2.05778 5.87845 0.563004 2.03591 5.72078 
0.563004 2.03591 5.72078 0.685361 2.05778 5.87845 0.541382 2.08777 5.91434 
0.563004 2.03591 5.72078 0.541382 2.08777 5.91434 0.394957 2.11012 5.93994 
0.394957 2.11012 5.93994 0.227119 2.09497 5.84509 0.563004 2.03591 5.72078 
0.227119 2.09497 5.84509 0.0953936 2.13449 5.96984 -0.0535274 2.13418 5.96621 
-0.0535274 2.13418 5.96621 -0.0999485 2.07222 5.70054 0.227119 2.09497 5.84509 
-0.0999485 2.07222 5.70054 -0.0535274 2.13418 5.96621 -0.209479 2.1271 5.95644 
-0.0999485 2.07222 5.70054 -0.209479 2.1271 5.95644 -0.351242 2.11313 5.938 
-0.351242 2.11313 5.938 -0.429014 2.04079 5.67341 -0.0999485 2.07222 5.70054 
-0.429014 2.04079 5.67341 -0.351242 2.11313 5.938 -0.496443 2.0925 5.91233 
-0.429014 2.04079 5.67341 -0.496443 2.0925 5.91233 -0.654576 2.06268 5.87909 
-0.654576 2.06268 5.87909 -0.667326 1.98408 5.57926 -0.429014 2.04079 5.67341 
-0.667326 1.98408 5.57926 -0.654576 2.06268 5.87909 -0.834181 2.01348 5.81499 
-0.978754 1.88199 5.47558 -0.667326 1.98408 5.57926 -0.99791 1.96212 5.7607 
-1.24302 1.74089 5.30323 -0.978754 1.88199 5.47558 -1.24612 1.85773 5.64368 
-1.56928 1.6535 5.40477 -1.66233 1.57518 5.31422 -1.45401 1.5981 5.16057 
-1.45401 1.5981 5.16057 -1.24302 1.74089 5.30323 -1.56928 1.6535 5.40477 
-1.74411 1.4932 5.21788 -1.68819 1.40019 4.97821 -1.45401 1.5981 5.16057 
-1.45401 1.5981 5.16057 -1.66233 1.57518 5.31422 -1.74411 1.4932 5.21788 
-1.68819 1.40019 4.97821 -1.74411 1.4932 5.21788 -1.81719 1.40662 5.11631 
-1.68819 1.40019 4.97821 -1.81719 1.40662 5.11631 -1.88091 1.31799 5.01379 
-1.68819 1.40019 4.97821 -1.88091 1.31799 5.01379 -1.92964 1.22703 4.90471 
-1.92964 1.22703 4.90471 -1.82182 1.13549 4.66587 -1.68819 1.40019 4.97821 
-1.82182 1.13549 4.66587 -1.92964 1.22703 4.90471 -1.96644 1.13465 4.79322 
-1.82182 1.13549 4.66587 -1.96644 1.13465 4.79322 -1.97367 1.02649 4.64521 
-1.97367 1.02649 4.64521 -1.77358 0.87232 4.27684 -1.82182 1.13549 4.66587 
-1.84836 0.551106 4.02535 -1.77358 0.87232 4.27684 -2.00026 0.589474 4.15803 
-1.69691 0.37959 3.78131 -1.84836 0.551106 4.02535 -1.92961 0.405024 3.94225 
-1.57074 -0.0228395 3.44299 -1.37877 -0.00203528 3.38041 -1.56332 0.142167 3.54992 
-1.37877 -0.00203528 3.38041 -1.36358 -0.165411 3.27682 -1.24612 -0.226197 3.20372 
-1.24612 -0.226197 3.20372 -1.06601 -0.118498 3.20218 -1.37877 -0.00203528 3.38041 
-1.06601 -0.118498 3.20218 -1.24612 -0.226197 3.20372 -1.12456 -0.281915 3.13782 
-1.06601 -0.118498 3.20218 -1.12456 -0.281915 3.13782 -0.997976 -0.325516 3.08229 
-0.997976 -0.325516 3.08229 -0.795108 -0.268452 3.06648 -1.06601 -0.118498 3.20218 
-0.318243 -0.359984 2.95682 -0.609714 -0.332537 3.00283 -0.498536 -0.463838 2.92582 
-0.000761073 -0.332678 2.94881 -0.318243 -0.359984 2.95682 -0.209214 -0.490523 2.88986 
0.238081 -0.367681 2.94781 -0.000761073 -0.332678 2.94881 0.095385 -0.505051 2.87934 
0.562757 -0.270636 3.01764 0.238081 -0.367681 2.94781 0.394992 -0.479337 2.9081 
0.541312 -0.457558 2.93416 0.68538 -0.427773 2.96894 0.562757 -0.270636 3.01764 
0.825782 -0.391125 3.01172 0.917228 -0.0780655 3.17545 0.562757 -0.270636 3.01764 
0.562757 -0.270636 3.01764 0.68538 -0.427773 2.96894 0.825782 -0.391125 3.01172 
0.917228 -0.0780655 3.17545 0.825782 -0.391125 3.01172 0.959022 -0.347324 3.06198 
0.917228 -0.0780655 3.17545 0.959022 -0.347324 3.06198 1.09237 -0.300503 3.11923 
0.917228 -0.0780655 3.17545 1.09237 -0.300503 3.11923 1.21229 -0.238352 3.18669 
1.21229 -0.238352 3.18669 1.20406 0.0600398 3.34072 0.917228 -0.0780655 3.17545 
1.20406 0.0600398 3.34072 1.21229 -0.238352 3.18669 1.32557 -0.179024 3.256 
1.20406 0.0600398 3.34072 1.32557 -0.179024 3.256 1.44419 -0.113054 3.33661 
1.44419 -0.113054 3.33661 1.43103 0.232712 3.53715 1.20406 0.0600398 3.34072 
1.43103 0.232712 3.53715 1.44419 -0.113054 3.33661 1.57828 -0.0112386 3.45416 
1.64073 0.486103 3.82623 1.43103 0.232712 3.53715 1.75737 0.167907 3.65923 
1.88857 0.580751 4.07825 1.64073 0.486103 3.82623 1.93999 0.431027 3.97136 
1.77667 0.868736 4.28325 1.88857 0.580751 4.07825 2.00971 0.620859 4.19595 
2.02728 0.717036 4.30932 2.03315 0.815039 4.42433 1.77667 0.868736 4.28325 
1.34656 1.48537 4.71757 1.70876 1.26604 4.76074 1.4756 1.56751 5.1081 
1.06301 1.78944 5.20564 1.27359 1.76277 5.39378 0.920206 1.93397 5.59936 
0.747948 1.92205 5.34332 0.920206 1.93397 5.59936 0.563004 2.03591 5.72078 
0.328316 2.02878 5.49534 0.563004 2.03591 5.72078 0.227119 2.09497 5.84509 
-1.46823 1.44002 4.78893 -1.68819 1.40019 4.97821 -1.82182 1.13549 4.66587 
-1.58467 1.19525 4.50581 -1.82182 1.13549 4.66587 -1.77358 0.87232 4.27684 
-1.55994 0.719586 3.94909 -1.84836 0.551106 4.02535 -1.69691 0.37959 3.78131 
-1.46091 0.524948 3.72915 -1.69691 0.37959 3.78131 -1.56332 0.142167 3.54992 
-1.28718 0.356079 3.5259 -1.56332 0.142167 3.54992 -1.37877 -0.00203528 3.38041 
-1.06242 0.200322 3.3421 -1.37877 -0.00203528 3.38041 -1.06601 -0.118498 3.20218 
-0.755903 0.0736879 3.18759 -1.06601 -0.118498 3.20218 -0.795108 -0.268452 3.06648 
-0.755903 0.0736879 3.18759 -0.795108 -0.268452 3.06648 -0.609714 -0.332537 3.00283 
-0.489035 0.00390382 3.10398 -0.609714 -0.332537 3.00283 -0.318243 -0.359984 2.95682 
-0.118773 -0.0543747 3.04245 -0.318243 -0.359984 2.95682 -0.000761073 -0.332678 2.94881 
-0.118773 -0.0543747 3.04245 -0.000761073 -0.332678 2.94881 0.238081 -0.367681 2.94781 
0.298817 -0.0402693 3.06161 0.238081 -0.367681 2.94781 0.562757 -0.270636 3.01764 
0.617445 -0.00430803 3.12633 0.562757 -0.270636 3.01764 0.917228 -0.0780655 3.17545 
1.58345 0.794118 4.03517 1.88857 0.580751 4.07825 1.77667 0.868736 4.28325 
1.45933 1.11343 4.23201 1.77667 0.868736 4.28325 1.76869 1.04261 4.486 
1.45933 1.11343 4.23201 1.76869 1.04261 4.486 1.70876 1.26604 4.76074 
1.42014 1.32632 4.50055 1.70876 1.26604 4.76074 1.34656 1.48537 4.71757 
1.11541 1.69276 4.90508 1.4756 1.56751 5.1081 1.06301 1.78944 5.20564 
-0.0510425 2.02879 5.30439 -0.0999485 2.07222 5.70054 -0.429014 2.04079 5.67341 
-0.47629 1.98083 5.25455 -0.429014 2.04079 5.67341 -0.667326 1.98408 5.57926 
-0.47629 1.98083 5.25455 -0.667326 1.98408 5.57926 -0.978754 1.88199 5.47558 
-0.855728 1.8534 5.10883 -0.978754 1.88199 5.47558 -1.24302 1.74089 5.30323 
-1.13746 1.67983 4.91277 -1.24302 1.74089 5.30323 -1.45401 1.5981 5.16057 
-1.13746 1.67983 4.91277 -1.45401 1.5981 5.16057 -1.46823 1.44002 4.78893 
-1.46371 1.03263 4.1431 -1.77358 0.87232 4.27684 -1.55994 0.719586 3.94909 
0.83337 0.303007 3.2821 0.917228 -0.0780655 3.17545 1.20406 0.0600398 3.34072 
1.1278 0.474887 3.49128 1.20406 0.0600398 3.34072 1.43103 0.232712 3.53715 
1.33857 0.696435 3.74544 1.43103 0.232712 3.53715 1.64073 0.486103 3.82623 
1.33857 0.696435 3.74544 1.64073 0.486103 3.82623 1.58345 0.794118 4.03517 
0.782863 1.86229 4.95977 1.06301 1.78944 5.20564 0.747948 1.92205 5.34332 
0.548432 1.94981 5.0461 0.747948 1.92205 5.34332 0.328316 2.02878 5.49534 
0.267858 2.01402 5.20743 0.328316 2.02878 5.49534 -0.0510425 2.02879 5.30439 
-1.13525 1.55744 4.48208 -1.46823 1.44002 4.78893 -1.58467 1.19525 4.50581 
-1.21905 1.32385 4.16752 -1.58467 1.19525 4.50581 -1.46371 1.03263 4.1431 
-1.27698 0.924065 3.85058 -1.55994 0.719586 3.94909 -1.46091 0.524948 3.72915 
-1.13894 0.830397 3.66572 -1.46091 0.524948 3.72915 -1.28718 0.356079 3.5259 
-1.05623 0.527539 3.46473 -1.28718 0.356079 3.5259 -1.06242 0.200322 3.3421 
-0.783375 0.443523 3.30488 -1.06242 0.200322 3.3421 -0.755903 0.0736879 3.18759 
-0.548432 0.37844 3.20626 -0.755903 0.0736879 3.18759 -0.489035 0.00390382 3.10398 
-0.26671 0.234532 3.11845 -0.489035 0.00390382 3.10398 -0.118773 -0.0543747 3.04245 
0.0649912 0.21739 3.10165 -0.118773 -0.0543747 3.04245 0.298817 -0.0402693 3.06161 
0.425414 0.261 3.14999 0.298817 -0.0402693 3.06161 0.617445 -0.00430803 3.12633 
0.425414 0.261 3.14999 0.617445 -0.00430803 3.12633 0.83337 0.303007 3.2821 
1.20615 1.17452 3.96936 1.58345 0.794118 4.03517 1.45933 1.11343 4.23201 
1.22249 1.39431 4.28042 1.45933 1.11343 4.23201 1.42014 1.32632 4.50055 
1.22249 1.39431 4.28042 1.42014 1.32632 4.50055 1.34656 1.48537 4.71757 
1.05232 1.61998 4.45757 1.34656 1.48537 4.71757 1.11541 1.69276 4.90508 
0.880799 1.78366 4.64769 1.11541 1.69276 4.90508 0.782863 1.86229 4.95977 
0.0416995 2.03492 4.92265 0.267858 2.01402 5.20743 -0.0510425 2.02879 5.30439 
-0.187331 2.02376 4.92515 -0.0510425 2.02879 5.30439 -0.47629 1.98083 5.25455 
-0.442499 1.98043 4.88837 -0.47629 1.98083 5.25455 -0.855728 1.8534 5.10883 
-0.90044 1.76811 4.62947 -0.855728 1.8534 5.10883 -1.13746 1.67983 4.91277 
-0.90044 1.76811 4.62947 -1.13746 1.67983 4.91277 -1.13525 1.55744 4.48208 
-1.10998 1.19275 3.86091 -1.46371 1.03263 4.1431 -1.27698 0.924065 3.85058 
-0.886414 0.740155 3.43391 -1.05623 0.527539 3.46473 -0.783375 0.443523 3.30488 
-0.0420285 0.514312 3.14154 -0.26671 0.234532 3.11845 0.0649912 0.21739 3.10165 
0.266757 0.515846 3.16006 0.0649912 0.21739 3.10165 0.425414 0.261 3.14999 
0.538275 0.557856 3.23454 0.425414 0.261 3.14999 0.83337 0.303007 3.2821 
0.748115 0.656756 3.336 0.83337 0.303007 3.2821 1.1278 0.474887 3.49128 
0.987285 0.828086 3.53428 1.1278 0.474887 3.49128 1.33857 0.696435 3.74544 
1.1164 1.00259 3.73503 1.33857 0.696435 3.74544 1.20615 1.17452 3.96936 
0.991304 1.60227 4.22254 1.22249 1.39431 4.28042 1.05232 1.61998 4.45757 
0.522003 1.96978 4.65974 0.782863 1.86229 4.95977 0.548432 1.94981 5.0461 
0.522003 1.96978 4.65974 0.548432 1.94981 5.0461 0.276886 2.01492 4.89336 
-0.991304 1.13749 3.67836 -1.27698 0.924065 3.85058 -1.13894 0.830397 3.66572 
-0.611877 0.795876 3.29458 -0.783375 0.443523 3.30488 -0.548432 0.37844 3.20626 
0.925351 1.44771 3.80515 1.20615 1.17452 3.96936 0.967778 1.53126 4.00689 
0.786328 1.80294 4.2204 1.05232 1.61998 4.45757 0.880799 1.78366 4.64769 
0.167782 2.08258 4.54365 0.276886 2.01492 4.89336 0.0416995 2.03492 4.92265 
-0.134872 2.08183 4.56239 0.0416995 2.03492 4.92265 -0.187331 2.02376 4.92515 
-0.134872 2.08183 4.56239 -0.187331 2.02376 4.92515 -0.442499 1.98043 4.88837 
-0.407972 2.01471 4.59162 -0.442499 1.98043 4.88837 -0.687791 1.89169 4.78499 
-0.562689 1.96603 4.38422 -0.687791 1.89169 4.78499 -0.90044 1.76811 4.62947 
-0.773604 1.82131 4.25588 -0.90044 1.76811 4.62947 -1.13525 1.55744 4.48208 
-0.886552 1.66756 4.07254 -1.13525 1.55744 4.48208 -1.21905 1.32385 4.16752 
-0.925351 1.52557 3.89631 -1.21905 1.32385 4.16752 -1.10998 1.19275 3.86091 
-0.786328 1.171 3.48049 -1.13894 0.830397 3.66572 -0.886414 0.740155 3.43391 
-0.099468 0.883361 3.1493 -0.345478 0.593033 3.18034 -0.0420285 0.514312 3.14154 
0.134869 0.876848 3.15154 -0.0420285 0.514312 3.14154 0.266757 0.515846 3.16006 
0.407972 0.837479 3.21326 0.266757 0.515846 3.16006 0.538275 0.557856 3.23454 
0.407972 0.837479 3.21326 0.538275 0.557856 3.23454 0.748115 0.656756 3.336 
0.764084 1.14402 3.44861 0.748115 0.656756 3.336 0.987285 0.828086 3.53428 
0.764084 1.14402 3.44861 0.987285 0.828086 3.53428 1.1164 1.00259 3.73503 
0.886552 1.29586 3.63734 1.1164 1.00259 3.73503 1.20615 1.17452 3.96936 
0.708694 1.85038 3.93173 0.991304 1.60227 4.22254 0.786328 1.80294 4.2204 
-0.303439 2.09905 4.3177 -0.407972 2.01471 4.59162 -0.562689 1.96603 4.38422 
-0.866884 1.45434 3.70419 -1.10998 1.19275 3.86091 -0.991304 1.13749 3.67836 
-0.708694 1.46354 3.4788 -0.991304 1.13749 3.67836 -0.786328 1.171 3.48049 
-0.371856 1.01119 3.19706 -0.611877 0.795876 3.29458 -0.345478 0.593033 3.18034 
0.303439 1.12122 3.1728 0.407972 0.837479 3.21326 0.558352 1.05045 3.29127 
0.717215 1.77711 3.71991 0.925351 1.44771 3.80515 0.967778 1.53126 4.00689 
0.717215 1.77711 3.71991 0.967778 1.53126 4.00689 0.708694 1.85038 3.93173 
0.572251 2.00611 3.93155 0.786328 1.80294 4.2204 0.649845 1.9159 4.34729 
0.455145 2.08834 4.04544 0.649845 1.9159 4.34729 0.417097 2.04122 4.39176 
0.277071 2.15142 4.16102 0.417097 2.04122 4.39176 0.167782 2.08258 4.54365 
0.00587748 2.1916 4.19558 0.167782 2.08258 4.54365 -0.134872 2.08183 4.56239 
-0.613944 1.96546 3.94981 -0.773604 1.82131 4.25588 -0.886552 1.66756 4.07254 
-0.702439 1.82914 3.776 -0.886552 1.66756 4.07254 -0.925351 1.52557 3.89631 
-0.717215 1.66129 3.5843 -0.925351 1.52557 3.89631 -0.866884 1.45434 3.70419 
-0.717215 1.66129 3.5843 -0.866884 1.45434 3.70419 -0.708694 1.46354 3.4788 
-0.572251 1.48808 3.32501 -0.786328 1.171 3.48049 -0.649845 1.06334 3.34908 
-0.455145 1.38845 3.22598 -0.649845 1.06334 3.34908 -0.371856 1.01119 3.19706 
-0.277071 1.28416 3.14559 -0.371856 1.01119 3.19706 -0.099468 0.883361 3.1493 
-0.00746746 1.25442 3.10042 -0.099468 0.883361 3.1493 0.134869 0.876848 3.15154 
0.613944 1.46368 3.3623 0.764084 1.14402 3.44861 0.886552 1.29586 3.63734 
0.702439 1.61403 3.52414 0.886552 1.29586 3.63734 0.925351 1.44771 3.80515 
-0.083232 2.30999 3.87974 0.00587748 2.1916 4.19558 -0.303439 2.09905 4.3177 
-0.289338 2.19777 3.99552 -0.303439 2.09905 4.3177 -0.562689 1.96603 4.38422 
-0.421764 2.14927 3.90866 -0.562689 1.96603 4.38422 -0.613944 1.96546 3.94981 
0.083232 1.58678 3.03298 -0.00746746 1.25442 3.10042 0.303439 1.12122 3.1728 
0.289338 1.45488 3.1257 0.303439 1.12122 3.1728 0.558352 1.05045 3.29127 
0.421764 1.53308 3.18719 0.558352 1.05045 3.29127 0.613944 1.46368 3.3623 
0.533717 2.0688 3.60189 0.717215 1.77711 3.71991 0.708694 1.85038 3.93173 
0.352382 2.25057 3.74684 0.455145 2.08834 4.04544 0.277071 2.15142 4.16102 
0.140543 2.32556 3.83441 0.277071 2.15142 4.16102 0.00587748 2.1916 4.19558 
-0.457084 2.18303 3.61688 -0.613944 1.96546 3.94981 -0.702439 1.82914 3.776 
-0.577802 1.9677 3.5211 -0.702439 1.82914 3.776 -0.717215 1.66129 3.5843 
-0.533717 1.82348 3.31467 -0.717215 1.66129 3.5843 -0.708694 1.46354 3.4788 
-0.352382 1.70876 3.11246 -0.455145 1.38845 3.22598 -0.277071 1.28416 3.14559 
-0.140543 1.63399 3.02469 -0.277071 1.28416 3.14559 -0.00746746 1.25442 3.10042 
0.457084 1.82655 3.19949 0.613944 1.46368 3.3623 0.702439 1.61403 3.52414 
0.577802 1.88747 3.42716 0.702439 1.61403 3.52414 0.717215 1.77711 3.71991 
-0.13658 2.43381 3.62198 -0.083232 2.30999 3.87974 -0.289338 2.19777 3.99552 
-0.13658 2.43381 3.62198 -0.289338 2.19777 3.99552 -0.421764 2.14927 3.90866 
0.13658 1.86074 2.951 0.083232 1.58678 3.03298 0.289338 1.45488 3.1257 
0.13658 1.86074 2.951 0.289338 1.45488 3.1257 0.421764 1.53308 3.18719 
0.422514 2.27883 3.27145 0.577802 1.88747 3.42716 0.533717 2.0688 3.60189 
0.422514 2.27883 3.27145 0.533717 2.0688 3.60189 0.38901 2.29018 3.52686 
0.225113 2.45157 3.52536 0.352382 2.25057 3.74684 0.140543 2.32556 3.83441 
0.0338038 2.53915 3.48526 0.140543 2.32556 3.83441 -0.083232 2.30999 3.87974 
-0.422514 2.18271 3.15891 -0.577802 1.9677 3.5211 -0.533717 1.82348 3.31467 
-0.422514 2.18271 3.15891 -0.533717 1.82348 3.31467 -0.38901 1.93222 3.10774 
-0.225113 1.95895 2.94858 -0.352382 1.70876 3.11246 -0.140543 1.63399 3.02469 
-0.0338038 2.01226 2.86835 -0.140543 1.63399 3.02469 0.083232 1.58678 3.03298 
0.335559 2.50684 3.16293 0.422514 2.27883 3.27145 0.38901 2.29018 3.52686 
0.217337 2.64236 3.23932 0.38901 2.29018 3.52686 0.225113 2.45157 3.52536 
-0.109011 2.62032 3.3583 0.0338038 2.53915 3.48526 -0.13658 2.43381 3.62198 
-0.109011 2.62032 3.3583 -0.13658 2.43381 3.62198 -0.289047 2.35323 3.61543 
-0.291225 2.49512 3.3419 -0.289047 2.35323 3.61543 -0.457084 2.18303 3.61688 
-0.335559 2.32557 2.95069 -0.422514 2.18271 3.15891 -0.38901 1.93222 3.10774 
-0.217337 2.27132 2.80488 -0.38901 1.93222 3.10774 -0.225113 1.95895 2.94858 
0.109011 2.15036 2.80804 -0.0338038 2.01226 2.86835 0.13658 1.86074 2.951 
0.109011 2.15036 2.80804 0.13658 1.86074 2.951 0.289047 1.8546 3.03162 
0.291225 2.14697 2.93427 0.289047 1.8546 3.03162 0.457084 1.82655 3.19949 
0.342425 2.51698 2.98818 0.408907 2.13644 3.12329 0.422514 2.27883 3.27145 
-0.310583 2.6124 3.0773 -0.291225 2.49512 3.3419 -0.408907 2.30677 3.32273 
-0.342425 2.49975 2.968 -0.408907 2.30677 3.32273 -0.422514 2.18271 3.15891 
0.310583 2.42665 2.85982 0.291225 2.14697 2.93427 0.408907 2.13644 3.12329 
0.072203 2.84933 3.09309 0.217337 2.64236 3.23932 0.0338038 2.53915 3.48526 
0.072203 2.84933 3.09309 0.0338038 2.53915 3.48526 -0.109011 2.62032 3.3583 
-0.072203 2.44813 2.62334 -0.217337 2.27132 2.80488 -0.0338038 2.01226 2.86835 
-0.072203 2.44813 2.62334 -0.0338038 2.01226 2.86835 0.109011 2.15036 2.80804 
0.287987 2.80591 2.89766 0.342425 2.51698 2.98818 0.335559 2.50684 3.16293 
0.287987 2.80591 2.89766 0.335559 2.50684 3.16293 0.217337 2.64236 3.23932 
-0.254711 2.8546 2.91262 -0.193454 2.74975 3.12458 -0.310583 2.6124 3.0773 
-0.306694 2.77039 2.81978 -0.310583 2.6124 3.0773 -0.342425 2.49975 2.968 
-0.287987 2.63435 2.6968 -0.342425 2.49975 2.968 -0.335559 2.32557 2.95069 
-0.287987 2.63435 2.6968 -0.335559 2.32557 2.95069 -0.217337 2.27132 2.80488 
0.254711 2.62719 2.64637 0.193454 2.40144 2.71676 0.310583 2.42665 2.85982 
0.306694 2.70572 2.74406 0.310583 2.42665 2.85982 0.342425 2.51698 2.98818 
0.300117 2.89749 2.67605 0.306694 2.70572 2.74406 0.287987 2.80591 2.89766 
0.287987 2.80591 2.89766 0.216877 3.01808 2.81725 0.231483 3.00749 2.80492 
0.216877 3.01808 2.81725 0.287987 2.80591 2.89766 0.182371 2.90169 2.97033 
0.145683 3.05241 2.86002 0.182371 2.90169 2.97033 0.072203 2.84933 3.09309 
0.0449797 3.08527 2.87732 0.072203 2.84933 3.09309 -0.0508787 2.84419 3.10519 
-0.0508787 2.84419 3.10519 -0.0115291 3.07787 2.88725 0.00845798 3.08036 2.88539 
-0.0906628 3.05253 2.89109 -0.0508787 2.84419 3.10519 -0.193454 2.74975 3.12458 
-0.193454 2.74975 3.12458 -0.12313 3.0609 2.86739 -0.0906628 3.05253 2.89109 
-0.198638 3.02994 2.83027 -0.193454 2.74975 3.12458 -0.254711 2.8546 2.91262 
-0.265218 3.0044 2.7427 -0.254711 2.8546 2.91262 -0.306694 2.77039 2.81978 
-0.306694 2.77039 2.81978 -0.286972 2.94151 2.72759 -0.280474 2.95572 2.7401 
-0.300117 2.86756 2.64101 -0.306694 2.77039 2.81978 -0.287987 2.63435 2.6968 
-0.287987 2.63435 2.6968 -0.216877 2.74697 2.49982 -0.231483 2.75749 2.51221 
-0.216877 2.74697 2.49982 -0.287987 2.63435 2.6968 -0.182371 2.57756 2.59083 
-0.145683 2.71009 2.45922 -0.182371 2.57756 2.59083 -0.072203 2.44813 2.62334 
-0.0449797 2.69814 2.42406 -0.072203 2.44813 2.62334 0.0508787 2.43537 2.62652 
0.0508787 2.43537 2.62652 0.0115291 2.68718 2.42982 -0.00845798 2.68941 2.42765 
0.0906628 2.67943 2.45424 0.0508787 2.43537 2.62652 0.193454 2.40144 2.71676 
0.193454 2.40144 2.71676 0.12313 2.70415 2.44968 0.0906628 2.67943 2.45424 
0.198638 2.73597 2.48607 0.193454 2.40144 2.71676 0.254711 2.62719 2.64637 
0.265218 2.81846 2.52499 0.254711 2.62719 2.64637 0.306694 2.70572 2.74406 
0.306694 2.70572 2.74406 0.286972 2.82354 2.58947 0.280474 2.81341 2.57347 
0.306694 2.70572 2.74406 0.301002 2.90079 2.62751 0.297307 2.84824 2.62502 
0.297307 2.84824 2.62502 0.293082 2.83798 2.60638 0.306694 2.70572 2.74406 
0.306694 2.70572 2.74406 0.293082 2.83798 2.60638 0.286972 2.82354 2.58947 
0.306694 2.70572 2.74406 0.280474 2.81341 2.57347 0.265218 2.81846 2.52499 
0.254711 2.62719 2.64637 0.265218 2.81846 2.52499 0.246197 2.77006 2.52685 
0.254711 2.62719 2.64637 0.246197 2.77006 2.52685 0.231792 2.75586 2.51407 
0.231792 2.75586 2.51407 0.216877 2.74697 2.49982 0.254711 2.62719 2.64637 
0.254711 2.62719 2.64637 0.216877 2.74697 2.49982 0.198638 2.73597 2.48607 
0.198638 2.73597 2.48607 0.182474 2.72706 2.4765 0.193454 2.40144 2.71676 
0.193454 2.40144 2.71676 0.182474 2.72706 2.4765 0.155215 2.72789 2.45074 
0.193454 2.40144 2.71676 0.155215 2.72789 2.45074 0.12313 2.70415 2.44968 
0.0508787 2.43537 2.62652 0.0906628 2.67943 2.45424 0.0558809 2.6833 2.43959 
0.0558809 2.6833 2.43959 0.0345197 2.68833 2.43116 0.0508787 2.43537 2.62652 
0.0508787 2.43537 2.62652 0.0345197 2.68833 2.43116 0.0115291 2.68718 2.42982 
0.0508787 2.43537 2.62652 -0.00845798 2.68941 2.42765 -0.0449797 2.69814 2.42406 
-0.072203 2.44813 2.62334 -0.0449797 2.69814 2.42406 -0.0797594 2.69403 2.43783 
-0.072203 2.44813 2.62334 -0.0797594 2.69403 2.43783 -0.102095 2.69747 2.44417 
-0.102095 2.69747 2.44417 -0.12313 2.70415 2.44968 -0.072203 2.44813 2.62334 
-0.072203 2.44813 2.62334 -0.12313 2.70415 2.44968 -0.145683 2.71009 2.45922 
-0.145683 2.71009 2.45922 -0.163614 2.71844 2.46642 -0.182371 2.57756 2.59083 
-0.182371 2.57756 2.59083 -0.163614 2.71844 2.46642 -0.190527 2.755 2.46019 
-0.182371 2.57756 2.59083 -0.190527 2.755 2.46019 -0.216877 2.74697 2.49982 
-0.287987 2.63435 2.6968 -0.231483 2.75749 2.51221 -0.246197 2.77006 2.52685 
-0.287987 2.63435 2.6968 -0.246197 2.77006 2.52685 -0.259365 2.78095 2.5442 
-0.259365 2.78095 2.5442 -0.269746 2.79578 2.55697 -0.287987 2.63435 2.6968 
-0.287987 2.63435 2.6968 -0.269746 2.79578 2.55697 -0.280176 2.80865 2.5765 
-0.280176 2.80865 2.5765 -0.286972 2.82354 2.58947 -0.287987 2.63435 2.6968 
-0.287987 2.63435 2.6968 -0.286972 2.82354 2.58947 -0.295717 2.87143 2.59112 
-0.287987 2.63435 2.6968 -0.295717 2.87143 2.59112 -0.300117 2.86756 2.64101 
-0.306694 2.77039 2.81978 -0.300117 2.86756 2.64101 -0.301002 2.91602 2.64534 
-0.306694 2.77039 2.81978 -0.301002 2.91602 2.64534 -0.297307 2.91026 2.69764 
-0.297307 2.91026 2.69764 -0.293082 2.92707 2.71068 -0.306694 2.77039 2.81978 
-0.306694 2.77039 2.81978 -0.293082 2.92707 2.71068 -0.286972 2.94151 2.72759 
-0.306694 2.77039 2.81978 -0.280474 2.95572 2.7401 -0.265218 3.0044 2.7427 
-0.254711 2.8546 2.91262 -0.265218 3.0044 2.7427 -0.246197 2.99499 2.79021 
-0.254711 2.8546 2.91262 -0.246197 2.99499 2.79021 -0.231792 3.00539 2.80624 
-0.231792 3.00539 2.80624 -0.216877 3.01808 2.81725 -0.254711 2.8546 2.91262 
-0.254711 2.8546 2.91262 -0.216877 3.01808 2.81725 -0.198638 3.02994 2.83027 
-0.198638 3.02994 2.83027 -0.182474 3.03799 2.84056 -0.193454 2.74975 3.12458 
-0.193454 2.74975 3.12458 -0.182474 3.03799 2.84056 -0.155215 3.06357 2.84377 
-0.193454 2.74975 3.12458 -0.155215 3.06357 2.84377 -0.12313 3.0609 2.86739 
-0.0508787 2.84419 3.10519 -0.0906628 3.05253 2.89109 -0.0558809 3.06761 2.88955 
-0.0558809 3.06761 2.88955 -0.0345197 3.07672 2.8859 -0.0508787 2.84419 3.10519 
-0.0508787 2.84419 3.10519 -0.0345197 3.07672 2.8859 -0.0115291 3.07787 2.88725 
-0.0508787 2.84419 3.10519 0.00845798 3.08036 2.88539 0.0449797 3.08527 2.87732 
0.072203 2.84933 3.09309 0.0449797 3.08527 2.87732 0.0797594 3.07102 2.87923 
0.072203 2.84933 3.09309 0.0797594 3.07102 2.87923 0.102095 3.0653 2.87485 
0.102095 3.0653 2.87485 0.12313 3.0609 2.86739 0.072203 2.84933 3.09309 
0.072203 2.84933 3.09309 0.12313 3.0609 2.86739 0.145683 3.05241 2.86002 
0.145683 3.05241 2.86002 0.163614 3.04661 2.85065 0.182371 2.90169 2.97033 
0.182371 2.90169 2.97033 0.163614 3.04661 2.85065 0.190527 3.05847 2.81551 
0.182371 2.90169 2.97033 0.190527 3.05847 2.81551 0.216877 3.01808 2.81725 
0.287987 2.80591 2.89766 0.231483 3.00749 2.80492 0.246197 2.99499 2.79021 
0.287987 2.80591 2.89766 0.246197 2.99499 2.79021 0.259365 2.97955 2.77674 
0.259365 2.97955 2.77674 0.269746 2.96926 2.76009 0.287987 2.80591 2.89766 
0.287987 2.80591 2.89766 0.269746 2.96926 2.76009 0.280176 2.95199 2.74433 
0.280176 2.95199 2.74433 0.286972 2.94151 2.72759 0.287987 2.80591 2.89766 
0.287987 2.80591 2.89766 0.286972 2.94151 2.72759 0.295717 2.94737 2.68004 
0.287987 2.80591 2.89766 0.295717 2.94737 2.68004 0.300117 2.89749 2.67605 
0.306694 2.70572 2.74406 0.300117 2.89749 2.67605 0.301002 2.90079 2.62751 
0.310583 2.42665 2.85982 0.306694 2.70572 2.74406 0.254711 2.62719 2.64637 
-0.217337 2.27132 2.80488 -0.072203 2.44813 2.62334 -0.182371 2.57756 2.59083 
-0.217337 2.27132 2.80488 -0.182371 2.57756 2.59083 -0.287987 2.63435 2.6968 
-0.342425 2.49975 2.968 -0.287987 2.63435 2.6968 -0.306694 2.77039 2.81978 
-0.310583 2.6124 3.0773 -0.306694 2.77039 2.81978 -0.254711 2.8546 2.91262 
0.217337 2.64236 3.23932 0.072203 2.84933 3.09309 0.182371 2.90169 2.97033 
0.217337 2.64236 3.23932 0.182371 2.90169 2.97033 0.287987 2.80591 2.89766 
0.342425 2.51698 2.98818 0.287987 2.80591 2.89766 0.306694 2.70572 2.74406 
0.109011 2.15036 2.80804 0.193454 2.40144 2.71676 0.0508787 2.43537 2.62652 
0.109011 2.15036 2.80804 0.0508787 2.43537 2.62652 -0.072203 2.44813 2.62334 
-0.109011 2.62032 3.3583 -0.193454 2.74975 3.12458 -0.0508787 2.84419 3.10519 
-0.109011 2.62032 3.3583 -0.0508787 2.84419 3.10519 0.072203 2.84933 3.09309 
0.408907 2.13644 3.12329 0.342425 2.51698 2.98818 0.310583 2.42665 2.85982 
0.291225 2.14697 2.93427 0.310583 2.42665 2.85982 0.193454 2.40144 2.71676 
0.291225 2.14697 2.93427 0.193454 2.40144 2.71676 0.109011 2.15036 2.80804 
-0.225113 1.95895 2.94858 -0.0338038 2.01226 2.86835 -0.217337 2.27132 2.80488 
-0.422514 2.18271 3.15891 -0.335559 2.32557 2.95069 -0.342425 2.49975 2.968 
-0.408907 2.30677 3.32273 -0.342425 2.49975 2.968 -0.310583 2.6124 3.0773 
-0.291225 2.49512 3.3419 -0.310583 2.6124 3.0773 -0.193454 2.74975 3.12458 
-0.291225 2.49512 3.3419 -0.193454 2.74975 3.12458 -0.109011 2.62032 3.3583 
0.225113 2.45157 3.52536 0.0338038 2.53915 3.48526 0.217337 2.64236 3.23932 
0.422514 2.27883 3.27145 0.335559 2.50684 3.16293 0.342425 2.51698 2.98818 
0.457084 1.82655 3.19949 0.408907 2.13644 3.12329 0.291225 2.14697 2.93427 
0.289047 1.8546 3.03162 0.291225 2.14697 2.93427 0.109011 2.15036 2.80804 
-0.38901 1.93222 3.10774 -0.217337 2.27132 2.80488 -0.335559 2.32557 2.95069 
-0.457084 2.18303 3.61688 -0.408907 2.30677 3.32273 -0.291225 2.49512 3.3419 
-0.289047 2.35323 3.61543 -0.291225 2.49512 3.3419 -0.109011 2.62032 3.3583 
0.38901 2.29018 3.52686 0.217337 2.64236 3.23932 0.335559 2.50684 3.16293 
0.577802 1.88747 3.42716 0.422514 2.27883 3.27145 0.408907 2.13644 3.12329 
0.083232 1.58678 3.03298 0.13658 1.86074 2.951 -0.0338038 2.01226 2.86835 
-0.140543 1.63399 3.02469 -0.0338038 2.01226 2.86835 -0.225113 1.95895 2.94858 
-0.352382 1.70876 3.11246 -0.225113 1.95895 2.94858 -0.38901 1.93222 3.10774 
-0.577802 1.9677 3.5211 -0.422514 2.18271 3.15891 -0.408907 2.30677 3.32273 
-0.083232 2.30999 3.87974 -0.13658 2.43381 3.62198 0.0338038 2.53915 3.48526 
0.140543 2.32556 3.83441 0.0338038 2.53915 3.48526 0.225113 2.45157 3.52536 
0.352382 2.25057 3.74684 0.225113 2.45157 3.52536 0.38901 2.29018 3.52686 
0.577802 1.88747 3.42716 0.408907 2.13644 3.12329 0.457084 1.82655 3.19949 
0.421764 1.53308 3.18719 0.457084 1.82655 3.19949 0.289047 1.8546 3.03162 
0.421764 1.53308 3.18719 0.289047 1.8546 3.03162 0.13658 1.86074 2.951 
-0.572251 1.48808 3.32501 -0.352382 1.70876 3.11246 -0.38901 1.93222 3.10774 
-0.572251 1.48808 3.32501 -0.38901 1.93222 3.10774 -0.533717 1.82348 3.31467 
-0.577802 1.9677 3.5211 -0.408907 2.30677 3.32273 -0.457084 2.18303 3.61688 
-0.421764 2.14927 3.90866 -0.457084 2.18303 3.61688 -0.289047 2.35323 3.61543 
-0.421764 2.14927 3.90866 -0.289047 2.35323 3.61543 -0.13658 2.43381 3.62198 
0.572251 2.00611 3.93155 0.352382 2.25057 3.74684 0.38901 2.29018 3.52686 
0.572251 2.00611 3.93155 0.38901 2.29018 3.52686 0.533717 2.0688 3.60189 
0.702439 1.61403 3.52414 0.577802 1.88747 3.42716 0.457084 1.82655 3.19949 
0.613944 1.46368 3.3623 0.457084 1.82655 3.19949 0.421764 1.53308 3.18719 
-0.00746746 1.25442 3.10042 0.083232 1.58678 3.03298 -0.140543 1.63399 3.02469 
-0.277071 1.28416 3.14559 -0.140543 1.63399 3.02469 -0.352382 1.70876 3.11246 
-0.455145 1.38845 3.22598 -0.352382 1.70876 3.11246 -0.572251 1.48808 3.32501 
-0.708694 1.46354 3.4788 -0.572251 1.48808 3.32501 -0.533717 1.82348 3.31467 
-0.717215 1.66129 3.5843 -0.533717 1.82348 3.31467 -0.577802 1.9677 3.5211 
-0.702439 1.82914 3.776 -0.577802 1.9677 3.5211 -0.457084 2.18303 3.61688 
-0.613944 1.96546 3.94981 -0.457084 2.18303 3.61688 -0.421764 2.14927 3.90866 
0.00587748 2.1916 4.19558 -0.083232 2.30999 3.87974 0.140543 2.32556 3.83441 
0.277071 2.15142 4.16102 0.140543 2.32556 3.83441 0.352382 2.25057 3.74684 
0.455145 2.08834 4.04544 0.352382 2.25057 3.74684 0.572251 2.00611 3.93155 
0.708694 1.85038 3.93173 0.572251 2.00611 3.93155 0.533717 2.0688 3.60189 
0.717215 1.77711 3.71991 0.533717 2.0688 3.60189 0.577802 1.88747 3.42716 
0.558352 1.05045 3.29127 0.421764 1.53308 3.18719 0.289338 1.45488 3.1257 
0.303439 1.12122 3.1728 0.289338 1.45488 3.1257 0.083232 1.58678 3.03298 
-0.562689 1.96603 4.38422 -0.421764 2.14927 3.90866 -0.289338 2.19777 3.99552 
-0.303439 2.09905 4.3177 -0.289338 2.19777 3.99552 -0.083232 2.30999 3.87974 
0.925351 1.44771 3.80515 0.717215 1.77711 3.71991 0.702439 1.61403 3.52414 
0.886552 1.29586 3.63734 0.702439 1.61403 3.52414 0.613944 1.46368 3.3623 
0.764084 1.14402 3.44861 0.613944 1.46368 3.3623 0.558352 1.05045 3.29127 
0.134869 0.876848 3.15154 0.303439 1.12122 3.1728 -0.00746746 1.25442 3.10042 
-0.099468 0.883361 3.1493 -0.00746746 1.25442 3.10042 -0.277071 1.28416 3.14559 
-0.371856 1.01119 3.19706 -0.277071 1.28416 3.14559 -0.455145 1.38845 3.22598 
-0.649845 1.06334 3.34908 -0.455145 1.38845 3.22598 -0.572251 1.48808 3.32501 
-0.786328 1.171 3.48049 -0.572251 1.48808 3.32501 -0.708694 1.46354 3.4788 
-0.925351 1.52557 3.89631 -0.717215 1.66129 3.5843 -0.702439 1.82914 3.776 
-0.886552 1.66756 4.07254 -0.702439 1.82914 3.776 -0.613944 1.96546 3.94981 
-0.773604 1.82131 4.25588 -0.613944 1.96546 3.94981 -0.562689 1.96603 4.38422 
-0.134872 2.08183 4.56239 -0.303439 2.09905 4.3177 0.00587748 2.1916 4.19558 
0.167782 2.08258 4.54365 0.00587748 2.1916 4.19558 0.277071 2.15142 4.16102 
0.417097 2.04122 4.39176 0.277071 2.15142 4.16102 0.455145 2.08834 4.04544 
0.649845 1.9159 4.34729 0.455145 2.08834 4.04544 0.572251 2.00611 3.93155 
0.786328 1.80294 4.2204 0.572251 2.00611 3.93155 0.708694 1.85038 3.93173 
0.407972 0.837479 3.21326 0.303439 1.12122 3.1728 0.134869 0.876848 3.15154 
-0.611877 0.795876 3.29458 -0.371856 1.01119 3.19706 -0.649845 1.06334 3.34908 
-0.991304 1.13749 3.67836 -0.708694 1.46354 3.4788 -0.866884 1.45434 3.70419 
-1.10998 1.19275 3.86091 -0.866884 1.45434 3.70419 -0.925351 1.52557 3.89631 
-0.407972 2.01471 4.59162 -0.303439 2.09905 4.3177 -0.134872 2.08183 4.56239 
0.522003 1.96978 4.65974 0.167782 2.08258 4.54365 0.417097 2.04122 4.39176 
0.522003 1.96978 4.65974 0.417097 2.04122 4.39176 0.649845 1.9159 4.34729 
0.991304 1.60227 4.22254 0.708694 1.85038 3.93173 0.967778 1.53126 4.00689 
1.20615 1.17452 3.96936 0.925351 1.44771 3.80515 0.886552 1.29586 3.63734 
1.1164 1.00259 3.73503 0.886552 1.29586 3.63734 0.764084 1.14402 3.44861 
0.748115 0.656756 3.336 0.764084 1.14402 3.44861 0.558352 1.05045 3.29127 
0.748115 0.656756 3.336 0.558352 1.05045 3.29127 0.407972 0.837479 3.21326 
0.266757 0.515846 3.16006 0.407972 0.837479 3.21326 0.134869 0.876848 3.15154 
-0.0420285 0.514312 3.14154 0.134869 0.876848 3.15154 -0.099468 0.883361 3.1493 
-0.345478 0.593033 3.18034 -0.099468 0.883361 3.1493 -0.371856 1.01119 3.19706 
-0.886414 0.740155 3.43391 -0.611877 0.795876 3.29458 -0.649845 1.06334 3.34908 
-0.886414 0.740155 3.43391 -0.649845 1.06334 3.34908 -0.786328 1.171 3.48049 
-1.13894 0.830397 3.66572 -0.786328 1.171 3.48049 -0.991304 1.13749 3.67836 
-1.21905 1.32385 4.16752 -0.925351 1.52557 3.89631 -0.886552 1.66756 4.07254 
-1.13525 1.55744 4.48208 -0.886552 1.66756 4.07254 -0.773604 1.82131 4.25588 
-0.90044 1.76811 4.62947 -0.773604 1.82131 4.25588 -0.562689 1.96603 4.38422 
-0.687791 1.89169 4.78499 -0.562689 1.96603 4.38422 -0.407972 2.01471 4.59162 
-0.442499 1.98043 4.88837 -0.407972 2.01471 4.59162 -0.134872 2.08183 4.56239 
0.0416995 2.03492 4.92265 -0.134872 2.08183 4.56239 0.167782 2.08258 4.54365 
0.276886 2.01492 4.89336 0.167782 2.08258 4.54365 0.522003 1.96978 4.65974 
0.880799 1.78366 4.64769 0.522003 1.96978 4.65974 0.649845 1.9159 4.34729 
0.880799 1.78366 4.64769 0.649845 1.9159 4.34729 0.786328 1.80294 4.2204 
1.05232 1.61998 4.45757 0.786328 1.80294 4.2204 0.991304 1.60227 4.22254 
-0.548432 0.37844 3.20626 -0.345478 0.593033 3.18034 -0.611877 0.795876 3.29458 
-0.783375 0.443523 3.30488 -0.611877 0.795876 3.29458 -0.886414 0.740155 3.43391 
-1.27698 0.924065 3.85058 -0.991304 1.13749 3.67836 -1.10998 1.19275 3.86091 
0.782863 1.86229 4.95977 0.522003 1.96978 4.65974 0.880799 1.78366 4.64769 
1.22249 1.39431 4.28042 0.991304 1.60227 4.22254 0.967778 1.53126 4.00689 
1.22249 1.39431 4.28042 0.967778 1.53126 4.00689 1.20615 1.17452 3.96936 
1.33857 0.696435 3.74544 1.1164 1.00259 3.73503 0.987285 0.828086 3.53428 
1.1278 0.474887 3.49128 0.987285 0.828086 3.53428 0.748115 0.656756 3.336 
0.83337 0.303007 3.2821 0.748115 0.656756 3.336 0.538275 0.557856 3.23454 
0.425414 0.261 3.14999 0.538275 0.557856 3.23454 0.266757 0.515846 3.16006 
0.0649912 0.21739 3.10165 0.266757 0.515846 3.16006 -0.0420285 0.514312 3.14154 
-0.26671 0.234532 3.11845 -0.0420285 0.514312 3.14154 -0.345478 0.593033 3.18034 
-0.26671 0.234532 3.11845 -0.345478 0.593033 3.18034 -0.548432 0.37844 3.20626 
-1.05623 0.527539 3.46473 -0.886414 0.740155 3.43391 -1.13894 0.830397 3.66572 
-1.46371 1.03263 4.1431 -1.10998 1.19275 3.86091 -1.21905 1.32385 4.16752 
-0.855728 1.8534 5.10883 -0.90044 1.76811 4.62947 -0.687791 1.89169 4.78499 
-0.855728 1.8534 5.10883 -0.687791 1.89169 4.78499 -0.442499 1.98043 4.88837 
-0.47629 1.98083 5.25455 -0.442499 1.98043 4.88837 -0.187331 2.02376 4.92515 
-0.0510425 2.02879 5.30439 -0.187331 2.02376 4.92515 0.0416995 2.03492 4.92265 
0.267858 2.01402 5.20743 0.0416995 2.03492 4.92265 0.276886 2.01492 4.89336 
0.267858 2.01402 5.20743 0.276886 2.01492 4.89336 0.548432 1.94981 5.0461 
1.11541 1.69276 4.90508 0.880799 1.78366 4.64769 1.05232 1.61998 4.45757 
1.34656 1.48537 4.71757 1.05232 1.61998 4.45757 1.22249 1.39431 4.28042 
1.45933 1.11343 4.23201 1.22249 1.39431 4.28042 1.20615 1.17452 3.96936 
1.58345 0.794118 4.03517 1.20615 1.17452 3.96936 1.33857 0.696435 3.74544 
0.298817 -0.0402693 3.06161 0.425414 0.261 3.14999 0.0649912 0.21739 3.10165 
-0.118773 -0.0543747 3.04245 0.0649912 0.21739 3.10165 -0.26671 0.234532 3.11845 
-0.489035 0.00390382 3.10398 -0.26671 0.234532 3.11845 -0.548432 0.37844 3.20626 
-0.755903 0.0736879 3.18759 -0.548432 0.37844 3.20626 -0.783375 0.443523 3.30488 
-1.06242 0.200322 3.3421 -0.783375 0.443523 3.30488 -1.05623 0.527539 3.46473 
-1.28718 0.356079 3.5259 -1.05623 0.527539 3.46473 -1.13894 0.830397 3.66572 
-1.46091 0.524948 3.72915 -1.13894 0.830397 3.66572 -1.27698 0.924065 3.85058 
-1.55994 0.719586 3.94909 -1.27698 0.924065 3.85058 -1.46371 1.03263 4.1431 
-1.58467 1.19525 4.50581 -1.21905 1.32385 4.16752 -1.13525 1.55744 4.48208 
-1.46823 1.44002 4.78893 -1.13525 1.55744 4.48208 -1.13746 1.67983 4.91277 
0.328316 2.02878 5.49534 0.267858 2.01402 5.20743 0.548432 1.94981 5.0461 
0.747948 1.92205 5.34332 0.548432 1.94981 5.0461 0.782863 1.86229 4.95977 
1.06301 1.78944 5.20564 0.782863 1.86229 4.95977 1.11541 1.69276 4.90508 
1.77667 0.868736 4.28325 1.45933 1.11343 4.23201 1.58345 0.794118 4.03517 
1.43103 0.232712 3.53715 1.33857 0.696435 3.74544 1.1278 0.474887 3.49128 
1.20406 0.0600398 3.34072 1.1278 0.474887 3.49128 0.83337 0.303007 3.2821 
0.917228 -0.0780655 3.17545 0.83337 0.303007 3.2821 0.617445 -0.00430803 3.12633 
-1.77358 0.87232 4.27684 -1.46371 1.03263 4.1431 -1.58467 1.19525 4.50581 
-1.24302 1.74089 5.30323 -1.13746 1.67983 4.91277 -0.855728 1.8534 5.10883 
-0.978754 1.88199 5.47558 -0.855728 1.8534 5.10883 -0.47629 1.98083 5.25455 
-0.429014 2.04079 5.67341 -0.47629 1.98083 5.25455 -0.0510425 2.02879 5.30439 
-0.0999485 2.07222 5.70054 -0.0510425 2.02879 5.30439 0.328316 2.02878 5.49534 
1.4756 1.56751 5.1081 1.11541 1.69276 4.90508 1.34656 1.48537 4.71757 
1.70876 1.26604 4.76074 1.42014 1.32632 4.50055 1.45933 1.11343 4.23201 
1.88857 0.580751 4.07825 1.58345 0.794118 4.03517 1.64073 0.486103 3.82623 
0.562757 -0.270636 3.01764 0.617445 -0.00430803 3.12633 0.298817 -0.0402693 3.06161 
0.238081 -0.367681 2.94781 0.298817 -0.0402693 3.06161 -0.118773 -0.0543747 3.04245 
-0.318243 -0.359984 2.95682 -0.118773 -0.0543747 3.04245 -0.489035 0.00390382 3.10398 
-0.609714 -0.332537 3.00283 -0.489035 0.00390382 3.10398 -0.755903 0.0736879 3.18759 
-1.06601 -0.118498 3.20218 -0.755903 0.0736879 3.18759 -1.06242 0.200322 3.3421 
-1.37877 -0.00203528 3.38041 -1.06242 0.200322 3.3421 -1.28718 0.356079 3.5259 
-1.56332 0.142167 3.54992 -1.28718 0.356079 3.5259 -1.46091 0.524948 3.72915 
-1.69691 0.37959 3.78131 -1.46091 0.524948 3.72915 -1.55994 0.719586 3.94909 
-1.84836 0.551106 4.02535 -1.55994 0.719586 3.94909 -1.77358 0.87232 4.27684 
-1.82182 1.13549 4.66587 -1.58467 1.19525 4.50581 -1.46823 1.44002 4.78893 
-1.68819 1.40019 4.97821 -1.46823 1.44002 4.78893 -1.45401 1.5981 5.16057 
0.227119 2.09497 5.84509 -0.0999485 2.07222 5.70054 0.328316 2.02878 5.49534 
0.563004 2.03591 5.72078 0.328316 2.02878 5.49534 0.747948 1.92205 5.34332 
0.920206 1.93397 5.59936 0.747948 1.92205 5.34332 1.06301 1.78944 5.20564 
1.27359 1.76277 5.39378 1.06301 1.78944 5.20564 1.4756 1.56751 5.1081 
2.00971 0.620859 4.19595 2.02728 0.717036 4.30932 1.77667 0.868736 4.28325 
1.89174 0.340863 3.86565 1.93999 0.431027 3.97136 1.64073 0.486103 3.82623 
1.83384 0.244282 3.75594 1.89174 0.340863 3.86565 1.64073 0.486103 3.82623 
1.75737 0.167907 3.65923 1.83384 0.244282 3.75594 1.64073 0.486103 3.82623 
1.68175 0.08614 3.56437 1.75737 0.167907 3.65923 1.43103 0.232712 3.53715 
1.57828 -0.0112386 3.45416 1.68175 0.08614 3.56437 1.43103 0.232712 3.53715 
0.394992 -0.479337 2.9081 0.541312 -0.457558 2.93416 0.562757 -0.270636 3.01764 
-0.0535005 -0.501472 2.88023 0.095385 -0.505051 2.87934 -0.000761073 -0.332678 2.94881 
-0.209214 -0.490523 2.88986 -0.0535005 -0.501472 2.88023 -0.000761073 -0.332678 2.94881 
-1.56332 0.142167 3.54992 -1.69691 0.37959 3.78131 -1.74355 0.138925 3.63124 
-1.81761 0.223197 3.73127 -1.74355 0.138925 3.63124 -1.69691 0.37959 3.78131 
-1.88088 0.311518 3.83534 -1.81761 0.223197 3.73127 -1.69691 0.37959 3.78131 
-1.92961 0.405024 3.94225 -1.88088 0.311518 3.83534 -1.69691 0.37959 3.78131 
-2.01495 0.695523 4.27724 -2.00026 0.589474 4.15803 -1.77358 0.87232 4.27684 
-2.02106 0.847018 4.45239 -2.01495 0.695523 4.27724 -1.77358 0.87232 4.27684 
-1.97367 1.02649 4.64521 -2.02106 0.847018 4.45239 -1.77358 0.87232 4.27684 
-1.47069 1.72692 5.4919 -1.56928 1.6535 5.40477 -1.24302 1.74089 5.30323 
-1.36358 1.79506 5.57226 -1.47069 1.72692 5.4919 -1.24302 1.74089 5.30323 
-1.24612 1.85773 5.64368 -1.36358 1.79506 5.57226 -1.24302 1.74089 5.30323 
-1.12457 1.91411 5.70904 -1.24612 1.85773 5.64368 -0.978754 1.88199 5.47558 
-0.99791 1.96212 5.7607 -1.12457 1.91411 5.70904 -0.978754 1.88199 5.47558 
-0.834181 2.01348 5.81499 -0.99791 1.96212 5.7607 -0.667326 1.98408 5.57926 
0.563004 2.03591 5.72078 0.920206 1.93397 5.59936 0.825732 2.02179 5.83725 
0.959018 1.97879 5.78551 0.825732 2.02179 5.83725 0.920206 1.93397 5.59936 
1.09116 1.92883 5.72731 0.959018 1.97879 5.78551 0.920206 1.93397 5.59936 
1.21236 1.87266 5.65843 1.09116 1.92883 5.72731 0.920206 1.93397 5.59936 
1.32553 1.81349 5.58892 1.21236 1.87266 5.65843 1.27359 1.76277 5.39378 
1.43917 1.74343 5.50517 1.32553 1.81349 5.58892 1.27359 1.76277 5.39378 
1.53859 1.64873 5.36743 1.43917 1.74343 5.50517 1.27359 1.76277 5.39378 
4.57933 0.0460223 5.35552 2.02725 0.913287 4.53908 2.03315 0.815039 4.42433 
2.03315 0.815039 4.42433 4.58408 -0.0894803 5.19686 4.57933 0.0460223 5.35552 
4.56651 0.163172 5.49142 4.53998 0.326305 5.68401 2.0097 1.01022 4.65183 
2.0097 1.01022 4.65183 2.02725 0.913287 4.53908 4.56651 0.163172 5.49142 
4.50827 0.449725 5.82819 4.47099 0.569026 5.96781 1.98348 1.10727 4.76681 
2.0097 1.01022 4.65183 4.53998 0.326305 5.68401 4.50827 0.449725 5.82819 
1.98348 1.10727 4.76681 2.0097 1.01022 4.65183 4.50827 0.449725 5.82819 
4.40675 0.731403 6.15778 1.94186 1.20247 4.8762 1.98348 1.10727 4.76681 
1.98348 1.10727 4.76681 4.47099 0.569026 5.96781 4.40675 0.731403 6.15778 
4.40675 0.731403 6.15778 4.35323 0.843384 6.28911 1.94186 1.20247 4.8762 
4.35323 0.843384 6.28911 4.28596 0.966876 6.43368 1.89173 1.29266 4.98006 
1.89173 1.29266 4.98006 1.94186 1.20247 4.8762 4.35323 0.843384 6.28911 
4.28596 0.966876 6.43368 4.20457 1.09661 6.5856 1.89173 1.29266 4.98006 
4.20457 1.09661 6.5856 4.12941 1.2039 6.71114 1.82544 1.38668 5.08689 
1.82544 1.38668 5.08689 1.89173 1.29266 4.98006 4.20457 1.09661 6.5856 
4.01634 1.34596 6.87757 1.75207 1.46968 5.17902 1.82544 1.38668 5.08689 
1.82544 1.38668 5.08689 4.12941 1.2039 6.71114 4.01634 1.34596 6.87757 
4.01634 1.34596 6.87757 3.91673 1.45739 7.00801 1.75207 1.46968 5.17902 
3.91673 1.45739 7.00801 3.81648 1.55803 7.12378 1.68829 1.5504 5.2844 
1.68829 1.5504 5.2844 1.75207 1.46968 5.17902 3.91673 1.45739 7.00801 
3.62588 1.72805 7.31904 1.53859 1.64873 5.36743 1.68829 1.5504 5.2844 
1.68829 1.5504 5.2844 3.81648 1.55803 7.12378 3.62588 1.72805 7.31904 
1.53859 1.64873 5.36743 3.62588 1.72805 7.31904 3.42976 1.88608 7.50993 
3.42976 1.88608 7.50993 3.26084 2.00511 7.65131 1.43917 1.74343 5.50517 
3.12888 2.08631 7.74439 1.32553 1.81349 5.58892 1.43917 1.74343 5.50517 
1.32553 1.81349 5.58892 3.12888 2.08631 7.74439 2.97051 2.17808 7.85185 
2.81127 2.26208 7.95018 1.21236 1.87266 5.65843 1.32553 1.81349 5.58892 
1.21236 1.87266 5.65843 2.81127 2.26208 7.95018 2.66726 2.33222 8.03219 
2.66726 2.33222 8.03219 2.45438 2.42525 8.14113 1.09116 1.92883 5.72731 
2.29204 2.48878 8.21562 0.959018 1.97879 5.78551 1.09116 1.92883 5.72731 
1.09116 1.92883 5.72731 2.45438 2.42525 8.14113 2.29204 2.48878 8.21562 
1.88305 2.62501 8.37397 0.825732 2.02179 5.83725 0.959018 1.97879 5.78551 
0.685361 2.05778 5.87845 1.88305 2.62501 8.37397 1.73012 2.66746 8.42483 
0.685361 2.05778 5.87845 1.73012 2.66746 8.42483 1.53848 2.71502 8.4805 
0.685361 2.05778 5.87845 0.825732 2.02179 5.83725 1.88305 2.62501 8.37397 
1.33693 2.75822 8.53109 0.541382 2.08777 5.91434 0.685361 2.05778 5.87845 
0.685361 2.05778 5.87845 1.53848 2.71502 8.4805 1.33693 2.75822 8.53109 
1.16394 2.79021 8.56792 0.919594 2.82731 8.61192 0.394957 2.11012 5.93994 
0.394957 2.11012 5.93994 0.541382 2.08777 5.91434 1.16394 2.79021 8.56792 
0.727414 2.84992 8.63846 0.227119 2.09497 5.84509 0.394957 2.11012 5.93994 
0.394957 2.11012 5.93994 0.919594 2.82731 8.61192 0.727414 2.84992 8.63846 
0.727414 2.84992 8.63846 0.544466 2.86675 8.65773 0.227119 2.09497 5.84509 
0.287115 2.88266 8.67794 0.0953936 2.13449 5.96984 0.227119 2.09497 5.84509 
0.227119 2.09497 5.84509 0.544466 2.86675 8.65773 0.287115 2.88266 8.67794 
0.287115 2.88266 8.67794 0.104348 2.88687 8.68172 0.0953936 2.13449 5.96984 
0.104348 2.88687 8.68172 -0.0940894 2.88716 8.68203 -0.0535274 2.13418 5.96621 
-0.0535274 2.13418 5.96621 0.0953936 2.13449 5.96984 0.104348 2.88687 8.68172 
-0.341367 2.88083 8.67732 -0.209479 2.1271 5.95644 -0.0535274 2.13418 5.96621 
-0.0535274 2.13418 5.96621 -0.0940894 2.88716 8.68203 -0.341367 2.88083 8.67732 
-0.734276 2.84931 8.63775 -0.351242 2.11313 5.938 -0.209479 2.1271 5.95644 
-0.209479 2.1271 5.95644 -0.520661 2.86838 8.66007 -0.734276 2.84931 8.63775 
-0.734276 2.84931 8.63775 -0.932659 2.82537 8.60972 -0.351242 2.11313 5.938 
-0.932659 2.82537 8.60972 -1.10939 2.79853 8.57595 -0.496443 2.0925 5.91233 
-0.496443 2.0925 5.91233 -0.351242 2.11313 5.938 -0.932659 2.82537 8.60972 
-1.35829 2.7545 8.5272 -0.654576 2.06268 5.87909 -0.496443 2.0925 5.91233 
-0.496443 2.0925 5.91233 -1.10939 2.79853 8.57595 -1.35829 2.7545 8.5272 
-1.65544 2.6876 8.44833 -0.834181 2.01348 5.81499 -0.654576 2.06268 5.87909 
-1.65544 2.6876 8.44833 -1.94931 2.60664 8.35586 -0.834181 2.01348 5.81499 
-2.10898 2.55386 8.29182 -0.99791 1.96212 5.7607 -0.834181 2.01348 5.81499 
-0.99791 1.96212 5.7607 -2.10898 2.55386 8.29182 -2.29204 2.48878 8.21562 
-2.47036 2.41836 8.13317 -1.12457 1.91411 5.70904 -0.99791 1.96212 5.7607 
-1.12457 1.91411 5.70904 -2.47036 2.41836 8.13317 -2.62072 2.35408 8.0587 
-2.62072 2.35408 8.0587 -2.82471 2.25583 7.94324 -1.24612 1.85773 5.64368 
-2.97315 2.17654 7.85003 -1.36358 1.79506 5.57226 -1.24612 1.85773 5.64368 
-1.36358 1.79506 5.57226 -2.97315 2.17654 7.85003 -3.11304 2.09608 7.75549 
-3.11304 2.09608 7.75549 -3.30557 1.97407 7.61303 -1.47069 1.72692 5.4919 
-1.56928 1.6535 5.40477 -3.30557 1.97407 7.61303 -3.49838 1.82521 7.42756 
-1.56928 1.6535 5.40477 -1.47069 1.72692 5.4919 -3.30557 1.97407 7.61303 
-3.68391 1.68229 7.27134 -1.66233 1.57518 5.31422 -1.56928 1.6535 5.40477 
-1.56928 1.6535 5.40477 -3.49838 1.82521 7.42756 -3.68391 1.68229 7.27134 
-3.78843 1.58707 7.15955 -3.92219 1.45179 7.0014 -1.74411 1.4932 5.21788 
-1.74411 1.4932 5.21788 -1.66233 1.57518 5.31422 -3.78843 1.58707 7.15955 
-4.02108 1.34001 6.87058 -1.81719 1.40662 5.11631 -1.74411 1.4932 5.21788 
-1.74411 1.4932 5.21788 -3.92219 1.45179 7.0014 -4.02108 1.34001 6.87058 
-4.02108 1.34001 6.87058 -4.10539 1.23501 6.74702 -1.81719 1.40662 5.11631 
-4.21571 1.08238 6.56984 -1.88091 1.31799 5.01379 -1.81719 1.40662 5.11631 
-1.81719 1.40662 5.11631 -4.10539 1.23501 6.74702 -4.21571 1.08238 6.56984 
-4.21571 1.08238 6.56984 -4.28334 0.971095 6.43864 -1.88091 1.31799 5.01379 
-4.28334 0.971095 6.43864 -4.34919 0.85173 6.29879 -1.92964 1.22703 4.90471 
-1.92964 1.22703 4.90471 -1.88091 1.31799 5.01379 -4.28334 0.971095 6.43864 
-4.4259 0.695116 6.11818 -1.96644 1.13465 4.79322 -1.92964 1.22703 4.90471 
-1.92964 1.22703 4.90471 -4.34919 0.85173 6.29879 -4.4259 0.695116 6.11818 
-4.4259 0.695116 6.11818 -4.46581 0.582428 5.98357 -1.96644 1.13465 4.79322 
-4.46581 0.582428 5.98357 -4.51822 0.397239 5.76268 -1.97367 1.02649 4.64521 
-1.97367 1.02649 4.64521 -1.96644 1.13465 4.79322 -4.46581 0.582428 5.98357 
-4.51822 0.397239 5.76268 -4.56348 0.199565 5.53562 -1.97367 1.02649 4.64521 
-4.56348 0.199565 5.53562 -2.02106 0.847018 4.45239 -1.97367 1.02649 4.64521 
-2.02106 0.847018 4.45239 -4.56348 0.199565 5.53562 -4.58065 0.0334128 5.34078 
-4.57322 -0.165058 5.10052 -4.56262 -0.377971 4.85874 -2.01495 0.695523 4.27724 
-4.54139 -0.494865 4.72222 -2.00026 0.589474 4.15803 -2.01495 0.695523 4.27724 
-2.00026 0.589474 4.15803 -4.54139 -0.494865 4.72222 -4.50898 -0.626456 4.56814 
-4.46581 -0.761388 4.41016 -1.84836 0.551106 4.02535 -2.00026 0.589474 4.15803 
-1.84836 0.551106 4.02535 -4.46581 -0.761388 4.41016 -4.42262 -0.874968 4.27742 
-4.42262 -0.874968 4.27742 -4.34928 -1.03063 4.09489 -1.92961 0.405024 3.94225 
-4.28334 -1.15006 3.95509 -1.88088 0.311518 3.83534 -1.92961 0.405024 3.94225 
-1.88088 0.311518 3.83534 -4.28334 -1.15006 3.95509 -4.21424 -1.26098 3.82488 
-4.21424 -1.26098 3.82488 -4.10297 -1.41897 3.64046 -1.81761 0.223197 3.73127 
-1.74355 0.138925 3.63124 -4.10297 -1.41897 3.64046 -4.02108 -1.51897 3.52315 
-1.74355 0.138925 3.63124 -4.02108 -1.51897 3.52315 -3.92442 -1.62721 3.39592 
-1.74355 0.138925 3.63124 -1.81761 0.223197 3.73127 -4.10297 -1.41897 3.64046 
-1.56332 0.142167 3.54992 -3.92442 -1.62721 3.39592 -3.78917 -1.76518 3.23462 
-1.56332 0.142167 3.54992 -1.74355 0.138925 3.63124 -3.92442 -1.62721 3.39592 
-3.68391 -1.86125 3.12239 -3.55161 -1.97188 2.99284 -1.57074 -0.0228395 3.44299 
-1.56332 0.142167 3.54992 -3.78917 -1.76518 3.23462 -3.68391 -1.86125 3.12239 
-1.57074 -0.0228395 3.44299 -1.56332 0.142167 3.54992 -3.68391 -1.86125 3.12239 
-3.42057 -2.07147 2.87625 -1.37877 -0.00203528 3.38041 -1.57074 -0.0228395 3.44299 
-1.57074 -0.0228395 3.44299 -3.55161 -1.97188 2.99284 -3.42057 -2.07147 2.87625 
-3.42057 -2.07147 2.87625 -3.2969 -2.15692 2.77529 -1.37877 -0.00203528 3.38041 
-3.11341 -2.27491 2.63796 -1.36358 -0.165411 3.27682 -1.37877 -0.00203528 3.38041 
-1.37877 -0.00203528 3.38041 -3.2969 -2.15692 2.77529 -3.11341 -2.27491 2.63796 
-3.11341 -2.27491 2.63796 -2.97315 -2.3555 2.54369 -1.36358 -0.165411 3.27682 
-2.97315 -2.3555 2.54369 -2.82483 -2.4353 2.45075 -1.24612 -0.226197 3.20372 
-1.24612 -0.226197 3.20372 -1.36358 -0.165411 3.27682 -2.97315 -2.3555 2.54369 
-2.62038 -2.53327 2.3359 -1.12456 -0.281915 3.13782 -1.24612 -0.226197 3.20372 
-1.24612 -0.226197 3.20372 -2.82483 -2.4353 2.45075 -2.62038 -2.53327 2.3359 
-2.62038 -2.53327 2.3359 -2.47036 -2.59732 2.26056 -1.12456 -0.281915 3.13782 
-2.47036 -2.59732 2.26056 -2.29204 -2.66775 2.1781 -0.997976 -0.325516 3.08229 
-0.997976 -0.325516 3.08229 -1.12456 -0.281915 3.13782 -2.47036 -2.59732 2.26056 
-2.29204 -2.66775 2.1781 -2.10898 -2.73282 2.1019 -0.997976 -0.325516 3.08229 
-2.10898 -2.73282 2.1019 -1.9479 -2.78495 2.04092 -0.795108 -0.268452 3.06648 
-0.795108 -0.268452 3.06648 -0.997976 -0.325516 3.08229 -2.10898 -2.73282 2.1019 
-0.795108 -0.268452 3.06648 -1.9479 -2.78495 2.04092 -1.71488 -2.85073 1.96387 
-1.71488 -2.85073 1.96387 -1.53512 -2.89471 1.91236 -0.609714 -0.332537 3.00283 
-1.53512 -2.89471 1.91236 -1.35843 -2.93444 1.86669 -0.609714 -0.332537 3.00283 
-1.35843 -2.93444 1.86669 -1.10999 -2.97789 1.8146 -0.498536 -0.463838 2.92582 
-0.932659 -3.00433 1.78401 -0.318243 -0.359984 2.95682 -0.498536 -0.463838 2.92582 
-0.318243 -0.359984 2.95682 -0.932659 -3.00433 1.78401 -0.7343 -3.02826 1.75599 
-0.7343 -3.02826 1.75599 -0.493913 -3.04964 1.73097 -0.209214 -0.490523 2.88986 
-0.312829 -3.05966 1.71923 -0.0940996 -3.06611 1.71166 -0.0535005 -0.501472 2.88023 
-0.209214 -0.490523 2.88986 -0.493913 -3.04964 1.73097 -0.312829 -3.05966 1.71923 
0.104348 -3.06583 1.712 0.095385 -0.505051 2.87934 -0.0535005 -0.501472 2.88023 
0.095385 -0.505051 2.87934 0.104348 -3.06583 1.712 0.286778 -3.05809 1.71887 
0.286778 -3.05809 1.71887 0.544612 -3.0464 1.73512 0.238081 -0.367681 2.94781 
0.727414 -3.02888 1.75526 0.919586 -3.00613 1.78179 0.394992 -0.479337 2.9081 
0.238081 -0.367681 2.94781 0.544612 -3.0464 1.73512 0.727414 -3.02888 1.75526 
1.16479 -2.97177 1.82386 0.541312 -0.457558 2.93416 0.394992 -0.479337 2.9081 
1.33693 -2.93718 1.86264 1.53848 -2.89398 1.91321 0.68538 -0.427773 2.96894 
0.541312 -0.457558 2.93416 1.16479 -2.97177 1.82386 1.33693 -2.93718 1.86264 
0.68538 -0.427773 2.96894 0.541312 -0.457558 2.93416 1.33693 -2.93718 1.86264 
1.73012 -2.84642 1.9689 0.825782 -0.391125 3.01172 0.68538 -0.427773 2.96894 
0.68538 -0.427773 2.96894 1.53848 -2.89398 1.91321 1.73012 -2.84642 1.9689 
1.73012 -2.84642 1.9689 1.89577 -2.79901 2.02337 0.825782 -0.391125 3.01172 
1.89577 -2.79901 2.02337 2.12608 -2.72714 2.10841 0.959022 -0.347324 3.06198 
0.959022 -0.347324 3.06198 0.825782 -0.391125 3.01172 1.89577 -2.79901 2.02337 
2.29204 -2.66775 2.1781 2.45485 -2.605 2.25215 1.09237 -0.300503 3.11923 
0.959022 -0.347324 3.06198 2.12608 -2.72714 2.10841 2.29204 -2.66775 2.1781 
1.09237 -0.300503 3.11923 0.959022 -0.347324 3.06198 2.29204 -2.66775 2.1781 
2.6673 -2.511 2.36148 1.21229 -0.238352 3.18669 1.09237 -0.300503 3.11923 
1.09237 -0.300503 3.11923 2.45485 -2.605 2.25215 2.6673 -2.511 2.36148 
2.6673 -2.511 2.36148 2.81127 -2.44104 2.44354 1.21229 -0.238352 3.18669 
2.81127 -2.44104 2.44354 2.97052 -2.35704 2.5419 1.32557 -0.179024 3.256 
1.32557 -0.179024 3.256 1.21229 -0.238352 3.18669 2.81127 -2.44104 2.44354 
2.97052 -2.35704 2.5419 3.12888 -2.26527 2.64934 1.32557 -0.179024 3.256 
3.12888 -2.26527 2.64934 3.25865 -2.18344 2.74487 1.44419 -0.113054 3.33661 
1.44419 -0.113054 3.33661 1.32557 -0.179024 3.256 3.12888 -2.26527 2.64934 
3.47251 -2.03108 2.92173 1.57828 -0.0112386 3.45416 1.44419 -0.113054 3.33661 
1.44419 -0.113054 3.33661 3.25865 -2.18344 2.74487 3.47251 -2.03108 2.92173 
3.47251 -2.03108 2.92173 3.66974 -1.87393 3.1074 1.57828 -0.0112386 3.45416 
3.66974 -1.87393 3.1074 3.81919 -1.73721 3.26786 1.68175 0.08614 3.56437 
3.91673 -1.63635 3.38572 1.75737 0.167907 3.65923 1.68175 0.08614 3.56437 
1.75737 0.167907 3.65923 3.91673 -1.63635 3.38572 4.01637 -1.52485 3.51625 
4.01637 -1.52485 3.51625 4.12995 -1.38312 3.68254 1.83384 0.244282 3.75594 
4.20457 -1.27557 3.80813 1.89174 0.340863 3.86565 1.83384 0.244282 3.75594 
1.89174 0.340863 3.86565 4.20457 -1.27557 3.80813 4.28599 -1.14585 3.96002 
4.35323 -1.02234 4.10462 1.93999 0.431027 3.97136 1.89174 0.340863 3.86565 
1.93999 0.431027 3.97136 4.35323 -1.02234 4.10462 4.40742 -0.910243 4.23608 
4.40742 -0.910243 4.23608 4.47048 -0.747384 4.42606 1.88857 0.580751 4.07825 
4.50827 -0.628686 4.56554 2.00971 0.620859 4.19595 1.88857 0.580751 4.07825 
1.88857 0.580751 4.07825 4.47048 -0.747384 4.42606 4.50827 -0.628686 4.56554 
4.56699 -0.341116 4.90132 2.02728 0.717036 4.30932 2.00971 0.620859 4.19595 
4.57933 -0.224983 5.03821 4.58408 -0.0894803 5.19686 2.03315 0.815039 4.42433 
2.02728 0.717036 4.30932 4.56699 -0.341116 4.90132 4.57933 -0.224983 5.03821 
2.03315 0.815039 4.42433 2.02728 0.717036 4.30932 4.57933 -0.224983 5.03821 
2.00971 0.620859 4.19595 4.54012 -0.505744 4.70993 4.56699 -0.341116 4.90132 
4.50827 -0.628686 4.56554 4.54012 -0.505744 4.70993 2.00971 0.620859 4.19595 
1.88857 0.580751 4.07825 1.93999 0.431027 3.97136 4.40742 -0.910243 4.23608 
1.89174 0.340863 3.86565 4.28599 -1.14585 3.96002 4.35323 -1.02234 4.10462 
1.83384 0.244282 3.75594 4.12995 -1.38312 3.68254 4.20457 -1.27557 3.80813 
1.83384 0.244282 3.75594 1.75737 0.167907 3.65923 4.01637 -1.52485 3.51625 
1.68175 0.08614 3.56437 3.81919 -1.73721 3.26786 3.91673 -1.63635 3.38572 
1.68175 0.08614 3.56437 1.57828 -0.0112386 3.45416 3.66974 -1.87393 3.1074 
0.394992 -0.479337 2.9081 0.919586 -3.00613 1.78179 1.16479 -2.97177 1.82386 
0.394992 -0.479337 2.9081 0.238081 -0.367681 2.94781 0.727414 -3.02888 1.75526 
0.238081 -0.367681 2.94781 0.095385 -0.505051 2.87934 0.286778 -3.05809 1.71887 
-0.0535005 -0.501472 2.88023 -0.0940996 -3.06611 1.71166 0.104348 -3.06583 1.712 
-0.0535005 -0.501472 2.88023 -0.209214 -0.490523 2.88986 -0.312829 -3.05966 1.71923 
-0.209214 -0.490523 2.88986 -0.318243 -0.359984 2.95682 -0.7343 -3.02826 1.75599 
-0.498536 -0.463838 2.92582 -1.10999 -2.97789 1.8146 -0.932659 -3.00433 1.78401 
-0.498536 -0.463838 2.92582 -0.609714 -0.332537 3.00283 -1.35843 -2.93444 1.86669 
-0.609714 -0.332537 3.00283 -0.795108 -0.268452 3.06648 -1.71488 -2.85073 1.96387 
-1.81761 0.223197 3.73127 -1.88088 0.311518 3.83534 -4.21424 -1.26098 3.82488 
-1.92961 0.405024 3.94225 -4.34928 -1.03063 4.09489 -4.28334 -1.15006 3.95509 
-1.92961 0.405024 3.94225 -1.84836 0.551106 4.02535 -4.42262 -0.874968 4.27742 
-2.00026 0.589474 4.15803 -4.50898 -0.626456 4.56814 -4.46581 -0.761388 4.41016 
-2.01495 0.695523 4.27724 -4.56262 -0.377971 4.85874 -4.54139 -0.494865 4.72222 
-2.01495 0.695523 4.27724 -2.02106 0.847018 4.45239 -4.57322 -0.165058 5.10052 
-2.02106 0.847018 4.45239 -4.58065 0.0334128 5.34078 -4.57322 -0.165058 5.10052 
-3.68391 1.68229 7.27134 -3.78843 1.58707 7.15955 -1.66233 1.57518 5.31422 
-1.47069 1.72692 5.4919 -1.36358 1.79506 5.57226 -3.11304 2.09608 7.75549 
-1.24612 1.85773 5.64368 -2.82471 2.25583 7.94324 -2.97315 2.17654 7.85003 
-1.24612 1.85773 5.64368 -1.12457 1.91411 5.70904 -2.62072 2.35408 8.0587 
-0.99791 1.96212 5.7607 -2.29204 2.48878 8.21562 -2.47036 2.41836 8.13317 
-0.834181 2.01348 5.81499 -1.94931 2.60664 8.35586 -2.10898 2.55386 8.29182 
-0.654576 2.06268 5.87909 -1.35829 2.7545 8.5272 -1.65544 2.6876 8.44833 
-0.209479 2.1271 5.95644 -0.341367 2.88083 8.67732 -0.520661 2.86838 8.66007 
1.33693 2.75822 8.53109 1.16394 2.79021 8.56792 0.541382 2.08777 5.91434 
0.959018 1.97879 5.78551 2.12602 2.54829 8.28502 1.88305 2.62501 8.37397 
2.29204 2.48878 8.21562 2.12602 2.54829 8.28502 0.959018 1.97879 5.78551 
1.09116 1.92883 5.72731 1.21236 1.87266 5.65843 2.66726 2.33222 8.03219 
1.32553 1.81349 5.58892 2.97051 2.17808 7.85185 2.81127 2.26208 7.95018 
1.43917 1.74343 5.50517 3.26084 2.00511 7.65131 3.12888 2.08631 7.74439 
1.43917 1.74343 5.50517 1.53859 1.64873 5.36743 3.42976 1.88608 7.50993 
4.57933 0.0460223 5.35552 4.56651 0.163172 5.49142 2.02725 0.913287 4.53908 
-4.78814 -0.104379 5.34617 -4.57322 -0.165058 5.10052 -4.58065 0.0334128 5.34078 
-4.58065 0.0334128 5.34078 -4.56348 0.199565 5.53562 -4.75437 0.18716 5.6824 
-4.51822 0.397239 5.76268 -4.67792 0.550576 6.12997 -4.75437 0.18716 5.6824 
-4.51822 0.397239 5.76268 -4.46581 0.582428 5.98357 -4.67792 0.550576 6.12997 
-4.67792 0.550576 6.12997 -4.46581 0.582428 5.98357 -4.4259 0.695116 6.11818 
-4.4259 0.695116 6.11818 -4.34919 0.85173 6.29879 -4.46846 0.936388 6.55397 
-4.46846 0.936388 6.55397 -4.28334 0.971095 6.43864 -4.21571 1.08238 6.56984 
-4.21571 1.08238 6.56984 -4.10539 1.23501 6.74702 -4.25578 1.25325 6.93316 
-4.25578 1.25325 6.93316 -4.02108 1.34001 6.87058 -3.92219 1.45179 7.0014 
-3.92219 1.45179 7.0014 -4.03966 1.5031 7.23326 -4.25578 1.25325 6.93316 
-3.92219 1.45179 7.0014 -3.78843 1.58707 7.15955 -4.03966 1.5031 7.23326 
-3.76359 1.75434 7.52411 -4.03966 1.5031 7.23326 -3.78843 1.58707 7.15955 
-3.68391 1.68229 7.27134 -3.49838 1.82521 7.42756 -3.76359 1.75434 7.52411 
-3.49094 1.95747 7.75991 -3.76359 1.75434 7.52411 -3.49838 1.82521 7.42756 
-3.49094 1.95747 7.75991 -3.49838 1.82521 7.42756 -3.30557 1.97407 7.61303 
-3.30557 1.97407 7.61303 -3.11304 2.09608 7.75549 -3.0917 2.2077 8.05465 
-3.0917 2.2077 8.05465 -2.97315 2.17654 7.85003 -2.82471 2.25583 7.94324 
-2.82471 2.25583 7.94324 -2.62072 2.35408 8.0587 -2.66673 2.41177 8.29119 
-2.47036 2.41836 8.13317 -2.29204 2.48878 8.21562 -2.19756 2.59438 8.50527 
-2.29204 2.48878 8.21562 -2.10898 2.55386 8.29182 -2.19756 2.59438 8.50527 
-2.19756 2.59438 8.50527 -2.10898 2.55386 8.29182 -1.94931 2.60664 8.35586 
-1.94931 2.60664 8.35586 -1.65544 2.6876 8.44833 -1.68797 2.73945 8.67577 
-1.68797 2.73945 8.67577 -1.65544 2.6876 8.44833 -1.35829 2.7545 8.5272 
-1.35829 2.7545 8.5272 -1.17228 2.8454 8.79673 -1.68797 2.73945 8.67577 
-1.35829 2.7545 8.5272 -1.10939 2.79853 8.57595 -1.17228 2.8454 8.79673 
-1.17228 2.8454 8.79673 -0.932659 2.82537 8.60972 -0.734276 2.84931 8.63775 
-0.734276 2.84931 8.63775 -0.636799 2.9127 8.88633 -1.17228 2.8454 8.79673 
-0.734276 2.84931 8.63775 -0.520661 2.86838 8.66007 -0.636799 2.9127 8.88633 
-0.636799 2.9127 8.88633 -0.520661 2.86838 8.66007 -0.341367 2.88083 8.67732 
-0.341367 2.88083 8.67732 -0.100402 2.94058 8.91615 -0.636799 2.9127 8.88633 
-0.341367 2.88083 8.67732 -0.0940894 2.88716 8.68203 -0.100402 2.94058 8.91615 
-0.100402 2.94058 8.91615 0.104348 2.88687 8.68172 0.287115 2.88266 8.67794 
0.287115 2.88266 8.67794 0.560501 2.91872 8.87916 -0.100402 2.94058 8.91615 
0.287115 2.88266 8.67794 0.544466 2.86675 8.65773 0.560501 2.91872 8.87916 
0.560501 2.91872 8.87916 0.727414 2.84992 8.63846 0.919594 2.82731 8.61192 
0.919594 2.82731 8.61192 1.32872 2.81722 8.75125 0.560501 2.91872 8.87916 
0.919594 2.82731 8.61192 1.16394 2.79021 8.56792 1.32872 2.81722 8.75125 
1.33693 2.75822 8.53109 1.53848 2.71502 8.4805 1.32872 2.81722 8.75125 
1.97 2.66296 8.57964 1.32872 2.81722 8.75125 1.53848 2.71502 8.4805 
1.97 2.66296 8.57964 1.73012 2.66746 8.42483 1.88305 2.62501 8.37397 
1.88305 2.62501 8.37397 2.12602 2.54829 8.28502 1.97 2.66296 8.57964 
2.49878 2.4869 8.39653 1.97 2.66296 8.57964 2.12602 2.54829 8.28502 
2.49878 2.4869 8.39653 2.29204 2.48878 8.21562 2.45438 2.42525 8.14113 
2.45438 2.42525 8.14113 2.66726 2.33222 8.03219 2.87934 2.31948 8.19412 
2.87934 2.31948 8.19412 2.81127 2.26208 7.95018 2.97051 2.17808 7.85185 
2.97051 2.17808 7.85185 3.29173 2.12004 8.01828 2.87934 2.31948 8.19412 
2.97051 2.17808 7.85185 3.12888 2.08631 7.74439 3.29173 2.12004 8.01828 
3.29173 2.12004 8.01828 3.12888 2.08631 7.74439 3.26084 2.00511 7.65131 
3.26084 2.00511 7.65131 3.42976 1.88608 7.50993 3.65003 1.84016 7.61902 
3.62588 1.72805 7.31904 3.99076 1.55295 7.28729 3.65003 1.84016 7.61902 
3.62588 1.72805 7.31904 3.81648 1.55803 7.12378 3.99076 1.55295 7.28729 
3.99076 1.55295 7.28729 3.91673 1.45739 7.00801 4.01634 1.34596 6.87757 
4.01634 1.34596 6.87757 4.25994 1.2625 6.9589 3.99076 1.55295 7.28729 
4.01634 1.34596 6.87757 4.12941 1.2039 6.71114 4.25994 1.2625 6.9589 
4.46128 0.975294 6.61904 4.25994 1.2625 6.9589 4.12941 1.2039 6.71114 
4.20457 1.09661 6.5856 4.28596 0.966876 6.43368 4.46128 0.975294 6.61904 
4.58419 0.727505 6.31944 4.46128 0.975294 6.61904 4.28596 0.966876 6.43368 
4.58419 0.727505 6.31944 4.35323 0.843384 6.28911 4.40675 0.731403 6.15778 
4.40675 0.731403 6.15778 4.47099 0.569026 5.96781 4.72598 0.348647 5.87633 
4.72598 0.348647 5.87633 4.50827 0.449725 5.82819 4.53998 0.326305 5.68401 
4.53998 0.326305 5.68401 4.56651 0.163172 5.49142 4.79129 -0.0509826 5.41043 
4.57933 0.0460223 5.35552 4.58408 -0.0894803 5.19686 4.79129 -0.0509826 5.41043 
4.58408 -0.0894803 5.19686 4.57933 -0.224983 5.03821 4.76296 -0.449428 4.93368 
4.76296 -0.449428 4.93368 4.57933 -0.224983 5.03821 4.56699 -0.341116 4.90132 
4.56699 -0.341116 4.90132 4.54012 -0.505744 4.70993 4.76296 -0.449428 4.93368 
4.69774 -0.796829 4.53973 4.76296 -0.449428 4.93368 4.54012 -0.505744 4.70993 
4.69774 -0.796829 4.53973 4.50827 -0.628686 4.56554 4.47048 -0.747384 4.42606 
4.47048 -0.747384 4.42606 4.40742 -0.910243 4.23608 4.57835 -1.09092 4.19233 
4.57835 -1.09092 4.19233 4.35323 -1.02234 4.10462 4.28599 -1.14585 3.96002 
4.28599 -1.14585 3.96002 4.33266 -1.51675 3.69809 4.57835 -1.09092 4.19233 
4.28599 -1.14585 3.96002 4.20457 -1.27557 3.80813 4.33266 -1.51675 3.69809 
4.33266 -1.51675 3.69809 4.20457 -1.27557 3.80813 4.12995 -1.38312 3.68254 
4.12995 -1.38312 3.68254 4.01637 -1.52485 3.51625 4.33266 -1.51675 3.69809 
4.09687 -1.92736 3.29279 4.33266 -1.51675 3.69809 4.01637 -1.52485 3.51625 
4.09687 -1.92736 3.29279 3.91673 -1.63635 3.38572 3.81919 -1.73721 3.26786 
3.81919 -1.73721 3.26786 3.66974 -1.87393 3.1074 3.76225 -2.09767 3.01194 
3.47251 -2.03108 2.92173 3.3084 -2.43095 2.62564 3.76225 -2.09767 3.01194 
3.47251 -2.03108 2.92173 3.25865 -2.18344 2.74487 3.3084 -2.43095 2.62564 
3.12888 -2.26527 2.64934 2.97052 -2.35704 2.5419 3.3084 -2.43095 2.62564 
2.8437 -2.67808 2.33526 3.3084 -2.43095 2.62564 2.97052 -2.35704 2.5419 
2.8437 -2.67808 2.33526 2.81127 -2.44104 2.44354 2.6673 -2.511 2.36148 
2.6673 -2.511 2.36148 2.45485 -2.605 2.25215 2.39922 -2.86063 2.1147 
2.39922 -2.86063 2.1147 2.29204 -2.66775 2.1781 2.12608 -2.72714 2.10841 
2.12608 -2.72714 2.10841 1.89577 -2.79901 2.02337 1.88831 -3.03041 1.91936 
1.88831 -3.03041 1.91936 1.73012 -2.84642 1.9689 1.53848 -2.89398 1.91321 
1.53848 -2.89398 1.91321 1.46023 -3.14448 1.79463 1.88831 -3.03041 1.91936 
1.53848 -2.89398 1.91321 1.33693 -2.93718 1.86264 1.46023 -3.14448 1.79463 
1.46023 -3.14448 1.79463 1.33693 -2.93718 1.86264 1.16479 -2.97177 1.82386 
1.16479 -2.97177 1.82386 0.930312 -3.2294 1.69083 1.46023 -3.14448 1.79463 
1.16479 -2.97177 1.82386 0.919586 -3.00613 1.78179 0.930312 -3.2294 1.69083 
0.930312 -3.2294 1.69083 0.727414 -3.02888 1.75526 0.544612 -3.0464 1.73512 
0.544612 -3.0464 1.73512 0.327826 -3.2762 1.63133 0.930312 -3.2294 1.69083 
0.544612 -3.0464 1.73512 0.286778 -3.05809 1.71887 0.327826 -3.2762 1.63133 
0.327826 -3.2762 1.63133 0.104348 -3.06583 1.712 -0.0940996 -3.06611 1.71166 
-0.0940996 -3.06611 1.71166 -0.467051 -3.28797 1.63099 0.327826 -3.2762 1.63133 
-0.0940996 -3.06611 1.71166 -0.312829 -3.05966 1.71923 -0.467051 -3.28797 1.63099 
-0.467051 -3.28797 1.63099 -0.312829 -3.05966 1.71923 -0.493913 -3.04964 1.73097 
-0.493913 -3.04964 1.73097 -0.7343 -3.02826 1.75599 -0.467051 -3.28797 1.63099 
-1.18718 -3.19918 1.73195 -0.467051 -3.28797 1.63099 -0.7343 -3.02826 1.75599 
-1.18718 -3.19918 1.73195 -0.932659 -3.00433 1.78401 -1.10999 -2.97789 1.8146 
-1.10999 -2.97789 1.8146 -1.35843 -2.93444 1.86669 -1.18718 -3.19918 1.73195 
-1.70931 -3.07691 1.8653 -1.18718 -3.19918 1.73195 -1.35843 -2.93444 1.86669 
-1.70931 -3.07691 1.8653 -1.53512 -2.89471 1.91236 -1.71488 -2.85073 1.96387 
-1.71488 -2.85073 1.96387 -1.9479 -2.78495 2.04092 -2.19386 -2.93074 2.03015 
-2.10898 -2.73282 2.1019 -2.29204 -2.66775 2.1781 -2.19386 -2.93074 2.03015 
-2.29204 -2.66775 2.1781 -2.47036 -2.59732 2.26056 -2.67893 -2.75848 2.24466 
-2.67893 -2.75848 2.24466 -2.47036 -2.59732 2.26056 -2.62038 -2.53327 2.3359 
-2.62038 -2.53327 2.3359 -2.82483 -2.4353 2.45075 -3.11932 -2.53532 2.49979 
-3.11932 -2.53532 2.49979 -2.97315 -2.3555 2.54369 -3.11341 -2.27491 2.63796 
-3.11341 -2.27491 2.63796 -3.2969 -2.15692 2.77529 -3.51404 -2.27713 2.7962 
-3.51404 -2.27713 2.7962 -3.42057 -2.07147 2.87625 -3.55161 -1.97188 2.99284 
-3.55161 -1.97188 2.99284 -3.93969 -1.95488 3.18435 -3.51404 -2.27713 2.7962 
-3.55161 -1.97188 2.99284 -3.68391 -1.86125 3.12239 -3.93969 -1.95488 3.18435 
-3.93969 -1.95488 3.18435 -3.68391 -1.86125 3.12239 -3.78917 -1.76518 3.23462 
-3.78917 -1.76518 3.23462 -3.92442 -1.62721 3.39592 -3.93969 -1.95488 3.18435 
-4.25495 -1.60387 3.59283 -3.93969 -1.95488 3.18435 -3.92442 -1.62721 3.39592 
-4.25495 -1.60387 3.59283 -4.02108 -1.51897 3.52315 -4.10297 -1.41897 3.64046 
-4.10297 -1.41897 3.64046 -4.21424 -1.26098 3.82488 -4.45889 -1.3272 3.92118 
-4.45889 -1.3272 3.92118 -4.28334 -1.15006 3.95509 -4.34928 -1.03063 4.09489 
-4.34928 -1.03063 4.09489 -4.66667 -0.897852 4.41977 -4.45889 -1.3272 3.92118 
-4.34928 -1.03063 4.09489 -4.42262 -0.874968 4.27742 -4.66667 -0.897852 4.41977 
-4.46581 -0.761388 4.41016 -4.50898 -0.626456 4.56814 -4.66667 -0.897852 4.41977 
-4.77147 -0.458204 4.93128 -4.66667 -0.897852 4.41977 -4.50898 -0.626456 4.56814 
-4.77147 -0.458204 4.93128 -4.54139 -0.494865 4.72222 -4.56262 -0.377971 4.85874 
-4.56262 -0.377971 4.85874 -4.57322 -0.165058 5.10052 -4.77147 -0.458204 4.93128 
-4.78814 -0.104379 5.34617 -4.77147 -0.458204 4.93128 -4.57322 -0.165058 5.10052 
-4.78814 -0.104379 5.34617 -4.75437 0.18716 5.6824 -4.95914 -0.0468125 5.6105 
-4.75437 0.18716 5.6824 -4.67792 0.550576 6.12997 -4.97154 0.199993 5.97114 
-4.67792 0.550576 6.12997 -4.46846 0.936388 6.55397 -4.77761 0.661355 6.4604 
-4.46846 0.936388 6.55397 -4.25578 1.25325 6.93316 -4.51186 1.08453 6.93119 
-4.25578 1.25325 6.93316 -4.03966 1.5031 7.23326 -4.23537 1.42515 7.33366 
-4.03966 1.5031 7.23326 -3.76359 1.75434 7.52411 -3.91122 1.72289 7.67826 
-3.76359 1.75434 7.52411 -3.49094 1.95747 7.75991 -3.54424 1.99808 8.00644 
-3.49094 1.95747 7.75991 -3.0917 2.2077 8.05465 -3.54424 1.99808 8.00644 
-3.0917 2.2077 8.05465 -2.66673 2.41177 8.29119 -2.77096 2.41118 8.48845 
-2.66673 2.41177 8.29119 -2.19756 2.59438 8.50527 -2.28373 2.5989 8.69016 
-2.19756 2.59438 8.50527 -1.68797 2.73945 8.67577 -1.78871 2.74319 8.87234 
-1.68797 2.73945 8.67577 -1.17228 2.8454 8.79673 -1.45244 2.8249 9.03075 
-1.17228 2.8454 8.79673 -0.636799 2.9127 8.88633 -0.89736 2.90625 9.06809 
-0.636799 2.9127 8.88633 -0.100402 2.94058 8.91615 -0.459311 2.94895 9.16906 
-0.100402 2.94058 8.91615 0.560501 2.91872 8.87916 0.151378 2.95886 9.12998 
0.560501 2.91872 8.87916 1.32872 2.81722 8.75125 1.10489 2.8784 9.02573 
1.32872 2.81722 8.75125 1.97 2.66296 8.57964 1.73037 2.76381 8.94639 
2.49878 2.4869 8.39653 2.87934 2.31948 8.19412 2.9229 2.3572 8.49463 
3.29173 2.12004 8.01828 3.65003 1.84016 7.61902 3.68758 1.89634 7.88075 
3.65003 1.84016 7.61902 3.99076 1.55295 7.28729 4.07 1.57989 7.50344 
3.99076 1.55295 7.28729 4.25994 1.2625 6.9589 4.37101 1.31146 7.27016 
4.25994 1.2625 6.9589 4.46128 0.975294 6.61904 4.60736 0.984444 6.8558 
4.46128 0.975294 6.61904 4.58419 0.727505 6.31944 4.78136 0.607058 6.36689 
4.58419 0.727505 6.31944 4.72598 0.348647 5.87633 4.78136 0.607058 6.36689 
4.72598 0.348647 5.87633 4.79129 -0.0509826 5.41043 5.01856 -0.147577 5.55086 
4.79129 -0.0509826 5.41043 4.76296 -0.449428 4.93368 4.95914 -0.491348 5.09001 
4.76296 -0.449428 4.93368 4.69774 -0.796829 4.53973 4.93297 -0.892695 4.67066 
4.69774 -0.796829 4.53973 4.57835 -1.09092 4.19233 4.74612 -1.22129 4.23103 
4.57835 -1.09092 4.19233 4.33266 -1.51675 3.69809 4.60217 -1.48934 3.92152 
4.09687 -1.92736 3.29279 3.76225 -2.09767 3.01194 3.92561 -2.25093 3.02954 
3.76225 -2.09767 3.01194 3.3084 -2.43095 2.62564 3.55128 -2.52395 2.70487 
3.3084 -2.43095 2.62564 2.8437 -2.67808 2.33526 3.13292 -2.84806 2.39019 
2.8437 -2.67808 2.33526 2.39922 -2.86063 2.1147 2.69234 -3.05204 2.14986 
2.39922 -2.86063 2.1147 1.88831 -3.03041 1.91936 2.1832 -3.16943 1.95439 
1.88831 -3.03041 1.91936 1.46023 -3.14448 1.79463 1.72745 -3.382 1.78314 
1.46023 -3.14448 1.79463 0.930312 -3.2294 1.69083 1.06616 -3.42154 1.65556 
0.930312 -3.2294 1.69083 0.327826 -3.2762 1.63133 0.449023 -3.48426 1.58578 
0.327826 -3.2762 1.63133 -0.467051 -3.28797 1.63099 -0.225675 -3.49557 1.57048 
-0.467051 -3.28797 1.63099 -1.18718 -3.19918 1.73195 -0.920531 -3.52119 1.61801 
-1.18718 -3.19918 1.73195 -1.70931 -3.07691 1.8653 -1.48689 -3.45272 1.72039 
-1.70931 -3.07691 1.8653 -2.19386 -2.93074 2.03015 -1.9832 -3.22941 1.88417 
-2.19386 -2.93074 2.03015 -2.67893 -2.75848 2.24466 -2.48983 -3.06562 2.0765 
-2.67893 -2.75848 2.24466 -3.11932 -2.53532 2.49979 -3.00259 -2.91965 2.31155 
-3.11932 -2.53532 2.49979 -3.51404 -2.27713 2.7962 -3.635 -2.47119 2.77193 
-3.51404 -2.27713 2.7962 -3.93969 -1.95488 3.18435 -4.01281 -2.18585 3.11119 
-3.93969 -1.95488 3.18435 -4.25495 -1.60387 3.59283 -4.31963 -1.86937 3.47795 
-4.25495 -1.60387 3.59283 -4.45889 -1.3272 3.92118 -4.60522 -1.62278 3.83431 
-4.45889 -1.3272 3.92118 -4.66667 -0.897852 4.41977 -4.78404 -1.13692 4.32774 
-4.66667 -0.897852 4.41977 -4.77147 -0.458204 4.93128 -4.97301 -0.813622 4.78712 
-4.77147 -0.458204 4.93128 -4.78814 -0.104379 5.34617 -5.01353 -0.445537 5.19701 
-5.01353 -0.445537 5.19701 -4.95914 -0.0468125 5.6105 -5.13292 -0.158759 5.71049 
-4.97154 0.199993 5.97114 -4.77761 0.661355 6.4604 -5.04495 0.289059 6.24416 
-4.77761 0.661355 6.4604 -4.51186 1.08453 6.93119 -4.76057 0.881162 6.92538 
-4.51186 1.08453 6.93119 -4.23537 1.42515 7.33366 -4.56221 1.15519 7.23552 
-4.23537 1.42515 7.33366 -3.91122 1.72289 7.67826 -4.06554 1.66359 7.84055 
-3.91122 1.72289 7.67826 -3.54424 1.99808 8.00644 -3.68237 1.95415 8.1877 
-3.54424 1.99808 8.00644 -3.1115 2.24907 8.29812 -3.24193 2.21131 8.48067 
-3.1115 2.24907 8.29812 -2.77096 2.41118 8.48845 -2.84954 2.39906 8.70291 
-2.77096 2.41118 8.48845 -2.28373 2.5989 8.69016 -2.38905 2.57709 8.90513 
-2.28373 2.5989 8.69016 -1.78871 2.74319 8.87234 -1.94916 2.70784 9.06061 
-1.45244 2.8249 9.03075 -0.89736 2.90625 9.06809 -1.03828 2.89096 9.29101 
-0.459311 2.94895 9.16906 0.151378 2.95886 9.12998 -0.197985 2.9565 9.34874 
0.151378 2.95886 9.12998 0.679877 2.92895 9.09467 0.370993 2.95038 9.36129 
0.679877 2.92895 9.09467 1.10489 2.8784 9.02573 0.934268 2.90244 9.29884 
1.10489 2.8784 9.02573 1.73037 2.76381 8.94639 1.39989 2.83284 9.21962 
1.73037 2.76381 8.94639 2.35317 2.58109 8.71379 2.16706 2.64689 8.99905 
2.9229 2.3572 8.49463 3.29173 2.12004 8.01828 3.49061 2.07331 8.32462 
3.29173 2.12004 8.01828 3.68758 1.89634 7.88075 3.49061 2.07331 8.32462 
3.68758 1.89634 7.88075 4.07 1.57989 7.50344 4.16511 1.57905 7.73727 
4.37101 1.31146 7.27016 4.60736 0.984444 6.8558 4.71228 0.965441 7.03264 
4.60736 0.984444 6.8558 4.78136 0.607058 6.36689 4.95373 0.516566 6.49335 
5.01856 -0.147577 5.55086 4.95914 -0.491348 5.09001 5.15535 -0.525166 5.30202 
4.95914 -0.491348 5.09001 4.93297 -0.892695 4.67066 5.18386 -0.853917 5.01672 
4.93297 -0.892695 4.67066 4.74612 -1.22129 4.23103 4.92685 -1.38541 4.29364 
4.74612 -1.22129 4.23103 4.60217 -1.48934 3.92152 4.76231 -1.64025 3.97191 
4.60217 -1.48934 3.92152 4.41342 -1.75643 3.60854 4.56483 -1.90097 3.65439 
4.41342 -1.75643 3.60854 4.09687 -1.92736 3.29279 4.33438 -2.18107 3.34137 
4.09687 -1.92736 3.29279 3.92561 -2.25093 3.02954 4.06865 -2.41578 3.05682 
3.92561 -2.25093 3.02954 3.55128 -2.52395 2.70487 3.66912 -2.72779 2.70106 
2.69234 -3.05204 2.14986 2.1832 -3.16943 1.95439 2.26719 -3.38237 1.93614 
1.06616 -3.42154 1.65556 0.449023 -3.48426 1.58578 0.582276 -3.69951 1.56154 
0.449023 -3.48426 1.58578 -0.225675 -3.49557 1.57048 0.213184 -3.7162 1.53929 
-1.48689 -3.45272 1.72039 -1.9832 -3.22941 1.88417 -2.05318 -3.44251 1.86141 
-1.9832 -3.22941 1.88417 -2.48983 -3.06562 2.0765 -2.58278 -3.26214 2.06294 
-3.34424 -2.73003 2.52746 -3.635 -2.47119 2.77193 -3.83207 -2.62143 2.83095 
-3.635 -2.47119 2.77193 -4.01281 -2.18585 3.11119 -3.83207 -2.62143 2.83095 
-4.01281 -2.18585 3.11119 -4.31963 -1.86937 3.47795 -4.45173 -2.08083 3.47765 
-4.60522 -1.62278 3.83431 -4.78404 -1.13692 4.32774 -4.95511 -1.27847 4.39487 
-5.13292 -0.158759 5.71049 -4.97154 0.199993 5.97114 -5.2129 -0.0584275 6.00379 
-1.94916 2.70784 9.06061 -1.45244 2.8249 9.03075 -1.68338 2.76218 9.28862 
-1.03828 2.89096 9.29101 -0.459311 2.94895 9.16906 -0.589889 2.92698 9.40639 
1.39989 2.83284 9.21962 1.73037 2.76381 8.94639 1.85278 2.72787 9.17246 
2.16706 2.64689 8.99905 2.35317 2.58109 8.71379 2.64292 2.4818 8.89706 
2.35317 2.58109 8.71379 2.9229 2.3572 8.49463 2.64292 2.4818 8.89706 
4.16511 1.57905 7.73727 4.37101 1.31146 7.27016 4.51539 1.26478 7.52751 
4.95373 0.516566 6.49335 4.96386 0.207629 5.9702 5.12728 0.107957 6.09749 
4.96386 0.207629 5.9702 5.01856 -0.147577 5.55086 5.17529 -0.192101 5.7408 
5.18386 -0.853917 5.01672 4.93297 -0.892695 4.67066 5.14065 -1.31582 4.59523 
3.66912 -2.72779 2.70106 3.13292 -2.84806 2.39019 3.25413 -3.04954 2.40382 
3.13292 -2.84806 2.39019 2.69234 -3.05204 2.14986 2.80739 -3.25267 2.15815 
2.26719 -3.38237 1.93614 1.72745 -3.382 1.78314 2.05691 -3.60793 1.84785 
-0.395144 -3.71724 1.54541 -0.920531 -3.52119 1.61801 -1.05872 -3.80636 1.60598 
-0.920531 -3.52119 1.61801 -1.48689 -3.45272 1.72039 -1.05872 -3.80636 1.60598 
-2.58278 -3.26214 2.06294 -3.00259 -2.91965 2.31155 -3.12747 -3.2038 2.31373 
-3.00259 -2.91965 2.31155 -3.34424 -2.73003 2.52746 -3.48748 -3.01341 2.53555 
-4.45173 -2.08083 3.47765 -4.60522 -1.62278 3.83431 -4.67812 -2.02343 3.7061 
-4.95511 -1.27847 4.39487 -4.97301 -0.813622 4.78712 -5.12728 -0.948136 4.86097 
-4.97301 -0.813622 4.78712 -5.01353 -0.445537 5.19701 -5.15729 -0.531704 5.29699 
-5.15729 -0.531704 5.29699 -5.13292 -0.158759 5.71049 -5.28765 -0.354264 5.73983 
-5.2129 -0.0584275 6.00379 -5.04495 0.289059 6.24416 -5.20623 0.228417 6.51024 
-5.04495 0.289059 6.24416 -4.92327 0.603099 6.61528 -5.20623 0.228417 6.51024 
-4.92327 0.603099 6.61528 -4.76057 0.881162 6.92538 -4.99576 0.683185 7.05807 
-4.76057 0.881162 6.92538 -4.56221 1.15519 7.23552 -4.66791 1.11603 7.45168 
-4.56221 1.15519 7.23552 -4.33518 1.41735 7.56296 -4.66791 1.11603 7.45168 
-4.33518 1.41735 7.56296 -4.06554 1.66359 7.84055 -4.32381 1.47362 7.87916 
-4.06554 1.66359 7.84055 -3.68237 1.95415 8.1877 -4.02812 1.72075 8.1685 
-3.68237 1.95415 8.1877 -3.24193 2.21131 8.48067 -3.67099 1.96923 8.56372 
-3.24193 2.21131 8.48067 -2.84954 2.39906 8.70291 -3.17243 2.23692 8.86733 
-2.84954 2.39906 8.70291 -2.38905 2.57709 8.90513 -2.63919 2.46646 9.11086 
-2.38905 2.57709 8.90513 -1.94916 2.70784 9.06061 -2.10714 2.64384 9.2493 
-1.68338 2.76218 9.28862 -1.03828 2.89096 9.29101 -1.42942 2.7734 9.5888 
-1.03828 2.89096 9.29101 -0.589889 2.92698 9.40639 -0.737467 2.86939 9.67639 
-0.589889 2.92698 9.40639 -0.197985 2.9565 9.34874 -0.131787 2.91428 9.66517 
-0.197985 2.9565 9.34874 0.370993 2.95038 9.36129 -0.131787 2.91428 9.66517 
0.370993 2.95038 9.36129 0.934268 2.90244 9.29884 0.853674 2.87093 9.59984 
0.934268 2.90244 9.29884 1.39989 2.83284 9.21962 1.2284 2.8243 9.53356 
1.39989 2.83284 9.21962 1.85278 2.72787 9.17246 1.69422 2.72048 9.53327 
1.85278 2.72787 9.17246 2.16706 2.64689 8.99905 2.13891 2.62449 9.31154 
2.16706 2.64689 8.99905 2.64292 2.4818 8.89706 2.66599 2.45605 9.10143 
2.64292 2.4818 8.89706 3.09251 2.28698 8.64344 3.08412 2.27709 8.90423 
3.09251 2.28698 8.64344 3.49061 2.07331 8.32462 3.50499 2.06579 8.65655 
3.49061 2.07331 8.32462 3.84082 1.83777 8.048 3.8706 1.83541 8.30276 
3.84082 1.83777 8.048 4.16511 1.57905 7.73727 4.24773 1.54316 7.937 
4.51539 1.26478 7.52751 4.71228 0.965441 7.03264 4.80485 0.966795 7.37586 
4.71228 0.965441 7.03264 4.95373 0.516566 6.49335 4.98912 0.639736 6.90279 
4.95373 0.516566 6.49335 5.12728 0.107957 6.09749 5.13333 0.317923 6.50881 
5.12728 0.107957 6.09749 5.17529 -0.192101 5.7408 5.31717 -0.273663 5.90886 
5.17529 -0.192101 5.7408 5.15535 -0.525166 5.30202 5.33491 -0.615976 5.50776 
4.92685 -1.38541 4.29364 4.76231 -1.64025 3.97191 4.99515 -1.80607 4.14213 
4.76231 -1.64025 3.97191 4.56483 -1.90097 3.65439 4.668 -2.12828 3.65345 
4.56483 -1.90097 3.65439 4.33438 -2.18107 3.34137 4.668 -2.12828 3.65345 
4.33438 -2.18107 3.34137 4.06865 -2.41578 3.05682 4.32381 -2.49423 3.23341 
4.06865 -2.41578 3.05682 3.66912 -2.72779 2.70106 4.02812 -2.74135 2.94405 
3.66912 -2.72779 2.70106 3.25413 -3.04954 2.40382 3.6715 -3.09104 2.6378 
3.25413 -3.04954 2.40382 2.80739 -3.25267 2.15815 3.17243 -3.35083 2.32492 
2.80739 -3.25267 2.15815 2.26719 -3.38237 1.93614 2.64631 -3.56395 2.06379 
1.68 -3.6845 1.73928 1.10366 -3.6603 1.62296 1.21707 -3.86106 1.63775 
1.10366 -3.6603 1.62296 0.582276 -3.69951 1.56154 0.679264 -3.93049 1.56419 
0.582276 -3.69951 1.56154 0.213184 -3.7162 1.53929 0.307554 -4.01299 1.53839 
0.213184 -3.7162 1.53929 -0.395144 -3.71724 1.54541 -0.336037 -3.9567 1.53504 
-1.65287 -3.70159 1.73088 -2.05318 -3.44251 1.86141 -2.09084 -3.6534 1.85758 
-2.05318 -3.44251 1.86141 -2.58278 -3.26214 2.06294 -2.65066 -3.47743 2.06903 
-3.48748 -3.01341 2.53555 -3.83207 -2.62143 2.83095 -3.819 -2.97299 2.75685 
-3.83207 -2.62143 2.83095 -4.21943 -2.32041 3.19912 -4.32579 -2.56668 3.21625 
-4.21943 -2.32041 3.19912 -4.45173 -2.08083 3.47765 -4.60924 -2.34265 3.53042 
-4.67812 -2.02343 3.7061 -4.91814 -1.67225 4.11552 -4.9373 -2.05384 3.97452 
-4.95511 -1.27847 4.39487 -5.12728 -0.948136 4.86097 -5.13334 -1.32156 4.58924 
-5.12728 -0.948136 4.86097 -5.15729 -0.531704 5.29699 -5.33513 -0.725341 5.38855 
-5.33513 -0.725341 5.38855 -5.28765 -0.354264 5.73983 -5.43741 -0.64225 5.70348 
-5.28765 -0.354264 5.73983 -5.2129 -0.0584275 6.00379 -5.39619 -0.249102 6.14848 
-4.99576 0.683185 7.05807 -4.66791 1.11603 7.45168 -4.8277 0.967828 7.60514 
-4.66791 1.11603 7.45168 -4.32381 1.47362 7.87916 -4.56596 1.25811 7.92205 
-4.32381 1.47362 7.87916 -4.02812 1.72075 8.1685 -4.21786 1.57085 8.28793 
-2.63919 2.46646 9.11086 -2.10714 2.64384 9.2493 -2.27906 2.54405 9.45129 
-2.10714 2.64384 9.2493 -1.68338 2.76218 9.28862 -1.84129 2.66569 9.56352 
3.50499 2.06579 8.65655 3.8706 1.83541 8.30276 4.05388 1.69679 8.43725 
3.8706 1.83541 8.30276 4.24773 1.54316 7.937 4.05388 1.69679 8.43725 
4.24773 1.54316 7.937 4.51539 1.26478 7.52751 4.57199 1.25278 7.90182 
4.80485 0.966795 7.37586 4.98912 0.639736 6.90279 5.08314 0.59343 7.16214 
4.98912 0.639736 6.90279 5.13333 0.317923 6.50881 5.25966 0.246029 6.75104 
5.33491 -0.615976 5.50776 5.18386 -0.853917 5.01672 5.39317 -1.13648 5.1289 
5.18386 -0.853917 5.01672 5.14065 -1.31582 4.59523 5.39317 -1.13648 5.1289 
4.99515 -1.80607 4.14213 4.668 -2.12828 3.65345 4.8277 -2.30272 3.77583 
4.668 -2.12828 3.65345 4.32381 -2.49423 3.23341 4.56596 -2.57031 3.43955 
4.32381 -2.49423 3.23341 4.02812 -2.74135 2.94405 4.21193 -2.88455 3.06779 
2.64631 -3.56395 2.06379 2.05691 -3.60793 1.84785 2.15676 -3.88614 1.88613 
2.05691 -3.60793 1.84785 1.68 -3.6845 1.73928 1.81973 -3.97135 1.78564 
1.68 -3.6845 1.73928 1.21707 -3.86106 1.63775 1.46677 -4.05367 1.70143 
1.21707 -3.86106 1.63775 0.679264 -3.93049 1.56419 0.87182 -4.15531 1.60326 
0.307554 -4.01299 1.53839 -0.336037 -3.9567 1.53504 -0.0152766 -4.19026 1.54946 
-0.336037 -3.9567 1.53504 -1.05872 -3.80636 1.60598 -0.65408 -4.17737 1.57941 
-1.05872 -3.80636 1.60598 -1.65287 -3.70159 1.73088 -1.47158 -4.05511 1.7027 
-1.65287 -3.70159 1.73088 -2.09084 -3.6534 1.85758 -1.95466 -3.9505 1.82481 
-2.09084 -3.6534 1.85758 -2.65066 -3.47743 2.06903 -2.41733 -3.83376 1.98048 
-2.65066 -3.47743 2.06903 -3.12747 -3.2038 2.31373 -3.12842 -3.54648 2.30332 
-3.12747 -3.2038 2.31373 -3.48748 -3.01341 2.53555 -3.443 -3.38299 2.48311 
-4.9373 -2.05384 3.97452 -4.91814 -1.67225 4.11552 -5.16799 -1.76811 4.3906 
-4.91814 -1.67225 4.11552 -5.13334 -1.32156 4.58924 -5.16799 -1.76811 4.3906 
-5.39619 -0.249102 6.14848 -5.20623 0.228417 6.51024 -5.38993 0.021973 6.72439 
-5.20623 0.228417 6.51024 -4.99576 0.683185 7.05807 -5.18983 0.412393 7.02023 
-4.21786 1.57085 8.28793 -3.67099 1.96923 8.56372 -3.93489 1.74911 8.68687 
-3.67099 1.96923 8.56372 -3.17243 2.23692 8.86733 -3.24751 2.16369 9.03614 
-3.17243 2.23692 8.86733 -2.63919 2.46646 9.11086 -2.82993 2.34243 9.25809 
-0.737467 2.86939 9.67639 -0.131787 2.91428 9.66517 -0.374458 2.81612 9.93618 
0.465991 2.8795 9.73667 0.853674 2.87093 9.59984 0.874436 2.779 9.89272 
0.853674 2.87093 9.59984 1.2284 2.8243 9.53356 1.239 2.76354 9.75114 
1.69422 2.72048 9.53327 2.13891 2.62449 9.31154 2.18132 2.5607 9.51366 
2.13891 2.62449 9.31154 2.66599 2.45605 9.10143 2.73472 2.38859 9.27895 
2.66599 2.45605 9.10143 3.08412 2.27709 8.90423 3.24517 2.16029 9.05355 
3.08412 2.27709 8.90423 3.50499 2.06579 8.65655 3.24517 2.16029 9.05355 
4.57199 1.25278 7.90182 4.80485 0.966795 7.37586 4.91269 0.860825 7.55071 
5.34313 -0.085325 6.27902 5.31717 -0.273663 5.90886 5.52129 -0.504462 6.15046 
5.31717 -0.273663 5.90886 5.33491 -0.615976 5.50776 5.44863 -0.681426 5.68788 
5.39317 -1.13648 5.1289 5.14065 -1.31582 4.59523 5.25979 -1.70256 4.56576 
5.14065 -1.31582 4.59523 4.99515 -1.80607 4.14213 5.25979 -1.70256 4.56576 
4.21193 -2.88455 3.06779 3.6715 -3.09104 2.6378 3.93489 -3.2489 2.83495 
3.6715 -3.09104 2.6378 3.17243 -3.35083 2.32492 3.24751 -3.52902 2.37084 
3.17243 -3.35083 2.32492 2.64631 -3.56395 2.06379 2.69039 -3.75565 2.09054 
0.87182 -4.15531 1.60326 0.307554 -4.01299 1.53839 0.374458 -4.31592 1.58564 
-0.0152766 -4.19026 1.54946 -0.336037 -3.9567 1.53504 -0.65408 -4.17737 1.57941 
-4.1181 -2.8733 2.98869 -4.32579 -2.56668 3.21625 -4.50461 -2.69852 3.36223 
-4.32579 -2.56668 3.21625 -4.60924 -2.34265 3.53042 -4.50461 -2.69852 3.36223 
-5.33943 -1.14363 5.02688 -5.33513 -0.725341 5.38855 -5.44241 -1.0225 5.34019 
-5.43741 -0.64225 5.70348 -5.39619 -0.249102 6.14848 -5.55723 -0.601454 6.1367 
-5.39619 -0.249102 6.14848 -5.38993 0.021973 6.72439 -5.50133 -0.2752 6.53954 
-5.38993 0.021973 6.72439 -5.18983 0.412393 7.02023 -5.36571 0.145253 7.14883 
-5.18983 0.412393 7.02023 -5.05203 0.653388 7.28047 -5.15428 0.520707 7.44826 
-5.05203 0.653388 7.28047 -4.8277 0.967828 7.60514 -4.94485 0.816468 7.797 
-4.8277 0.967828 7.60514 -4.56596 1.25811 7.92205 -4.68719 1.10435 8.1316 
-4.56596 1.25811 7.92205 -4.21786 1.57085 8.28793 -4.47556 1.29998 8.37032 
-3.93489 1.74911 8.68687 -3.6285 1.95943 8.80965 -3.7228 1.83788 9.0052 
-3.6285 1.95943 8.80965 -3.24751 2.16369 9.03614 -3.41509 2.00433 9.19501 
-3.24751 2.16369 9.03614 -2.82993 2.34243 9.25809 -3.10845 2.1487 9.36672 
-2.82993 2.34243 9.25809 -2.27906 2.54405 9.45129 -2.67419 2.31556 9.58188 
-2.27906 2.54405 9.45129 -1.84129 2.66569 9.56352 -1.86439 2.5554 9.84022 
-1.84129 2.66569 9.56352 -1.42942 2.7734 9.5888 -1.35152 2.66347 9.95195 
-1.42942 2.7734 9.5888 -1.07132 2.82294 9.66703 -1.35152 2.66347 9.95195 
-1.07132 2.82294 9.66703 -0.737467 2.86939 9.67639 -0.741509 2.73866 10.0365 
-0.374458 2.81612 9.93618 0.00725762 2.85607 9.85948 -0.0166685 2.76379 10.0893 
0.00725762 2.85607 9.85948 0.465991 2.8795 9.73667 0.487217 2.75438 10.064 
0.874436 2.779 9.89272 1.239 2.76354 9.75114 1.24258 2.67559 9.97579 
1.239 2.76354 9.75114 1.69422 2.72048 9.53327 1.62528 2.60663 9.90021 
1.69422 2.72048 9.53327 2.18132 2.5607 9.51366 1.98539 2.52663 9.80921 
2.18132 2.5607 9.51366 2.73472 2.38859 9.27895 2.46353 2.38788 9.66162 
2.73472 2.38859 9.27895 3.24517 2.16029 9.05355 3.21275 2.10165 9.30896 
3.24517 2.16029 9.05355 3.63933 1.95315 8.8023 3.51675 1.95233 9.1368 
3.63933 1.95315 8.8023 4.05388 1.69679 8.43725 3.90678 1.7222 8.88762 
4.05388 1.69679 8.43725 4.37179 1.43742 8.15033 4.47663 1.29904 8.36922 
4.37179 1.43742 8.15033 4.57199 1.25278 7.90182 4.69475 1.09667 8.12262 
4.57199 1.25278 7.90182 4.91269 0.860825 7.55071 4.97942 0.778073 7.70327 
4.91269 0.860825 7.55071 5.08314 0.59343 7.16214 5.20475 0.434831 7.35736 
5.08314 0.59343 7.16214 5.25966 0.246029 6.75104 5.37565 0.105359 6.97498 
5.25966 0.246029 6.75104 5.34313 -0.085325 6.27902 5.49933 -0.279099 6.5118 
5.52129 -0.504462 6.15046 5.44863 -0.681426 5.68788 5.56749 -0.770725 5.93618 
5.44863 -0.681426 5.68788 5.39317 -1.13648 5.1289 5.55672 -1.10097 5.55073 
5.39317 -1.13648 5.1289 5.25979 -1.70256 4.56576 5.47536 -1.53686 5.05265 
5.25979 -1.70256 4.56576 5.05203 -2.03123 4.13719 5.15428 -2.2177 4.24199 
5.05203 -2.03123 4.13719 4.8277 -2.30272 3.77583 4.94485 -2.51588 3.89532 
4.8277 -2.30272 3.77583 4.56596 -2.57031 3.43955 4.68719 -2.80133 3.55864 
4.56596 -2.57031 3.43955 4.21193 -2.88455 3.06779 4.47556 -3.00651 3.32807 
3.93489 -3.2489 2.83495 3.6285 -3.33727 2.60802 3.7228 -3.54943 2.69748 
3.6285 -3.33727 2.60802 3.24751 -3.52902 2.37084 3.41509 -3.71086 2.50338 
3.24751 -3.52902 2.37084 2.69039 -3.75565 2.09054 3.10845 -3.85787 2.33393 
2.69039 -3.75565 2.09054 2.15676 -3.88614 1.88613 2.21218 -4.16752 1.95904 
2.15676 -3.88614 1.88613 1.81973 -3.97135 1.78564 1.86439 -4.26192 1.85817 
1.81973 -3.97135 1.78564 1.46677 -4.05367 1.70143 1.49568 -4.33224 1.76618 
1.46677 -4.05367 1.70143 0.87182 -4.15531 1.60326 1.13234 -4.39505 1.7023 
0.374458 -4.31592 1.58564 -0.0152766 -4.19026 1.54946 0.255641 -4.52413 1.6334 
-0.0152766 -4.19026 1.54946 -0.65408 -4.17737 1.57941 -0.271007 -4.47446 1.62058 
-0.65408 -4.17737 1.57941 -1.09599 -4.12036 1.63602 -1.25499 -4.37816 1.72042 
-1.09599 -4.12036 1.63602 -1.47158 -4.05511 1.7027 -1.25499 -4.37816 1.72042 
-1.47158 -4.05511 1.7027 -1.95466 -3.9505 1.82481 -1.76158 -4.29638 1.83364 
-1.95466 -3.9505 1.82481 -2.41733 -3.83376 1.98048 -2.20258 -4.18348 1.95974 
-2.41733 -3.83376 1.98048 -2.82808 -3.67467 2.15251 -2.89944 -3.93625 2.22983 
-2.82808 -3.67467 2.15251 -3.12842 -3.54648 2.30332 -3.21275 -3.80818 2.38944 
-3.12842 -3.54648 2.30332 -3.443 -3.38299 2.48311 -3.51982 -3.65109 2.56371 
-3.443 -3.38299 2.48311 -3.81451 -3.21363 2.73727 -3.89782 -3.442 2.82049 
-3.81451 -3.21363 2.73727 -4.1181 -2.8733 2.98869 -4.2432 -3.19071 3.10274 
-4.1181 -2.8733 2.98869 -4.50461 -2.69852 3.36223 -4.47663 -3.00557 3.32917 
-4.8282 -2.46548 3.75222 -4.9373 -2.05384 3.97452 -5.05303 -2.38283 4.06338 
-4.9373 -2.05384 3.97452 -5.16799 -1.76811 4.3906 -5.27375 -1.98598 4.48533 
-5.16799 -1.76811 4.3906 -5.29998 -1.46331 4.75501 -5.42634 -1.66909 4.89399 
-5.29998 -1.46331 4.75501 -5.33943 -1.14363 5.02688 -5.51477 -1.31178 5.27724 
-5.33943 -1.14363 5.02688 -5.44241 -1.0225 5.34019 -5.51477 -1.31178 5.27724 
-5.44241 -1.0225 5.34019 -5.43741 -0.64225 5.70348 -5.56749 -0.926267 5.75407 
-4.21921 1.51408 8.60191 -3.93489 1.74911 8.68687 -4.02247 1.59406 8.93108 
-0.741509 2.73866 10.0365 -0.374458 2.81612 9.93618 -0.383217 2.68493 10.2083 
0.487217 2.75438 10.064 0.874436 2.779 9.89272 0.92186 2.59825 10.2445 
4.21921 -3.20175 3.08038 3.93489 -3.2489 2.83495 4.02247 -3.51435 2.94989 
0.741674 -4.42693 1.64646 0.374458 -4.31592 1.58564 0.255641 -4.52413 1.6334 
-4.6977 -2.78344 3.57089 -4.8282 -2.46548 3.75222 -4.93505 -2.71403 3.88694 
-5.56749 -0.926267 5.75407 -5.55723 -0.601454 6.1367 -5.6682 -0.907936 6.20386 
-5.55723 -0.601454 6.1367 -5.50133 -0.2752 6.53954 -5.59542 -0.515236 6.57189 
-5.50133 -0.2752 6.53954 -5.38993 0.021973 6.72439 -5.54094 -0.274532 6.9761 
-5.36571 0.145253 7.14883 -5.15428 0.520707 7.44826 -5.26584 0.304852 7.62117 
-5.15428 0.520707 7.44826 -4.94485 0.816468 7.797 -5.06171 0.595654 7.99391 
-4.94485 0.816468 7.797 -4.68719 1.10435 8.1316 -4.77187 0.930476 8.35416 
-4.68719 1.10435 8.1316 -4.47556 1.29998 8.37032 -4.43373 1.23698 8.72114 
-4.47556 1.29998 8.37032 -4.21921 1.51408 8.60191 -4.43373 1.23698 8.72114 
-4.02247 1.59406 8.93108 -3.7228 1.83788 9.0052 -3.65338 1.7476 9.34504 
-3.7228 1.83788 9.0052 -3.41509 2.00433 9.19501 -3.65338 1.7476 9.34504 
-3.41509 2.00433 9.19501 -3.10845 2.1487 9.36672 -3.19179 1.98004 9.59612 
-3.10845 2.1487 9.36672 -2.67419 2.31556 9.58188 -2.81956 2.13504 9.76323 
-2.67419 2.31556 9.58188 -2.21218 2.47053 9.7312 -2.53366 2.20251 9.93508 
-2.21218 2.47053 9.7312 -1.86439 2.5554 9.84022 -2.06918 2.37132 10.0337 
-1.86439 2.5554 9.84022 -1.35152 2.66347 9.95195 -1.79859 2.39276 10.1753 
-1.35152 2.66347 9.95195 -0.741509 2.73866 10.0365 -1.14315 2.53345 10.2737 
-0.383217 2.68493 10.2083 -0.0166685 2.76379 10.0893 -0.0597739 2.57622 10.4076 
-0.0166685 2.76379 10.0893 0.487217 2.75438 10.064 0.476249 2.60797 10.3255 
0.92186 2.59825 10.2445 1.24258 2.67559 9.97579 1.28171 2.51902 10.2372 
1.24258 2.67559 9.97579 1.62528 2.60663 9.90021 1.69887 2.42105 10.1889 
1.62528 2.60663 9.90021 1.98539 2.52663 9.80921 2.11749 2.35235 10.0316 
1.98539 2.52663 9.80921 2.46353 2.38788 9.66162 2.47054 2.29554 9.8337 
2.46353 2.38788 9.66162 2.89944 2.23926 9.46042 2.91765 2.10062 9.71611 
2.89944 2.23926 9.46042 3.21275 2.10165 9.30896 3.19685 1.96573 9.61219 
3.21275 2.10165 9.30896 3.51675 1.95233 9.1368 3.60663 1.77184 9.37469 
3.51675 1.95233 9.1368 3.90678 1.7222 8.88762 3.92118 1.63633 9.05993 
3.90678 1.7222 8.88762 4.2432 1.49372 8.58751 4.24536 1.37436 8.89303 
4.2432 1.49372 8.58751 4.47663 1.29904 8.36922 4.48359 1.19006 8.67624 
4.47663 1.29904 8.36922 4.69475 1.09667 8.12262 4.70807 0.985651 8.43831 
4.69475 1.09667 8.12262 4.97942 0.778073 7.70327 4.91073 0.776134 8.19609 
4.97942 0.778073 7.70327 5.20475 0.434831 7.35736 5.18476 0.43163 7.79038 
5.20475 0.434831 7.35736 5.37565 0.105359 6.97498 5.39382 0.0664945 7.40222 
5.37565 0.105359 6.97498 5.49933 -0.279099 6.5118 5.57585 -0.424809 6.67728 
5.49933 -0.279099 6.5118 5.52129 -0.504462 6.15046 5.66301 -0.821993 6.32863 
5.52129 -0.504462 6.15046 5.56749 -0.770725 5.93618 5.66301 -0.821993 6.32863 
5.56749 -0.770725 5.93618 5.55672 -1.10097 5.55073 5.669 -1.21241 5.85248 
5.55672 -1.10097 5.55073 5.47536 -1.53686 5.05265 5.62125 -1.60054 5.44062 
5.3658 -1.98796 4.65893 5.15428 -2.2177 4.24199 5.26584 -2.42225 4.42814 
5.15428 -2.2177 4.24199 4.94485 -2.51588 3.89532 5.06171 -2.74491 4.08261 
4.94485 -2.51588 3.89532 4.68719 -2.80133 3.55864 4.77187 -3.04835 3.69555 
4.68719 -2.80133 3.55864 4.47556 -3.00651 3.32807 4.43373 -3.36286 3.33541 
4.47556 -3.00651 3.32807 4.21921 -3.20175 3.08038 4.43373 -3.36286 3.33541 
4.02247 -3.51435 2.94989 3.7228 -3.54943 2.69748 3.65338 -3.8992 2.73349 
3.7228 -3.54943 2.69748 3.41509 -3.71086 2.50338 3.65338 -3.8992 2.73349 
3.41509 -3.71086 2.50338 3.10845 -3.85787 2.33393 3.19179 -4.11083 2.46463 
3.10845 -3.85787 2.33393 2.66905 -4.04462 2.13297 2.81916 -4.25125 2.28496 
2.66905 -4.04462 2.13297 2.21218 -4.16752 1.95904 2.5337 -4.41079 2.19188 
2.21218 -4.16752 1.95904 1.86439 -4.26192 1.85817 2.06918 -4.4818 2.00971 
1.86439 -4.26192 1.85817 1.49568 -4.33224 1.76618 1.79859 -4.61833 1.96638 
1.49568 -4.33224 1.76618 1.13234 -4.39505 1.7023 1.33269 -4.6471 1.83975 
1.13234 -4.39505 1.7023 0.741674 -4.42693 1.64646 0.992613 -4.70461 1.79021 
0.255641 -4.52413 1.6334 -0.271007 -4.47446 1.62058 0.0592456 -4.81132 1.74438 
-0.271007 -4.47446 1.62058 -0.765239 -4.43082 1.65076 -0.496743 -4.73396 1.73307 
-0.765239 -4.43082 1.65076 -1.25499 -4.37816 1.72042 -0.965678 -4.69401 1.77975 
-1.25499 -4.37816 1.72042 -1.76158 -4.29638 1.83364 -1.52391 -4.53542 1.84477 
-1.76158 -4.29638 1.83364 -2.20258 -4.18348 1.95974 -2.10758 -4.48766 2.02673 
-2.20258 -4.18348 1.95974 -2.56329 -4.06476 2.08901 -2.57177 -4.35483 2.18867 
-2.56329 -4.06476 2.08901 -2.89944 -3.93625 2.22983 -2.91765 -4.21048 2.32676 
-2.89944 -3.93625 2.22983 -3.21275 -3.80818 2.38944 -3.19685 -4.12894 2.47625 
-3.21275 -3.80818 2.38944 -3.51982 -3.65109 2.56371 -3.60586 -3.92497 2.70434 
-3.51982 -3.65109 2.56371 -3.89782 -3.442 2.82049 -3.97776 -3.6673 2.94774 
-3.89782 -3.442 2.82049 -4.2432 -3.19071 3.10274 -4.2932 -3.4577 3.20799 
-4.2432 -3.19071 3.10274 -4.47663 -3.00557 3.32917 -4.50807 -3.31976 3.4193 
-4.47663 -3.00557 3.32917 -4.6977 -2.78344 3.57089 -4.78018 -3.055 3.70797 
-4.93505 -2.71403 3.88694 -5.05303 -2.38283 4.06338 -5.21549 -2.51312 4.3333 
-5.05303 -2.38283 4.06338 -5.27375 -1.98598 4.48533 -5.21549 -2.51312 4.3333 
-5.27375 -1.98598 4.48533 -5.42634 -1.66909 4.89399 -5.5022 -1.97583 4.9793 
-5.42634 -1.66909 4.89399 -5.51477 -1.31178 5.27724 -5.57585 -1.60413 5.29647 
-5.51477 -1.31178 5.27724 -5.56749 -0.926267 5.75407 -5.66108 -1.32625 5.73317 
-5.6682 -0.907936 6.20386 -5.59542 -0.515236 6.57189 -5.6604 -0.707486 6.78109 
-4.43373 1.23698 8.72114 -4.02247 1.59406 8.93108 -4.08347 1.42168 9.13376 
-0.666966 2.58732 10.3191 -0.383217 2.68493 10.2083 -0.0597739 2.57622 10.4076 
5.5022 -0.169683 7.09402 5.57585 -0.424809 6.67728 5.63851 -0.610042 6.86241 
4.43373 -3.36286 3.33541 4.02247 -3.51435 2.94989 4.08347 -3.7415 3.08844 
0.666966 -4.72996 1.75172 0.255641 -4.52413 1.6334 0.0592456 -4.81132 1.74438 
-0.965678 -4.69401 1.77975 -1.52391 -4.53542 1.84477 -1.26367 -4.8669 1.93839 
-1.52391 -4.53542 1.84477 -2.10758 -4.48766 2.02673 -1.761 -4.69446 1.99522 
-4.78018 -3.055 3.70797 -4.93505 -2.71403 3.88694 -5.07544 -2.93205 4.1616 
-4.93505 -2.71403 3.88694 -5.21549 -2.51312 4.3333 -5.07544 -2.93205 4.1616 
-5.5022 -1.97583 4.9793 -5.57585 -1.60413 5.29647 -5.63836 -1.81603 5.44996 
-5.6604 -0.707486 6.78109 -5.54094 -0.274532 6.9761 -5.611 -0.544082 7.10566 
-5.42106 -0.0250192 7.46339 -5.26584 0.304852 7.62117 -5.323 0.0716894 7.85994 
-5.26584 0.304852 7.62117 -5.06171 0.595654 7.99391 -5.323 0.0716894 7.85994 
-5.06171 0.595654 7.99391 -4.77187 0.930476 8.35416 -4.89932 0.632976 8.47968 
-4.77187 0.930476 8.35416 -4.43373 1.23698 8.72114 -4.7052 0.831294 8.70667 
-4.08347 1.42168 9.13376 -3.65338 1.7476 9.34504 -3.80983 1.4843 9.47959 
-3.65338 1.7476 9.34504 -3.19179 1.98004 9.59612 -3.43682 1.67867 9.71407 
-3.19179 1.98004 9.59612 -2.81956 2.13504 9.76323 -3.00873 1.87204 9.93438 
-2.53366 2.20251 9.93508 -2.06918 2.37132 10.0337 -2.26117 2.12088 10.2324 
-1.79859 2.39276 10.1753 -1.14315 2.53345 10.2737 -1.43536 2.30733 10.4409 
-1.14315 2.53345 10.2737 -0.666966 2.58732 10.3191 -0.524763 2.41153 10.5644 
-0.666966 2.58732 10.3191 -0.0597739 2.57622 10.4076 -0.524763 2.41153 10.5644 
-0.0597739 2.57622 10.4076 0.476249 2.60797 10.3255 0.376066 2.41819 10.5703 
0.476249 2.60797 10.3255 0.92186 2.59825 10.2445 0.73477 2.3986 10.5427 
0.92186 2.59825 10.2445 1.28171 2.51902 10.2372 1.26621 2.3331 10.4773 
1.69887 2.42105 10.1889 2.11749 2.35235 10.0316 2.0323 2.18345 10.2996 
2.60327 2.12257 9.97802 2.91765 2.10062 9.71611 2.95415 1.88459 9.96761 
2.91765 2.10062 9.71611 3.19685 1.96573 9.61219 2.95415 1.88459 9.96761 
3.19685 1.96573 9.61219 3.60663 1.77184 9.37469 3.59896 1.60576 9.60881 
4.01327 1.38922 9.30216 4.24536 1.37436 8.89303 4.35095 1.11949 9.06719 
4.24536 1.37436 8.89303 4.48359 1.19006 8.67624 4.35095 1.11949 9.06719 
4.48359 1.19006 8.67624 4.70807 0.985651 8.43831 4.80122 0.736226 8.60079 
4.70807 0.985651 8.43831 4.91073 0.776134 8.19609 4.80122 0.736226 8.60079 
4.91073 0.776134 8.19609 5.18476 0.43163 7.79038 5.19075 0.284896 8.061 
5.39382 0.0664945 7.40222 5.5022 -0.169683 7.09402 5.55156 -0.371501 7.29288 
5.63851 -0.610042 6.86241 5.66301 -0.821993 6.32863 5.71585 -1.02596 6.56871 
5.66301 -0.821993 6.32863 5.669 -1.21241 5.85248 5.72748 -1.35553 6.14605 
5.62125 -1.60054 5.44062 5.54094 -1.87576 5.1013 5.611 -2.04589 5.34727 
5.42106 -2.31802 4.77863 5.26584 -2.42225 4.42814 5.323 -2.69455 4.62108 
5.26584 -2.42225 4.42814 5.06171 -2.74491 4.08261 5.323 -2.69455 4.62108 
5.06171 -2.74491 4.08261 4.77187 -3.04835 3.69555 4.89932 -3.21887 3.96975 
4.77187 -3.04835 3.69555 4.43373 -3.36286 3.33541 4.7052 -3.41203 3.73837 
4.08347 -3.7415 3.08844 3.65338 -3.8992 2.73349 3.80983 -4.07329 2.97249 
3.65338 -3.8992 2.73349 3.19179 -4.11083 2.46463 3.43682 -4.27447 2.74383 
3.19179 -4.11083 2.46463 2.81916 -4.25125 2.28496 3.00873 -4.46182 2.51838 
2.5337 -4.41079 2.19188 2.06918 -4.4818 2.00971 2.26117 -4.71725 2.22598 
1.79859 -4.61833 1.96638 1.33269 -4.6471 1.83975 1.43536 -4.89398 2.00922 
1.33269 -4.6471 1.83975 0.992613 -4.70461 1.79021 1.0207 -4.95294 1.93716 
0.992613 -4.70461 1.79021 0.666966 -4.72996 1.75172 0.524763 -4.9997 1.88697 
0.666966 -4.72996 1.75172 0.0592456 -4.81132 1.74438 0.524763 -4.9997 1.88697 
0.0592456 -4.81132 1.74438 -0.496743 -4.73396 1.73307 -0.376066 -5.00444 1.87948 
-0.496743 -4.73396 1.73307 -0.965678 -4.69401 1.77975 -0.73477 -4.98027 1.90314 
-1.761 -4.69446 1.99522 -2.10758 -4.48766 2.02673 -2.0323 -4.77388 2.15366 
-2.57177 -4.35483 2.18867 -2.91765 -4.21048 2.32676 -2.95415 -4.49268 2.50079 
-2.91765 -4.21048 2.32676 -3.19685 -4.12894 2.47625 -2.95415 -4.49268 2.50079 
-3.19685 -4.12894 2.47625 -3.60586 -3.92497 2.70434 -3.59896 -4.18192 2.83232 
-3.97776 -3.6673 2.94774 -4.2932 -3.4577 3.20799 -4.2345 -3.80655 3.2967 
-4.2932 -3.4577 3.20799 -4.50807 -3.31976 3.4193 -4.53339 -3.56314 3.55775 
-4.50807 -3.31976 3.4193 -4.78018 -3.055 3.70797 -4.80534 -3.31653 3.85203 
-5.07544 -2.93205 4.1616 -5.21549 -2.51312 4.3333 -5.19879 -2.85172 4.3945 
-5.39614 -2.23626 4.70371 -5.5022 -1.97583 4.9793 -5.55156 -2.20381 5.14752 
-5.63836 -1.81603 5.44996 -5.66108 -1.32625 5.73317 -5.69607 -1.70399 5.76589 
-5.66108 -1.32625 5.73317 -5.6682 -0.907936 6.20386 -5.72945 -1.37036 6.13955 
-5.51399 -0.288971 7.40329 -5.42106 -0.0250192 7.46339 -5.323 0.0716894 7.85994 
-4.38943 1.0953 9.02887 -4.08347 1.42168 9.13376 -4.11224 1.20553 9.35562 
-3.00873 1.87204 9.93438 -2.53366 2.20251 9.93508 -2.64564 1.91227 10.1848 
-2.26117 2.12088 10.2324 -1.79859 2.39276 10.1753 -1.80932 2.17911 10.4152 
-0.524763 2.41153 10.5644 -0.0597739 2.57622 10.4076 -0.0095616 2.3696 10.6377 
1.26621 2.3331 10.4773 1.69887 2.42105 10.1889 1.67204 2.20861 10.4459 
5.51399 -2.29995 5.04874 5.42106 -2.31802 4.77863 5.323 -2.69455 4.62108 
4.38943 -3.68897 3.42721 4.08347 -3.7415 3.08844 4.11224 -3.99445 3.26722 
3.00873 -4.46182 2.51838 2.5337 -4.41079 2.19188 2.64564 -4.70282 2.43948 
2.26117 -4.71725 2.22598 1.79859 -4.61833 1.96638 1.80932 -4.88873 2.13987 
0.524763 -4.9997 1.88697 0.0592456 -4.81132 1.74438 0.0095616 -5.07868 1.91692 
-1.26367 -4.8669 1.93839 -1.761 -4.69446 1.99522 -1.67204 -4.91439 2.10594 
-3.91148 -4.01131 3.04482 -3.97776 -3.6673 2.94774 -4.2345 -3.80655 3.2967 
-5.72945 -1.37036 6.13955 -5.71325 -1.02429 6.52357 -5.7329 -1.29817 6.57268 
-5.71325 -1.02429 6.52357 -5.71507 -1.12888 6.77089 -5.72706 -1.22901 6.65366 
-5.71325 -1.02429 6.52357 -5.6604 -0.707486 6.78109 -5.68882 -0.973545 6.95141 
-5.6604 -0.707486 6.78109 -5.611 -0.544082 7.10566 -5.63985 -0.77929 7.18617 
-5.611 -0.544082 7.10566 -5.59078 -0.626637 7.35894 -5.63985 -0.77929 7.18617 
-5.611 -0.544082 7.10566 -5.51399 -0.288971 7.40329 -5.53648 -0.479839 7.5205 
-5.51399 -0.288971 7.40329 -5.323 0.0716894 7.85994 -5.44816 -0.296657 7.7453 
-5.323 0.0716894 7.85994 -5.36234 -0.140061 7.92865 -5.44816 -0.296657 7.7453 
-5.323 0.0716894 7.85994 -5.26374 0.0170701 8.11263 -5.31943 -0.0691527 8.01167 
-5.323 0.0716894 7.85994 -5.09707 0.402616 8.2148 -5.16218 0.160452 8.28187 
-4.89932 0.632976 8.47968 -4.90338 0.468729 8.64145 -5.02031 0.333949 8.4936 
-5.02031 0.333949 8.4936 -5.09707 0.402616 8.2148 -4.89932 0.632976 8.47968 
-4.89932 0.632976 8.47968 -4.7052 0.831294 8.70667 -4.78239 0.592122 8.78826 
-4.38943 1.0953 9.02887 -4.45169 0.884313 9.12804 -4.60602 0.755598 8.97756 
-4.60602 0.755598 8.97756 -4.7052 0.831294 8.70667 -4.38943 1.0953 9.02887 
-4.38943 1.0953 9.02887 -4.28223 1.01346 9.27925 -4.36982 0.948197 9.20284 
-4.11224 1.20553 9.35562 -3.80983 1.4843 9.47959 -3.89332 1.26559 9.58551 
-3.80983 1.4843 9.47959 -3.72211 1.36905 9.69559 -3.89332 1.26559 9.58551 
-3.80983 1.4843 9.47959 -3.43682 1.67867 9.71407 -3.54466 1.46333 9.80719 
-3.00873 1.87204 9.93438 -3.09266 1.67178 10.05 -3.29739 1.5826 9.94627 
-3.29739 1.5826 9.94627 -3.43682 1.67867 9.71407 -3.00873 1.87204 9.93438 
-3.00873 1.87204 9.93438 -2.86942 1.75994 10.1533 -2.97498 1.71938 10.1058 
-2.64564 1.91227 10.1848 -2.26117 2.12088 10.2324 -2.37433 1.91526 10.3567 
-2.26117 2.12088 10.2324 -2.16595 1.98363 10.4152 -2.37433 1.91526 10.3567 
-2.26117 2.12088 10.2324 -1.80932 2.17911 10.4152 -1.94818 2.03609 10.4813 
-1.43536 2.30733 10.4409 -1.42213 2.14303 10.6018 -1.63286 2.10523 10.5575 
-1.63286 2.10523 10.5575 -1.80932 2.17911 10.4152 -1.43536 2.30733 10.4409 
-1.43536 2.30733 10.4409 -1.0207 2.36928 10.5104 -1.27701 2.16583 10.6285 
-1.0207 2.36928 10.5104 -1.1676 2.18132 10.6466 -1.27701 2.16583 10.6285 
-1.0207 2.36928 10.5104 -0.524763 2.41153 10.5644 -0.616074 2.23803 10.7135 
-0.524763 2.41153 10.5644 -0.391633 2.25059 10.7277 -0.616074 2.23803 10.7135 
-0.524763 2.41153 10.5644 -0.0095616 2.3696 10.6377 -0.183939 2.25736 10.7357 
-0.0095616 2.3696 10.6377 -0.130635 2.25831 10.7368 -0.183939 2.25736 10.7357 
0.376066 2.41819 10.5703 0.391633 2.25059 10.7277 0.183939 2.25736 10.7357 
0.183939 2.25736 10.7357 -0.0095616 2.3696 10.6377 0.376066 2.41819 10.5703 
0.376066 2.41819 10.5703 0.73477 2.3986 10.5427 0.614585 2.23909 10.7127 
1.26621 2.3331 10.4773 1.1676 2.18132 10.6466 0.913282 2.21181 10.6824 
0.913282 2.21181 10.6824 0.73477 2.3986 10.5427 1.26621 2.3331 10.4773 
1.26621 2.3331 10.4773 1.42213 2.14303 10.6018 1.27701 2.16583 10.6285 
1.26621 2.3331 10.4773 1.67204 2.20861 10.4459 1.63286 2.10523 10.5575 
1.67204 2.20861 10.4459 1.67371 2.09725 10.5482 1.63286 2.10523 10.5575 
1.67204 2.20861 10.4459 2.0323 2.18345 10.2996 1.94819 2.03543 10.4818 
2.0323 2.18345 10.2996 2.16595 1.98363 10.4152 1.94819 2.03543 10.4818 
2.0323 2.18345 10.2996 2.47481 2.04956 10.1674 2.37379 1.93033 10.344 
2.95415 1.88459 9.96761 2.86942 1.75994 10.1533 2.64734 1.83902 10.2459 
2.64734 1.83902 10.2459 2.47481 2.04956 10.1674 2.95415 1.88459 9.96761 
2.95415 1.88459 9.96761 3.09266 1.67178 10.05 2.97498 1.71938 10.1058 
2.95415 1.88459 9.96761 3.30492 1.74381 9.7835 3.29739 1.58247 9.94639 
3.30492 1.74381 9.7835 3.59896 1.60576 9.60881 3.54467 1.46252 9.80787 
3.59896 1.60576 9.60881 3.72211 1.36905 9.69559 3.54467 1.46252 9.80787 
3.59896 1.60576 9.60881 4.01327 1.38922 9.30216 3.89323 1.27441 9.57809 
4.35095 1.11949 9.06719 4.28223 1.01346 9.27925 4.1132 1.13127 9.41718 
4.1132 1.13127 9.41718 4.01327 1.38922 9.30216 4.35095 1.11949 9.06719 
4.35095 1.11949 9.06719 4.45169 0.884313 9.12804 4.36982 0.948197 9.20284 
4.35095 1.11949 9.06719 4.60449 0.918643 8.81616 4.60656 0.757414 8.97508 
4.60449 0.918643 8.81616 4.80122 0.736226 8.60079 4.78189 0.591233 8.7901 
4.80122 0.736226 8.60079 4.90338 0.468729 8.64145 4.78189 0.591233 8.7901 
4.80122 0.736226 8.60079 5.02678 0.489271 8.31361 5.02033 0.342272 8.48645 
5.02678 0.489271 8.31361 5.19075 0.284896 8.061 5.16218 0.160661 8.2817 
5.19075 0.284896 8.061 5.26374 0.0170701 8.11263 5.16218 0.160661 8.2817 
5.19075 0.284896 8.061 5.39137 -0.0486985 7.72368 5.31943 -0.0691527 8.01167 
5.39137 -0.0486985 7.72368 5.36234 -0.140061 7.92865 5.31943 -0.0691527 8.01167 
5.39137 -0.0486985 7.72368 5.55156 -0.371501 7.29288 5.53616 -0.484877 7.52667 
5.55156 -0.371501 7.29288 5.59078 -0.626637 7.35894 5.53616 -0.484877 7.52667 
5.55156 -0.371501 7.29288 5.63851 -0.610042 6.86241 5.63985 -0.774334 7.18189 
5.63851 -0.610042 6.86241 5.71585 -1.02596 6.56871 5.68882 -0.973789 6.95159 
5.71585 -1.02596 6.56871 5.71507 -1.12888 6.77089 5.68882 -0.973789 6.95159 
5.71585 -1.02596 6.56871 5.7329 -1.29817 6.57268 5.72706 -1.22901 6.65366 
5.71585 -1.02596 6.56871 5.72748 -1.35553 6.14605 5.73885 -1.4678 6.37406 
5.69873 -1.71096 5.76905 5.71507 -1.80673 5.97724 5.72706 -1.7066 6.09447 
5.72706 -1.7066 6.09447 5.72748 -1.35553 6.14605 5.69873 -1.71096 5.76905 
5.69873 -1.71096 5.76905 5.611 -2.04589 5.34727 5.63985 -2.16221 5.56698 
5.611 -2.04589 5.34727 5.59078 -2.30897 5.38918 5.63985 -2.16221 5.56698 
5.611 -2.04589 5.34727 5.51399 -2.29995 5.04874 5.53648 -2.44558 5.21892 
5.51399 -2.29995 5.04874 5.323 -2.69455 4.62108 5.44816 -2.63895 5.00283 
5.323 -2.69455 4.62108 5.36234 -2.79555 4.81948 5.44816 -2.63895 5.00283 
5.323 -2.69455 4.62108 5.26374 -2.95268 4.6355 5.31943 -2.86646 4.73645 
5.323 -2.69455 4.62108 5.09707 -2.99328 4.23872 5.16218 -3.09741 4.46741 
4.89932 -3.21887 3.96975 4.90338 -3.40434 4.10667 5.02031 -3.27939 4.26292 
5.02031 -3.27939 4.26292 5.09707 -2.99328 4.23872 4.89932 -3.21887 3.96975 
4.89932 -3.21887 3.96975 4.7052 -3.41203 3.73837 4.78239 -3.53004 3.96183 
4.38943 -3.68897 3.42721 4.45169 -3.81992 3.62009 4.60602 -3.69143 3.77076 
4.60602 -3.69143 3.77076 4.7052 -3.41203 3.73837 4.38943 -3.68897 3.42721 
4.38943 -3.68897 3.42721 4.28223 -3.94907 3.46887 4.36982 -3.8838 3.54529 
4.11224 -3.99445 3.26722 3.80983 -4.07329 2.97249 3.89332 -4.21212 3.17194 
3.80983 -4.07329 2.97249 3.72211 -4.30465 3.05254 3.89332 -4.21212 3.17194 
3.80983 -4.07329 2.97249 3.43682 -4.27447 2.74383 3.54466 -4.40013 2.94196 
3.00873 -4.46182 2.51838 3.09266 -4.60739 2.69808 3.29739 -4.51884 2.80239 
3.29739 -4.51884 2.80239 3.43682 -4.27447 2.74383 3.00873 -4.46182 2.51838 
3.00873 -4.46182 2.51838 2.86942 -4.69555 2.59486 2.97498 -4.65499 2.64235 
2.64564 -4.70282 2.43948 2.26117 -4.71725 2.22598 2.37433 -4.87215 2.40964 
2.26117 -4.71725 2.22598 2.16595 -4.91924 2.33295 2.37433 -4.87215 2.40964 
2.26117 -4.71725 2.22598 1.80932 -4.88873 2.13987 1.94818 -4.97631 2.2708 
1.43536 -4.89398 2.00922 1.42213 -5.07864 2.14632 1.63286 -5.04084 2.19058 
1.63286 -5.04084 2.19058 1.80932 -4.88873 2.13987 1.43536 -4.89398 2.00922 
1.43536 -4.89398 2.00922 1.0207 -4.95294 1.93716 1.27701 -5.10144 2.11962 
1.0207 -4.95294 1.93716 1.1676 -5.11693 2.10148 1.27701 -5.10144 2.11962 
1.0207 -4.95294 1.93716 0.524763 -4.9997 1.88697 0.616074 -5.17412 2.03502 
0.524763 -4.9997 1.88697 0.391633 -5.1862 2.02038 0.616074 -5.17412 2.03502 
0.524763 -4.9997 1.88697 0.0095616 -5.07868 1.91692 0.183939 -5.19297 2.01245 
0.0095616 -5.07868 1.91692 0.130635 -5.19392 2.01134 0.183939 -5.19297 2.01245 
-0.376066 -5.00444 1.87948 -0.391633 -5.1862 2.02038 -0.183939 -5.19297 2.01245 
-0.183939 -5.19297 2.01245 0.0095616 -5.07868 1.91692 -0.376066 -5.00444 1.87948 
-0.376066 -5.00444 1.87948 -0.73477 -4.98027 1.90314 -0.614585 -5.17317 2.03409 
-1.26367 -4.8669 1.93839 -1.1676 -5.11693 2.10148 -0.913282 -5.14744 2.06578 
-0.913282 -5.14744 2.06578 -0.73477 -4.98027 1.90314 -1.26367 -4.8669 1.93839 
-1.26367 -4.8669 1.93839 -1.42213 -5.07864 2.14632 -1.27701 -5.10144 2.11962 
-1.26367 -4.8669 1.93839 -1.67204 -4.91439 2.10594 -1.63286 -5.04084 2.19058 
-1.67204 -4.91439 2.10594 -1.67371 -5.03286 2.19992 -1.63286 -5.04084 2.19058 
-1.67204 -4.91439 2.10594 -2.0323 -4.77388 2.15366 -1.94819 -4.97697 2.27136 
-2.0323 -4.77388 2.15366 -2.16595 -4.91924 2.33295 -1.94819 -4.97697 2.27136 
-2.0323 -4.77388 2.15366 -2.47481 -4.66424 2.30659 -2.37379 -4.85733 2.39672 
-2.95415 -4.49268 2.50079 -2.86942 -4.69555 2.59486 -2.64734 -4.77463 2.50227 
-2.64734 -4.77463 2.50227 -2.47481 -4.66424 2.30659 -2.95415 -4.49268 2.50079 
-2.95415 -4.49268 2.50079 -3.09266 -4.60739 2.69808 -2.97498 -4.65499 2.64235 
-2.95415 -4.49268 2.50079 -3.30492 -4.33286 2.66864 -3.29739 -4.51898 2.8025 
-3.30492 -4.33286 2.66864 -3.59896 -4.18192 2.83232 -3.54467 -4.40093 2.94265 
-3.59896 -4.18192 2.83232 -3.72211 -4.30465 3.05254 -3.54467 -4.40093 2.94265 
-3.59896 -4.18192 2.83232 -3.91148 -4.01131 3.04482 -3.89377 -4.20239 3.16418 
-3.91148 -4.01131 3.04482 -4.2345 -3.80655 3.2967 -4.1132 -4.06688 3.33094 
-4.2345 -3.80655 3.2967 -4.28223 -3.94907 3.46887 -4.1132 -4.06688 3.33094 
-4.2345 -3.80655 3.2967 -4.53339 -3.56314 3.55775 -4.36982 -3.8838 3.54529 
-4.53339 -3.56314 3.55775 -4.45169 -3.81992 3.62009 -4.36982 -3.8838 3.54529 
-4.53339 -3.56314 3.55775 -4.80534 -3.31653 3.85203 -4.78186 -3.52926 3.96004 
-4.80534 -3.31653 3.85203 -4.90338 -3.40434 4.10667 -4.78186 -3.52926 3.96004 
-4.80534 -3.31653 3.85203 -5.07544 -2.93205 4.1616 -5.02033 -3.27141 4.25615 
-5.07544 -2.93205 4.1616 -5.19879 -2.85172 4.3945 -5.16218 -3.0972 4.46723 
-5.19879 -2.85172 4.3945 -5.26374 -2.95268 4.6355 -5.16218 -3.0972 4.46723 
-5.19879 -2.85172 4.3945 -5.39215 -2.5771 4.7631 -5.31943 -2.86646 4.73645 
-5.39215 -2.5771 4.7631 -5.36234 -2.79555 4.81948 -5.31943 -2.86646 4.73645 
-5.39215 -2.5771 4.7631 -5.55156 -2.20381 5.14752 -5.53616 -2.4525 5.22297 
-5.55156 -2.20381 5.14752 -5.59078 -2.30897 5.38918 -5.53616 -2.4525 5.22297 
-5.55156 -2.20381 5.14752 -5.63836 -1.81603 5.44996 -5.63985 -2.1572 5.56276 
-5.63836 -1.81603 5.44996 -5.69607 -1.70399 5.76589 -5.68882 -1.96094 5.79579 
-5.69607 -1.70399 5.76589 -5.71507 -1.80673 5.97724 -5.68882 -1.96094 5.79579 
-5.69607 -1.70399 5.76589 -5.72945 -1.37036 6.13955 -5.72706 -1.7066 6.09447 
-5.72945 -1.37036 6.13955 -5.7329 -1.63744 6.17544 -5.72706 -1.7066 6.09447 
-5.73885 -1.4678 6.37406 -5.7329 -1.63744 6.17544 -5.72945 -1.37036 6.13955 
-5.72706 -1.7066 6.09447 -5.71507 -1.80673 5.97724 -5.69607 -1.70399 5.76589 
-5.68882 -1.96094 5.79579 -5.63985 -2.1572 5.56276 -5.63836 -1.81603 5.44996 
-5.63985 -2.1572 5.56276 -5.59078 -2.30897 5.38918 -5.55156 -2.20381 5.14752 
-5.53616 -2.4525 5.22297 -5.44816 -2.63895 5.00283 -5.39215 -2.5771 4.7631 
-5.44816 -2.63895 5.00283 -5.36234 -2.79555 4.81948 -5.39215 -2.5771 4.7631 
-5.31943 -2.86646 4.73645 -5.26374 -2.95268 4.6355 -5.19879 -2.85172 4.3945 
-5.16218 -3.0972 4.46723 -5.02033 -3.27141 4.25615 -5.07544 -2.93205 4.1616 
-5.02033 -3.27141 4.25615 -4.90338 -3.40434 4.10667 -4.80534 -3.31653 3.85203 
-4.78186 -3.52926 3.96004 -4.60656 -3.6887 3.76935 -4.53339 -3.56314 3.55775 
-4.60656 -3.6887 3.76935 -4.45169 -3.81992 3.62009 -4.53339 -3.56314 3.55775 
-4.36982 -3.8838 3.54529 -4.28223 -3.94907 3.46887 -4.2345 -3.80655 3.2967 
-4.1132 -4.06688 3.33094 -3.89377 -4.20239 3.16418 -3.91148 -4.01131 3.04482 
-3.89377 -4.20239 3.16418 -3.72211 -4.30465 3.05254 -3.59896 -4.18192 2.83232 
-3.54467 -4.40093 2.94265 -3.29739 -4.51898 2.8025 -3.30492 -4.33286 2.66864 
-3.29739 -4.51898 2.8025 -3.09266 -4.60739 2.69808 -2.95415 -4.49268 2.50079 
-2.97498 -4.65499 2.64235 -2.86942 -4.69555 2.59486 -2.95415 -4.49268 2.50079 
-2.64734 -4.77463 2.50227 -2.37379 -4.85733 2.39672 -2.47481 -4.66424 2.30659 
-2.37379 -4.85733 2.39672 -2.16595 -4.91924 2.33295 -2.0323 -4.77388 2.15366 
-1.94819 -4.97697 2.27136 -1.67371 -5.03286 2.19992 -1.67204 -4.91439 2.10594 
-1.63286 -5.04084 2.19058 -1.42213 -5.07864 2.14632 -1.26367 -4.8669 1.93839 
-1.27701 -5.10144 2.11962 -1.1676 -5.11693 2.10148 -1.26367 -4.8669 1.93839 
-0.913282 -5.14744 2.06578 -0.614585 -5.17317 2.03409 -0.73477 -4.98027 1.90314 
-0.614585 -5.17317 2.03409 -0.391633 -5.1862 2.02038 -0.376066 -5.00444 1.87948 
-0.183939 -5.19297 2.01245 -0.130635 -5.19392 2.01134 0.0095616 -5.07868 1.91692 
-0.130635 -5.19392 2.01134 0.130635 -5.19392 2.01134 0.0095616 -5.07868 1.91692 
0.183939 -5.19297 2.01245 0.391633 -5.1862 2.02038 0.524763 -4.9997 1.88697 
0.616074 -5.17412 2.03502 0.912935 -5.14616 2.06461 1.0207 -4.95294 1.93716 
0.912935 -5.14616 2.06461 1.1676 -5.11693 2.10148 1.0207 -4.95294 1.93716 
1.27701 -5.10144 2.11962 1.42213 -5.07864 2.14632 1.43536 -4.89398 2.00922 
1.63286 -5.04084 2.19058 1.67371 -5.03286 2.19992 1.80932 -4.88873 2.13987 
1.67371 -5.03286 2.19992 1.94818 -4.97631 2.2708 1.80932 -4.88873 2.13987 
1.94818 -4.97631 2.2708 2.16595 -4.91924 2.33295 2.26117 -4.71725 2.22598 
2.64564 -4.70282 2.43948 2.86942 -4.69555 2.59486 3.00873 -4.46182 2.51838 
2.97498 -4.65499 2.64235 3.09266 -4.60739 2.69808 3.00873 -4.46182 2.51838 
3.29739 -4.51884 2.80239 3.54466 -4.40013 2.94196 3.43682 -4.27447 2.74383 
3.54466 -4.40013 2.94196 3.72211 -4.30465 3.05254 3.80983 -4.07329 2.97249 
4.11224 -3.99445 3.26722 4.28223 -3.94907 3.46887 4.38943 -3.68897 3.42721 
4.36982 -3.8838 3.54529 4.45169 -3.81992 3.62009 4.38943 -3.68897 3.42721 
4.60602 -3.69143 3.77076 4.78239 -3.53004 3.96183 4.7052 -3.41203 3.73837 
4.78239 -3.53004 3.96183 4.90338 -3.40434 4.10667 4.89932 -3.21887 3.96975 
5.02031 -3.27939 4.26292 5.16218 -3.09741 4.46741 5.09707 -2.99328 4.23872 
5.16218 -3.09741 4.46741 5.26374 -2.95268 4.6355 5.323 -2.69455 4.62108 
5.31943 -2.86646 4.73645 5.36234 -2.79555 4.81948 5.323 -2.69455 4.62108 
5.44816 -2.63895 5.00283 5.53648 -2.44558 5.21892 5.51399 -2.29995 5.04874 
5.53648 -2.44558 5.21892 5.59078 -2.30897 5.38918 5.611 -2.04589 5.34727 
5.63985 -2.16221 5.56698 5.68882 -1.96072 5.79557 5.69873 -1.71096 5.76905 
5.68882 -1.96072 5.79557 5.71507 -1.80673 5.97724 5.69873 -1.71096 5.76905 
5.72706 -1.7066 6.09447 5.7329 -1.63744 6.17544 5.72748 -1.35553 6.14605 
5.7329 -1.63744 6.17544 5.73885 -1.4678 6.37406 5.72748 -1.35553 6.14605 
5.73885 -1.4678 6.37406 5.7329 -1.29817 6.57268 5.71585 -1.02596 6.56871 
5.72706 -1.22901 6.65366 5.71507 -1.12888 6.77089 5.71585 -1.02596 6.56871 
5.68882 -0.973789 6.95159 5.63985 -0.774334 7.18189 5.63851 -0.610042 6.86241 
5.63985 -0.774334 7.18189 5.59078 -0.626637 7.35894 5.55156 -0.371501 7.29288 
5.53616 -0.484877 7.52667 5.44816 -0.296657 7.7453 5.39137 -0.0486985 7.72368 
5.44816 -0.296657 7.7453 5.36234 -0.140061 7.92865 5.39137 -0.0486985 7.72368 
5.31943 -0.0691527 8.01167 5.26374 0.0170701 8.11263 5.19075 0.284896 8.061 
5.16218 0.160661 8.2817 5.02033 0.342272 8.48645 5.02678 0.489271 8.31361 
5.02033 0.342272 8.48645 4.90338 0.468729 8.64145 4.80122 0.736226 8.60079 
4.78189 0.591233 8.7901 4.60656 0.757414 8.97508 4.60449 0.918643 8.81616 
4.60656 0.757414 8.97508 4.45169 0.884313 9.12804 4.35095 1.11949 9.06719 
4.36982 0.948197 9.20284 4.28223 1.01346 9.27925 4.35095 1.11949 9.06719 
4.1132 1.13127 9.41718 3.89323 1.27441 9.57809 4.01327 1.38922 9.30216 
3.89323 1.27441 9.57809 3.72211 1.36905 9.69559 3.59896 1.60576 9.60881 
3.54467 1.46252 9.80787 3.29739 1.58247 9.94639 3.30492 1.74381 9.7835 
3.29739 1.58247 9.94639 3.09266 1.67178 10.05 2.95415 1.88459 9.96761 
2.97498 1.71938 10.1058 2.86942 1.75994 10.1533 2.95415 1.88459 9.96761 
2.64734 1.83902 10.2459 2.37379 1.93033 10.344 2.47481 2.04956 10.1674 
2.37379 1.93033 10.344 2.16595 1.98363 10.4152 2.0323 2.18345 10.2996 
1.94819 2.03543 10.4818 1.67371 2.09725 10.5482 1.67204 2.20861 10.4459 
1.63286 2.10523 10.5575 1.42213 2.14303 10.6018 1.26621 2.3331 10.4773 
1.27701 2.16583 10.6285 1.1676 2.18132 10.6466 1.26621 2.3331 10.4773 
0.913282 2.21181 10.6824 0.614585 2.23909 10.7127 0.73477 2.3986 10.5427 
0.614585 2.23909 10.7127 0.391633 2.25059 10.7277 0.376066 2.41819 10.5703 
0.183939 2.25736 10.7357 0.130635 2.25831 10.7368 -0.0095616 2.3696 10.6377 
0.130635 2.25831 10.7368 -0.130635 2.25831 10.7368 -0.0095616 2.3696 10.6377 
-0.183939 2.25736 10.7357 -0.391633 2.25059 10.7277 -0.524763 2.41153 10.5644 
-0.616074 2.23803 10.7135 -0.912935 2.21317 10.6813 -1.0207 2.36928 10.5104 
-0.912935 2.21317 10.6813 -1.1676 2.18132 10.6466 -1.0207 2.36928 10.5104 
-1.27701 2.16583 10.6285 -1.42213 2.14303 10.6018 -1.43536 2.30733 10.4409 
-1.63286 2.10523 10.5575 -1.67371 2.09725 10.5482 -1.80932 2.17911 10.4152 
-1.67371 2.09725 10.5482 -1.94818 2.03609 10.4813 -1.80932 2.17911 10.4152 
-1.94818 2.03609 10.4813 -2.16595 1.98363 10.4152 -2.26117 2.12088 10.2324 
-2.64564 1.91227 10.1848 -2.86942 1.75994 10.1533 -3.00873 1.87204 9.93438 
-2.97498 1.71938 10.1058 -3.09266 1.67178 10.05 -3.00873 1.87204 9.93438 
-3.29739 1.5826 9.94627 -3.54466 1.46333 9.80719 -3.43682 1.67867 9.71407 
-3.54466 1.46333 9.80719 -3.72211 1.36905 9.69559 -3.80983 1.4843 9.47959 
-4.11224 1.20553 9.35562 -4.28223 1.01346 9.27925 -4.38943 1.0953 9.02887 
-4.36982 0.948197 9.20284 -4.45169 0.884313 9.12804 -4.38943 1.0953 9.02887 
-4.60602 0.755598 8.97756 -4.78239 0.592122 8.78826 -4.7052 0.831294 8.70667 
-4.78239 0.592122 8.78826 -4.90338 0.468729 8.64145 -4.89932 0.632976 8.47968 
-5.02031 0.333949 8.4936 -5.16218 0.160452 8.28187 -5.09707 0.402616 8.2148 
-5.16218 0.160452 8.28187 -5.26374 0.0170701 8.11263 -5.323 0.0716894 7.85994 
-5.31943 -0.0691527 8.01167 -5.36234 -0.140061 7.92865 -5.323 0.0716894 7.85994 
-5.44816 -0.296657 7.7453 -5.53648 -0.479839 7.5205 -5.51399 -0.288971 7.40329 
-5.53648 -0.479839 7.5205 -5.59078 -0.626637 7.35894 -5.611 -0.544082 7.10566 
-5.63985 -0.77929 7.18617 -5.68882 -0.973545 6.95141 -5.6604 -0.707486 6.78109 
-5.68882 -0.973545 6.95141 -5.71507 -1.12888 6.77089 -5.71325 -1.02429 6.52357 
-5.72706 -1.22901 6.65366 -5.7329 -1.29817 6.57268 -5.71325 -1.02429 6.52357 
-5.7329 -1.29817 6.57268 -5.73885 -1.4678 6.37406 -5.72945 -1.37036 6.13955 
-5.55156 -2.20381 5.14752 -5.39215 -2.5771 4.7631 -5.39614 -2.23626 4.70371 
-2.95415 -4.49268 2.50079 -2.47481 -4.66424 2.30659 -2.57177 -4.35483 2.18867 
-2.0323 -4.77388 2.15366 -1.67204 -4.91439 2.10594 -1.761 -4.69446 1.99522 
-0.376066 -5.00444 1.87948 0.0095616 -5.07868 1.91692 0.0592456 -4.81132 1.74438 
1.43536 -4.89398 2.00922 1.80932 -4.88873 2.13987 1.79859 -4.61833 1.96638 
2.26117 -4.71725 2.22598 2.64564 -4.70282 2.43948 2.5337 -4.41079 2.19188 
3.80983 -4.07329 2.97249 4.11224 -3.99445 3.26722 4.08347 -3.7415 3.08844 
5.611 -2.04589 5.34727 5.69873 -1.71096 5.76905 5.62125 -1.60054 5.44062 
5.55156 -0.371501 7.29288 5.39137 -0.0486985 7.72368 5.39382 0.0664945 7.40222 
2.95415 1.88459 9.96761 2.47481 2.04956 10.1674 2.60327 2.12257 9.97802 
2.0323 2.18345 10.2996 1.67204 2.20861 10.4459 1.69887 2.42105 10.1889 
0.376066 2.41819 10.5703 -0.0095616 2.3696 10.6377 -0.0597739 2.57622 10.4076 
-1.43536 2.30733 10.4409 -1.80932 2.17911 10.4152 -1.79859 2.39276 10.1753 
-2.26117 2.12088 10.2324 -2.64564 1.91227 10.1848 -2.53366 2.20251 9.93508 
-3.80983 1.4843 9.47959 -4.11224 1.20553 9.35562 -4.08347 1.42168 9.13376 
-5.72945 -1.37036 6.13955 -5.69607 -1.70399 5.76589 -5.66108 -1.32625 5.73317 
-5.63836 -1.81603 5.44996 -5.55156 -2.20381 5.14752 -5.5022 -1.97583 4.9793 
-5.39614 -2.23626 4.70371 -5.39215 -2.5771 4.7631 -5.21549 -2.51312 4.3333 
-5.39215 -2.5771 4.7631 -5.19879 -2.85172 4.3945 -5.21549 -2.51312 4.3333 
-5.07544 -2.93205 4.1616 -4.80534 -3.31653 3.85203 -4.78018 -3.055 3.70797 
-4.80534 -3.31653 3.85203 -4.53339 -3.56314 3.55775 -4.50807 -3.31976 3.4193 
-4.53339 -3.56314 3.55775 -4.2345 -3.80655 3.2967 -4.2932 -3.4577 3.20799 
-3.97776 -3.6673 2.94774 -3.91148 -4.01131 3.04482 -3.60586 -3.92497 2.70434 
-3.91148 -4.01131 3.04482 -3.59896 -4.18192 2.83232 -3.60586 -3.92497 2.70434 
-3.59896 -4.18192 2.83232 -3.30492 -4.33286 2.66864 -3.19685 -4.12894 2.47625 
-3.30492 -4.33286 2.66864 -2.95415 -4.49268 2.50079 -3.19685 -4.12894 2.47625 
-2.57177 -4.35483 2.18867 -2.47481 -4.66424 2.30659 -2.10758 -4.48766 2.02673 
-2.47481 -4.66424 2.30659 -2.0323 -4.77388 2.15366 -2.10758 -4.48766 2.02673 
-1.26367 -4.8669 1.93839 -0.73477 -4.98027 1.90314 -0.965678 -4.69401 1.77975 
-0.73477 -4.98027 1.90314 -0.376066 -5.00444 1.87948 -0.496743 -4.73396 1.73307 
0.524763 -4.9997 1.88697 1.0207 -4.95294 1.93716 0.992613 -4.70461 1.79021 
1.0207 -4.95294 1.93716 1.43536 -4.89398 2.00922 1.33269 -4.6471 1.83975 
1.79859 -4.61833 1.96638 2.26117 -4.71725 2.22598 2.06918 -4.4818 2.00971 
2.5337 -4.41079 2.19188 3.00873 -4.46182 2.51838 2.81916 -4.25125 2.28496 
3.00873 -4.46182 2.51838 3.43682 -4.27447 2.74383 3.19179 -4.11083 2.46463 
3.43682 -4.27447 2.74383 3.80983 -4.07329 2.97249 3.65338 -3.8992 2.73349 
4.08347 -3.7415 3.08844 4.38943 -3.68897 3.42721 4.43373 -3.36286 3.33541 
4.38943 -3.68897 3.42721 4.7052 -3.41203 3.73837 4.43373 -3.36286 3.33541 
4.7052 -3.41203 3.73837 4.89932 -3.21887 3.96975 4.77187 -3.04835 3.69555 
4.89932 -3.21887 3.96975 5.09707 -2.99328 4.23872 5.06171 -2.74491 4.08261 
5.09707 -2.99328 4.23872 5.323 -2.69455 4.62108 5.06171 -2.74491 4.08261 
5.42106 -2.31802 4.77863 5.51399 -2.29995 5.04874 5.54094 -1.87576 5.1013 
5.51399 -2.29995 5.04874 5.611 -2.04589 5.34727 5.54094 -1.87576 5.1013 
5.62125 -1.60054 5.44062 5.69873 -1.71096 5.76905 5.669 -1.21241 5.85248 
5.69873 -1.71096 5.76905 5.72748 -1.35553 6.14605 5.669 -1.21241 5.85248 
5.72748 -1.35553 6.14605 5.71585 -1.02596 6.56871 5.66301 -0.821993 6.32863 
5.63851 -0.610042 6.86241 5.55156 -0.371501 7.29288 5.5022 -0.169683 7.09402 
5.39382 0.0664945 7.40222 5.39137 -0.0486985 7.72368 5.18476 0.43163 7.79038 
5.39137 -0.0486985 7.72368 5.19075 0.284896 8.061 5.18476 0.43163 7.79038 
5.19075 0.284896 8.061 5.02678 0.489271 8.31361 4.91073 0.776134 8.19609 
5.02678 0.489271 8.31361 4.80122 0.736226 8.60079 4.91073 0.776134 8.19609 
4.80122 0.736226 8.60079 4.60449 0.918643 8.81616 4.48359 1.19006 8.67624 
4.60449 0.918643 8.81616 4.35095 1.11949 9.06719 4.48359 1.19006 8.67624 
4.01327 1.38922 9.30216 3.59896 1.60576 9.60881 3.60663 1.77184 9.37469 
3.59896 1.60576 9.60881 3.30492 1.74381 9.7835 3.19685 1.96573 9.61219 
3.30492 1.74381 9.7835 2.95415 1.88459 9.96761 3.19685 1.96573 9.61219 
2.60327 2.12257 9.97802 2.47481 2.04956 10.1674 2.11749 2.35235 10.0316 
2.47481 2.04956 10.1674 2.0323 2.18345 10.2996 2.11749 2.35235 10.0316 
1.69887 2.42105 10.1889 1.26621 2.3331 10.4773 1.28171 2.51902 10.2372 
1.26621 2.3331 10.4773 0.73477 2.3986 10.5427 0.92186 2.59825 10.2445 
0.73477 2.3986 10.5427 0.376066 2.41819 10.5703 0.476249 2.60797 10.3255 
-0.524763 2.41153 10.5644 -1.0207 2.36928 10.5104 -1.14315 2.53345 10.2737 
-1.0207 2.36928 10.5104 -1.43536 2.30733 10.4409 -1.14315 2.53345 10.2737 
-1.79859 2.39276 10.1753 -2.26117 2.12088 10.2324 -2.06918 2.37132 10.0337 
-2.53366 2.20251 9.93508 -3.00873 1.87204 9.93438 -2.81956 2.13504 9.76323 
-3.00873 1.87204 9.93438 -3.43682 1.67867 9.71407 -3.19179 1.98004 9.59612 
-3.43682 1.67867 9.71407 -3.80983 1.4843 9.47959 -3.65338 1.7476 9.34504 
-4.08347 1.42168 9.13376 -4.38943 1.0953 9.02887 -4.43373 1.23698 8.72114 
-4.38943 1.0953 9.02887 -4.7052 0.831294 8.70667 -4.43373 1.23698 8.72114 
-4.7052 0.831294 8.70667 -4.89932 0.632976 8.47968 -4.77187 0.930476 8.35416 
-4.89932 0.632976 8.47968 -5.09707 0.402616 8.2148 -5.06171 0.595654 7.99391 
-5.09707 0.402616 8.2148 -5.323 0.0716894 7.85994 -5.06171 0.595654 7.99391 
-5.42106 -0.0250192 7.46339 -5.51399 -0.288971 7.40329 -5.54094 -0.274532 6.9761 
-5.51399 -0.288971 7.40329 -5.611 -0.544082 7.10566 -5.54094 -0.274532 6.9761 
-5.6604 -0.707486 6.78109 -5.71325 -1.02429 6.52357 -5.6682 -0.907936 6.20386 
-5.71325 -1.02429 6.52357 -5.72945 -1.37036 6.13955 -5.6682 -0.907936 6.20386 
-5.66108 -1.32625 5.73317 -5.63836 -1.81603 5.44996 -5.57585 -1.60413 5.29647 
-1.761 -4.69446 1.99522 -1.26367 -4.8669 1.93839 -1.52391 -4.53542 1.84477 
3.65338 -3.8992 2.73349 4.08347 -3.7415 3.08844 4.02247 -3.51435 2.94989 
5.26584 -2.42225 4.42814 5.42106 -2.31802 4.77863 5.3658 -1.98796 4.65893 
5.42106 -2.31802 4.77863 5.54094 -1.87576 5.1013 5.3658 -1.98796 4.65893 
5.66301 -0.821993 6.32863 5.63851 -0.610042 6.86241 5.57585 -0.424809 6.67728 
4.24536 1.37436 8.89303 4.01327 1.38922 9.30216 3.92118 1.63633 9.05993 
4.01327 1.38922 9.30216 3.60663 1.77184 9.37469 3.92118 1.63633 9.05993 
2.91765 2.10062 9.71611 2.60327 2.12257 9.97802 2.47054 2.29554 9.8337 
2.60327 2.12257 9.97802 2.11749 2.35235 10.0316 2.47054 2.29554 9.8337 
-3.65338 1.7476 9.34504 -4.08347 1.42168 9.13376 -4.02247 1.59406 8.93108 
-5.26584 0.304852 7.62117 -5.42106 -0.0250192 7.46339 -5.36571 0.145253 7.14883 
-5.42106 -0.0250192 7.46339 -5.54094 -0.274532 6.9761 -5.36571 0.145253 7.14883 
-5.54094 -0.274532 6.9761 -5.6604 -0.707486 6.78109 -5.59542 -0.515236 6.57189 
-5.6682 -0.907936 6.20386 -5.66108 -1.32625 5.73317 -5.56749 -0.926267 5.75407 
-5.66108 -1.32625 5.73317 -5.57585 -1.60413 5.29647 -5.51477 -1.31178 5.27724 
-5.57585 -1.60413 5.29647 -5.5022 -1.97583 4.9793 -5.42634 -1.66909 4.89399 
-5.5022 -1.97583 4.9793 -5.39614 -2.23626 4.70371 -5.27375 -1.98598 4.48533 
-5.39614 -2.23626 4.70371 -5.21549 -2.51312 4.3333 -5.27375 -1.98598 4.48533 
-4.93505 -2.71403 3.88694 -4.78018 -3.055 3.70797 -4.6977 -2.78344 3.57089 
-4.78018 -3.055 3.70797 -4.50807 -3.31976 3.4193 -4.47663 -3.00557 3.32917 
-4.50807 -3.31976 3.4193 -4.2932 -3.4577 3.20799 -4.2432 -3.19071 3.10274 
-4.2932 -3.4577 3.20799 -3.97776 -3.6673 2.94774 -3.89782 -3.442 2.82049 
-3.97776 -3.6673 2.94774 -3.60586 -3.92497 2.70434 -3.51982 -3.65109 2.56371 
-3.60586 -3.92497 2.70434 -3.19685 -4.12894 2.47625 -3.21275 -3.80818 2.38944 
-3.19685 -4.12894 2.47625 -2.91765 -4.21048 2.32676 -2.89944 -3.93625 2.22983 
-2.91765 -4.21048 2.32676 -2.57177 -4.35483 2.18867 -2.56329 -4.06476 2.08901 
-2.57177 -4.35483 2.18867 -2.10758 -4.48766 2.02673 -2.20258 -4.18348 1.95974 
-2.10758 -4.48766 2.02673 -1.52391 -4.53542 1.84477 -1.76158 -4.29638 1.83364 
-1.52391 -4.53542 1.84477 -0.965678 -4.69401 1.77975 -1.25499 -4.37816 1.72042 
-0.965678 -4.69401 1.77975 -0.496743 -4.73396 1.73307 -0.765239 -4.43082 1.65076 
-0.496743 -4.73396 1.73307 0.0592456 -4.81132 1.74438 -0.271007 -4.47446 1.62058 
0.255641 -4.52413 1.6334 0.666966 -4.72996 1.75172 0.741674 -4.42693 1.64646 
0.666966 -4.72996 1.75172 0.992613 -4.70461 1.79021 0.741674 -4.42693 1.64646 
0.992613 -4.70461 1.79021 1.33269 -4.6471 1.83975 1.13234 -4.39505 1.7023 
1.33269 -4.6471 1.83975 1.79859 -4.61833 1.96638 1.49568 -4.33224 1.76618 
1.79859 -4.61833 1.96638 2.06918 -4.4818 2.00971 1.86439 -4.26192 1.85817 
2.06918 -4.4818 2.00971 2.5337 -4.41079 2.19188 2.21218 -4.16752 1.95904 
2.5337 -4.41079 2.19188 2.81916 -4.25125 2.28496 2.66905 -4.04462 2.13297 
2.81916 -4.25125 2.28496 3.19179 -4.11083 2.46463 3.10845 -3.85787 2.33393 
3.19179 -4.11083 2.46463 3.65338 -3.8992 2.73349 3.41509 -3.71086 2.50338 
4.02247 -3.51435 2.94989 4.43373 -3.36286 3.33541 4.21921 -3.20175 3.08038 
4.43373 -3.36286 3.33541 4.77187 -3.04835 3.69555 4.68719 -2.80133 3.55864 
4.77187 -3.04835 3.69555 5.06171 -2.74491 4.08261 4.94485 -2.51588 3.89532 
5.06171 -2.74491 4.08261 5.26584 -2.42225 4.42814 5.15428 -2.2177 4.24199 
5.3658 -1.98796 4.65893 5.54094 -1.87576 5.1013 5.47536 -1.53686 5.05265 
5.54094 -1.87576 5.1013 5.62125 -1.60054 5.44062 5.47536 -1.53686 5.05265 
5.62125 -1.60054 5.44062 5.669 -1.21241 5.85248 5.55672 -1.10097 5.55073 
5.669 -1.21241 5.85248 5.66301 -0.821993 6.32863 5.56749 -0.770725 5.93618 
5.66301 -0.821993 6.32863 5.57585 -0.424809 6.67728 5.49933 -0.279099 6.5118 
5.57585 -0.424809 6.67728 5.5022 -0.169683 7.09402 5.37565 0.105359 6.97498 
5.5022 -0.169683 7.09402 5.39382 0.0664945 7.40222 5.37565 0.105359 6.97498 
5.39382 0.0664945 7.40222 5.18476 0.43163 7.79038 5.20475 0.434831 7.35736 
5.18476 0.43163 7.79038 4.91073 0.776134 8.19609 4.97942 0.778073 7.70327 
4.91073 0.776134 8.19609 4.70807 0.985651 8.43831 4.69475 1.09667 8.12262 
4.70807 0.985651 8.43831 4.48359 1.19006 8.67624 4.47663 1.29904 8.36922 
4.48359 1.19006 8.67624 4.24536 1.37436 8.89303 4.2432 1.49372 8.58751 
4.24536 1.37436 8.89303 3.92118 1.63633 9.05993 3.90678 1.7222 8.88762 
3.92118 1.63633 9.05993 3.60663 1.77184 9.37469 3.51675 1.95233 9.1368 
3.60663 1.77184 9.37469 3.19685 1.96573 9.61219 3.21275 2.10165 9.30896 
3.19685 1.96573 9.61219 2.91765 2.10062 9.71611 2.89944 2.23926 9.46042 
2.91765 2.10062 9.71611 2.47054 2.29554 9.8337 2.46353 2.38788 9.66162 
2.47054 2.29554 9.8337 2.11749 2.35235 10.0316 1.98539 2.52663 9.80921 
2.11749 2.35235 10.0316 1.69887 2.42105 10.1889 1.62528 2.60663 9.90021 
1.69887 2.42105 10.1889 1.28171 2.51902 10.2372 1.24258 2.67559 9.97579 
0.92186 2.59825 10.2445 0.476249 2.60797 10.3255 0.487217 2.75438 10.064 
0.476249 2.60797 10.3255 -0.0597739 2.57622 10.4076 -0.0166685 2.76379 10.0893 
-0.383217 2.68493 10.2083 -0.666966 2.58732 10.3191 -0.741509 2.73866 10.0365 
-0.666966 2.58732 10.3191 -1.14315 2.53345 10.2737 -0.741509 2.73866 10.0365 
-1.14315 2.53345 10.2737 -1.79859 2.39276 10.1753 -1.35152 2.66347 9.95195 
-1.79859 2.39276 10.1753 -2.06918 2.37132 10.0337 -1.86439 2.5554 9.84022 
-2.06918 2.37132 10.0337 -2.53366 2.20251 9.93508 -2.21218 2.47053 9.7312 
-2.53366 2.20251 9.93508 -2.81956 2.13504 9.76323 -2.67419 2.31556 9.58188 
-2.81956 2.13504 9.76323 -3.19179 1.98004 9.59612 -3.10845 2.1487 9.36672 
-3.19179 1.98004 9.59612 -3.65338 1.7476 9.34504 -3.41509 2.00433 9.19501 
-4.02247 1.59406 8.93108 -4.43373 1.23698 8.72114 -4.21921 1.51408 8.60191 
-4.43373 1.23698 8.72114 -4.77187 0.930476 8.35416 -4.68719 1.10435 8.1316 
-4.77187 0.930476 8.35416 -5.06171 0.595654 7.99391 -4.94485 0.816468 7.797 
-5.06171 0.595654 7.99391 -5.26584 0.304852 7.62117 -5.15428 0.520707 7.44826 
-5.36571 0.145253 7.14883 -5.54094 -0.274532 6.9761 -5.38993 0.021973 6.72439 
-5.54094 -0.274532 6.9761 -5.59542 -0.515236 6.57189 -5.50133 -0.2752 6.53954 
-5.59542 -0.515236 6.57189 -5.6682 -0.907936 6.20386 -5.55723 -0.601454 6.1367 
-5.05303 -2.38283 4.06338 -4.93505 -2.71403 3.88694 -4.8282 -2.46548 3.75222 
3.7228 -3.54943 2.69748 4.02247 -3.51435 2.94989 3.93489 -3.2489 2.83495 
1.24258 2.67559 9.97579 0.92186 2.59825 10.2445 0.874436 2.779 9.89272 
-0.0166685 2.76379 10.0893 -0.383217 2.68493 10.2083 -0.374458 2.81612 9.93618 
-3.7228 1.83788 9.0052 -4.02247 1.59406 8.93108 -3.93489 1.74911 8.68687 
-5.56749 -0.926267 5.75407 -5.51477 -1.31178 5.27724 -5.44241 -1.0225 5.34019 
-5.51477 -1.31178 5.27724 -5.42634 -1.66909 4.89399 -5.29998 -1.46331 4.75501 
-5.42634 -1.66909 4.89399 -5.27375 -1.98598 4.48533 -5.16799 -1.76811 4.3906 
-5.27375 -1.98598 4.48533 -5.05303 -2.38283 4.06338 -4.9373 -2.05384 3.97452 
-4.8282 -2.46548 3.75222 -4.6977 -2.78344 3.57089 -4.50461 -2.69852 3.36223 
-4.6977 -2.78344 3.57089 -4.47663 -3.00557 3.32917 -4.50461 -2.69852 3.36223 
-4.47663 -3.00557 3.32917 -4.2432 -3.19071 3.10274 -4.1181 -2.8733 2.98869 
-4.2432 -3.19071 3.10274 -3.89782 -3.442 2.82049 -3.81451 -3.21363 2.73727 
-3.89782 -3.442 2.82049 -3.51982 -3.65109 2.56371 -3.443 -3.38299 2.48311 
-3.51982 -3.65109 2.56371 -3.21275 -3.80818 2.38944 -3.12842 -3.54648 2.30332 
-3.21275 -3.80818 2.38944 -2.89944 -3.93625 2.22983 -2.82808 -3.67467 2.15251 
-2.89944 -3.93625 2.22983 -2.56329 -4.06476 2.08901 -2.41733 -3.83376 1.98048 
-2.56329 -4.06476 2.08901 -2.20258 -4.18348 1.95974 -2.41733 -3.83376 1.98048 
-2.20258 -4.18348 1.95974 -1.76158 -4.29638 1.83364 -1.95466 -3.9505 1.82481 
-1.76158 -4.29638 1.83364 -1.25499 -4.37816 1.72042 -1.47158 -4.05511 1.7027 
-1.25499 -4.37816 1.72042 -0.765239 -4.43082 1.65076 -0.65408 -4.17737 1.57941 
-0.765239 -4.43082 1.65076 -0.271007 -4.47446 1.62058 -0.65408 -4.17737 1.57941 
-0.271007 -4.47446 1.62058 0.255641 -4.52413 1.6334 -0.0152766 -4.19026 1.54946 
0.374458 -4.31592 1.58564 0.741674 -4.42693 1.64646 0.87182 -4.15531 1.60326 
0.741674 -4.42693 1.64646 1.13234 -4.39505 1.7023 0.87182 -4.15531 1.60326 
1.13234 -4.39505 1.7023 1.49568 -4.33224 1.76618 1.46677 -4.05367 1.70143 
1.49568 -4.33224 1.76618 1.86439 -4.26192 1.85817 1.81973 -3.97135 1.78564 
1.86439 -4.26192 1.85817 2.21218 -4.16752 1.95904 2.15676 -3.88614 1.88613 
2.21218 -4.16752 1.95904 2.66905 -4.04462 2.13297 2.69039 -3.75565 2.09054 
2.66905 -4.04462 2.13297 3.10845 -3.85787 2.33393 2.69039 -3.75565 2.09054 
3.10845 -3.85787 2.33393 3.41509 -3.71086 2.50338 3.24751 -3.52902 2.37084 
3.41509 -3.71086 2.50338 3.7228 -3.54943 2.69748 3.6285 -3.33727 2.60802 
3.93489 -3.2489 2.83495 4.21921 -3.20175 3.08038 4.21193 -2.88455 3.06779 
4.21921 -3.20175 3.08038 4.47556 -3.00651 3.32807 4.21193 -2.88455 3.06779 
4.47556 -3.00651 3.32807 4.68719 -2.80133 3.55864 4.56596 -2.57031 3.43955 
4.68719 -2.80133 3.55864 4.94485 -2.51588 3.89532 4.8277 -2.30272 3.77583 
4.94485 -2.51588 3.89532 5.15428 -2.2177 4.24199 5.05203 -2.03123 4.13719 
5.15428 -2.2177 4.24199 5.3658 -1.98796 4.65893 5.25979 -1.70256 4.56576 
5.3658 -1.98796 4.65893 5.47536 -1.53686 5.05265 5.25979 -1.70256 4.56576 
5.47536 -1.53686 5.05265 5.55672 -1.10097 5.55073 5.39317 -1.13648 5.1289 
5.55672 -1.10097 5.55073 5.56749 -0.770725 5.93618 5.44863 -0.681426 5.68788 
5.52129 -0.504462 6.15046 5.49933 -0.279099 6.5118 5.34313 -0.085325 6.27902 
5.49933 -0.279099 6.5118 5.37565 0.105359 6.97498 5.25966 0.246029 6.75104 
5.37565 0.105359 6.97498 5.20475 0.434831 7.35736 5.08314 0.59343 7.16214 
5.20475 0.434831 7.35736 4.97942 0.778073 7.70327 4.91269 0.860825 7.55071 
4.97942 0.778073 7.70327 4.69475 1.09667 8.12262 4.57199 1.25278 7.90182 
4.69475 1.09667 8.12262 4.47663 1.29904 8.36922 4.37179 1.43742 8.15033 
4.47663 1.29904 8.36922 4.2432 1.49372 8.58751 4.05388 1.69679 8.43725 
4.2432 1.49372 8.58751 3.90678 1.7222 8.88762 4.05388 1.69679 8.43725 
3.90678 1.7222 8.88762 3.51675 1.95233 9.1368 3.63933 1.95315 8.8023 
3.51675 1.95233 9.1368 3.21275 2.10165 9.30896 3.24517 2.16029 9.05355 
3.21275 2.10165 9.30896 2.89944 2.23926 9.46042 2.73472 2.38859 9.27895 
2.89944 2.23926 9.46042 2.46353 2.38788 9.66162 2.73472 2.38859 9.27895 
2.46353 2.38788 9.66162 1.98539 2.52663 9.80921 2.18132 2.5607 9.51366 
1.98539 2.52663 9.80921 1.62528 2.60663 9.90021 1.69422 2.72048 9.53327 
1.62528 2.60663 9.90021 1.24258 2.67559 9.97579 1.239 2.76354 9.75114 
0.874436 2.779 9.89272 0.487217 2.75438 10.064 0.465991 2.8795 9.73667 
0.487217 2.75438 10.064 -0.0166685 2.76379 10.0893 0.00725762 2.85607 9.85948 
-0.374458 2.81612 9.93618 -0.741509 2.73866 10.0365 -0.737467 2.86939 9.67639 
-0.741509 2.73866 10.0365 -1.35152 2.66347 9.95195 -1.07132 2.82294 9.66703 
-1.35152 2.66347 9.95195 -1.86439 2.5554 9.84022 -1.84129 2.66569 9.56352 
-1.86439 2.5554 9.84022 -2.21218 2.47053 9.7312 -2.27906 2.54405 9.45129 
-2.21218 2.47053 9.7312 -2.67419 2.31556 9.58188 -2.27906 2.54405 9.45129 
-2.67419 2.31556 9.58188 -3.10845 2.1487 9.36672 -2.82993 2.34243 9.25809 
-3.10845 2.1487 9.36672 -3.41509 2.00433 9.19501 -3.24751 2.16369 9.03614 
-3.41509 2.00433 9.19501 -3.7228 1.83788 9.0052 -3.6285 1.95943 8.80965 
-3.93489 1.74911 8.68687 -4.21921 1.51408 8.60191 -4.21786 1.57085 8.28793 
-4.21921 1.51408 8.60191 -4.47556 1.29998 8.37032 -4.21786 1.57085 8.28793 
-4.47556 1.29998 8.37032 -4.68719 1.10435 8.1316 -4.56596 1.25811 7.92205 
-4.68719 1.10435 8.1316 -4.94485 0.816468 7.797 -4.8277 0.967828 7.60514 
-4.94485 0.816468 7.797 -5.15428 0.520707 7.44826 -5.05203 0.653388 7.28047 
-5.15428 0.520707 7.44826 -5.36571 0.145253 7.14883 -5.18983 0.412393 7.02023 
-5.50133 -0.2752 6.53954 -5.55723 -0.601454 6.1367 -5.39619 -0.249102 6.14848 
-5.55723 -0.601454 6.1367 -5.56749 -0.926267 5.75407 -5.43741 -0.64225 5.70348 
-5.43741 -0.64225 5.70348 -5.44241 -1.0225 5.34019 -5.33513 -0.725341 5.38855 
-4.9373 -2.05384 3.97452 -4.8282 -2.46548 3.75222 -4.60924 -2.34265 3.53042 
-4.8282 -2.46548 3.75222 -4.50461 -2.69852 3.36223 -4.60924 -2.34265 3.53042 
-4.1181 -2.8733 2.98869 -3.81451 -3.21363 2.73727 -3.819 -2.97299 2.75685 
-0.0152766 -4.19026 1.54946 0.374458 -4.31592 1.58564 0.307554 -4.01299 1.53839 
2.69039 -3.75565 2.09054 3.24751 -3.52902 2.37084 3.17243 -3.35083 2.32492 
3.24751 -3.52902 2.37084 3.6285 -3.33727 2.60802 3.6715 -3.09104 2.6378 
3.6285 -3.33727 2.60802 3.93489 -3.2489 2.83495 3.6715 -3.09104 2.6378 
4.8277 -2.30272 3.77583 5.05203 -2.03123 4.13719 4.99515 -1.80607 4.14213 
5.05203 -2.03123 4.13719 5.25979 -1.70256 4.56576 4.99515 -1.80607 4.14213 
5.39317 -1.13648 5.1289 5.44863 -0.681426 5.68788 5.33491 -0.615976 5.50776 
5.44863 -0.681426 5.68788 5.52129 -0.504462 6.15046 5.31717 -0.273663 5.90886 
5.08314 0.59343 7.16214 4.91269 0.860825 7.55071 4.80485 0.966795 7.37586 
4.05388 1.69679 8.43725 3.63933 1.95315 8.8023 3.50499 2.06579 8.65655 
3.63933 1.95315 8.8023 3.24517 2.16029 9.05355 3.50499 2.06579 8.65655 
3.24517 2.16029 9.05355 2.73472 2.38859 9.27895 2.66599 2.45605 9.10143 
2.73472 2.38859 9.27895 2.18132 2.5607 9.51366 2.13891 2.62449 9.31154 
1.69422 2.72048 9.53327 1.239 2.76354 9.75114 1.2284 2.8243 9.53356 
1.239 2.76354 9.75114 0.874436 2.779 9.89272 0.853674 2.87093 9.59984 
0.465991 2.8795 9.73667 0.00725762 2.85607 9.85948 -0.131787 2.91428 9.66517 
0.00725762 2.85607 9.85948 -0.374458 2.81612 9.93618 -0.131787 2.91428 9.66517 
-2.27906 2.54405 9.45129 -2.82993 2.34243 9.25809 -2.63919 2.46646 9.11086 
-2.82993 2.34243 9.25809 -3.24751 2.16369 9.03614 -3.17243 2.23692 8.86733 
-3.24751 2.16369 9.03614 -3.6285 1.95943 8.80965 -3.67099 1.96923 8.56372 
-3.6285 1.95943 8.80965 -3.93489 1.74911 8.68687 -3.67099 1.96923 8.56372 
-4.8277 0.967828 7.60514 -5.05203 0.653388 7.28047 -4.99576 0.683185 7.05807 
-5.05203 0.653388 7.28047 -5.18983 0.412393 7.02023 -4.99576 0.683185 7.05807 
-5.18983 0.412393 7.02023 -5.38993 0.021973 6.72439 -5.20623 0.228417 6.51024 
-5.33943 -1.14363 5.02688 -5.29998 -1.46331 4.75501 -5.13334 -1.32156 4.58924 
-5.29998 -1.46331 4.75501 -5.16799 -1.76811 4.3906 -5.13334 -1.32156 4.58924 
-4.9373 -2.05384 3.97452 -4.60924 -2.34265 3.53042 -4.67812 -2.02343 3.7061 
-3.819 -2.97299 2.75685 -3.81451 -3.21363 2.73727 -3.48748 -3.01341 2.53555 
-3.81451 -3.21363 2.73727 -3.443 -3.38299 2.48311 -3.48748 -3.01341 2.53555 
-3.443 -3.38299 2.48311 -3.12842 -3.54648 2.30332 -3.12747 -3.2038 2.31373 
-3.12842 -3.54648 2.30332 -2.82808 -3.67467 2.15251 -2.65066 -3.47743 2.06903 
-2.82808 -3.67467 2.15251 -2.41733 -3.83376 1.98048 -2.65066 -3.47743 2.06903 
-2.41733 -3.83376 1.98048 -1.95466 -3.9505 1.82481 -2.09084 -3.6534 1.85758 
-1.95466 -3.9505 1.82481 -1.47158 -4.05511 1.7027 -1.65287 -3.70159 1.73088 
-1.47158 -4.05511 1.7027 -1.09599 -4.12036 1.63602 -1.05872 -3.80636 1.60598 
-1.09599 -4.12036 1.63602 -0.65408 -4.17737 1.57941 -1.05872 -3.80636 1.60598 
0.307554 -4.01299 1.53839 0.87182 -4.15531 1.60326 0.679264 -3.93049 1.56419 
0.87182 -4.15531 1.60326 1.46677 -4.05367 1.70143 1.21707 -3.86106 1.63775 
1.46677 -4.05367 1.70143 1.81973 -3.97135 1.78564 1.68 -3.6845 1.73928 
1.81973 -3.97135 1.78564 2.15676 -3.88614 1.88613 2.05691 -3.60793 1.84785 
2.15676 -3.88614 1.88613 2.69039 -3.75565 2.09054 2.64631 -3.56395 2.06379 
3.6715 -3.09104 2.6378 4.21193 -2.88455 3.06779 4.02812 -2.74135 2.94405 
4.21193 -2.88455 3.06779 4.56596 -2.57031 3.43955 4.32381 -2.49423 3.23341 
4.56596 -2.57031 3.43955 4.8277 -2.30272 3.77583 4.668 -2.12828 3.65345 
5.34313 -0.085325 6.27902 5.25966 0.246029 6.75104 5.13333 0.317923 6.50881 
5.25966 0.246029 6.75104 5.08314 0.59343 7.16214 4.98912 0.639736 6.90279 
4.80485 0.966795 7.37586 4.57199 1.25278 7.90182 4.51539 1.26478 7.52751 
4.57199 1.25278 7.90182 4.37179 1.43742 8.15033 4.24773 1.54316 7.937 
4.37179 1.43742 8.15033 4.05388 1.69679 8.43725 4.24773 1.54316 7.937 
-1.42942 2.7734 9.5888 -1.84129 2.66569 9.56352 -1.68338 2.76218 9.28862 
-1.84129 2.66569 9.56352 -2.27906 2.54405 9.45129 -2.10714 2.64384 9.2493 
-3.67099 1.96923 8.56372 -4.21786 1.57085 8.28793 -4.02812 1.72075 8.1685 
-4.21786 1.57085 8.28793 -4.56596 1.25811 7.92205 -4.32381 1.47362 7.87916 
-4.56596 1.25811 7.92205 -4.8277 0.967828 7.60514 -4.66791 1.11603 7.45168 
-5.20623 0.228417 6.51024 -5.39619 -0.249102 6.14848 -5.2129 -0.0584275 6.00379 
-5.39619 -0.249102 6.14848 -5.43741 -0.64225 5.70348 -5.28765 -0.354264 5.73983 
-5.33513 -0.725341 5.38855 -5.33943 -1.14363 5.02688 -5.12728 -0.948136 4.86097 
-5.33943 -1.14363 5.02688 -5.13334 -1.32156 4.58924 -5.12728 -0.948136 4.86097 
-5.13334 -1.32156 4.58924 -4.91814 -1.67225 4.11552 -4.95511 -1.27847 4.39487 
-4.67812 -2.02343 3.7061 -4.60924 -2.34265 3.53042 -4.45173 -2.08083 3.47765 
-4.60924 -2.34265 3.53042 -4.32579 -2.56668 3.21625 -4.21943 -2.32041 3.19912 
-4.32579 -2.56668 3.21625 -4.1181 -2.8733 2.98869 -3.83207 -2.62143 2.83095 
-4.1181 -2.8733 2.98869 -3.819 -2.97299 2.75685 -3.83207 -2.62143 2.83095 
-3.12747 -3.2038 2.31373 -2.65066 -3.47743 2.06903 -2.58278 -3.26214 2.06294 
-2.65066 -3.47743 2.06903 -2.09084 -3.6534 1.85758 -2.05318 -3.44251 1.86141 
-1.05872 -3.80636 1.60598 -0.336037 -3.9567 1.53504 -0.395144 -3.71724 1.54541 
-0.336037 -3.9567 1.53504 0.307554 -4.01299 1.53839 0.213184 -3.7162 1.53929 
0.307554 -4.01299 1.53839 0.679264 -3.93049 1.56419 0.582276 -3.69951 1.56154 
0.679264 -3.93049 1.56419 1.21707 -3.86106 1.63775 1.10366 -3.6603 1.62296 
2.05691 -3.60793 1.84785 2.64631 -3.56395 2.06379 2.26719 -3.38237 1.93614 
2.64631 -3.56395 2.06379 3.17243 -3.35083 2.32492 2.80739 -3.25267 2.15815 
3.17243 -3.35083 2.32492 3.6715 -3.09104 2.6378 3.25413 -3.04954 2.40382 
3.6715 -3.09104 2.6378 4.02812 -2.74135 2.94405 3.66912 -2.72779 2.70106 
4.02812 -2.74135 2.94405 4.32381 -2.49423 3.23341 4.06865 -2.41578 3.05682 
4.32381 -2.49423 3.23341 4.668 -2.12828 3.65345 4.33438 -2.18107 3.34137 
4.668 -2.12828 3.65345 4.99515 -1.80607 4.14213 4.76231 -1.64025 3.97191 
4.99515 -1.80607 4.14213 5.14065 -1.31582 4.59523 4.92685 -1.38541 4.29364 
5.18386 -0.853917 5.01672 5.33491 -0.615976 5.50776 5.15535 -0.525166 5.30202 
5.33491 -0.615976 5.50776 5.31717 -0.273663 5.90886 5.17529 -0.192101 5.7408 
5.31717 -0.273663 5.90886 5.34313 -0.085325 6.27902 5.12728 0.107957 6.09749 
5.34313 -0.085325 6.27902 5.13333 0.317923 6.50881 5.12728 0.107957 6.09749 
5.13333 0.317923 6.50881 4.98912 0.639736 6.90279 4.95373 0.516566 6.49335 
4.98912 0.639736 6.90279 4.80485 0.966795 7.37586 4.71228 0.965441 7.03264 
4.51539 1.26478 7.52751 4.24773 1.54316 7.937 4.16511 1.57905 7.73727 
4.24773 1.54316 7.937 3.8706 1.83541 8.30276 3.84082 1.83777 8.048 
3.8706 1.83541 8.30276 3.50499 2.06579 8.65655 3.49061 2.07331 8.32462 
3.50499 2.06579 8.65655 3.08412 2.27709 8.90423 3.09251 2.28698 8.64344 
3.08412 2.27709 8.90423 2.66599 2.45605 9.10143 2.64292 2.4818 8.89706 
2.66599 2.45605 9.10143 2.13891 2.62449 9.31154 2.16706 2.64689 8.99905 
2.13891 2.62449 9.31154 1.69422 2.72048 9.53327 1.85278 2.72787 9.17246 
1.69422 2.72048 9.53327 1.2284 2.8243 9.53356 1.39989 2.83284 9.21962 
1.2284 2.8243 9.53356 0.853674 2.87093 9.59984 0.934268 2.90244 9.29884 
0.853674 2.87093 9.59984 0.465991 2.8795 9.73667 0.370993 2.95038 9.36129 
0.465991 2.8795 9.73667 -0.131787 2.91428 9.66517 0.370993 2.95038 9.36129 
-0.131787 2.91428 9.66517 -0.737467 2.86939 9.67639 -0.589889 2.92698 9.40639 
-0.737467 2.86939 9.67639 -1.07132 2.82294 9.66703 -1.03828 2.89096 9.29101 
-1.07132 2.82294 9.66703 -1.42942 2.7734 9.5888 -1.03828 2.89096 9.29101 
-1.68338 2.76218 9.28862 -2.10714 2.64384 9.2493 -1.94916 2.70784 9.06061 
-2.10714 2.64384 9.2493 -2.63919 2.46646 9.11086 -2.38905 2.57709 8.90513 
-2.63919 2.46646 9.11086 -3.17243 2.23692 8.86733 -2.84954 2.39906 8.70291 
-3.17243 2.23692 8.86733 -3.67099 1.96923 8.56372 -3.24193 2.21131 8.48067 
-3.67099 1.96923 8.56372 -4.02812 1.72075 8.1685 -3.68237 1.95415 8.1877 
-4.02812 1.72075 8.1685 -4.32381 1.47362 7.87916 -4.06554 1.66359 7.84055 
-4.32381 1.47362 7.87916 -4.66791 1.11603 7.45168 -4.33518 1.41735 7.56296 
-4.66791 1.11603 7.45168 -4.99576 0.683185 7.05807 -4.76057 0.881162 6.92538 
-4.99576 0.683185 7.05807 -5.20623 0.228417 6.51024 -4.92327 0.603099 6.61528 
-5.2129 -0.0584275 6.00379 -5.28765 -0.354264 5.73983 -5.13292 -0.158759 5.71049 
-5.28765 -0.354264 5.73983 -5.33513 -0.725341 5.38855 -5.15729 -0.531704 5.29699 
-5.15729 -0.531704 5.29699 -5.12728 -0.948136 4.86097 -4.97301 -0.813622 4.78712 
-4.95511 -1.27847 4.39487 -4.91814 -1.67225 4.11552 -4.60522 -1.62278 3.83431 
-4.91814 -1.67225 4.11552 -4.67812 -2.02343 3.7061 -4.60522 -1.62278 3.83431 
-3.83207 -2.62143 2.83095 -3.48748 -3.01341 2.53555 -3.34424 -2.73003 2.52746 
-3.48748 -3.01341 2.53555 -3.12747 -3.2038 2.31373 -3.00259 -2.91965 2.31155 
-2.05318 -3.44251 1.86141 -1.65287 -3.70159 1.73088 -1.48689 -3.45272 1.72039 
-1.65287 -3.70159 1.73088 -1.05872 -3.80636 1.60598 -1.48689 -3.45272 1.72039 
1.10366 -3.6603 1.62296 1.68 -3.6845 1.73928 1.72745 -3.382 1.78314 
1.68 -3.6845 1.73928 2.05691 -3.60793 1.84785 1.72745 -3.382 1.78314 
2.26719 -3.38237 1.93614 2.80739 -3.25267 2.15815 2.69234 -3.05204 2.14986 
2.80739 -3.25267 2.15815 3.25413 -3.04954 2.40382 3.13292 -2.84806 2.39019 
4.92685 -1.38541 4.29364 5.14065 -1.31582 4.59523 4.93297 -0.892695 4.67066 
5.15535 -0.525166 5.30202 5.17529 -0.192101 5.7408 5.01856 -0.147577 5.55086 
5.17529 -0.192101 5.7408 5.12728 0.107957 6.09749 4.96386 0.207629 5.9702 
4.95373 0.516566 6.49335 4.71228 0.965441 7.03264 4.60736 0.984444 6.8558 
4.71228 0.965441 7.03264 4.51539 1.26478 7.52751 4.37101 1.31146 7.27016 
3.49061 2.07331 8.32462 3.09251 2.28698 8.64344 2.9229 2.3572 8.49463 
3.09251 2.28698 8.64344 2.64292 2.4818 8.89706 2.9229 2.3572 8.49463 
2.16706 2.64689 8.99905 1.85278 2.72787 9.17246 1.73037 2.76381 8.94639 
-0.197985 2.9565 9.34874 -0.589889 2.92698 9.40639 -0.459311 2.94895 9.16906 
-1.03828 2.89096 9.29101 -1.68338 2.76218 9.28862 -1.45244 2.8249 9.03075 
-5.04495 0.289059 6.24416 -5.2129 -0.0584275 6.00379 -4.97154 0.199993 5.97114 
-4.97301 -0.813622 4.78712 -4.95511 -1.27847 4.39487 -4.78404 -1.13692 4.32774 
-4.60522 -1.62278 3.83431 -4.45173 -2.08083 3.47765 -4.31963 -1.86937 3.47795 
-4.45173 -2.08083 3.47765 -4.21943 -2.32041 3.19912 -4.01281 -2.18585 3.11119 
-4.21943 -2.32041 3.19912 -3.83207 -2.62143 2.83095 -4.01281 -2.18585 3.11119 
-3.00259 -2.91965 2.31155 -2.58278 -3.26214 2.06294 -2.48983 -3.06562 2.0765 
-2.58278 -3.26214 2.06294 -2.05318 -3.44251 1.86141 -1.9832 -3.22941 1.88417 
-0.920531 -3.52119 1.61801 -0.395144 -3.71724 1.54541 -0.225675 -3.49557 1.57048 
-0.395144 -3.71724 1.54541 0.213184 -3.7162 1.53929 -0.225675 -3.49557 1.57048 
0.213184 -3.7162 1.53929 0.582276 -3.69951 1.56154 0.449023 -3.48426 1.58578 
0.582276 -3.69951 1.56154 1.10366 -3.6603 1.62296 1.06616 -3.42154 1.65556 
1.10366 -3.6603 1.62296 1.72745 -3.382 1.78314 1.06616 -3.42154 1.65556 
1.72745 -3.382 1.78314 2.26719 -3.38237 1.93614 2.1832 -3.16943 1.95439 
3.13292 -2.84806 2.39019 3.66912 -2.72779 2.70106 3.55128 -2.52395 2.70487 
3.66912 -2.72779 2.70106 4.06865 -2.41578 3.05682 3.92561 -2.25093 3.02954 
4.06865 -2.41578 3.05682 4.33438 -2.18107 3.34137 4.09687 -1.92736 3.29279 
4.33438 -2.18107 3.34137 4.56483 -1.90097 3.65439 4.41342 -1.75643 3.60854 
4.56483 -1.90097 3.65439 4.76231 -1.64025 3.97191 4.60217 -1.48934 3.92152 
4.76231 -1.64025 3.97191 4.92685 -1.38541 4.29364 4.74612 -1.22129 4.23103 
5.18386 -0.853917 5.01672 5.15535 -0.525166 5.30202 4.95914 -0.491348 5.09001 
4.96386 0.207629 5.9702 4.95373 0.516566 6.49335 4.78136 0.607058 6.36689 
4.37101 1.31146 7.27016 4.16511 1.57905 7.73727 4.07 1.57989 7.50344 
4.16511 1.57905 7.73727 3.84082 1.83777 8.048 3.68758 1.89634 7.88075 
3.84082 1.83777 8.048 3.49061 2.07331 8.32462 3.68758 1.89634 7.88075 
1.39989 2.83284 9.21962 0.934268 2.90244 9.29884 1.10489 2.8784 9.02573 
0.934268 2.90244 9.29884 0.370993 2.95038 9.36129 0.679877 2.92895 9.09467 
0.370993 2.95038 9.36129 -0.197985 2.9565 9.34874 0.151378 2.95886 9.12998 
-0.459311 2.94895 9.16906 -1.03828 2.89096 9.29101 -0.89736 2.90625 9.06809 
-1.45244 2.8249 9.03075 -1.94916 2.70784 9.06061 -1.78871 2.74319 8.87234 
-1.94916 2.70784 9.06061 -2.38905 2.57709 8.90513 -2.28373 2.5989 8.69016 
-2.38905 2.57709 8.90513 -2.84954 2.39906 8.70291 -2.77096 2.41118 8.48845 
-2.84954 2.39906 8.70291 -3.24193 2.21131 8.48067 -3.1115 2.24907 8.29812 
-3.24193 2.21131 8.48067 -3.68237 1.95415 8.1877 -3.54424 1.99808 8.00644 
-3.68237 1.95415 8.1877 -4.06554 1.66359 7.84055 -3.91122 1.72289 7.67826 
-4.06554 1.66359 7.84055 -4.33518 1.41735 7.56296 -4.23537 1.42515 7.33366 
-4.33518 1.41735 7.56296 -4.56221 1.15519 7.23552 -4.23537 1.42515 7.33366 
-4.56221 1.15519 7.23552 -4.76057 0.881162 6.92538 -4.51186 1.08453 6.93119 
-4.76057 0.881162 6.92538 -4.92327 0.603099 6.61528 -4.77761 0.661355 6.4604 
-4.92327 0.603099 6.61528 -5.04495 0.289059 6.24416 -4.77761 0.661355 6.4604 
-4.97154 0.199993 5.97114 -5.13292 -0.158759 5.71049 -4.95914 -0.0468125 5.6105 
-5.13292 -0.158759 5.71049 -5.15729 -0.531704 5.29699 -5.01353 -0.445537 5.19701 
-5.01353 -0.445537 5.19701 -4.97301 -0.813622 4.78712 -4.77147 -0.458204 4.93128 
-4.97301 -0.813622 4.78712 -4.78404 -1.13692 4.32774 -4.66667 -0.897852 4.41977 
-4.78404 -1.13692 4.32774 -4.60522 -1.62278 3.83431 -4.45889 -1.3272 3.92118 
-4.60522 -1.62278 3.83431 -4.31963 -1.86937 3.47795 -4.25495 -1.60387 3.59283 
-4.31963 -1.86937 3.47795 -4.01281 -2.18585 3.11119 -3.93969 -1.95488 3.18435 
-4.01281 -2.18585 3.11119 -3.635 -2.47119 2.77193 -3.51404 -2.27713 2.7962 
-3.635 -2.47119 2.77193 -3.34424 -2.73003 2.52746 -3.11932 -2.53532 2.49979 
-3.34424 -2.73003 2.52746 -3.00259 -2.91965 2.31155 -3.11932 -2.53532 2.49979 
-3.00259 -2.91965 2.31155 -2.48983 -3.06562 2.0765 -2.67893 -2.75848 2.24466 
-2.48983 -3.06562 2.0765 -1.9832 -3.22941 1.88417 -2.19386 -2.93074 2.03015 
-1.9832 -3.22941 1.88417 -1.48689 -3.45272 1.72039 -1.70931 -3.07691 1.8653 
-1.48689 -3.45272 1.72039 -0.920531 -3.52119 1.61801 -1.18718 -3.19918 1.73195 
-0.920531 -3.52119 1.61801 -0.225675 -3.49557 1.57048 -0.467051 -3.28797 1.63099 
-0.225675 -3.49557 1.57048 0.449023 -3.48426 1.58578 0.327826 -3.2762 1.63133 
0.449023 -3.48426 1.58578 1.06616 -3.42154 1.65556 0.930312 -3.2294 1.69083 
1.06616 -3.42154 1.65556 1.72745 -3.382 1.78314 1.46023 -3.14448 1.79463 
1.72745 -3.382 1.78314 2.1832 -3.16943 1.95439 1.88831 -3.03041 1.91936 
2.1832 -3.16943 1.95439 2.69234 -3.05204 2.14986 2.39922 -2.86063 2.1147 
2.69234 -3.05204 2.14986 3.13292 -2.84806 2.39019 2.8437 -2.67808 2.33526 
3.13292 -2.84806 2.39019 3.55128 -2.52395 2.70487 3.3084 -2.43095 2.62564 
3.55128 -2.52395 2.70487 3.92561 -2.25093 3.02954 3.76225 -2.09767 3.01194 
4.09687 -1.92736 3.29279 4.41342 -1.75643 3.60854 4.33266 -1.51675 3.69809 
4.41342 -1.75643 3.60854 4.60217 -1.48934 3.92152 4.33266 -1.51675 3.69809 
4.60217 -1.48934 3.92152 4.74612 -1.22129 4.23103 4.57835 -1.09092 4.19233 
4.74612 -1.22129 4.23103 4.93297 -0.892695 4.67066 4.69774 -0.796829 4.53973 
4.93297 -0.892695 4.67066 4.95914 -0.491348 5.09001 4.76296 -0.449428 4.93368 
4.95914 -0.491348 5.09001 5.01856 -0.147577 5.55086 4.79129 -0.0509826 5.41043 
5.01856 -0.147577 5.55086 4.96386 0.207629 5.9702 4.72598 0.348647 5.87633 
4.96386 0.207629 5.9702 4.78136 0.607058 6.36689 4.72598 0.348647 5.87633 
4.78136 0.607058 6.36689 4.60736 0.984444 6.8558 4.46128 0.975294 6.61904 
4.60736 0.984444 6.8558 4.37101 1.31146 7.27016 4.25994 1.2625 6.9589 
4.37101 1.31146 7.27016 4.07 1.57989 7.50344 3.99076 1.55295 7.28729 
4.07 1.57989 7.50344 3.68758 1.89634 7.88075 3.65003 1.84016 7.61902 
3.29173 2.12004 8.01828 2.9229 2.3572 8.49463 2.87934 2.31948 8.19412 
2.9229 2.3572 8.49463 2.35317 2.58109 8.71379 2.49878 2.4869 8.39653 
2.35317 2.58109 8.71379 1.73037 2.76381 8.94639 1.97 2.66296 8.57964 
1.73037 2.76381 8.94639 1.10489 2.8784 9.02573 1.32872 2.81722 8.75125 
1.10489 2.8784 9.02573 0.679877 2.92895 9.09467 0.560501 2.91872 8.87916 
0.679877 2.92895 9.09467 0.151378 2.95886 9.12998 0.560501 2.91872 8.87916 
0.151378 2.95886 9.12998 -0.459311 2.94895 9.16906 -0.100402 2.94058 8.91615 
-0.459311 2.94895 9.16906 -0.89736 2.90625 9.06809 -0.636799 2.9127 8.88633 
-0.89736 2.90625 9.06809 -1.45244 2.8249 9.03075 -1.17228 2.8454 8.79673 
-1.45244 2.8249 9.03075 -1.78871 2.74319 8.87234 -1.68797 2.73945 8.67577 
-1.78871 2.74319 8.87234 -2.28373 2.5989 8.69016 -2.19756 2.59438 8.50527 
-2.28373 2.5989 8.69016 -2.77096 2.41118 8.48845 -2.66673 2.41177 8.29119 
-2.77096 2.41118 8.48845 -3.1115 2.24907 8.29812 -3.0917 2.2077 8.05465 
-3.1115 2.24907 8.29812 -3.54424 1.99808 8.00644 -3.0917 2.2077 8.05465 
-3.54424 1.99808 8.00644 -3.91122 1.72289 7.67826 -3.76359 1.75434 7.52411 
-3.91122 1.72289 7.67826 -4.23537 1.42515 7.33366 -4.03966 1.5031 7.23326 
-4.23537 1.42515 7.33366 -4.51186 1.08453 6.93119 -4.25578 1.25325 6.93316 
-4.51186 1.08453 6.93119 -4.77761 0.661355 6.4604 -4.46846 0.936388 6.55397 
-4.77761 0.661355 6.4604 -4.97154 0.199993 5.97114 -4.67792 0.550576 6.12997 
-4.97154 0.199993 5.97114 -4.95914 -0.0468125 5.6105 -4.75437 0.18716 5.6824 
-4.95914 -0.0468125 5.6105 -5.01353 -0.445537 5.19701 -4.78814 -0.104379 5.34617 
2.49878 2.4869 8.39653 2.35317 2.58109 8.71379 1.97 2.66296 8.57964 
-4.50898 -0.626456 4.56814 -4.54139 -0.494865 4.72222 -4.77147 -0.458204 4.93128 
-4.42262 -0.874968 4.27742 -4.46581 -0.761388 4.41016 -4.66667 -0.897852 4.41977 
-4.21424 -1.26098 3.82488 -4.28334 -1.15006 3.95509 -4.45889 -1.3272 3.92118 
-4.45889 -1.3272 3.92118 -4.25495 -1.60387 3.59283 -4.10297 -1.41897 3.64046 
-3.92442 -1.62721 3.39592 -4.02108 -1.51897 3.52315 -4.25495 -1.60387 3.59283 
-3.2969 -2.15692 2.77529 -3.42057 -2.07147 2.87625 -3.51404 -2.27713 2.7962 
-3.51404 -2.27713 2.7962 -3.11932 -2.53532 2.49979 -3.11341 -2.27491 2.63796 
-2.82483 -2.4353 2.45075 -2.97315 -2.3555 2.54369 -3.11932 -2.53532 2.49979 
-3.11932 -2.53532 2.49979 -2.67893 -2.75848 2.24466 -2.62038 -2.53327 2.3359 
-2.67893 -2.75848 2.24466 -2.19386 -2.93074 2.03015 -2.29204 -2.66775 2.1781 
-1.9479 -2.78495 2.04092 -2.10898 -2.73282 2.1019 -2.19386 -2.93074 2.03015 
-2.19386 -2.93074 2.03015 -1.70931 -3.07691 1.8653 -1.71488 -2.85073 1.96387 
-1.35843 -2.93444 1.86669 -1.53512 -2.89471 1.91236 -1.70931 -3.07691 1.8653 
-0.7343 -3.02826 1.75599 -0.932659 -3.00433 1.78401 -1.18718 -3.19918 1.73195 
0.286778 -3.05809 1.71887 0.104348 -3.06583 1.712 0.327826 -3.2762 1.63133 
0.919586 -3.00613 1.78179 0.727414 -3.02888 1.75526 0.930312 -3.2294 1.69083 
1.89577 -2.79901 2.02337 1.73012 -2.84642 1.9689 1.88831 -3.03041 1.91936 
1.88831 -3.03041 1.91936 2.39922 -2.86063 2.1147 2.12608 -2.72714 2.10841 
2.45485 -2.605 2.25215 2.29204 -2.66775 2.1781 2.39922 -2.86063 2.1147 
2.39922 -2.86063 2.1147 2.8437 -2.67808 2.33526 2.6673 -2.511 2.36148 
2.97052 -2.35704 2.5419 2.81127 -2.44104 2.44354 2.8437 -2.67808 2.33526 
3.25865 -2.18344 2.74487 3.12888 -2.26527 2.64934 3.3084 -2.43095 2.62564 
3.66974 -1.87393 3.1074 3.47251 -2.03108 2.92173 3.76225 -2.09767 3.01194 
3.76225 -2.09767 3.01194 4.09687 -1.92736 3.29279 3.81919 -1.73721 3.26786 
4.01637 -1.52485 3.51625 3.91673 -1.63635 3.38572 4.09687 -1.92736 3.29279 
4.40742 -0.910243 4.23608 4.35323 -1.02234 4.10462 4.57835 -1.09092 4.19233 
4.57835 -1.09092 4.19233 4.69774 -0.796829 4.53973 4.47048 -0.747384 4.42606 
4.54012 -0.505744 4.70993 4.50827 -0.628686 4.56554 4.69774 -0.796829 4.53973 
4.76296 -0.449428 4.93368 4.79129 -0.0509826 5.41043 4.58408 -0.0894803 5.19686 
4.56651 0.163172 5.49142 4.57933 0.0460223 5.35552 4.79129 -0.0509826 5.41043 
4.79129 -0.0509826 5.41043 4.72598 0.348647 5.87633 4.53998 0.326305 5.68401 
4.47099 0.569026 5.96781 4.50827 0.449725 5.82819 4.72598 0.348647 5.87633 
4.72598 0.348647 5.87633 4.58419 0.727505 6.31944 4.40675 0.731403 6.15778 
4.28596 0.966876 6.43368 4.35323 0.843384 6.28911 4.58419 0.727505 6.31944 
4.12941 1.2039 6.71114 4.20457 1.09661 6.5856 4.46128 0.975294 6.61904 
3.81648 1.55803 7.12378 3.91673 1.45739 7.00801 3.99076 1.55295 7.28729 
3.42976 1.88608 7.50993 3.62588 1.72805 7.31904 3.65003 1.84016 7.61902 
3.65003 1.84016 7.61902 3.29173 2.12004 8.01828 3.26084 2.00511 7.65131 
2.66726 2.33222 8.03219 2.81127 2.26208 7.95018 2.87934 2.31948 8.19412 
2.87934 2.31948 8.19412 2.49878 2.4869 8.39653 2.45438 2.42525 8.14113 
2.12602 2.54829 8.28502 2.29204 2.48878 8.21562 2.49878 2.4869 8.39653 
1.53848 2.71502 8.4805 1.73012 2.66746 8.42483 1.97 2.66296 8.57964 
1.16394 2.79021 8.56792 1.33693 2.75822 8.53109 1.32872 2.81722 8.75125 
0.544466 2.86675 8.65773 0.727414 2.84992 8.63846 0.560501 2.91872 8.87916 
-0.0940894 2.88716 8.68203 0.104348 2.88687 8.68172 -0.100402 2.94058 8.91615 
-1.10939 2.79853 8.57595 -0.932659 2.82537 8.60972 -1.17228 2.8454 8.79673 
-1.68797 2.73945 8.67577 -2.19756 2.59438 8.50527 -1.94931 2.60664 8.35586 
-2.19756 2.59438 8.50527 -2.66673 2.41177 8.29119 -2.47036 2.41836 8.13317 
-2.62072 2.35408 8.0587 -2.47036 2.41836 8.13317 -2.66673 2.41177 8.29119 
-2.66673 2.41177 8.29119 -3.0917 2.2077 8.05465 -2.82471 2.25583 7.94324 
-3.11304 2.09608 7.75549 -2.97315 2.17654 7.85003 -3.0917 2.2077 8.05465 
-3.0917 2.2077 8.05465 -3.49094 1.95747 7.75991 -3.30557 1.97407 7.61303 
-3.78843 1.58707 7.15955 -3.68391 1.68229 7.27134 -3.76359 1.75434 7.52411 
-4.10539 1.23501 6.74702 -4.02108 1.34001 6.87058 -4.25578 1.25325 6.93316 
-4.25578 1.25325 6.93316 -4.46846 0.936388 6.55397 -4.21571 1.08238 6.56984 
-4.34919 0.85173 6.29879 -4.28334 0.971095 6.43864 -4.46846 0.936388 6.55397 
-4.46846 0.936388 6.55397 -4.67792 0.550576 6.12997 -4.4259 0.695116 6.11818 
-4.56348 0.199565 5.53562 -4.51822 0.397239 5.76268 -4.75437 0.18716 5.6824 
-4.75437 0.18716 5.6824 -4.78814 -0.104379 5.34617 -4.58065 0.0334128 5.34078 
-5.73885 -5.06138 9.44326 -5.72706 -5.30017 9.16367 -5.7329 -1.63744 6.17544 
-5.72706 -5.30017 9.16367 -5.72706 -1.7066 6.09447 -5.7329 -1.63744 6.17544 
-5.69173 -5.53798 8.88523 -5.68882 -1.96094 5.79579 -5.71507 -1.80673 5.97724 
-5.71507 -1.80673 5.97724 -5.72706 -5.30017 9.16367 -5.69173 -5.53798 8.88523 
-5.69173 -5.53798 8.88523 -5.63302 -5.77384 8.60907 -5.63985 -2.1572 5.56276 
-5.63985 -2.1572 5.56276 -5.68882 -1.96094 5.79579 -5.69173 -5.53798 8.88523 
-5.63302 -5.77384 8.60907 -5.55116 -6.00677 8.33635 -5.59078 -2.30897 5.38918 
-5.55116 -6.00677 8.33635 -5.53616 -2.4525 5.22297 -5.59078 -2.30897 5.38918 
-5.55116 -6.00677 8.33635 -5.44816 -2.63895 5.00283 -5.53616 -2.4525 5.22297 
-5.44816 -2.63895 5.00283 -5.55116 -6.00677 8.33635 -5.44649 -6.23581 8.06818 
-5.44649 -6.23581 8.06818 -5.31943 -6.46003 7.80565 -5.36234 -2.79555 4.81948 
-5.31943 -6.46003 7.80565 -5.31943 -2.86646 4.73645 -5.36234 -2.79555 4.81948 
-5.17052 -6.6785 7.54986 -5.16218 -3.0972 4.46723 -5.26374 -2.95268 4.6355 
-5.26374 -2.95268 4.6355 -5.31943 -6.46003 7.80565 -5.17052 -6.6785 7.54986 
-5.17052 -6.6785 7.54986 -5.00036 -6.89032 7.30184 -5.02033 -3.27141 4.25615 
-5.02033 -3.27141 4.25615 -5.16218 -3.0972 4.46723 -5.17052 -6.6785 7.54986 
-5.00036 -6.89032 7.30184 -4.80966 -7.09463 7.06263 -4.90338 -3.40434 4.10667 
-4.80966 -7.09463 7.06263 -4.78186 -3.52926 3.96004 -4.90338 -3.40434 4.10667 
-4.80966 -7.09463 7.06263 -4.60656 -3.6887 3.76935 -4.78186 -3.52926 3.96004 
-4.60656 -3.6887 3.76935 -4.80966 -7.09463 7.06263 -4.59919 -7.29058 6.8332 
-4.59919 -7.29058 6.8332 -4.36982 -7.47738 6.61449 -4.45169 -3.81992 3.62009 
-4.36982 -7.47738 6.61449 -4.36982 -3.8838 3.54529 -4.45169 -3.81992 3.62009 
-4.1225 -7.65424 6.40741 -4.1132 -4.06688 3.33094 -4.28223 -3.94907 3.46887 
-4.28223 -3.94907 3.46887 -4.36982 -7.47738 6.61449 -4.1225 -7.65424 6.40741 
-4.1225 -7.65424 6.40741 -3.85823 -7.82045 6.2128 -3.89377 -4.20239 3.16418 
-3.89377 -4.20239 3.16418 -4.1132 -4.06688 3.33094 -4.1225 -7.65424 6.40741 
-3.57811 -7.97533 6.03147 -3.54467 -4.40093 2.94265 -3.72211 -4.30465 3.05254 
-3.72211 -4.30465 3.05254 -3.85823 -7.82045 6.2128 -3.57811 -7.97533 6.03147 
-3.28329 -8.11823 5.86415 -3.29739 -4.51898 2.8025 -3.54467 -4.40093 2.94265 
-3.54467 -4.40093 2.94265 -3.57811 -7.97533 6.03147 -3.28329 -8.11823 5.86415 
-3.28329 -8.11823 5.86415 -2.97498 -8.24856 5.71155 -3.09266 -4.60739 2.69808 
-2.97498 -8.24856 5.71155 -2.97498 -4.65499 2.64235 -3.09266 -4.60739 2.69808 
-2.65444 -8.3658 5.57427 -2.64734 -4.77463 2.50227 -2.86942 -4.69555 2.59486 
-2.86942 -4.69555 2.59486 -2.97498 -8.24856 5.71155 -2.65444 -8.3658 5.57427 
-2.65444 -8.3658 5.57427 -2.32299 -8.46947 5.4529 -2.37379 -4.85733 2.39672 
-2.37379 -4.85733 2.39672 -2.64734 -4.77463 2.50227 -2.65444 -8.3658 5.57427 
-1.982 -8.55912 5.34792 -1.94819 -4.97697 2.27136 -2.16595 -4.91924 2.33295 
-2.16595 -4.91924 2.33295 -2.32299 -8.46947 5.4529 -1.982 -8.55912 5.34792 
-1.63286 -8.63441 5.25978 -1.67371 -5.03286 2.19992 -1.94819 -4.97697 2.27136 
-1.94819 -4.97697 2.27136 -1.982 -8.55912 5.34792 -1.63286 -8.63441 5.25978 
-1.63286 -8.63441 5.25978 -1.63286 -5.04084 2.19058 -1.67371 -5.03286 2.19992 
-1.63286 -8.63441 5.25978 -1.27701 -8.69501 5.18882 -1.42213 -5.07864 2.14632 
-1.27701 -8.69501 5.18882 -1.27701 -5.10144 2.11962 -1.42213 -5.07864 2.14632 
-0.915919 -8.74068 5.13535 -0.913282 -5.14744 2.06578 -1.1676 -5.11693 2.10148 
-1.1676 -5.11693 2.10148 -1.27701 -8.69501 5.18882 -0.915919 -8.74068 5.13535 
-0.915919 -8.74068 5.13535 -0.551061 -8.77124 5.09958 -0.614585 -5.17317 2.03409 
-0.614585 -5.17317 2.03409 -0.913282 -5.14744 2.06578 -0.915919 -8.74068 5.13535 
-0.183939 -8.78654 5.08165 -0.183939 -5.19297 2.01245 -0.391633 -5.1862 2.02038 
-0.391633 -5.1862 2.02038 -0.551061 -8.77124 5.09958 -0.183939 -8.78654 5.08165 
0.183939 -8.78654 5.08165 0.130635 -5.19392 2.01134 -0.130635 -5.19392 2.01134 
-0.130635 -5.19392 2.01134 -0.183939 -8.78654 5.08165 0.183939 -8.78654 5.08165 
0.183939 -8.78654 5.08165 0.183939 -5.19297 2.01245 0.130635 -5.19392 2.01134 
0.183939 -8.78654 5.08165 0.551061 -8.77124 5.09958 0.391633 -5.1862 2.02038 
0.551061 -8.77124 5.09958 0.616074 -5.17412 2.03502 0.391633 -5.1862 2.02038 
0.551061 -8.77124 5.09958 0.912935 -5.14616 2.06461 0.616074 -5.17412 2.03502 
0.912935 -5.14616 2.06461 0.551061 -8.77124 5.09958 0.915919 -8.74068 5.13535 
0.915919 -8.74068 5.13535 1.27701 -8.69501 5.18882 1.1676 -5.11693 2.10148 
1.27701 -8.69501 5.18882 1.27701 -5.10144 2.11962 1.1676 -5.11693 2.10148 
1.63286 -8.63441 5.25978 1.63286 -5.04084 2.19058 1.42213 -5.07864 2.14632 
1.42213 -5.07864 2.14632 1.27701 -8.69501 5.18882 1.63286 -8.63441 5.25978 
1.63286 -8.63441 5.25978 1.982 -8.55912 5.34792 1.94818 -4.97631 2.2708 
1.94818 -4.97631 2.2708 1.67371 -5.03286 2.19992 1.63286 -8.63441 5.25978 
1.982 -8.55912 5.34792 2.32299 -8.46947 5.4529 2.16595 -4.91924 2.33295 
2.32299 -8.46947 5.4529 2.37433 -4.87215 2.40964 2.16595 -4.91924 2.33295 
2.32299 -8.46947 5.4529 2.64564 -4.70282 2.43948 2.37433 -4.87215 2.40964 
2.64564 -4.70282 2.43948 2.32299 -8.46947 5.4529 2.65444 -8.3658 5.57427 
2.65444 -8.3658 5.57427 2.97498 -8.24856 5.71155 2.86942 -4.69555 2.59486 
2.97498 -8.24856 5.71155 2.97498 -4.65499 2.64235 2.86942 -4.69555 2.59486 
3.28329 -8.11823 5.86415 3.29739 -4.51884 2.80239 3.09266 -4.60739 2.69808 
3.09266 -4.60739 2.69808 2.97498 -8.24856 5.71155 3.28329 -8.11823 5.86415 
3.28329 -8.11823 5.86415 3.57811 -7.97533 6.03147 3.54466 -4.40013 2.94196 
3.54466 -4.40013 2.94196 3.29739 -4.51884 2.80239 3.28329 -8.11823 5.86415 
3.57811 -7.97533 6.03147 3.85823 -7.82045 6.2128 3.72211 -4.30465 3.05254 
3.85823 -7.82045 6.2128 3.89332 -4.21212 3.17194 3.72211 -4.30465 3.05254 
4.1225 -7.65424 6.40741 4.11224 -3.99445 3.26722 3.89332 -4.21212 3.17194 
3.89332 -4.21212 3.17194 3.85823 -7.82045 6.2128 4.1225 -7.65424 6.40741 
4.1225 -7.65424 6.40741 4.36982 -7.47738 6.61449 4.28223 -3.94907 3.46887 
4.36982 -7.47738 6.61449 4.36982 -3.8838 3.54529 4.28223 -3.94907 3.46887 
4.59919 -7.29058 6.8332 4.60602 -3.69143 3.77076 4.45169 -3.81992 3.62009 
4.45169 -3.81992 3.62009 4.36982 -7.47738 6.61449 4.59919 -7.29058 6.8332 
4.59919 -7.29058 6.8332 4.80966 -7.09463 7.06263 4.78239 -3.53004 3.96183 
4.78239 -3.53004 3.96183 4.60602 -3.69143 3.77076 4.59919 -7.29058 6.8332 
5.00036 -6.89032 7.30184 5.02031 -3.27939 4.26292 4.90338 -3.40434 4.10667 
4.90338 -3.40434 4.10667 4.80966 -7.09463 7.06263 5.00036 -6.89032 7.30184 
5.17052 -6.6785 7.54986 5.16218 -3.09741 4.46741 5.02031 -3.27939 4.26292 
5.02031 -3.27939 4.26292 5.00036 -6.89032 7.30184 5.17052 -6.6785 7.54986 
5.17052 -6.6785 7.54986 5.31943 -6.46003 7.80565 5.26374 -2.95268 4.6355 
5.31943 -6.46003 7.80565 5.31943 -2.86646 4.73645 5.26374 -2.95268 4.6355 
5.44649 -6.23581 8.06818 5.44816 -2.63895 5.00283 5.36234 -2.79555 4.81948 
5.36234 -2.79555 4.81948 5.31943 -6.46003 7.80565 5.44649 -6.23581 8.06818 
5.44649 -6.23581 8.06818 5.55116 -6.00677 8.33635 5.53648 -2.44558 5.21892 
5.53648 -2.44558 5.21892 5.44816 -2.63895 5.00283 5.44649 -6.23581 8.06818 
5.63302 -5.77384 8.60907 5.63985 -2.16221 5.56698 5.59078 -2.30897 5.38918 
5.59078 -2.30897 5.38918 5.55116 -6.00677 8.33635 5.63302 -5.77384 8.60907 
5.69173 -5.53798 8.88523 5.68882 -1.96072 5.79557 5.63985 -2.16221 5.56698 
5.63985 -2.16221 5.56698 5.63302 -5.77384 8.60907 5.69173 -5.53798 8.88523 
5.69173 -5.53798 8.88523 5.72706 -5.30017 9.16367 5.71507 -1.80673 5.97724 
5.72706 -5.30017 9.16367 5.72706 -1.7066 6.09447 5.71507 -1.80673 5.97724 
5.73885 -5.06138 9.44326 5.73885 -1.4678 6.37406 5.7329 -1.63744 6.17544 
5.7329 -1.63744 6.17544 5.72706 -5.30017 9.16367 5.73885 -5.06138 9.44326 
5.73885 -5.06138 9.44326 5.72706 -4.82258 9.72286 5.7329 -1.29817 6.57268 
5.72706 -4.82258 9.72286 5.72706 -1.22901 6.65366 5.7329 -1.29817 6.57268 
5.69173 -4.58477 10.0013 5.68882 -0.973789 6.95159 5.71507 -1.12888 6.77089 
5.71507 -1.12888 6.77089 5.72706 -4.82258 9.72286 5.69173 -4.58477 10.0013 
5.69173 -4.58477 10.0013 5.63302 -4.34891 10.2775 5.63985 -0.774334 7.18189 
5.63985 -0.774334 7.18189 5.68882 -0.973789 6.95159 5.69173 -4.58477 10.0013 
5.63302 -4.34891 10.2775 5.55116 -4.11598 10.5502 5.59078 -0.626637 7.35894 
5.55116 -4.11598 10.5502 5.53616 -0.484877 7.52667 5.59078 -0.626637 7.35894 
5.55116 -4.11598 10.5502 5.44816 -0.296657 7.7453 5.53616 -0.484877 7.52667 
5.44816 -0.296657 7.7453 5.55116 -4.11598 10.5502 5.44649 -3.88694 10.8183 
5.44649 -3.88694 10.8183 5.31943 -3.66272 11.0809 5.36234 -0.140061 7.92865 
5.31943 -3.66272 11.0809 5.31943 -0.0691527 8.01167 5.36234 -0.140061 7.92865 
5.17052 -3.44426 11.3367 5.16218 0.160661 8.2817 5.26374 0.0170701 8.11263 
5.26374 0.0170701 8.11263 5.31943 -3.66272 11.0809 5.17052 -3.44426 11.3367 
5.17052 -3.44426 11.3367 5.00036 -3.23243 11.5847 5.02033 0.342272 8.48645 
5.02033 0.342272 8.48645 5.16218 0.160661 8.2817 5.17052 -3.44426 11.3367 
5.00036 -3.23243 11.5847 4.80966 -3.02812 11.8239 4.90338 0.468729 8.64145 
4.80966 -3.02812 11.8239 4.78189 0.591233 8.7901 4.90338 0.468729 8.64145 
4.80966 -3.02812 11.8239 4.60656 0.757414 8.97508 4.78189 0.591233 8.7901 
4.60656 0.757414 8.97508 4.80966 -3.02812 11.8239 4.59919 -2.83217 12.0533 
4.59919 -2.83217 12.0533 4.36982 -2.64537 12.272 4.45169 0.884313 9.12804 
4.36982 -2.64537 12.272 4.36982 0.948197 9.20284 4.45169 0.884313 9.12804 
4.1225 -2.46851 12.4791 4.1132 1.13127 9.41718 4.28223 1.01346 9.27925 
4.28223 1.01346 9.27925 4.36982 -2.64537 12.272 4.1225 -2.46851 12.4791 
4.1225 -2.46851 12.4791 3.85823 -2.3023 12.6737 3.89323 1.27441 9.57809 
3.89323 1.27441 9.57809 4.1132 1.13127 9.41718 4.1225 -2.46851 12.4791 
3.57811 -2.14742 12.8551 3.54467 1.46252 9.80787 3.72211 1.36905 9.69559 
3.72211 1.36905 9.69559 3.85823 -2.3023 12.6737 3.57811 -2.14742 12.8551 
3.28329 -2.00453 13.0224 3.29739 1.58247 9.94639 3.54467 1.46252 9.80787 
3.54467 1.46252 9.80787 3.57811 -2.14742 12.8551 3.28329 -2.00453 13.0224 
3.28329 -2.00453 13.0224 2.97498 -1.87419 13.175 3.09266 1.67178 10.05 
2.97498 -1.87419 13.175 2.97498 1.71938 10.1058 3.09266 1.67178 10.05 
2.65444 -1.75695 13.3123 2.64734 1.83902 10.2459 2.86942 1.75994 10.1533 
2.86942 1.75994 10.1533 2.97498 -1.87419 13.175 2.65444 -1.75695 13.3123 
2.65444 -1.75695 13.3123 2.32299 -1.65328 13.4336 2.37379 1.93033 10.344 
2.37379 1.93033 10.344 2.64734 1.83902 10.2459 2.65444 -1.75695 13.3123 
1.982 -1.56363 13.5386 1.94819 2.03543 10.4818 2.16595 1.98363 10.4152 
2.16595 1.98363 10.4152 2.32299 -1.65328 13.4336 1.982 -1.56363 13.5386 
1.63286 -1.48834 13.6267 1.67371 2.09725 10.5482 1.94819 2.03543 10.4818 
1.94819 2.03543 10.4818 1.982 -1.56363 13.5386 1.63286 -1.48834 13.6267 
1.63286 -1.48834 13.6267 1.63286 2.10523 10.5575 1.67371 2.09725 10.5482 
1.63286 -1.48834 13.6267 1.27701 -1.42774 13.6977 1.42213 2.14303 10.6018 
1.27701 -1.42774 13.6977 1.27701 2.16583 10.6285 1.42213 2.14303 10.6018 
0.915919 -1.38207 13.7512 0.913282 2.21181 10.6824 1.1676 2.18132 10.6466 
1.1676 2.18132 10.6466 1.27701 -1.42774 13.6977 0.915919 -1.38207 13.7512 
0.915919 -1.38207 13.7512 0.551061 -1.35152 13.787 0.614585 2.23909 10.7127 
0.614585 2.23909 10.7127 0.913282 2.21181 10.6824 0.915919 -1.38207 13.7512 
0.183939 -1.33621 13.8049 0.183939 2.25736 10.7357 0.391633 2.25059 10.7277 
0.391633 2.25059 10.7277 0.551061 -1.35152 13.787 0.183939 -1.33621 13.8049 
0.183939 -1.33621 13.8049 -0.183939 -1.33621 13.8049 -0.130635 2.25831 10.7368 
-0.130635 2.25831 10.7368 0.130635 2.25831 10.7368 0.183939 -1.33621 13.8049 
-0.183939 -1.33621 13.8049 -0.183939 2.25736 10.7357 -0.130635 2.25831 10.7368 
-0.183939 -1.33621 13.8049 -0.551061 -1.35152 13.787 -0.391633 2.25059 10.7277 
-0.551061 -1.35152 13.787 -0.616074 2.23803 10.7135 -0.391633 2.25059 10.7277 
-0.551061 -1.35152 13.787 -0.912935 2.21317 10.6813 -0.616074 2.23803 10.7135 
-0.912935 2.21317 10.6813 -0.551061 -1.35152 13.787 -0.915919 -1.38207 13.7512 
-0.915919 -1.38207 13.7512 -1.27701 -1.42774 13.6977 -1.1676 2.18132 10.6466 
-1.27701 -1.42774 13.6977 -1.27701 2.16583 10.6285 -1.1676 2.18132 10.6466 
-1.63286 -1.48834 13.6267 -1.63286 2.10523 10.5575 -1.42213 2.14303 10.6018 
-1.42213 2.14303 10.6018 -1.27701 -1.42774 13.6977 -1.63286 -1.48834 13.6267 
-1.63286 -1.48834 13.6267 -1.982 -1.56363 13.5386 -1.94818 2.03609 10.4813 
-1.94818 2.03609 10.4813 -1.67371 2.09725 10.5482 -1.63286 -1.48834 13.6267 
-1.982 -1.56363 13.5386 -2.32299 -1.65328 13.4336 -2.16595 1.98363 10.4152 
-2.32299 -1.65328 13.4336 -2.37433 1.91526 10.3567 -2.16595 1.98363 10.4152 
-2.32299 -1.65328 13.4336 -2.64564 1.91227 10.1848 -2.37433 1.91526 10.3567 
-2.64564 1.91227 10.1848 -2.32299 -1.65328 13.4336 -2.65444 -1.75695 13.3123 
-2.65444 -1.75695 13.3123 -2.97498 -1.87419 13.175 -2.86942 1.75994 10.1533 
-2.97498 -1.87419 13.175 -2.97498 1.71938 10.1058 -2.86942 1.75994 10.1533 
-3.28329 -2.00453 13.0224 -3.29739 1.5826 9.94627 -3.09266 1.67178 10.05 
-3.09266 1.67178 10.05 -2.97498 -1.87419 13.175 -3.28329 -2.00453 13.0224 
-3.28329 -2.00453 13.0224 -3.57811 -2.14742 12.8551 -3.54466 1.46333 9.80719 
-3.54466 1.46333 9.80719 -3.29739 1.5826 9.94627 -3.28329 -2.00453 13.0224 
-3.57811 -2.14742 12.8551 -3.85823 -2.3023 12.6737 -3.72211 1.36905 9.69559 
-3.85823 -2.3023 12.6737 -3.89332 1.26559 9.58551 -3.72211 1.36905 9.69559 
-4.1225 -2.46851 12.4791 -4.11224 1.20553 9.35562 -3.89332 1.26559 9.58551 
-3.89332 1.26559 9.58551 -3.85823 -2.3023 12.6737 -4.1225 -2.46851 12.4791 
-4.1225 -2.46851 12.4791 -4.36982 -2.64537 12.272 -4.28223 1.01346 9.27925 
-4.36982 -2.64537 12.272 -4.36982 0.948197 9.20284 -4.28223 1.01346 9.27925 
-4.59919 -2.83217 12.0533 -4.60602 0.755598 8.97756 -4.45169 0.884313 9.12804 
-4.45169 0.884313 9.12804 -4.36982 -2.64537 12.272 -4.59919 -2.83217 12.0533 
-4.59919 -2.83217 12.0533 -4.80966 -3.02812 11.8239 -4.78239 0.592122 8.78826 
-4.78239 0.592122 8.78826 -4.60602 0.755598 8.97756 -4.59919 -2.83217 12.0533 
-5.00036 -3.23243 11.5847 -5.02031 0.333949 8.4936 -4.90338 0.468729 8.64145 
-4.90338 0.468729 8.64145 -4.80966 -3.02812 11.8239 -5.00036 -3.23243 11.5847 
-5.17052 -3.44426 11.3367 -5.16218 0.160452 8.28187 -5.02031 0.333949 8.4936 
-5.02031 0.333949 8.4936 -5.00036 -3.23243 11.5847 -5.17052 -3.44426 11.3367 
-5.17052 -3.44426 11.3367 -5.31943 -3.66272 11.0809 -5.26374 0.0170701 8.11263 
-5.31943 -3.66272 11.0809 -5.31943 -0.0691527 8.01167 -5.26374 0.0170701 8.11263 
-5.44649 -3.88694 10.8183 -5.44816 -0.296657 7.7453 -5.36234 -0.140061 7.92865 
-5.36234 -0.140061 7.92865 -5.31943 -3.66272 11.0809 -5.44649 -3.88694 10.8183 
-5.44649 -3.88694 10.8183 -5.55116 -4.11598 10.5502 -5.53648 -0.479839 7.5205 
-5.53648 -0.479839 7.5205 -5.44816 -0.296657 7.7453 -5.44649 -3.88694 10.8183 
-5.63302 -4.34891 10.2775 -5.63985 -0.77929 7.18617 -5.59078 -0.626637 7.35894 
-5.59078 -0.626637 7.35894 -5.55116 -4.11598 10.5502 -5.63302 -4.34891 10.2775 
-5.69173 -4.58477 10.0013 -5.68882 -0.973545 6.95141 -5.63985 -0.77929 7.18617 
-5.63985 -0.77929 7.18617 -5.63302 -4.34891 10.2775 -5.69173 -4.58477 10.0013 
-5.69173 -4.58477 10.0013 -5.72706 -4.82258 9.72286 -5.71507 -1.12888 6.77089 
-5.72706 -4.82258 9.72286 -5.72706 -1.22901 6.65366 -5.71507 -1.12888 6.77089 
-5.73885 -5.06138 9.44326 -5.73885 -1.4678 6.37406 -5.7329 -1.29817 6.57268 
-5.7329 -1.29817 6.57268 -5.72706 -4.82258 9.72286 -5.73885 -5.06138 9.44326 
-5.7329 -1.29817 6.57268 -5.72706 -1.22901 6.65366 -5.72706 -4.82258 9.72286 
-5.71507 -1.12888 6.77089 -5.68882 -0.973545 6.95141 -5.69173 -4.58477 10.0013 
-5.59078 -0.626637 7.35894 -5.53648 -0.479839 7.5205 -5.55116 -4.11598 10.5502 
-5.36234 -0.140061 7.92865 -5.31943 -0.0691527 8.01167 -5.31943 -3.66272 11.0809 
-5.26374 0.0170701 8.11263 -5.16218 0.160452 8.28187 -5.17052 -3.44426 11.3367 
-4.90338 0.468729 8.64145 -4.78239 0.592122 8.78826 -4.80966 -3.02812 11.8239 
-4.45169 0.884313 9.12804 -4.36982 0.948197 9.20284 -4.36982 -2.64537 12.272 
-4.28223 1.01346 9.27925 -4.11224 1.20553 9.35562 -4.1225 -2.46851 12.4791 
-3.72211 1.36905 9.69559 -3.54466 1.46333 9.80719 -3.57811 -2.14742 12.8551 
-3.09266 1.67178 10.05 -2.97498 1.71938 10.1058 -2.97498 -1.87419 13.175 
-2.86942 1.75994 10.1533 -2.64564 1.91227 10.1848 -2.65444 -1.75695 13.3123 
-2.16595 1.98363 10.4152 -1.94818 2.03609 10.4813 -1.982 -1.56363 13.5386 
-1.67371 2.09725 10.5482 -1.63286 2.10523 10.5575 -1.63286 -1.48834 13.6267 
-1.42213 2.14303 10.6018 -1.27701 2.16583 10.6285 -1.27701 -1.42774 13.6977 
-1.1676 2.18132 10.6466 -0.912935 2.21317 10.6813 -0.915919 -1.38207 13.7512 
-0.391633 2.25059 10.7277 -0.183939 2.25736 10.7357 -0.183939 -1.33621 13.8049 
0.130635 2.25831 10.7368 0.183939 2.25736 10.7357 0.183939 -1.33621 13.8049 
0.391633 2.25059 10.7277 0.614585 2.23909 10.7127 0.551061 -1.35152 13.787 
1.1676 2.18132 10.6466 1.27701 2.16583 10.6285 1.27701 -1.42774 13.6977 
1.42213 2.14303 10.6018 1.63286 2.10523 10.5575 1.63286 -1.48834 13.6267 
2.16595 1.98363 10.4152 2.37379 1.93033 10.344 2.32299 -1.65328 13.4336 
2.86942 1.75994 10.1533 2.97498 1.71938 10.1058 2.97498 -1.87419 13.175 
3.09266 1.67178 10.05 3.29739 1.58247 9.94639 3.28329 -2.00453 13.0224 
3.72211 1.36905 9.69559 3.89323 1.27441 9.57809 3.85823 -2.3023 12.6737 
4.28223 1.01346 9.27925 4.36982 0.948197 9.20284 4.36982 -2.64537 12.272 
4.45169 0.884313 9.12804 4.60656 0.757414 8.97508 4.59919 -2.83217 12.0533 
4.90338 0.468729 8.64145 5.02033 0.342272 8.48645 5.00036 -3.23243 11.5847 
5.26374 0.0170701 8.11263 5.31943 -0.0691527 8.01167 5.31943 -3.66272 11.0809 
5.36234 -0.140061 7.92865 5.44816 -0.296657 7.7453 5.44649 -3.88694 10.8183 
5.59078 -0.626637 7.35894 5.63985 -0.774334 7.18189 5.63302 -4.34891 10.2775 
5.71507 -1.12888 6.77089 5.72706 -1.22901 6.65366 5.72706 -4.82258 9.72286 
5.7329 -1.29817 6.57268 5.73885 -1.4678 6.37406 5.73885 -5.06138 9.44326 
5.7329 -1.63744 6.17544 5.72706 -1.7066 6.09447 5.72706 -5.30017 9.16367 
5.71507 -1.80673 5.97724 5.68882 -1.96072 5.79557 5.69173 -5.53798 8.88523 
5.59078 -2.30897 5.38918 5.53648 -2.44558 5.21892 5.55116 -6.00677 8.33635 
5.36234 -2.79555 4.81948 5.31943 -2.86646 4.73645 5.31943 -6.46003 7.80565 
5.26374 -2.95268 4.6355 5.16218 -3.09741 4.46741 5.17052 -6.6785 7.54986 
4.90338 -3.40434 4.10667 4.78239 -3.53004 3.96183 4.80966 -7.09463 7.06263 
4.45169 -3.81992 3.62009 4.36982 -3.8838 3.54529 4.36982 -7.47738 6.61449 
4.28223 -3.94907 3.46887 4.11224 -3.99445 3.26722 4.1225 -7.65424 6.40741 
3.72211 -4.30465 3.05254 3.54466 -4.40013 2.94196 3.57811 -7.97533 6.03147 
3.09266 -4.60739 2.69808 2.97498 -4.65499 2.64235 2.97498 -8.24856 5.71155 
2.86942 -4.69555 2.59486 2.64564 -4.70282 2.43948 2.65444 -8.3658 5.57427 
2.16595 -4.91924 2.33295 1.94818 -4.97631 2.2708 1.982 -8.55912 5.34792 
1.67371 -5.03286 2.19992 1.63286 -5.04084 2.19058 1.63286 -8.63441 5.25978 
1.42213 -5.07864 2.14632 1.27701 -5.10144 2.11962 1.27701 -8.69501 5.18882 
1.1676 -5.11693 2.10148 0.912935 -5.14616 2.06461 0.915919 -8.74068 5.13535 
0.391633 -5.1862 2.02038 0.183939 -5.19297 2.01245 0.183939 -8.78654 5.08165 
-0.130635 -5.19392 2.01134 -0.183939 -5.19297 2.01245 -0.183939 -8.78654 5.08165 
-0.391633 -5.1862 2.02038 -0.614585 -5.17317 2.03409 -0.551061 -8.77124 5.09958 
-1.1676 -5.11693 2.10148 -1.27701 -5.10144 2.11962 -1.27701 -8.69501 5.18882 
-1.42213 -5.07864 2.14632 -1.63286 -5.04084 2.19058 -1.63286 -8.63441 5.25978 
-2.16595 -4.91924 2.33295 -2.37379 -4.85733 2.39672 -2.32299 -8.46947 5.4529 
-2.86942 -4.69555 2.59486 -2.97498 -4.65499 2.64235 -2.97498 -8.24856 5.71155 
-3.09266 -4.60739 2.69808 -3.29739 -4.51898 2.8025 -3.28329 -8.11823 5.86415 
-3.72211 -4.30465 3.05254 -3.89377 -4.20239 3.16418 -3.85823 -7.82045 6.2128 
-4.28223 -3.94907 3.46887 -4.36982 -3.8838 3.54529 -4.36982 -7.47738 6.61449 
-4.45169 -3.81992 3.62009 -4.60656 -3.6887 3.76935 -4.59919 -7.29058 6.8332 
-4.90338 -3.40434 4.10667 -5.02033 -3.27141 4.25615 -5.00036 -6.89032 7.30184 
-5.26374 -2.95268 4.6355 -5.31943 -2.86646 4.73645 -5.31943 -6.46003 7.80565 
-5.36234 -2.79555 4.81948 -5.44816 -2.63895 5.00283 -5.44649 -6.23581 8.06818 
-5.59078 -2.30897 5.38918 -5.63985 -2.1572 5.56276 -5.63302 -5.77384 8.60907 
-5.71507 -1.80673 5.97724 -5.72706 -1.7066 6.09447 -5.72706 -5.30017 9.16367 
-5.7329 -1.63744 6.17544 -5.73885 -1.4678 6.37406 -5.73885 -5.06138 9.44326 
1.27701 -1.42774 13.6977 5.72706 -5.30017 9.16367 5.69173 -5.53798 8.88523 
5.69173 -5.53798 8.88523 5.63302 -5.77384 8.60907 1.27701 -1.42774 13.6977 
5.63302 -5.77384 8.60907 5.55116 -6.00677 8.33635 1.27701 -1.42774 13.6977 
5.55116 -6.00677 8.33635 5.44649 -6.23581 8.06818 1.27701 -1.42774 13.6977 
5.44649 -6.23581 8.06818 5.31943 -6.46003 7.80565 1.27701 -1.42774 13.6977 
5.31943 -6.46003 7.80565 5.17052 -6.6785 7.54986 1.27701 -1.42774 13.6977 
5.17052 -6.6785 7.54986 5.00036 -6.89032 7.30184 1.27701 -1.42774 13.6977 
5.00036 -6.89032 7.30184 4.80966 -7.09463 7.06263 1.27701 -1.42774 13.6977 
4.80966 -7.09463 7.06263 4.59919 -7.29058 6.8332 1.27701 -1.42774 13.6977 
4.59919 -7.29058 6.8332 4.36982 -7.47738 6.61449 1.27701 -1.42774 13.6977 
4.36982 -7.47738 6.61449 4.1225 -7.65424 6.40741 1.27701 -1.42774 13.6977 
4.1225 -7.65424 6.40741 3.85823 -7.82045 6.2128 1.27701 -1.42774 13.6977 
3.85823 -7.82045 6.2128 3.57811 -7.97533 6.03147 1.27701 -1.42774 13.6977 
3.57811 -7.97533 6.03147 3.28329 -8.11823 5.86415 1.27701 -1.42774 13.6977 
3.28329 -8.11823 5.86415 2.97498 -8.24856 5.71155 1.27701 -1.42774 13.6977 
2.97498 -8.24856 5.71155 2.65444 -8.3658 5.57427 1.27701 -1.42774 13.6977 
2.65444 -8.3658 5.57427 2.32299 -8.46947 5.4529 1.27701 -1.42774 13.6977 
2.32299 -8.46947 5.4529 1.982 -8.55912 5.34792 1.27701 -1.42774 13.6977 
1.982 -8.55912 5.34792 1.63286 -8.63441 5.25978 1.27701 -1.42774 13.6977 
1.63286 -8.63441 5.25978 1.27701 -8.69501 5.18882 1.27701 -1.42774 13.6977 
1.27701 -8.69501 5.18882 0.915919 -8.74068 5.13535 1.27701 -1.42774 13.6977 
0.915919 -8.74068 5.13535 0.551061 -8.77124 5.09958 1.27701 -1.42774 13.6977 
0.551061 -8.77124 5.09958 0.183939 -8.78654 5.08165 1.27701 -1.42774 13.6977 
0.183939 -8.78654 5.08165 -0.183939 -8.78654 5.08165 1.27701 -1.42774 13.6977 
-0.183939 -8.78654 5.08165 -0.551061 -8.77124 5.09958 1.27701 -1.42774 13.6977 
-0.551061 -8.77124 5.09958 -0.915919 -8.74068 5.13535 1.27701 -1.42774 13.6977 
-0.915919 -8.74068 5.13535 -1.27701 -8.69501 5.18882 1.27701 -1.42774 13.6977 
-1.27701 -8.69501 5.18882 -1.63286 -8.63441 5.25978 1.27701 -1.42774 13.6977 
-1.63286 -8.63441 5.25978 -1.982 -8.55912 5.34792 1.27701 -1.42774 13.6977 
-1.982 -8.55912 5.34792 -2.32299 -8.46947 5.4529 1.27701 -1.42774 13.6977 
-2.32299 -8.46947 5.4529 -2.65444 -8.3658 5.57427 1.27701 -1.42774 13.6977 
-2.65444 -8.3658 5.57427 -2.97498 -8.24856 5.71155 1.27701 -1.42774 13.6977 
-2.97498 -8.24856 5.71155 -3.28329 -8.11823 5.86415 1.27701 -1.42774 13.6977 
-3.28329 -8.11823 5.86415 -3.57811 -7.97533 6.03147 1.27701 -1.42774 13.6977 
-3.57811 -7.97533 6.03147 -3.85823 -7.82045 6.2128 1.27701 -1.42774 13.6977 
-3.85823 -7.82045 6.2128 -4.1225 -7.65424 6.40741 1.27701 -1.42774 13.6977 
-4.1225 -7.65424 6.40741 -4.36982 -7.47738 6.61449 1.27701 -1.42774 13.6977 
-4.36982 -7.47738 6.61449 -4.59919 -7.29058 6.8332 1.27701 -1.42774 13.6977 
-4.59919 -7.29058 6.8332 -4.80966 -7.09463 7.06263 1.27701 -1.42774 13.6977 
-4.80966 -7.09463 7.06263 -5.00036 -6.89032 7.30184 1.27701 -1.42774 13.6977 
-5.00036 -6.89032 7.30184 -5.17052 -6.6785 7.54986 1.27701 -1.42774 13.6977 
-5.17052 -6.6785 7.54986 -5.31943 -6.46003 7.80565 1.27701 -1.42774 13.6977 
-5.31943 -6.46003 7.80565 -5.44649 -6.23581 8.06818 1.27701 -1.42774 13.6977 
-5.44649 -6.23581 8.06818 -5.55116 -6.00677 8.33635 1.27701 -1.42774 13.6977 
-5.55116 -6.00677 8.33635 -5.63302 -5.77384 8.60907 1.27701 -1.42774 13.6977 
-5.63302 -5.77384 8.60907 -5.69173 -5.53798 8.88523 1.27701 -1.42774 13.6977 
-5.69173 -5.53798 8.88523 -5.72706 -5.30017 9.16367 1.27701 -1.42774 13.6977 
-5.72706 -5.30017 9.16367 -5.73885 -5.06138 9.44326 1.27701 -1.42774 13.6977 
-5.73885 -5.06138 9.44326 -5.72706 -4.82258 9.72286 1.27701 -1.42774 13.6977 
-5.72706 -4.82258 9.72286 -5.69173 -4.58477 10.0013 1.27701 -1.42774 13.6977 
-5.69173 -4.58477 10.0013 -5.63302 -4.34891 10.2775 1.27701 -1.42774 13.6977 
-5.63302 -4.34891 10.2775 -5.55116 -4.11598 10.5502 1.27701 -1.42774 13.6977 
-5.55116 -4.11598 10.5502 -5.44649 -3.88694 10.8183 1.27701 -1.42774 13.6977 
-5.44649 -3.88694 10.8183 -5.31943 -3.66272 11.0809 1.27701 -1.42774 13.6977 
-5.31943 -3.66272 11.0809 -5.17052 -3.44426 11.3367 1.27701 -1.42774 13.6977 
-5.17052 -3.44426 11.3367 -5.00036 -3.23243 11.5847 1.27701 -1.42774 13.6977 
-5.00036 -3.23243 11.5847 -4.80966 -3.02812 11.8239 1.27701 -1.42774 13.6977 
-4.80966 -3.02812 11.8239 -4.59919 -2.83217 12.0533 1.27701 -1.42774 13.6977 
-4.59919 -2.83217 12.0533 -4.36982 -2.64537 12.272 1.27701 -1.42774 13.6977 
-4.36982 -2.64537 12.272 -4.1225 -2.46851 12.4791 1.27701 -1.42774 13.6977 
-4.1225 -2.46851 12.4791 -3.85823 -2.3023 12.6737 1.27701 -1.42774 13.6977 
-3.85823 -2.3023 12.6737 -3.57811 -2.14742 12.8551 1.27701 -1.42774 13.6977 
-3.57811 -2.14742 12.8551 -3.28329 -2.00453 13.0224 1.27701 -1.42774 13.6977 
-3.28329 -2.00453 13.0224 -2.97498 -1.87419 13.175 1.27701 -1.42774 13.6977 
-2.97498 -1.87419 13.175 -2.65444 -1.75695 13.3123 1.27701 -1.42774 13.6977 
-2.65444 -1.75695 13.3123 -2.32299 -1.65328 13.4336 1.27701 -1.42774 13.6977 
-2.32299 -1.65328 13.4336 -1.982 -1.56363 13.5386 1.27701 -1.42774 13.6977 
-1.982 -1.56363 13.5386 -1.63286 -1.48834 13.6267 1.27701 -1.42774 13.6977 
-1.63286 -1.48834 13.6267 -1.27701 -1.42774 13.6977 1.27701 -1.42774 13.6977 
-1.27701 -1.42774 13.6977 -0.915919 -1.38207 13.7512 1.27701 -1.42774 13.6977 
-0.915919 -1.38207 13.7512 -0.551061 -1.35152 13.787 1.27701 -1.42774 13.6977 
-0.551061 -1.35152 13.787 -0.183939 -1.33621 13.8049 1.27701 -1.42774 13.6977 
-0.183939 -1.33621 13.8049 0.183939 -1.33621 13.8049 1.27701 -1.42774 13.6977 
0.183939 -1.33621 13.8049 0.551061 -1.35152 13.787 1.27701 -1.42774 13.6977 
0.551061 -1.35152 13.787 0.915919 -1.38207 13.7512 1.27701 -1.42774 13.6977 
1.63286 -1.48834 13.6267 1.982 -1.56363 13.5386 1.27701 -1.42774 13.6977 
1.982 -1.56363 13.5386 2.32299 -1.65328 13.4336 1.27701 -1.42774 13.6977 
2.32299 -1.65328 13.4336 2.65444 -1.75695 13.3123 1.27701 -1.42774 13.6977 
2.65444 -1.75695 13.3123 2.97498 -1.87419 13.175 1.27701 -1.42774 13.6977 
2.97498 -1.87419 13.175 3.28329 -2.00453 13.0224 1.27701 -1.42774 13.6977 
3.28329 -2.00453 13.0224 3.57811 -2.14742 12.8551 1.27701 -1.42774 13.6977 
3.57811 -2.14742 12.8551 3.85823 -2.3023 12.6737 1.27701 -1.42774 13.6977 
3.85823 -2.3023 12.6737 4.1225 -2.46851 12.4791 1.27701 -1.42774 13.6977 
4.1225 -2.46851 12.4791 4.36982 -2.64537 12.272 1.27701 -1.42774 13.6977 
4.36982 -2.64537 12.272 4.59919 -2.83217 12.0533 1.27701 -1.42774 13.6977 
4.59919 -2.83217 12.0533 4.80966 -3.02812 11.8239 1.27701 -1.42774 13.6977 
4.80966 -3.02812 11.8239 5.00036 -3.23243 11.5847 1.27701 -1.42774 13.6977 
5.00036 -3.23243 11.5847 5.17052 -3.44426 11.3367 1.27701 -1.42774 13.6977 
5.17052 -3.44426 11.3367 5.31943 -3.66272 11.0809 1.27701 -1.42774 13.6977 
5.31943 -3.66272 11.0809 5.44649 -3.88694 10.8183 1.27701 -1.42774 13.6977 
5.44649 -3.88694 10.8183 5.55116 -4.11598 10.5502 1.27701 -1.42774 13.6977 
5.55116 -4.11598 10.5502 5.63302 -4.34891 10.2775 1.27701 -1.42774 13.6977 
5.63302 -4.34891 10.2775 5.69173 -4.58477 10.0013 1.27701 -1.42774 13.6977 
5.69173 -4.58477 10.0013 5.72706 -4.82258 9.72286 1.27701 -1.42774 13.6977 
5.72706 -4.82258 9.72286 5.73885 -5.06138 9.44326 1.27701 -1.42774 13.6977 
5.73885 -5.06138 9.44326 5.72706 -5.30017 9.16367 1.27701 -1.42774 13.6977 

POLYGONS 5744 22976
3 0 1 2 
3 3 4 5 
3 6 7 8 
3 9 10 11 
3 12 13 14 
3 15 16 17 
3 18 19 20 
3 21 22 23 
3 24 25 26 
3 27 28 29 
3 30 31 32 
3 33 34 35 
3 36 37 38 
3 39 40 41 
3 42 43 44 
3 45 46 47 
3 48 49 50 
3 51 52 53 
3 54 55 56 
3 57 58 59 
3 60 61 62 
3 63 64 65 
3 66 67 68 
3 69 70 71 
3 72 73 74 
3 75 76 77 
3 78 79 80 
3 81 82 83 
3 84 85 86 
3 87 88 89 
3 90 91 92 
3 93 94 95 
3 96 97 98 
3 99 100 101 
3 102 103 104 
3 105 106 107 
3 108 109 110 
3 111 112 113 
3 114 115 116 
3 117 118 119 
3 120 121 122 
3 123 124 125 
3 126 127 128 
3 129 130 131 
3 132 133 134 
3 135 136 137 
3 138 139 140 
3 141 142 143 
3 144 145 146 
3 147 148 149 
3 150 151 152 
3 153 154 155 
3 156 157 158 
3 159 160 161 
3 162 163 164 
3 165 166 167 
3 168 169 170 
3 171 172 173 
3 174 175 176 
3 177 178 179 
3 180 181 182 
3 183 184 185 
3 186 187 188 
3 189 190 191 
3 192 193 194 
3 195 196 197 
3 198 199 200 
3 201 202 203 
3 204 205 206 
3 207 208 209 
3 210 211 212 
3 213 214 215 
3 216 217 218 
3 219 220 221 
3 222 223 224 
3 225 226 227 
3 228 229 230 
3 231 232 233 
3 234 235 236 
3 237 238 239 
3 240 241 242 
3 243 244 245 
3 246 247 248 
3 249 250 251 
3 252 253 254 
3 255 256 257 
3 258 259 260 
3 261 262 263 
3 264 265 266 
3 267 268 269 
3 270 271 272 
3 273 274 275 
3 276 277 278 
3 279 280 281 
3 282 283 284 
3 285 286 287 
3 288 289 290 
3 291 292 293 
3 294 295 296 
3 297 298 299 
3 300 301 302 
3 303 304 305 
3 306 307 308 
3 309 310 311 
3 312 313 314 
3 315 316 317 
3 318 319 320 
3 321 322 323 
3 324 325 326 
3 327 328 329 
3 330 331 332 
3 333 334 335 
3 336 337 338 
3 339 340 341 
3 342 343 344 
3 345 346 347 
3 348 349 350 
3 351 352 353 
3 354 355 356 
3 357 358 359 
3 360 361 362 
3 363 364 365 
3 366 367 368 
3 369 370 371 
3 372 373 374 
3 375 376 377 
3 378 379 380 
3 381 382 383 
3 384 385 386 
3 387 388 389 
3 390 391 392 
3 393 394 395 
3 396 397 398 
3 399 400 401 
3 402 403 404 
3 405 406 407 
3 408 409 410 
3 411 412 413 
3 414 415 416 
3 417 418 419 
3 420 421 422 
3 423 424 425 
3 426 427 428 
3 429 430 431 
3 432 433 434 
3 435 436 437 
3 438 439 440 
3 441 442 443 
3 444 445 446 
3 447 448 449 
3 450 451 452 
3 453 454 455 
3 456 457 458 
3 459 460 461 
3 462 463 464 
3 465 466 467 
3 468 469 470 
3 471 472 473 
3 474 475 476 
3 477 478 479 
3 480 481 482 
3 483 484 485 
3 486 487 488 
3 489 490 491 
3 492 493 494 
3 495 496 497 
3 498 499 500 
3 501 502 503 
3 504 505 506 
3 507 508 509 
3 510 511 512 
3 513 514 515 
3 516 517 518 
3 519 520 521 
3 522 523 524 
3 525 526 527 
3 528 529 530 
3 531 532 533 
3 534 535 536 
3 537 538 539 
3 540 541 542 
3 543 544 545 
3 546 547 548 
3 549 550 551 
3 552 553 554 
3 555 556 557 
3 558 559 560 
3 561 562 563 
3 564 565 566 
3 567 568 569 
3 570 571 572 
3 573 574 575 
3 576 577 578 
3 579 580 581 
3 582 583 584 
3 585 586 587 
3 588 589 590 
3 591 592 593 
3 594 595 596 
3 597 598 599 
3 600 601 602 
3 603 604 605 
3 606 607 608 
3 609 610 611 
3 612 613 614 
3 615 616 617 
3 618 619 620 
3 621 622 623 
3 624 625 626 
3 627 628 629 
3 630 631 632 
3 633 634 635 
3 636 637 638 
3 639 640 641 
3 642 643 644 
3 645 646 647 
3 648 649 650 
3 651 652 653 
3 654 655 656 
3 657 658 659 
3 660 661 662 
3 663 664 665 
3 666 667 668 
3 669 670 671 
3 672 673 674 
3 675 676 677 
3 678 679 680 
3 681 682 683 
3 684 685 686 
3 687 688 689 
3 690 691 692 
3 693 694 695 
3 696 697 698 
3 699 700 701 
3 702 703 704 
3 705 706 707 
3 708 709 710 
3 711 712 713 
3 714 715 716 
3 717 718 719 
3 720 721 722 
3 723 724 725 
3 726 727 728 
3 729 730 731 
3 732 733 734 
3 735 736 737 
3 738 739 740 
3 741 742 743 
3 744 745 746 
3 747 748 749 
3 750 751 752 
3 753 754 755 
3 756 757 758 
3 759 760 761 
3 762 763 764 
3 765 766 767 
3 768 769 770 
3 771 772 773 
3 774 775 776 
3 777 778 779 
3 780 781 782 
3 783 784 785 
3 786 787 788 
3 789 790 791 
3 792 793 794 
3 795 796 797 
3 798 799 800 
3 801 802 803 
3 804 805 806 
3 807 808 809 
3 810 811 812 
3 813 814 815 
3 816 817 818 
3 819 820 821 
3 822 823 824 
3 825 826 827 
3 828 829 830 
3 831 832 833 
3 834 835 836 
3 837 838 839 
3 840 841 842 
3 843 844 845 
3 846 847 848 
3 849 850 851 
3 852 853 854 
3 855 856 857 
3 858 859 860 
3 861 862 863 
3 864 865 866 
3 867 868 869 
3 870 871 872 
3 873 874 875 
3 876 877 878 
3 879 880 881 
3 882 883 884 
3 885 886 887 
3 888 889 890 
3 891 892 893 
3 894 895 896 
3 897 898 899 
3 900 901 902 
3 903 904 905 
3 906 907 908 
3 909 910 911 
3 912 913 914 
3 915 916 917 
3 918 919 920 
3 921 922 923 
3 924 925 926 
3 927 928 929 
3 930 931 932 
3 933 934 935 
3 936 937 938 
3 939 940 941 
3 942 943 944 
3 945 946 947 
3 948 949 950 
3 951 952 953 
3 954 955 956 
3 957 958 959 
3 960 961 962 
3 963 964 965 
3 966 967 968 
3 969 970 971 
3 972 973 974 
3 975 976 977 
3 978 979 980 
3 981 982 983 
3 984 985 986 
3 987 988 989 
3 990 991 992 
3 993 994 995 
3 996 997 998 
3 999 1000 1001 
3 1002 1003 1004 
3 1005 1006 1007 
3 1008 1009 1010 
3 1011 1012 1013 
3 1014 1015 1016 
3 1017 1018 1019 
3 1020 1021 1022 
3 1023 1024 1025 
3 1026 1027 1028 
3 1029 1030 1031 
3 1032 1033 1034 
3 1035 1036 1037 
3 1038 1039 1040 
3 1041 1042 1043 
3 1044 1045 1046 
3 1047 1048 1049 
3 1050 1051 1052 
3 1053 1054 1055 
3 1056 1057 1058 
3 1059 1060 1061 
3 1062 1063 1064 
3 1065 1066 1067 
3 1068 1069 1070 
3 1071 1072 1073 
3 1074 1075 1076 
3 1077 1078 1079 
3 1080 1081 1082 
3 1083 1084 1085 
3 1086 1087 1088 
3 1089 1090 1091 
3 1092 1093 1094 
3 1095 1096 1097 
3 1098 1099 1100 
3 1101 1102 1103 
3 1104 1105 1106 
3 1107 1108 1109 
3 1110 1111 1112 
3 1113 1114 1115 
3 1116 1117 1118 
3 1119 1120 1121 
3 1122 1123 1124 
3 1125 1126 1127 
3 1128 1129 1130 
3 1131 1132 1133 
3 1134 1135 1136 
3 1137 1138 1139 
3 1140 1141 1142 
3 1143 1144 1145 
3 1146 1147 1148 
3 1149 1150 1151 
3 1152 1153 1154 
3 1155 1156 1157 
3 1158 1159 1160 
3 1161 1162 1163 
3 1164 1165 1166 
3 1167 1168 1169 
3 1170 1171 1172 
3 1173 1174 1175 
3 1176 1177 1178 
3 1179 1180 1181 
3 1182 1183 1184 
3 1185 1186 1187 
3 1188 1189 1190 
3 1191 1192 1193 
3 1194 1195 1196 
3 1197 1198 1199 
3 1200 1201 1202 
3 1203 1204 1205 
3 1206 1207 1208 
3 1209 1210 1211 
3 1212 1213 1214 
3 1215 1216 1217 
3 1218 1219 1220 
3 1221 1222 1223 
3 1224 1225 1226 
3 1227 1228 1229 
3 1230 1231 1232 
3 1233 1234 1235 
3 1236 1237 1238 
3 1239 1240 1241 
3 1242 1243 1244 
3 1245 1246 1247 
3 1248 1249 1250 
3 1251 1252 1253 
3 1254 1255 1256 
3 1257 1258 1259 
3 1260 1261 1262 
3 1263 1264 1265 
3 1266 1267 1268 
3 1269 1270 1271 
3 1272 1273 1274 
3 1275 1276 1277 
3 1278 1279 1280 
3 1281 1282 1283 
3 1284 1285 1286 
3 1287 1288 1289 
3 1290 1291 1292 
3 1293 1294 1295 
3 1296 1297 1298 
3 1299 1300 1301 
3 1302 1303 1304 
3 1305 1306 1307 
3 1308 1309 1310 
3 1311 1312 1313 
3 1314 1315 1316 
3 1317 1318 1319 
3 1320 1321 1322 
3 1323 1324 1325 
3 1326 1327 1328 
3 1329 1330 1331 
3 1332 1333 1334 
3 1335 1336 1337 
3 1338 1339 1340 
3 1341 1342 1343 
3 1344 1345 1346 
3 1347 1348 1349 
3 1350 1351 1352 
3 1353 1354 1355 
3 1356 1357 1358 
3 1359 1360 1361 
3 1362 1363 1364 
3 1365 1366 1367 
3 1368 1369 1370 
3 1371 1372 1373 
3 1374 1375 1376 
3 1377 1378 1379 
3 1380 1381 1382 
3 1383 1384 1385 
3 1386 1387 1388 
3 1389 1390 1391 
3 1392 1393 1394 
3 1395 1396 1397 
3 1398 1399 1400 
3 1401 1402 1403 
3 1404 1405 1406 
3 1407 1408 1409 
3 1410 1411 1412 
3 1413 1414 1415 
3 1416 1417 1418 
3 1419 1420 1421 
3 1422 1423 1424 
3 1425 1426 1427 
3 1428 1429 1430 
3 1431 1432 1433 
3 1434 1435 1436 
3 1437 1438 1439 
3 1440 1441 1442 
3 1443 1444 1445 
3 1446 1447 1448 
3 1449 1450 1451 
3 1452 1453 1454 
3 1455 1456 1457 
3 1458 1459 1460 
3 1461 1462 1463 
3 1464 1465 1466 
3 1467 1468 1469 
3 1470 1471 1472 
3 1473 1474 1475 
3 1476 1477 1478 
3 1479 1480 1481 
3 1482 1483 1484 
3 1485 1486 1487 
3 1488 1489 1490 
3 1491 1492 1493 
3 1494 1495 1496 
3 1497 1498 1499 
3 1500 1501 1502 
3 1503 1504 1505 
3 1506 1507 1508 
3 1509 1510 1511 
3 1512 1513 1514 
3 1515 1516 1517 
3 1518 1519 1520 
3 1521 1522 1523 
3 1524 1525 1526 
3 1527 1528 1529 
3 1530 1531 1532 
3 1533 1534 1535 
3 1536 1537 1538 
3 1539 1540 1541 
3 1542 1543 1544 
3 1545 1546 1547 
3 1548 1549 1550 
3 1551 1552 1553 
3 1554 1555 1556 
3 1557 1558 1559 
3 1560 1561 1562 
3 1563 1564 1565 
3 1566 1567 1568 
3 1569 1570 1571 
3 1572 1573 1574 
3 1575 1576 1577 
3 1578 1579 1580 
3 1581 1582 1583 
3 1584 1585 1586 
3 1587 1588 1589 
3 1590 1591 1592 
3 1593 1594 1595 
3 1596 1597 1598 
3 1599 1600 1601 
3 1602 1603 1604 
3 1605 1606 1607 
3 1608 1609 1610 
3 1611 1612 1613 
3 1614 1615 1616 
3 1617 1618 1619 
3 1620 1621 1622 
3 1623 1624 1625 
3 1626 1627 1628 
3 1629 1630 1631 
3 1632 1633 1634 
3 1635 1636 1637 
3 1638 1639 1640 
3 1641 1642 1643 
3 1644 1645 1646 
3 1647 1648 1649 
3 1650 1651 1652 
3 1653 1654 1655 
3 1656 1657 1658 
3 1659 1660 1661 
3 1662 1663 1664 
3 1665 1666 1667 
3 1668 1669 1670 
3 1671 1672 1673 
3 1674 1675 1676 
3 1677 1678 1679 
3 1680 1681 1682 
3 1683 1684 1685 
3 1686 1687 1688 
3 1689 1690 1691 
3 1692 1693 1694 
3 1695 1696 1697 
3 1698 1699 1700 
3 1701 1702 1703 
3 1704 1705 1706 
3 1707 1708 1709 
3 1710 1711 1712 
3 1713 1714 1715 
3 1716 1717 1718 
3 1719 1720 1721 
3 1722 1723 1724 
3 1725 1726 1727 
3 1728 1729 1730 
3 1731 1732 1733 
3 1734 1735 1736 
3 1737 1738 1739 
3 1740 1741 1742 
3 1743 1744 1745 
3 1746 1747 1748 
3 1749 1750 1751 
3 1752 1753 1754 
3 1755 1756 1757 
3 1758 1759 1760 
3 1761 1762 1763 
3 1764 1765 1766 
3 1767 1768 1769 
3 1770 1771 1772 
3 1773 1774 1775 
3 1776 1777 1778 
3 1779 1780 1781 
3 1782 1783 1784 
3 1785 1786 1787 
3 1788 1789 1790 
3 1791 1792 1793 
3 1794 1795 1796 
3 1797 1798 1799 
3 1800 1801 1802 
3 1803 1804 1805 
3 1806 1807 1808 
3 1809 1810 1811 
3 1812 1813 1814 
3 1815 1816 1817 
3 1818 1819 1820 
3 1821 1822 1823 
3 1824 1825 1826 
3 1827 1828 1829 
3 1830 1831 1832 
3 1833 1834 1835 
3 1836 1837 1838 
3 1839 1840 1841 
3 1842 1843 1844 
3 1845 1846 1847 
3 1848 1849 1850 
3 1851 1852 1853 
3 1854 1855 1856 
3 1857 1858 1859 
3 1860 1861 1862 
3 1863 1864 1865 
3 1866 1867 1868 
3 1869 1870 1871 
3 1872 1873 1874 
3 1875 1876 1877 
3 1878 1879 1880 
3 1881 1882 1883 
3 1884 1885 1886 
3 1887 1888 1889 
3 1890 1891 1892 
3 1893 1894 1895 
3 1896 1897 1898 
3 1899 1900 1901 
3 1902 1903 1904 
3 1905 1906 1907 
3 1908 1909 1910 
3 1911 1912 1913 
3 1914 1915 1916 
3 1917 1918 1919 
3 1920 1921 1922 
3 1923 1924 1925 
3 1926 1927 1928 
3 1929 1930 1931 
3 1932 1933 1934 
3 1935 1936 1937 
3 1938 1939 1940 
3 1941 1942 1943 
3 1944 1945 1946 
3 1947 1948 1949 
3 1950 1951 1952 
3 1953 1954 1955 
3 1956 1957 1958 
3 1959 1960 1961 
3 1962 1963 1964 
3 1965 1966 1967 
3 1968 1969 1970 
3 1971 1972 1973 
3 1974 1975 1976 
3 1977 1978 1979 
3 1980 1981 1982 
3 1983 1984 1985 
3 1986 1987 1988 
3 1989 1990 1991 
3 1992 1993 1994 
3 1995 1996 1997 
3 1998 1999 2000 
3 2001 2002 2003 
3 2004 2005 2006 
3 2007 2008 2009 
3 2010 2011 2012 
3 2013 2014 2015 
3 2016 2017 2018 
3 2019 2020 2021 
3 2022 2023 2024 
3 2025 2026 2027 
3 2028 2029 2030 
3 2031 2032 2033 
3 2034 2035 2036 
3 2037 2038 2039 
3 2040 2041 2042 
3 2043 2044 2045 
3 2046 2047 2048 
3 2049 2050 2051 
3 2052 2053 2054 
3 2055 2056 2057 
3 2058 2059 2060 
3 2061 2062 2063 
3 2064 2065 2066 
3 2067 2068 2069 
3 2070 2071 2072 
3 2073 2074 2075 
3 2076 2077 2078 
3 2079 2080 2081 
3 2082 2083 2084 
3 2085 2086 2087 
3 2088 2089 2090 
3 2091 2092 2093 
3 2094 2095 2096 
3 2097 2098 2099 
3 2100 2101 2102 
3 2103 2104 2105 
3 2106 2107 2108 
3 2109 2110 2111 
3 2112 2113 2114 
3 2115 2116 2117 
3 2118 2119 2120 
3 2121 2122 2123 
3 2124 2125 2126 
3 2127 2128 2129 
3 2130 2131 2132 
3 2133 2134 2135 
3 2136 2137 2138 
3 2139 2140 2141 
3 2142 2143 2144 
3 2145 2146 2147 
3 2148 2149 2150 
3 2151 2152 2153 
3 2154 2155 2156 
3 2157 2158 2159 
3 2160 2161 2162 
3 2163 2164 2165 
3 2166 2167 2168 
3 2169 2170 2171 
3 2172 2173 2174 
3 2175 2176 2177 
3 2178 2179 2180 
3 2181 2182 2183 
3 2184 2185 2186 
3 2187 2188 2189 
3 2190 2191 2192 
3 2193 2194 2195 
3 2196 2197 2198 
3 2199 2200 2201 
3 2202 2203 2204 
3 2205 2206 2207 
3 2208 2209 2210 
3 2211 2212 2213 
3 2214 2215 2216 
3 2217 2218 2219 
3 2220 2221 2222 
3 2223 2224 2225 
3 2226 2227 2228 
3 2229 2230 2231 
3 2232 2233 2234 
3 2235 2236 2237 
3 2238 2239 2240 
3 2241 2242 2243 
3 2244 2245 2246 
3 2247 2248 2249 
3 2250 2251 2252 
3 2253 2254 2255 
3 2256 2257 2258 
3 2259 2260 2261 
3 2262 2263 2264 
3 2265 2266 2267 
3 2268 2269 2270 
3 2271 2272 2273 
3 2274 2275 2276 
3 2277 2278 2279 
3 2280 2281 2282 
3 2283 2284 2285 
3 2286 2287 2288 
3 2289 2290 2291 
3 2292 2293 2294 
3 2295 2296 2297 
3 2298 2299 2300 
3 2301 2302 2303 
3 2304 2305 2306 
3 2307 2308 2309 
3 2310 2311 2312 
3 2313 2314 2315 
3 2316 2317 2318 
3 2319 2320 2321 
3 2322 2323 2324 
3 2325 2326 2327 
3 2328 2329 2330 
3 2331 2332 2333 
3 2334 2335 2336 
3 2337 2338 2339 
3 2340 2341 2342 
3 2343 2344 2345 
3 2346 2347 2348 
3 2349 2350 2351 
3 2352 2353 2354 
3 2355 2356 2357 
3 2358 2359 2360 
3 2361 2362 2363 
3 2364 2365 2366 
3 2367 2368 2369 
3 2370 2371 2372 
3 2373 2374 2375 
3 2376 2377 2378 
3 2379 2380 2381 
3 2382 2383 2384 
3 2385 2386 2387 
3 2388 2389 2390 
3 2391 2392 2393 
3 2394 2395 2396 
3 2397 2398 2399 
3 2400 2401 2402 
3 2403 2404 2405 
3 2406 2407 2408 
3 2409 2410 2411 
3 2412 2413 2414 
3 2415 2416 2417 
3 2418 2419 2420 
3 2421 2422 2423 
3 2424 2425 2426 
3 2427 2428 2429 
3 2430 2431 2432 
3 2433 2434 2435 
3 2436 2437 2438 
3 2439 2440 2441 
3 2442 2443 2444 
3 2445 2446 2447 
3 2448 2449 2450 
3 2451 2452 2453 
3 2454 2455 2456 
3 2457 2458 2459 
3 2460 2461 2462 
3 2463 2464 2465 
3 2466 2467 2468 
3 2469 2470 2471 
3 2472 2473 2474 
3 2475 2476 2477 
3 2478 2479 2480 
3 2481 2482 2483 
3 2484 2485 2486 
3 2487 2488 2489 
3 2490 2491 2492 
3 2493 2494 2495 
3 2496 2497 2498 
3 2499 2500 2501 
3 2502 2503 2504 
3 2505 2506 2507 
3 2508 2509 2510 
3 2511 2512 2513 
3 2514 2515 2516 
3 2517 2518 2519 
3 2520 2521 2522 
3 2523 2524 2525 
3 2526 2527 2528 
3 2529 2530 2531 
3 2532 2533 2534 
3 2535 2536 2537 
3 2538 2539 2540 
3 2541 2542 2543 
3 2544 2545 2546 
3 2547 2548 2549 
3 2550 2551 2552 
3 2553 2554 2555 
3 2556 2557 2558 
3 2559 2560 2561 
3 2562 2563 2564 
3 2565 2566 2567 
3 2568 2569 2570 
3 2571 2572 2573 
3 2574 2575 2576 
3 2577 2578 2579 
3 2580 2581 2582 
3 2583 2584 2585 
3 2586 2587 2588 
3 2589 2590 2591 
3 2592 2593 2594 
3 2595 2596 2597 
3 2598 2599 2600 
3 2601 2602 2603 
3 2604 2605 2606 
3 2607 2608 2609 
3 2610 2611 2612 
3 2613 2614 2615 
3 2616 2617 2618 
3 2619 2620 2621 
3 2622 2623 2624 
3 2625 2626 2627 
3 2628 2629 2630 
3 2631 2632 2633 
3 2634 2635 2636 
3 2637 2638 2639 
3 2640 2641 2642 
3 2643 2644 2645 
3 2646 2647 2648 
3 2649 2650 2651 
3 2652 2653 2654 
3 2655 2656 2657 
3 2658 2659 2660 
3 2661 2662 2663 
3 2664 2665 2666 
3 2667 2668 2669 
3 2670 2671 2672 
3 2673 2674 2675 
3 2676 2677 2678 
3 2679 2680 2681 
3 2682 2683 2684 
3 2685 2686 2687 
3 2688 2689 2690 
3 2691 2692 2693 
3 2694 2695 2696 
3 2697 2698 2699 
3 2700 2701 2702 
3 2703 2704 2705 
3 2706 2707 2708 
3 2709 2710 2711 
3 2712 2713 2714 
3 2715 2716 2717 
3 2718 2719 2720 
3 2721 2722 2723 
3 2724 2725 2726 
3 2727 2728 2729 
3 2730 2731 2732 
3 2733 2734 2735 
3 2736 2737 2738 
3 2739 2740 2741 
3 2742 2743 2744 
3 2745 2746 2747 
3 2748 2749 2750 
3 2751 2752 2753 
3 2754 2755 2756 
3 2757 2758 2759 
3 2760 2761 2762 
3 2763 2764 2765 
3 2766 2767 2768 
3 2769 2770 2771 
3 2772 2773 2774 
3 2775 2776 2777 
3 2778 2779 2780 
3 2781 2782 2783 
3 2784 2785 2786 
3 2787 2788 2789 
3 2790 2791 2792 
3 2793 2794 2795 
3 2796 2797 2798 
3 2799 2800 2801 
3 2802 2803 2804 
3 2805 2806 2807 
3 2808 2809 2810 
3 2811 2812 2813 
3 2814 2815 2816 
3 2817 2818 2819 
3 2820 2821 2822 
3 2823 2824 2825 
3 2826 2827 2828 
3 2829 2830 2831 
3 2832 2833 2834 
3 2835 2836 2837 
3 2838 2839 2840 
3 2841 2842 2843 
3 2844 2845 2846 
3 2847 2848 2849 
3 2850 2851 2852 
3 2853 2854 2855 
3 2856 2857 2858 
3 2859 2860 2861 
3 2862 2863 2864 
3 2865 2866 2867 
3 2868 2869 2870 
3 2871 2872 2873 
3 2874 2875 2876 
3 2877 2878 2879 
3 2880 2881 2882 
3 2883 2884 2885 
3 2886 2887 2888 
3 2889 2890 2891 
3 2892 2893 2894 
3 2895 2896 2897 
3 2898 2899 2900 
3 2901 2902 2903 
3 2904 2905 2906 
3 2907 2908 2909 
3 2910 2911 2912 
3 2913 2914 2915 
3 2916 2917 2918 
3 2919 2920 2921 
3 2922 2923 2924 
3 2925 2926 2927 
3 2928 2929 2930 
3 2931 2932 2933 
3 2934 2935 2936 
3 2937 2938 2939 
3 2940 2941 2942 
3 2943 2944 2945 
3 2946 2947 2948 
3 2949 2950 2951 
3 2952 2953 2954 
3 2955 2956 2957 
3 2958 2959 2960 
3 2961 2962 2963 
3 2964 2965 2966 
3 2967 2968 2969 
3 2970 2971 2972 
3 2973 2974 2975 
3 2976 2977 2978 
3 2979 2980 2981 
3 2982 2983 2984 
3 2985 2986 2987 
3 2988 2989 2990 
3 2991 2992 2993 
3 2994 2995 2996 
3 2997 2998 2999 
3 3000 3001 3002 
3 3003 3004 3005 
3 3006 3007 3008 
3 3009 3010 3011 
3 3012 3013 3014 
3 3015 3016 3017 
3 3018 3019 3020 
3 3021 3022 3023 
3 3024 3025 3026 
3 3027 3028 3029 
3 3030 3031 3032 
3 3033 3034 3035 
3 3036 3037 3038 
3 3039 3040 3041 
3 3042 3043 3044 
3 3045 3046 3047 
3 3048 3049 3050 
3 3051 3052 3053 
3 3054 3055 3056 
3 3057 3058 3059 
3 3060 3061 3062 
3 3063 3064 3065 
3 3066 3067 3068 
3 3069 3070 3071 
3 3072 3073 3074 
3 3075 3076 3077 
3 3078 3079 3080 
3 3081 3082 3083 
3 3084 3085 3086 
3 3087 3088 3089 
3 3090 3091 3092 
3 3093 3094 3095 
3 3096 3097 3098 
3 3099 3100 3101 
3 3102 3103 3104 
3 3105 3106 3107 
3 3108 3109 3110 
3 3111 3112 3113 
3 3114 3115 3116 
3 3117 3118 3119 
3 3120 3121 3122 
3 3123 3124 3125 
3 3126 3127 3128 
3 3129 3130 3131 
3 3132 3133 3134 
3 3135 3136 3137 
3 3138 3139 3140 
3 3141 3142 3143 
3 3144 3145 3146 
3 3147 3148 3149 
3 3150 3151 3152 
3 3153 3154 3155 
3 3156 3157 3158 
3 3159 3160 3161 
3 3162 3163 3164 
3 3165 3166 3167 
3 3168 3169 3170 
3 3171 3172 3173 
3 3174 3175 3176 
3 3177 3178 3179 
3 3180 3181 3182 
3 3183 3184 3185 
3 3186 3187 3188 
3 3189 3190 3191 
3 3192 3193 3194 
3 3195 3196 3197 
3 3198 3199 3200 
3 3201 3202 3203 
3 3204 3205 3206 
3 3207 3208 3209 
3 3210 3211 3212 
3 3213 3214 3215 
3 3216 3217 3218 
3 3219 3220 3221 
3 3222 3223 3224 
3 3225 3226 3227 
3 3228 3229 3230 
3 3231 3232 3233 
3 3234 3235 3236 
3 3237 3238 3239 
3 3240 3241 3242 
3 3243 3244 3245 
3 3246 3247 3248 
3 3249 3250 3251 
3 3252 3253 3254 
3 3255 3256 3257 
3 3258 3259 3260 
3 3261 3262 3263 
3 3264 3265 3266 
3 3267 3268 3269 
3 3270 3271 3272 
3 3273 3274 3275 
3 3276 3277 3278 
3 3279 3280 3281 
3 3282 3283 3284 
3 3285 3286 3287 
3 3288 3289 3290 
3 3291 3292 3293 
3 3294 3295 3296 
3 3297 3298 3299 
3 3300 3301 3302 
3 3303 3304 3305 
3 3306 3307 3308 
3 3309 3310 3311 
3 3312 3313 3314 
3 3315 3316 3317 
3 3318 3319 3320 
3 3321 3322 3323 
3 3324 3325 3326 
3 3327 3328 3329 
3 3330 3331 3332 
3 3333 3334 3335 
3 3336 3337 3338 
3 3339 3340 3341 
3 3342 3343 3344 
3 3345 3346 3347 
3 3348 3349 3350 
3 3351 3352 3353 
3 3354 3355 3356 
3 3357 3358 3359 
3 3360 3361 3362 
3 3363 3364 3365 
3 3366 3367 3368 
3 3369 3370 3371 
3 3372 3373 3374 
3 3375 3376 3377 
3 3378 3379 3380 
3 3381 3382 3383 
3 3384 3385 3386 
3 3387 3388 3389 
3 3390 3391 3392 
3 3393 3394 3395 
3 3396 3397 3398 
3 3399 3400 3401 
3 3402 3403 3404 
3 3405 3406 3407 
3 3408 3409 3410 
3 3411 3412 3413 
3 3414 3415 3416 
3 3417 3418 3419 
3 3420 3421 3422 
3 3423 3424 3425 
3 3426 3427 3428 
3 3429 3430 3431 
3 3432 3433 3434 
3 3435 3436 3437 
3 3438 3439 3440 
3 3441 3442 3443 
3 3444 3445 3446 
3 3447 3448 3449 
3 3450 3451 3452 
3 3453 3454 3455 
3 3456 3457 3458 
3 3459 3460 3461 
3 3462 3463 3464 
3 3465 3466 3467 
3 3468 3469 3470 
3 3471 3472 3473 
3 3474 3475 3476 
3 3477 3478 3479 
3 3480 3481 3482 
3 3483 3484 3485 
3 3486 3487 3488 
3 3489 3490 3491 
3 3492 3493 3494 
3 3495 3496 3497 
3 3498 3499 3500 
3 3501 3502 3503 
3 3504 3505 3506 
3 3507 3508 3509 
3 3510 3511 3512 
3 3513 3514 3515 
3 3516 3517 3518 
3 3519 3520 3521 
3 3522 3523 3524 
3 3525 3526 3527 
3 3528 3529 3530 
3 3531 3532 3533 
3 3534 3535 3536 
3 3537 3538 3539 
3 3540 3541 3542 
3 3543 3544 3545 
3 3546 3547 3548 
3 3549 3550 3551 
3 3552 3553 3554 
3 3555 3556 3557 
3 3558 3559 3560 
3 3561 3562 3563 
3 3564 3565 3566 
3 3567 3568 3569 
3 3570 3571 3572 
3 3573 3574 3575 
3 3576 3577 3578 
3 3579 3580 3581 
3 3582 3583 3584 
3 3585 3586 3587 
3 3588 3589 3590 
3 3591 3592 3593 
3 3594 3595 3596 
3 3597 3598 3599 
3 3600 3601 3602 
3 3603 3604 3605 
3 3606 3607 3608 
3 3609 3610 3611 
3 3612 3613 3614 
3 3615 3616 3617 
3 3618 3619 3620 
3 3621 3622 3623 
3 3624 3625 3626 
3 3627 3628 3629 
3 3630 3631 3632 
3 3633 3634 3635 
3 3636 3637 3638 
3 3639 3640 3641 
3 3642 3643 3644 
3 3645 3646 3647 
3 3648 3649 3650 
3 3651 3652 3653 
3 3654 3655 3656 
3 3657 3658 3659 
3 3660 3661 3662 
3 3663 3664 3665 
3 3666 3667 3668 
3 3669 3670 3671 
3 3672 3673 3674 
3 3675 3676 3677 
3 3678 3679 3680 
3 3681 3682 3683 
3 3684 3685 3686 
3 3687 3688 3689 
3 3690 3691 3692 
3 3693 3694 3695 
3 3696 3697 3698 
3 3699 3700 3701 
3 3702 3703 3704 
3 3705 3706 3707 
3 3708 3709 3710 
3 3711 3712 3713 
3 3714 3715 3716 
3 3717 3718 3719 
3 3720 3721 3722 
3 3723 3724 3725 
3 3726 3727 3728 
3 3729 3730 3731 
3 3732 3733 3734 
3 3735 3736 3737 
3 3738 3739 3740 
3 3741 3742 3743 
3 3744 3745 3746 
3 3747 3748 3749 
3 3750 3751 3752 
3 3753 3754 3755 
3 3756 3757 3758 
3 3759 3760 3761 
3 3762 3763 3764 
3 3765 3766 3767 
3 3768 3769 3770 
3 3771 3772 3773 
3 3774 3775 3776 
3 3777 3778 3779 
3 3780 3781 3782 
3 3783 3784 3785 
3 3786 3787 3788 
3 3789 3790 3791 
3 3792 3793 3794 
3 3795 3796 3797 
3 3798 3799 3800 
3 3801 3802 3803 
3 3804 3805 3806 
3 3807 3808 3809 
3 3810 3811 3812 
3 3813 3814 3815 
3 3816 3817 3818 
3 3819 3820 3821 
3 3822 3823 3824 
3 3825 3826 3827 
3 3828 3829 3830 
3 3831 3832 3833 
3 3834 3835 3836 
3 3837 3838 3839 
3 3840 3841 3842 
3 3843 3844 3845 
3 3846 3847 3848 
3 3849 3850 3851 
3 3852 3853 3854 
3 3855 3856 3857 
3 3858 3859 3860 
3 3861 3862 3863 
3 3864 3865 3866 
3 3867 3868 3869 
3 3870 3871 3872 
3 3873 3874 3875 
3 3876 3877 3878 
3 3879 3880 3881 
3 3882 3883 3884 
3 3885 3886 3887 
3 3888 3889 3890 
3 3891 3892 3893 
3 3894 3895 3896 
3 3897 3898 3899 
3 3900 3901 3902 
3 3903 3904 3905 
3 3906 3907 3908 
3 3909 3910 3911 
3 3912 3913 3914 
3 3915 3916 3917 
3 3918 3919 3920 
3 3921 3922 3923 
3 3924 3925 3926 
3 3927 3928 3929 
3 3930 3931 3932 
3 3933 3934 3935 
3 3936 3937 3938 
3 3939 3940 3941 
3 3942 3943 3944 
3 3945 3946 3947 
3 3948 3949 3950 
3 3951 3952 3953 
3 3954 3955 3956 
3 3957 3958 3959 
3 3960 3961 3962 
3 3963 3964 3965 
3 3966 3967 3968 
3 3969 3970 3971 
3 3972 3973 3974 
3 3975 3976 3977 
3 3978 3979 3980 
3 3981 3982 3983 
3 3984 3985 3986 
3 3987 3988 3989 
3 3990 3991 3992 
3 3993 3994 3995 
3 3996 3997 3998 
3 3999 4000 4001 
3 4002 4003 4004 
3 4005 4006 4007 
3 4008 4009 4010 
3 4011 4012 4013 
3 4014 4015 4016 
3 4017 4018 4019 
3 4020 4021 4022 
3 4023 4024 4025 
3 4026 4027 4028 
3 4029 4030 4031 
3 4032 4033 4034 
3 4035 4036 4037 
3 4038 4039 4040 
3 4041 4042 4043 
3 4044 4045 4046 
3 4047 4048 4049 
3 4050 4051 4052 
3 4053 4054 4055 
3 4056 4057 4058 
3 4059 4060 4061 
3 4062 4063 4064 
3 4065 4066 4067 
3 4068 4069 4070 
3 4071 4072 4073 
3 4074 4075 4076 
3 4077 4078 4079 
3 4080 4081 4082 
3 4083 4084 4085 
3 4086 4087 4088 
3 4089 4090 4091 
3 4092 4093 4094 
3 4095 4096 4097 
3 4098 4099 4100 
3 4101 4102 4103 
3 4104 4105 4106 
3 4107 4108 4109 
3 4110 4111 4112 
3 4113 4114 4115 
3 4116 4117 4118 
3 4119 4120 4121 
3 4122 4123 4124 
3 4125 4126 4127 
3 4128 4129 4130 
3 4131 4132 4133 
3 4134 4135 4136 
3 4137 4138 4139 
3 4140 4141 4142 
3 4143 4144 4145 
3 4146 4147 4148 
3 4149 4150 4151 
3 4152 4153 4154 
3 4155 4156 4157 
3 4158 4159 4160 
3 4161 4162 4163 
3 4164 4165 4166 
3 4167 4168 4169 
3 4170 4171 4172 
3 4173 4174 4175 
3 4176 4177 4178 
3 4179 4180 4181 
3 4182 4183 4184 
3 4185 4186 4187 
3 4188 4189 4190 
3 4191 4192 4193 
3 4194 4195 4196 
3 4197 4198 4199 
3 4200 4201 4202 
3 4203 4204 4205 
3 4206 4207 4208 
3 4209 4210 4211 
3 4212 4213 4214 
3 4215 4216 4217 
3 4218 4219 4220 
3 4221 4222 4223 
3 4224 4225 4226 
3 4227 4228 4229 
3 4230 4231 4232 
3 4233 4234 4235 
3 4236 4237 4238 
3 4239 4240 4241 
3 4242 4243 4244 
3 4245 4246 4247 
3 4248 4249 4250 
3 4251 4252 4253 
3 4254 4255 4256 
3 4257 4258 4259 
3 4260 4261 4262 
3 4263 4264 4265 
3 4266 4267 4268 
3 4269 4270 4271 
3 4272 4273 4274 
3 4275 4276 4277 
3 4278 4279 4280 
3 4281 4282 4283 
3 4284 4285 4286 
3 4287 4288 4289 
3 4290 4291 4292 
3 4293 4294 4295 
3 4296 4297 4298 
3 4299 4300 4301 
3 4302 4303 4304 
3 4305 4306 4307 
3 4308 4309 4310 
3 4311 4312 4313 
3 4314 4315 4316 
3 4317 4318 4319 
3 4320 4321 4322 
3 4323 4324 4325 
3 4326 4327 4328 
3 4329 4330 4331 
3 4332 4333 4334 
3 4335 4336 4337 
3 4338 4339 4340 
3 4341 4342 4343 
3 4344 4345 4346 
3 4347 4348 4349 
3 4350 4351 4352 
3 4353 4354 4355 
3 4356 4357 4358 
3 4359 4360 4361 
3 4362 4363 4364 
3 4365 4366 4367 
3 4368 4369 4370 
3 4371 4372 4373 
3 4374 4375 4376 
3 4377 4378 4379 
3 4380 4381 4382 
3 4383 4384 4385 
3 4386 4387 4388 
3 4389 4390 4391 
3 4392 4393 4394 
3 4395 4396 4397 
3 4398 4399 4400 
3 4401 4402 4403 
3 4404 4405 4406 
3 4407 4408 4409 
3 4410 4411 4412 
3 4413 4414 4415 
3 4416 4417 4418 
3 4419 4420 4421 
3 4422 4423 4424 
3 4425 4426 4427 
3 4428 4429 4430 
3 4431 4432 4433 
3 4434 4435 4436 
3 4437 4438 4439 
3 4440 4441 4442 
3 4443 4444 4445 
3 4446 4447 4448 
3 4449 4450 4451 
3 4452 4453 4454 
3 4455 4456 4457 
3 4458 4459 4460 
3 4461 4462 4463 
3 4464 4465 4466 
3 4467 4468 4469 
3 4470 4471 4472 
3 4473 4474 4475 
3 4476 4477 4478 
3 4479 4480 4481 
3 4482 4483 4484 
3 4485 4486 4487 
3 4488 4489 4490 
3 4491 4492 4493 
3 4494 4495 4496 
3 4497 4498 4499 
3 4500 4501 4502 
3 4503 4504 4505 
3 4506 4507 4508 
3 4509 4510 4511 
3 4512 4513 4514 
3 4515 4516 4517 
3 4518 4519 4520 
3 4521 4522 4523 
3 4524 4525 4526 
3 4527 4528 4529 
3 4530 4531 4532 
3 4533 4534 4535 
3 4536 4537 4538 
3 4539 4540 4541 
3 4542 4543 4544 
3 4545 4546 4547 
3 4548 4549 4550 
3 4551 4552 4553 
3 4554 4555 4556 
3 4557 4558 4559 
3 4560 4561 4562 
3 4563 4564 4565 
3 4566 4567 4568 
3 4569 4570 4571 
3 4572 4573 4574 
3 4575 4576 4577 
3 4578 4579 4580 
3 4581 4582 4583 
3 4584 4585 4586 
3 4587 4588 4589 
3 4590 4591 4592 
3 4593 4594 4595 
3 4596 4597 4598 
3 4599 4600 4601 
3 4602 4603 4604 
3 4605 4606 4607 
3 4608 4609 4610 
3 4611 4612 4613 
3 4614 4615 4616 
3 4617 4618 4619 
3 4620 4621 4622 
3 4623 4624 4625 
3 4626 4627 4628 
3 4629 4630 4631 
3 4632 4633 4634 
3 4635 4636 4637 
3 4638 4639 4640 
3 4641 4642 4643 
3 4644 4645 4646 
3 4647 4648 4649 
3 4650 4651 4652 
3 4653 4654 4655 
3 4656 4657 4658 
3 4659 4660 4661 
3 4662 4663 4664 
3 4665 4666 4667 
3 4668 4669 4670 
3 4671 4672 4673 
3 4674 4675 4676 
3 4677 4678 4679 
3 4680 4681 4682 
3 4683 4684 4685 
3 4686 4687 4688 
3 4689 4690 4691 
3 4692 4693 4694 
3 4695 4696 4697 
3 4698 4699 4700 
3 4701 4702 4703 
3 4704 4705 4706 
3 4707 4708 4709 
3 4710 4711 4712 
3 4713 4714 4715 
3 4716 4717 4718 
3 4719 4720 4721 
3 4722 4723 4724 
3 4725 4726 4727 
3 4728 4729 4730 
3 4731 4732 4733 
3 4734 4735 4736 
3 4737 4738 4739 
3 4740 4741 4742 
3 4743 4744 4745 
3 4746 4747 4748 
3 4749 4750 4751 
3 4752 4753 4754 
3 4755 4756 4757 
3 4758 4759 4760 
3 4761 4762 4763 
3 4764 4765 4766 
3 4767 4768 4769 
3 4770 4771 4772 
3 4773 4774 4775 
3 4776 4777 4778 
3 4779 4780 4781 
3 4782 4783 4784 
3 4785 4786 4787 
3 4788 4789 4790 
3 4791 4792 4793 
3 4794 4795 4796 
3 4797 4798 4799 
3 4800 4801 4802 
3 4803 4804 4805 
3 4806 4807 4808 
3 4809 4810 4811 
3 4812 4813 4814 
3 4815 4816 4817 
3 4818 4819 4820 
3 4821 4822 4823 
3 4824 4825 4826 
3 4827 4828 4829 
3 4830 4831 4832 
3 4833 4834 4835 
3 4836 4837 4838 
3 4839 4840 4841 
3 4842 4843 4844 
3 4845 4846 4847 
3 4848 4849 4850 
3 4851 4852 4853 
3 4854 4855 4856 
3 4857 4858 4859 
3 4860 4861 4862 
3 4863 4864 4865 
3 4866 4867 4868 
3 4869 4870 4871 
3 4872 4873 4874 
3 4875 4876 4877 
3 4878 4879 4880 
3 4881 4882 4883 
3 4884 4885 4886 
3 4887 4888 4889 
3 4890 4891 4892 
3 4893 4894 4895 
3 4896 4897 4898 
3 4899 4900 4901 
3 4902 4903 4904 
3 4905 4906 4907 
3 4908 4909 4910 
3 4911 4912 4913 
3 4914 4915 4916 
3 4917 4918 4919 
3 4920 4921 4922 
3 4923 4924 4925 
3 4926 4927 4928 
3 4929 4930 4931 
3 4932 4933 4934 
3 4935 4936 4937 
3 4938 4939 4940 
3 4941 4942 4943 
3 4944 4945 4946 
3 4947 4948 4949 
3 4950 4951 4952 
3 4953 4954 4955 
3 4956 4957 4958 
3 4959 4960 4961 
3 4962 4963 4964 
3 4965 4966 4967 
3 4968 4969 4970 
3 4971 4972 4973 
3 4974 4975 4976 
3 4977 4978 4979 
3 4980 4981 4982 
3 4983 4984 4985 
3 4986 4987 4988 
3 4989 4990 4991 
3 4992 4993 4994 
3 4995 4996 4997 
3 4998 4999 5000 
3 5001 5002 5003 
3 5004 5005 5006 
3 5007 5008 5009 
3 5010 5011 5012 
3 5013 5014 5015 
3 5016 5017 5018 
3 5019 5020 5021 
3 5022 5023 5024 
3 5025 5026 5027 
3 5028 5029 5030 
3 5031 5032 5033 
3 5034 5035 5036 
3 5037 5038 5039 
3 5040 5041 5042 
3 5043 5044 5045 
3 5046 5047 5048 
3 5049 5050 5051 
3 5052 5053 5054 
3 5055 5056 5057 
3 5058 5059 5060 
3 5061 5062 5063 
3 5064 5065 5066 
3 5067 5068 5069 
3 5070 5071 5072 
3 5073 5074 5075 
3 5076 5077 5078 
3 5079 5080 5081 
3 5082 5083 5084 
3 5085 5086 5087 
3 5088 5089 5090 
3 5091 5092 5093 
3 5094 5095 5096 
3 5097 5098 5099 
3 5100 5101 5102 
3 5103 5104 5105 
3 5106 5107 5108 
3 5109 5110 5111 
3 5112 5113 5114 
3 5115 5116 5117 
3 5118 5119 5120 
3 5121 5122 5123 
3 5124 5125 5126 
3 5127 5128 5129 
3 5130 5131 5132 
3 5133 5134 5135 
3 5136 5137 5138 
3 5139 5140 5141 
3 5142 5143 5144 
3 5145 5146 5147 
3 5148 5149 5150 
3 5151 5152 5153 
3 5154 5155 5156 
3 5157 5158 5159 
3 5160 5161 5162 
3 5163 5164 5165 
3 5166 5167 5168 
3 5169 5170 5171 
3 5172 5173 5174 
3 5175 5176 5177 
3 5178 5179 5180 
3 5181 5182 5183 
3 5184 5185 5186 
3 5187 5188 5189 
3 5190 5191 5192 
3 5193 5194 5195 
3 5196 5197 5198 
3 5199 5200 5201 
3 5202 5203 5204 
3 5205 5206 5207 
3 5208 5209 5210 
3 5211 5212 5213 
3 5214 5215 5216 
3 5217 5218 5219 
3 5220 5221 5222 
3 5223 5224 5225 
3 5226 5227 5228 
3 5229 5230 5231 
3 5232 5233 5234 
3 5235 5236 5237 
3 5238 5239 5240 
3 5241 5242 5243 
3 5244 5245 5246 
3 5247 5248 5249 
3 5250 5251 5252 
3 5253 5254 5255 
3 5256 5257 5258 
3 5259 5260 5261 
3 5262 5263 5264 
3 5265 5266 5267 
3 5268 5269 5270 
3 5271 5272 5273 
3 5274 5275 5276 
3 5277 5278 5279 
3 5280 5281 5282 
3 5283 5284 5285 
3 5286 5287 5288 
3 5289 5290 5291 
3 5292 5293 5294 
3 5295 5296 5297 
3 5298 5299 5300 
3 5301 5302 5303 
3 5304 5305 5306 
3 5307 5308 5309 
3 5310 5311 5312 
3 5313 5314 5315 
3 5316 5317 5318 
3 5319 5320 5321 
3 5322 5323 5324 
3 5325 5326 5327 
3 5328 5329 5330 
3 5331 5332 5333 
3 5334 5335 5336 
3 5337 5338 5339 
3 5340 5341 5342 
3 5343 5344 5345 
3 5346 5347 5348 
3 5349 5350 5351 
3 5352 5353 5354 
3 5355 5356 5357 
3 5358 5359 5360 
3 5361 5362 5363 
3 5364 5365 5366 
3 5367 5368 5369 
3 5370 5371 5372 
3 5373 5374 5375 
3 5376 5377 5378 
3 5379 5380 5381 
3 5382 5383 5384 
3 5385 5386 5387 
3 5388 5389 5390 
3 5391 5392 5393 
3 5394 5395 5396 
3 5397 5398 5399 
3 5400 5401 5402 
3 5403 5404 5405 
3 5406 5407 5408 
3 5409 5410 5411 
3 5412 5413 5414 
3 5415 5416 5417 
3 5418 5419 5420 
3 5421 5422 5423 
3 5424 5425 5426 
3 5427 5428 5429 
3 5430 5431 5432 
3 5433 5434 5435 
3 5436 5437 5438 
3 5439 5440 5441 
3 5442 5443 5444 
3 5445 5446 5447 
3 5448 5449 5450 
3 5451 5452 5453 
3 5454 5455 5456 
3 5457 5458 5459 
3 5460 5461 5462 
3 5463 5464 5465 
3 5466 5467 5468 
3 5469 5470 5471 
3 5472 5473 5474 
3 5475 5476 5477 
3 5478 5479 5480 
3 5481 5482 5483 
3 5484 5485 5486 
3 5487 5488 5489 
3 5490 5491 5492 
3 5493 5494 5495 
3 5496 5497 5498 
3 5499 5500 5501 
3 5502 5503 5504 
3 5505 5506 5507 
3 5508 5509 5510 
3 5511 5512 5513 
3 5514 5515 5516 
3 5517 5518 5519 
3 5520 5521 5522 
3 5523 5524 5525 
3 5526 5527 5528 
3 5529 5530 5531 
3 5532 5533 5534 
3 5535 5536 5537 
3 5538 5539 5540 
3 5541 5542 5543 
3 5544 5545 5546 
3 5547 5548 5549 
3 5550 5551 5552 
3 5553 5554 5555 
3 5556 5557 5558 
3 5559 5560 5561 
3 5562 5563 5564 
3 5565 5566 5567 
3 5568 5569 5570 
3 5571 5572 5573 
3 5574 5575 5576 
3 5577 5578 5579 
3 5580 5581 5582 
3 5583 5584 5585 
3 5586 5587 5588 
3 5589 5590 5591 
3 5592 5593 5594 
3 5595 5596 5597 
3 5598 5599 5600 
3 5601 5602 5603 
3 5604 5605 5606 
3 5607 5608 5609 
3 5610 5611 5612 
3 5613 5614 5615 
3 5616 5617 5618 
3 5619 5620 5621 
3 5622 5623 5624 
3 5625 5626 5627 
3 5628 5629 5630 
3 5631 5632 5633 
3 5634 5635 5636 
3 5637 5638 5639 
3 5640 5641 5642 
3 5643 5644 5645 
3 5646 5647 5648 
3 5649 5650 5651 
3 5652 5653 5654 
3 5655 5656 5657 
3 5658 5659 5660 
3 5661 5662 5663 
3 5664 5665 5666 
3 5667 5668 5669 
3 5670 5671 5672 
3 5673 5674 5675 
3 5676 5677 5678 
3 5679 5680 5681 
3 5682 5683 5684 
3 5685 5686 5687 
3 5688 5689 5690 
3 5691 5692 5693 
3 5694 5695 5696 
3 5697 5698 5699 
3 5700 5701 5702 
3 5703 5704 5705 
3 5706 5707 5708 
3 5709 5710 5711 
3 5712 5713 5714 
3 5715 5716 5717 
3 5718 5719 5720 
3 5721 5722 5723 
3 5724 5725 5726 
3 5727 5728 5729 
3 5730 5731 5732 
3 5733 5734 5735 
3 5736 5737 5738 
3 5739 5740 5741 
3 5742 5743 5744 
3 5745 5746 5747 
3 5748 5749 5750 
3 5751 5752 5753 
3 5754 5755 5756 
3 5757 5758 5759 
3 5760 5761 5762 
3 5763 5764 5765 
3 5766 5767 5768 
3 5769 5770 5771 
3 5772 5773 5774 
3 5775 5776 5777 
3 5778 5779 5780 
3 5781 5782 5783 
3 5784 5785 5786 
3 5787 5788 5789 
3 5790 5791 5792 
3 5793 5794 5795 
3 5796 5797 5798 
3 5799 5800 5801 
3 5802 5803 5804 
3 5805 5806 5807 
3 5808 5809 5810 
3 5811 5812 5813 
3 5814 5815 5816 
3 5817 5818 5819 
3 5820 5821 5822 
3 5823 5824 5825 
3 5826 5827 5828 
3 5829 5830 5831 
3 5832 5833 5834 
3 5835 5836 5837 
3 5838 5839 5840 
3 5841 5842 5843 
3 5844 5845 5846 
3 5847 5848 5849 
3 5850 5851 5852 
3 5853 5854 5855 
3 5856 5857 5858 
3 5859 5860 5861 
3 5862 5863 5864 
3 5865 5866 5867 
3 5868 5869 5870 
3 5871 5872 5873 
3 5874 5875 5876 
3 5877 5878 5879 
3 5880 5881 5882 
3 5883 5884 5885 
3 5886 5887 5888 
3 5889 5890 5891 
3 5892 5893 5894 
3 5895 5896 5897 
3 5898 5899 5900 
3 5901 5902 5903 
3 5904 5905 5906 
3 5907 5908 5909 
3 5910 5911 5912 
3 5913 5914 5915 
3 5916 5917 5918 
3 5919 5920 5921 
3 5922 5923 5924 
3 5925 5926 5927 
3 5928 5929 5930 
3 5931 5932 5933 
3 5934 5935 5936 
3 5937 5938 5939 
3 5940 5941 5942 
3 5943 5944 5945 
3 5946 5947 5948 
3 5949 5950 5951 
3 5952 5953 5954 
3 5955 5956 5957 
3 5958 5959 5960 
3 5961 5962 5963 
3 5964 5965 5966 
3 5967 5968 5969 
3 5970 5971 5972 
3 5973 5974 5975 
3 5976 5977 5978 
3 5979 5980 5981 
3 5982 5983 5984 
3 5985 5986 5987 
3 5988 5989 5990 
3 5991 5992 5993 
3 5994 5995 5996 
3 5997 5998 5999 
3 6000 6001 6002 
3 6003 6004 6005 
3 6006 6007 6008 
3 6009 6010 6011 
3 6012 6013 6014 
3 6015 6016 6017 
3 6018 6019 6020 
3 6021 6022 6023 
3 6024 6025 6026 
3 6027 6028 6029 
3 6030 6031 6032 
3 6033 6034 6035 
3 6036 6037 6038 
3 6039 6040 6041 
3 6042 6043 6044 
3 6045 6046 6047 
3 6048 6049 6050 
3 6051 6052 6053 
3 6054 6055 6056 
3 6057 6058 6059 
3 6060 6061 6062 
3 6063 6064 6065 
3 6066 6067 6068 
3 6069 6070 6071 
3 6072 6073 6074 
3 6075 6076 6077 
3 6078 6079 6080 
3 6081 6082 6083 
3 6084 6085 6086 
3 6087 6088 6089 
3 6090 6091 6092 
3 6093 6094 6095 
3 6096 6097 6098 
3 6099 6100 6101 
3 6102 6103 6104 
3 6105 6106 6107 
3 6108 6109 6110 
3 6111 6112 6113 
3 6114 6115 6116 
3 6117 6118 6119 
3 6120 6121 6122 
3 6123 6124 6125 
3 6126 6127 6128 
3 6129 6130 6131 
3 6132 6133 6134 
3 6135 6136 6137 
3 6138 6139 6140 
3 6141 6142 6143 
3 6144 6145 6146 
3 6147 6148 6149 
3 6150 6151 6152 
3 6153 6154 6155 
3 6156 6157 6158 
3 6159 6160 6161 
3 6162 6163 6164 
3 6165 6166 6167 
3 6168 6169 6170 
3 6171 6172 6173 
3 6174 6175 6176 
3 6177 6178 6179 
3 6180 6181 6182 
3 6183 6184 6185 
3 6186 6187 6188 
3 6189 6190 6191 
3 6192 6193 6194 
3 6195 6196 6197 
3 6198 6199 6200 
3 6201 6202 6203 
3 6204 6205 6206 
3 6207 6208 6209 
3 6210 6211 6212 
3 6213 6214 6215 
3 6216 6217 6218 
3 6219 6220 6221 
3 6222 6223 6224 
3 6225 6226 6227 
3 6228 6229 6230 
3 6231 6232 6233 
3 6234 6235 6236 
3 6237 6238 6239 
3 6240 6241 6242 
3 6243 6244 6245 
3 6246 6247 6248 
3 6249 6250 6251 
3 6252 6253 6254 
3 6255 6256 6257 
3 6258 6259 6260 
3 6261 6262 6263 
3 6264 6265 6266 
3 6267 6268 6269 
3 6270 6271 6272 
3 6273 6274 6275 
3 6276 6277 6278 
3 6279 6280 6281 
3 6282 6283 6284 
3 6285 6286 6287 
3 6288 6289 6290 
3 6291 6292 6293 
3 6294 6295 6296 
3 6297 6298 6299 
3 6300 6301 6302 
3 6303 6304 6305 
3 6306 6307 6308 
3 6309 6310 6311 
3 6312 6313 6314 
3 6315 6316 6317 
3 6318 6319 6320 
3 6321 6322 6323 
3 6324 6325 6326 
3 6327 6328 6329 
3 6330 6331 6332 
3 6333 6334 6335 
3 6336 6337 6338 
3 6339 6340 6341 
3 6342 6343 6344 
3 6345 6346 6347 
3 6348 6349 6350 
3 6351 6352 6353 
3 6354 6355 6356 
3 6357 6358 6359 
3 6360 6361 6362 
3 6363 6364 6365 
3 6366 6367 6368 
3 6369 6370 6371 
3 6372 6373 6374 
3 6375 6376 6377 
3 6378 6379 6380 
3 6381 6382 6383 
3 6384 6385 6386 
3 6387 6388 6389 
3 6390 6391 6392 
3 6393 6394 6395 
3 6396 6397 6398 
3 6399 6400 6401 
3 6402 6403 6404 
3 6405 6406 6407 
3 6408 6409 6410 
3 6411 6412 6413 
3 6414 6415 6416 
3 6417 6418 6419 
3 6420 6421 6422 
3 6423 6424 6425 
3 6426 6427 6428 
3 6429 6430 6431 
3 6432 6433 6434 
3 6435 6436 6437 
3 6438 6439 6440 
3 6441 6442 6443 
3 6444 6445 6446 
3 6447 6448 6449 
3 6450 6451 6452 
3 6453 6454 6455 
3 6456 6457 6458 
3 6459 6460 6461 
3 6462 6463 6464 
3 6465 6466 6467 
3 6468 6469 6470 
3 6471 6472 6473 
3 6474 6475 6476 
3 6477 6478 6479 
3 6480 6481 6482 
3 6483 6484 6485 
3 6486 6487 6488 
3 6489 6490 6491 
3 6492 6493 6494 
3 6495 6496 6497 
3 6498 6499 6500 
3 6501 6502 6503 
3 6504 6505 6506 
3 6507 6508 6509 
3 6510 6511 6512 
3 6513 6514 6515 
3 6516 6517 6518 
3 6519 6520 6521 
3 6522 6523 6524 
3 6525 6526 6527 
3 6528 6529 6530 
3 6531 6532 6533 
3 6534 6535 6536 
3 6537 6538 6539 
3 6540 6541 6542 
3 6543 6544 6545 
3 6546 6547 6548 
3 6549 6550 6551 
3 6552 6553 6554 
3 6555 6556 6557 
3 6558 6559 6560 
3 6561 6562 6563 
3 6564 6565 6566 
3 6567 6568 6569 
3 6570 6571 6572 
3 6573 6574 6575 
3 6576 6577 6578 
3 6579 6580 6581 
3 6582 6583 6584 
3 6585 6586 6587 
3 6588 6589 6590 
3 6591 6592 6593 
3 6594 6595 6596 
3 6597 6598 6599 
3 6600 6601 6602 
3 6603 6604 6605 
3 6606 6607 6608 
3 6609 6610 6611 
3 6612 6613 6614 
3 6615 6616 6617 
3 6618 6619 6620 
3 6621 6622 6623 
3 6624 6625 6626 
3 6627 6628 6629 
3 6630 6631 6632 
3 6633 6634 6635 
3 6636 6637 6638 
3 6639 6640 6641 
3 6642 6643 6644 
3 6645 6646 6647 
3 6648 6649 6650 
3 6651 6652 6653 
3 6654 6655 6656 
3 6657 6658 6659 
3 6660 6661 6662 
3 6663 6664 6665 
3 6666 6667 6668 
3 6669 6670 6671 
3 6672 6673 6674 
3 6675 6676 6677 
3 6678 6679 6680 
3 6681 6682 6683 
3 6684 6685 6686 
3 6687 6688 6689 
3 6690 6691 6692 
3 6693 6694 6695 
3 6696 6697 6698 
3 6699 6700 6701 
3 6702 6703 6704 
3 6705 6706 6707 
3 6708 6709 6710 
3 6711 6712 6713 
3 6714 6715 6716 
3 6717 6718 6719 
3 6720 6721 6722 
3 6723 6724 6725 
3 6726 6727 6728 
3 6729 6730 6731 
3 6732 6733 6734 
3 6735 6736 6737 
3 6738 6739 6740 
3 6741 6742 6743 
3 6744 6745 6746 
3 6747 6748 6749 
3 6750 6751 6752 
3 6753 6754 6755 
3 6756 6757 6758 
3 6759 6760 6761 
3 6762 6763 6764 
3 6765 6766 6767 
3 6768 6769 6770 
3 6771 6772 6773 
3 6774 6775 6776 
3 6777 6778 6779 
3 6780 6781 6782 
3 6783 6784 6785 
3 6786 6787 6788 
3 6789 6790 6791 
3 6792 6793 6794 
3 6795 6796 6797 
3 6798 6799 6800 
3 6801 6802 6803 
3 6804 6805 6806 
3 6807 6808 6809 
3 6810 6811 6812 
3 6813 6814 6815 
3 6816 6817 6818 
3 6819 6820 6821 
3 6822 6823 6824 
3 6825 6826 6827 
3 6828 6829 6830 
3 6831 6832 6833 
3 6834 6835 6836 
3 6837 6838 6839 
3 6840 6841 6842 
3 6843 6844 6845 
3 6846 6847 6848 
3 6849 6850 6851 
3 6852 6853 6854 
3 6855 6856 6857 
3 6858 6859 6860 
3 6861 6862 6863 
3 6864 6865 6866 
3 6867 6868 6869 
3 6870 6871 6872 
3 6873 6874 6875 
3 6876 6877 6878 
3 6879 6880 6881 
3 6882 6883 6884 
3 6885 6886 6887 
3 6888 6889 6890 
3 6891 6892 6893 
3 6894 6895 6896 
3 6897 6898 6899 
3 6900 6901 6902 
3 6903 6904 6905 
3 6906 6907 6908 
3 6909 6910 6911 
3 6912 6913 6914 
3 6915 6916 6917 
3 6918 6919 6920 
3 6921 6922 6923 
3 6924 6925 6926 
3 6927 6928 6929 
3 6930 6931 6932 
3 6933 6934 6935 
3 6936 6937 6938 
3 6939 6940 6941 
3 6942 6943 6944 
3 6945 6946 6947 
3 6948 6949 6950 
3 6951 6952 6953 
3 6954 6955 6956 
3 6957 6958 6959 
3 6960 6961 6962 
3 6963 6964 6965 
3 6966 6967 6968 
3 6969 6970 6971 
3 6972 6973 6974 
3 6975 6976 6977 
3 6978 6979 6980 
3 6981 6982 6983 
3 6984 6985 6986 
3 6987 6988 6989 
3 6990 6991 6992 
3 6993 6994 6995 
3 6996 6997 6998 
3 6999 7000 7001 
3 7002 7003 7004 
3 7005 7006 7007 
3 7008 7009 7010 
3 7011 7012 7013 
3 7014 7015 7016 
3 7017 7018 7019 
3 7020 7021 7022 
3 7023 7024 7025 
3 7026 7027 7028 
3 7029 7030 7031 
3 7032 7033 7034 
3 7035 7036 7037 
3 7038 7039 7040 
3 7041 7042 7043 
3 7044 7045 7046 
3 7047 7048 7049 
3 7050 7051 7052 
3 7053 7054 7055 
3 7056 7057 7058 
3 7059 7060 7061 
3 7062 7063 7064 
3 7065 7066 7067 
3 7068 7069 7070 
3 7071 7072 7073 
3 7074 7075 7076 
3 7077 7078 7079 
3 7080 7081 7082 
3 7083 7084 7085 
3 7086 7087 7088 
3 7089 7090 7091 
3 7092 7093 7094 
3 7095 7096 7097 
3 7098 7099 7100 
3 7101 7102 7103 
3 7104 7105 7106 
3 7107 7108 7109 
3 7110 7111 7112 
3 7113 7114 7115 
3 7116 7117 7118 
3 7119 7120 7121 
3 7122 7123 7124 
3 7125 7126 7127 
3 7128 7129 7130 
3 7131 7132 7133 
3 7134 7135 7136 
3 7137 7138 7139 
3 7140 7141 7142 
3 7143 7144 7145 
3 7146 7147 7148 
3 7149 7150 7151 
3 7152 7153 7154 
3 7155 7156 7157 
3 7158 7159 7160 
3 7161 7162 7163 
3 7164 7165 7166 
3 7167 7168 7169 
3 7170 7171 7172 
3 7173 7174 7175 
3 7176 7177 7178 
3 7179 7180 7181 
3 7182 7183 7184 
3 7185 7186 7187 
3 7188 7189 7190 
3 7191 7192 7193 
3 7194 7195 7196 
3 7197 7198 7199 
3 7200 7201 7202 
3 7203 7204 7205 
3 7206 7207 7208 
3 7209 7210 7211 
3 7212 7213 7214 
3 7215 7216 7217 
3 7218 7219 7220 
3 7221 7222 7223 
3 7224 7225 7226 
3 7227 7228 7229 
3 7230 7231 7232 
3 7233 7234 7235 
3 7236 7237 7238 
3 7239 7240 7241 
3 7242 7243 7244 
3 7245 7246 7247 
3 7248 7249 7250 
3 7251 7252 7253 
3 7254 7255 7256 
3 7257 7258 7259 
3 7260 7261 7262 
3 7263 7264 7265 
3 7266 7267 7268 
3 7269 7270 7271 
3 7272 7273 7274 
3 7275 7276 7277 
3 7278 7279 7280 
3 7281 7282 7283 
3 7284 7285 7286 
3 7287 7288 7289 
3 7290 7291 7292 
3 7293 7294 7295 
3 7296 7297 7298 
3 7299 7300 7301 
3 7302 7303 7304 
3 7305 7306 7307 
3 7308 7309 7310 
3 7311 7312 7313 
3 7314 7315 7316 
3 7317 7318 7319 
3 7320 7321 7322 
3 7323 7324 7325 
3 7326 7327 7328 
3 7329 7330 7331 
3 7332 7333 7334 
3 7335 7336 7337 
3 7338 7339 7340 
3 7341 7342 7343 
3 7344 7345 7346 
3 7347 7348 7349 
3 7350 7351 7352 
3 7353 7354 7355 
3 7356 7357 7358 
3 7359 7360 7361 
3 7362 7363 7364 
3 7365 7366 7367 
3 7368 7369 7370 
3 7371 7372 7373 
3 7374 7375 7376 
3 7377 7378 7379 
3 7380 7381 7382 
3 7383 7384 7385 
3 7386 7387 7388 
3 7389 7390 7391 
3 7392 7393 7394 
3 7395 7396 7397 
3 7398 7399 7400 
3 7401 7402 7403 
3 7404 7405 7406 
3 7407 7408 7409 
3 7410 7411 7412 
3 7413 7414 7415 
3 7416 7417 7418 
3 7419 7420 7421 
3 7422 7423 7424 
3 7425 7426 7427 
3 7428 7429 7430 
3 7431 7432 7433 
3 7434 7435 7436 
3 7437 7438 7439 
3 7440 7441 7442 
3 7443 7444 7445 
3 7446 7447 7448 
3 7449 7450 7451 
3 7452 7453 7454 
3 7455 7456 7457 
3 7458 7459 7460 
3 7461 7462 7463 
3 7464 7465 7466 
3 7467 7468 7469 
3 7470 7471 7472 
3 7473 7474 7475 
3 7476 7477 7478 
3 7479 7480 7481 
3 7482 7483 7484 
3 7485 7486 7487 
3 7488 7489 7490 
3 7491 7492 7493 
3 7494 7495 7496 
3 7497 7498 7499 
3 7500 7501 7502 
3 7503 7504 7505 
3 7506 7507 7508 
3 7509 7510 7511 
3 7512 7513 7514 
3 7515 7516 7517 
3 7518 7519 7520 
3 7521 7522 7523 
3 7524 7525 7526 
3 7527 7528 7529 
3 7530 7531 7532 
3 7533 7534 7535 
3 7536 7537 7538 
3 7539 7540 7541 
3 7542 7543 7544 
3 7545 7546 7547 
3 7548 7549 7550 
3 7551 7552 7553 
3 7554 7555 7556 
3 7557 7558 7559 
3 7560 7561 7562 
3 7563 7564 7565 
3 7566 7567 7568 
3 7569 7570 7571 
3 7572 7573 7574 
3 7575 7576 7577 
3 7578 7579 7580 
3 7581 7582 7583 
3 7584 7585 7586 
3 7587 7588 7589 
3 7590 7591 7592 
3 7593 7594 7595 
3 7596 7597 7598 
3 7599 7600 7601 
3 7602 7603 7604 
3 7605 7606 7607 
3 7608 7609 7610 
3 7611 7612 7613 
3 7614 7615 7616 
3 7617 7618 7619 
3 7620 7621 7622 
3 7623 7624 7625 
3 7626 7627 7628 
3 7629 7630 7631 
3 7632 7633 7634 
3 7635 7636 7637 
3 7638 7639 7640 
3 7641 7642 7643 
3 7644 7645 7646 
3 7647 7648 7649 
3 7650 7651 7652 
3 7653 7654 7655 
3 7656 7657 7658 
3 7659 7660 7661 
3 7662 7663 7664 
3 7665 7666 7667 
3 7668 7669 7670 
3 7671 7672 7673 
3 7674 7675 7676 
3 7677 7678 7679 
3 7680 7681 7682 
3 7683 7684 7685 
3 7686 7687 7688 
3 7689 7690 7691 
3 7692 7693 7694 
3 7695 7696 7697 
3 7698 7699 7700 
3 7701 7702 7703 
3 7704 7705 7706 
3 7707 7708 7709 
3 7710 7711 7712 
3 7713 7714 7715 
3 7716 7717 7718 
3 7719 7720 7721 
3 7722 7723 7724 
3 7725 7726 7727 
3 7728 7729 7730 
3 7731 7732 7733 
3 7734 7735 7736 
3 7737 7738 7739 
3 7740 7741 7742 
3 7743 7744 7745 
3 7746 7747 7748 
3 7749 7750 7751 
3 7752 7753 7754 
3 7755 7756 7757 
3 7758 7759 7760 
3 7761 7762 7763 
3 7764 7765 7766 
3 7767 7768 7769 
3 7770 7771 7772 
3 7773 7774 7775 
3 7776 7777 7778 
3 7779 7780 7781 
3 7782 7783 7784 
3 7785 7786 7787 
3 7788 7789 7790 
3 7791 7792 7793 
3 7794 7795 7796 
3 7797 7798 7799 
3 7800 7801 7802 
3 7803 7804 7805 
3 7806 7807 7808 
3 7809 7810 7811 
3 7812 7813 7814 
3 7815 7816 7817 
3 7818 7819 7820 
3 7821 7822 7823 
3 7824 7825 7826 
3 7827 7828 7829 
3 7830 7831 7832 
3 7833 7834 7835 
3 7836 7837 7838 
3 7839 7840 7841 
3 7842 7843 7844 
3 7845 7846 7847 
3 7848 7849 7850 
3 7851 7852 7853 
3 7854 7855 7856 
3 7857 7858 7859 
3 7860 7861 7862 
3 7863 7864 7865 
3 7866 7867 7868 
3 7869 7870 7871 
3 7872 7873 7874 
3 7875 7876 7877 
3 7878 7879 7880 
3 7881 7882 7883 
3 7884 7885 7886 
3 7887 7888 7889 
3 7890 7891 7892 
3 7893 7894 7895 
3 7896 7897 7898 
3 7899 7900 7901 
3 7902 7903 7904 
3 7905 7906 7907 
3 7908 7909 7910 
3 7911 7912 7913 
3 7914 7915 7916 
3 7917 7918 7919 
3 7920 7921 7922 
3 7923 7924 7925 
3 7926 7927 7928 
3 7929 7930 7931 
3 7932 7933 7934 
3 7935 7936 7937 
3 7938 7939 7940 
3 7941 7942 7943 
3 7944 7945 7946 
3 7947 7948 7949 
3 7950 7951 7952 
3 7953 7954 7955 
3 7956 7957 7958 
3 7959 7960 7961 
3 7962 7963 7964 
3 7965 7966 7967 
3 7968 7969 7970 
3 7971 7972 7973 
3 7974 7975 7976 
3 7977 7978 7979 
3 7980 7981 7982 
3 7983 7984 7985 
3 7986 7987 7988 
3 7989 7990 7991 
3 7992 7993 7994 
3 7995 7996 7997 
3 7998 7999 8000 
3 8001 8002 8003 
3 8004 8005 8006 
3 8007 8008 8009 
3 8010 8011 8012 
3 8013 8014 8015 
3 8016 8017 8018 
3 8019 8020 8021 
3 8022 8023 8024 
3 8025 8026 8027 
3 8028 8029 8030 
3 8031 8032 8033 
3 8034 8035 8036 
3 8037 8038 8039 
3 8040 8041 8042 
3 8043 8044 8045 
3 8046 8047 8048 
3 8049 8050 8051 
3 8052 8053 8054 
3 8055 8056 8057 
3 8058 8059 8060 
3 8061 8062 8063 
3 8064 8065 8066 
3 8067 8068 8069 
3 8070 8071 8072 
3 8073 8074 8075 
3 8076 8077 8078 
3 8079 8080 8081 
3 8082 8083 8084 
3 8085 8086 8087 
3 8088 8089 8090 
3 8091 8092 8093 
3 8094 8095 8096 
3 8097 8098 8099 
3 8100 8101 8102 
3 8103 8104 8105 
3 8106 8107 8108 
3 8109 8110 8111 
3 8112 8113 8114 
3 8115 8116 8117 
3 8118 8119 8120 
3 8121 8122 8123 
3 8124 8125 8126 
3 8127 8128 8129 
3 8130 8131 8132 
3 8133 8134 8135 
3 8136 8137 8138 
3 8139 8140 8141 
3 8142 8143 8144 
3 8145 8146 8147 
3 8148 8149 8150 
3 8151 8152 8153 
3 8154 8155 8156 
3 8157 8158 8159 
3 8160 8161 8162 
3 8163 8164 8165 
3 8166 8167 8168 
3 8169 8170 8171 
3 8172 8173 8174 
3 8175 8176 8177 
3 8178 8179 8180 
3 8181 8182 8183 
3 8184 8185 8186 
3 8187 8188 8189 
3 8190 8191 8192 
3 8193 8194 8195 
3 8196 8197 8198 
3 8199 8200 8201 
3 8202 8203 8204 
3 8205 8206 8207 
3 8208 8209 8210 
3 8211 8212 8213 
3 8214 8215 8216 
3 8217 8218 8219 
3 8220 8221 8222 
3 8223 8224 8225 
3 8226 8227 8228 
3 8229 8230 8231 
3 8232 8233 8234 
3 8235 8236 8237 
3 8238 8239 8240 
3 8241 8242 8243 
3 8244 8245 8246 
3 8247 8248 8249 
3 8250 8251 8252 
3 8253 8254 8255 
3 8256 8257 8258 
3 8259 8260 8261 
3 8262 8263 8264 
3 8265 8266 8267 
3 8268 8269 8270 
3 8271 8272 8273 
3 8274 8275 8276 
3 8277 8278 8279 
3 8280 8281 8282 
3 8283 8284 8285 
3 8286 8287 8288 
3 8289 8290 8291 
3 8292 8293 8294 
3 8295 8296 8297 
3 8298 8299 8300 
3 8301 8302 8303 
3 8304 8305 8306 
3 8307 8308 8309 
3 8310 8311 8312 
3 8313 8314 8315 
3 8316 8317 8318 
3 8319 8320 8321 
3 8322 8323 8324 
3 8325 8326 8327 
3 8328 8329 8330 
3 8331 8332 8333 
3 8334 8335 8336 
3 8337 8338 8339 
3 8340 8341 8342 
3 8343 8344 8345 
3 8346 8347 8348 
3 8349 8350 8351 
3 8352 8353 8354 
3 8355 8356 8357 
3 8358 8359 8360 
3 8361 8362 8363 
3 8364 8365 8366 
3 8367 8368 8369 
3 8370 8371 8372 
3 8373 8374 8375 
3 8376 8377 8378 
3 8379 8380 8381 
3 8382 8383 8384 
3 8385 8386 8387 
3 8388 8389 8390 
3 8391 8392 8393 
3 8394 8395 8396 
3 8397 8398 8399 
3 8400 8401 8402 
3 8403 8404 8405 
3 8406 8407 8408 
3 8409 8410 8411 
3 8412 8413 8414 
3 8415 8416 8417 
3 8418 8419 8420 
3 8421 8422 8423 
3 8424 8425 8426 
3 8427 8428 8429 
3 8430 8431 8432 
3 8433 8434 8435 
3 8436 8437 8438 
3 8439 8440 8441 
3 8442 8443 8444 
3 8445 8446 8447 
3 8448 8449 8450 
3 8451 8452 8453 
3 8454 8455 8456 
3 8457 8458 8459 
3 8460 8461 8462 
3 8463 8464 8465 
3 8466 8467 8468 
3 8469 8470 8471 
3 8472 8473 8474 
3 8475 8476 8477 
3 8478 8479 8480 
3 8481 8482 8483 
3 8484 8485 8486 
3 8487 8488 8489 
3 8490 8491 8492 
3 8493 8494 8495 
3 8496 8497 8498 
3 8499 8500 8501 
3 8502 8503 8504 
3 8505 8506 8507 
3 8508 8509 8510 
3 8511 8512 8513 
3 8514 8515 8516 
3 8517 8518 8519 
3 8520 8521 8522 
3 8523 8524 8525 
3 8526 8527 8528 
3 8529 8530 8531 
3 8532 8533 8534 
3 8535 8536 8537 
3 8538 8539 8540 
3 8541 8542 8543 
3 8544 8545 8546 
3 8547 8548 8549 
3 8550 8551 8552 
3 8553 8554 8555 
3 8556 8557 8558 
3 8559 8560 8561 
3 8562 8563 8564 
3 8565 8566 8567 
3 8568 8569 8570 
3 8571 8572 8573 
3 8574 8575 8576 
3 8577 8578 8579 
3 8580 8581 8582 
3 8583 8584 8585 
3 8586 8587 8588 
3 8589 8590 8591 
3 8592 8593 8594 
3 8595 8596 8597 
3 8598 8599 8600 
3 8601 8602 8603 
3 8604 8605 8606 
3 8607 8608 8609 
3 8610 8611 8612 
3 8613 8614 8615 
3 8616 8617 8618 
3 8619 8620 8621 
3 8622 8623 8624 
3 8625 8626 8627 
3 8628 8629 8630 
3 8631 8632 8633 
3 8634 8635 8636 
3 8637 8638 8639 
3 8640 8641 8642 
3 8643 8644 8645 
3 8646 8647 8648 
3 8649 8650 8651 
3 8652 8653 8654 
3 8655 8656 8657 
3 8658 8659 8660 
3 8661 8662 8663 
3 8664 8665 8666 
3 8667 8668 8669 
3 8670 8671 8672 
3 8673 8674 8675 
3 8676 8677 8678 
3 8679 8680 8681 
3 8682 8683 8684 
3 8685 8686 8687 
3 8688 8689 8690 
3 8691 8692 8693 
3 8694 8695 8696 
3 8697 8698 8699 
3 8700 8701 8702 
3 8703 8704 8705 
3 8706 8707 8708 
3 8709 8710 8711 
3 8712 8713 8714 
3 8715 8716 8717 
3 8718 8719 8720 
3 8721 8722 8723 
3 8724 8725 8726 
3 8727 8728 8729 
3 8730 8731 8732 
3 8733 8734 8735 
3 8736 8737 8738 
3 8739 8740 8741 
3 8742 8743 8744 
3 8745 8746 8747 
3 8748 8749 8750 
3 8751 8752 8753 
3 8754 8755 8756 
3 8757 8758 8759 
3 8760 8761 8762 
3 8763 8764 8765 
3 8766 8767 8768 
3 8769 8770 8771 
3 8772 8773 8774 
3 8775 8776 8777 
3 8778 8779 8780 
3 8781 8782 8783 
3 8784 8785 8786 
3 8787 8788 8789 
3 8790 8791 8792 
3 8793 8794 8795 
3 8796 8797 8798 
3 8799 8800 8801 
3 8802 8803 8804 
3 8805 8806 8807 
3 8808 8809 8810 
3 8811 8812 8813 
3 8814 8815 8816 
3 8817 8818 8819 
3 8820 8821 8822 
3 8823 8824 8825 
3 8826 8827 8828 
3 8829 8830 8831 
3 8832 8833 8834 
3 8835 8836 8837 
3 8838 8839 8840 
3 8841 8842 8843 
3 8844 8845 8846 
3 8847 8848 8849 
3 8850 8851 8852 
3 8853 8854 8855 
3 8856 8857 8858 
3 8859 8860 8861 
3 8862 8863 8864 
3 8865 8866 8867 
3 8868 8869 8870 
3 8871 8872 8873 
3 8874 8875 8876 
3 8877 8878 8879 
3 8880 8881 8882 
3 8883 8884 8885 
3 8886 8887 8888 
3 8889 8890 8891 
3 8892 8893 8894 
3 8895 8896 8897 
3 8898 8899 8900 
3 8901 8902 8903 
3 8904 8905 8906 
3 8907 8908 8909 
3 8910 8911 8912 
3 8913 8914 8915 
3 8916 8917 8918 
3 8919 8920 8921 
3 8922 8923 8924 
3 8925 8926 8927 
3 8928 8929 8930 
3 8931 8932 8933 
3 8934 8935 8936 
3 8937 8938 8939 
3 8940 8941 8942 
3 8943 8944 8945 
3 8946 8947 8948 
3 8949 8950 8951 
3 8952 8953 8954 
3 8955 8956 8957 
3 8958 8959 8960 
3 8961 8962 8963 
3 8964 8965 8966 
3 8967 8968 8969 
3 8970 8971 8972 
3 8973 8974 8975 
3 8976 8977 8978 
3 8979 8980 8981 
3 8982 8983 8984 
3 8985 8986 8987 
3 8988 8989 8990 
3 8991 8992 8993 
3 8994 8995 8996 
3 8997 8998 8999 
3 9000 9001 9002 
3 9003 9004 9005 
3 9006 9007 9008 
3 9009 9010 9011 
3 9012 9013 9014 
3 9015 9016 9017 
3 9018 9019 9020 
3 9021 9022 9023 
3 9024 9025 9026 
3 9027 9028 9029 
3 9030 9031 9032 
3 9033 9034 9035 
3 9036 9037 9038 
3 9039 9040 9041 
3 9042 9043 9044 
3 9045 9046 9047 
3 9048 9049 9050 
3 9051 9052 9053 
3 9054 9055 9056 
3 9057 9058 9059 
3 9060 9061 9062 
3 9063 9064 9065 
3 9066 9067 9068 
3 9069 9070 9071 
3 9072 9073 9074 
3 9075 9076 9077 
3 9078 9079 9080 
3 9081 9082 9083 
3 9084 9085 9086 
3 9087 9088 9089 
3 9090 9091 9092 
3 9093 9094 9095 
3 9096 9097 9098 
3 9099 9100 9101 
3 9102 9103 9104 
3 9105 9106 9107 
3 9108 9109 9110 
3 9111 9112 9113 
3 9114 9115 9116 
3 9117 9118 9119 
3 9120 9121 9122 
3 9123 9124 9125 
3 9126 9127 9128 
3 9129 9130 9131 
3 9132 9133 9134 
3 9135 9136 9137 
3 9138 9139 9140 
3 9141 9142 9143 
3 9144 9145 9146 
3 9147 9148 9149 
3 9150 9151 9152 
3 9153 9154 9155 
3 9156 9157 9158 
3 9159 9160 9161 
3 9162 9163 9164 
3 9165 9166 9167 
3 9168 9169 9170 
3 9171 9172 9173 
3 9174 9175 9176 
3 9177 9178 9179 
3 9180 9181 9182 
3 9183 9184 9185 
3 9186 9187 9188 
3 9189 9190 9191 
3 9192 9193 9194 
3 9195 9196 9197 
3 9198 9199 9200 
3 9201 9202 9203 
3 9204 9205 9206 
3 9207 9208 9209 
3 9210 9211 9212 
3 9213 9214 9215 
3 9216 9217 9218 
3 9219 9220 9221 
3 9222 9223 9224 
3 9225 9226 9227 
3 9228 9229 9230 
3 9231 9232 9233 
3 9234 9235 9236 
3 9237 9238 9239 
3 9240 9241 9242 
3 9243 9244 9245 
3 9246 9247 9248 
3 9249 9250 9251 
3 9252 9253 9254 
3 9255 9256 9257 
3 9258 9259 9260 
3 9261 9262 9263 
3 9264 9265 9266 
3 9267 9268 9269 
3 9270 9271 9272 
3 9273 9274 9275 
3 9276 9277 9278 
3 9279 9280 9281 
3 9282 9283 9284 
3 9285 9286 9287 
3 9288 9289 9290 
3 9291 9292 9293 
3 9294 9295 9296 
3 9297 9298 9299 
3 9300 9301 9302 
3 9303 9304 9305 
3 9306 9307 9308 
3 9309 9310 9311 
3 9312 9313 9314 
3 9315 9316 9317 
3 9318 9319 9320 
3 9321 9322 9323 
3 9324 9325 9326 
3 9327 9328 9329 
3 9330 9331 9332 
3 9333 9334 9335 
3 9336 9337 9338 
3 9339 9340 9341 
3 9342 9343 9344 
3 9345 9346 9347 
3 9348 9349 9350 
3 9351 9352 9353 
3 9354 9355 9356 
3 9357 9358 9359 
3 9360 9361 9362 
3 9363 9364 9365 
3 9366 9367 9368 
3 9369 9370 9371 
3 9372 9373 9374 
3 9375 9376 9377 
3 9378 9379 9380 
3 9381 9382 9383 
3 9384 9385 9386 
3 9387 9388 9389 
3 9390 9391 9392 
3 9393 9394 9395 
3 9396 9397 9398 
3 9399 9400 9401 
3 9402 9403 9404 
3 9405 9406 9407 
3 9408 9409 9410 
3 9411 9412 9413 
3 9414 9415 9416 
3 9417 9418 9419 
3 9420 9421 9422 
3 9423 9424 9425 
3 9426 9427 9428 
3 9429 9430 9431 
3 9432 9433 9434 
3 9435 9436 9437 
3 9438 9439 9440 
3 9441 9442 9443 
3 9444 9445 9446 
3 9447 9448 9449 
3 9450 9451 9452 
3 9453 9454 9455 
3 9456 9457 9458 
3 9459 9460 9461 
3 9462 9463 9464 
3 9465 9466 9467 
3 9468 9469 9470 
3 9471 9472 9473 
3 9474 9475 9476 
3 9477 9478 9479 
3 9480 9481 9482 
3 9483 9484 9485 
3 9486 9487 9488 
3 9489 9490 9491 
3 9492 9493 9494 
3 9495 9496 9497 
3 9498 9499 9500 
3 9501 9502 9503 
3 9504 9505 9506 
3 9507 9508 9509 
3 9510 9511 9512 
3 9513 9514 9515 
3 9516 9517 9518 
3 9519 9520 9521 
3 9522 9523 9524 
3 9525 9526 9527 
3 9528 9529 9530 
3 9531 9532 9533 
3 9534 9535 9536 
3 9537 9538 9539 
3 9540 9541 9542 
3 9543 9544 9545 
3 9546 9547 9548 
3 9549 9550 9551 
3 9552 9553 9554 
3 9555 9556 9557 
3 9558 9559 9560 
3 9561 9562 9563 
3 9564 9565 9566 
3 9567 9568 9569 
3 9570 9571 9572 
3 9573 9574 9575 
3 9576 9577 9578 
3 9579 9580 9581 
3 9582 9583 9584 
3 9585 9586 9587 
3 9588 9589 9590 
3 9591 9592 9593 
3 9594 9595 9596 
3 9597 9598 9599 
3 9600 9601 9602 
3 9603 9604 9605 
3 9606 9607 9608 
3 9609 9610 9611 
3 9612 9613 9614 
3 9615 9616 9617 
3 9618 9619 9620 
3 9621 9622 9623 
3 9624 9625 9626 
3 9627 9628 9629 
3 9630 9631 9632 
3 9633 9634 9635 
3 9636 9637 9638 
3 9639 9640 9641 
3 9642 9643 9644 
3 9645 9646 9647 
3 9648 9649 9650 
3 9651 9652 9653 
3 9654 9655 9656 
3 9657 9658 9659 
3 9660 9661 9662 
3 9663 9664 9665 
3 9666 9667 9668 
3 9669 9670 9671 
3 9672 9673 9674 
3 9675 9676 9677 
3 9678 9679 9680 
3 9681 9682 9683 
3 9684 9685 9686 
3 9687 9688 9689 
3 9690 9691 9692 
3 9693 9694 9695 
3 9696 9697 9698 
3 9699 9700 9701 
3 9702 9703 9704 
3 9705 9706 9707 
3 9708 9709 9710 
3 9711 9712 9713 
3 9714 9715 9716 
3 9717 9718 9719 
3 9720 9721 9722 
3 9723 9724 9725 
3 9726 9727 9728 
3 9729 9730 9731 
3 9732 9733 9734 
3 9735 9736 9737 
3 9738 9739 9740 
3 9741 9742 9743 
3 9744 9745 9746 
3 9747 9748 9749 
3 9750 9751 9752 
3 9753 9754 9755 
3 9756 9757 9758 
3 9759 9760 9761 
3 9762 9763 9764 
3 9765 9766 9767 
3 9768 9769 9770 
3 9771 9772 9773 
3 9774 9775 9776 
3 9777 9778 9779 
3 9780 9781 9782 
3 9783 9784 9785 
3 9786 9787 9788 
3 9789 9790 9791 
3 9792 9793 9794 
3 9795 9796 9797 
3 9798 9799 9800 
3 9801 9802 9803 
3 9804 9805 9806 
3 9807 9808 9809 
3 9810 9811 9812 
3 9813 9814 9815 
3 9816 9817 9818 
3 9819 9820 9821 
3 9822 9823 9824 
3 9825 9826 9827 
3 9828 9829 9830 
3 9831 9832 9833 
3 9834 9835 9836 
3 9837 9838 9839 
3 9840 9841 9842 
3 9843 9844 9845 
3 9846 9847 9848 
3 9849 9850 9851 
3 9852 9853 9854 
3 9855 9856 9857 
3 9858 9859 9860 
3 9861 9862 9863 
3 9864 9865 9866 
3 9867 9868 9869 
3 9870 9871 9872 
3 9873 9874 9875 
3 9876 9877 9878 
3 9879 9880 9881 
3 9882 9883 9884 
3 9885 9886 9887 
3 9888 9889 9890 
3 9891 9892 9893 
3 9894 9895 9896 
3 9897 9898 9899 
3 9900 9901 9902 
3 9903 9904 9905 
3 9906 9907 9908 
3 9909 9910 9911 
3 9912 9913 9914 
3 9915 9916 9917 
3 9918 9919 9920 
3 9921 9922 9923 
3 9924 9925 9926 
3 9927 9928 9929 
3 9930 9931 9932 
3 9933 9934 9935 
3 9936 9937 9938 
3 9939 9940 9941 
3 9942 9943 9944 
3 9945 9946 9947 
3 9948 9949 9950 
3 9951 9952 9953 
3 9954 9955 9956 
3 9957 9958 9959 
3 9960 9961 9962 
3 9963 9964 9965 
3 9966 9967 9968 
3 9969 9970 9971 
3 9972 9973 9974 
3 9975 9976 9977 
3 9978 9979 9980 
3 9981 9982 9983 
3 9984 9985 9986 
3 9987 9988 9989 
3 9990 9991 9992 
3 9993 9994 9995 
3 9996 9997 9998 
3 9999 10000 10001 
3 10002 10003 10004 
3 10005 10006 10007 
3 10008 10009 10010 
3 10011 10012 10013 
3 10014 10015 10016 
3 10017 10018 10019 
3 10020 10021 10022 
3 10023 10024 10025 
3 10026 10027 10028 
3 10029 10030 10031 
3 10032 10033 10034 
3 10035 10036 10037 
3 10038 10039 10040 
3 10041 10042 10043 
3 10044 10045 10046 
3 10047 10048 10049 
3 10050 10051 10052 
3 10053 10054 10055 
3 10056 10057 10058 
3 10059 10060 10061 
3 10062 10063 10064 
3 10065 10066 10067 
3 10068 10069 10070 
3 10071 10072 10073 
3 10074 10075 10076 
3 10077 10078 10079 
3 10080 10081 10082 
3 10083 10084 10085 
3 10086 10087 10088 
3 10089 10090 10091 
3 10092 10093 10094 
3 10095 10096 10097 
3 10098 10099 10100 
3 10101 10102 10103 
3 10104 10105 10106 
3 10107 10108 10109 
3 10110 10111 10112 
3 10113 10114 10115 
3 10116 10117 10118 
3 10119 10120 10121 
3 10122 10123 10124 
3 10125 10126 10127 
3 10128 10129 10130 
3 10131 10132 10133 
3 10134 10135 10136 
3 10137 10138 10139 
3 10140 10141 10142 
3 10143 10144 10145 
3 10146 10147 10148 
3 10149 10150 10151 
3 10152 10153 10154 
3 10155 10156 10157 
3 10158 10159 10160 
3 10161 10162 10163 
3 10164 10165 10166 
3 10167 10168 10169 
3 10170 10171 10172 
3 10173 10174 10175 
3 10176 10177 10178 
3 10179 10180 10181 
3 10182 10183 10184 
3 10185 10186 10187 
3 10188 10189 10190 
3 10191 10192 10193 
3 10194 10195 10196 
3 10197 10198 10199 
3 10200 10201 10202 
3 10203 10204 10205 
3 10206 10207 10208 
3 10209 10210 10211 
3 10212 10213 10214 
3 10215 10216 10217 
3 10218 10219 10220 
3 10221 10222 10223 
3 10224 10225 10226 
3 10227 10228 10229 
3 10230 10231 10232 
3 10233 10234 10235 
3 10236 10237 10238 
3 10239 10240 10241 
3 10242 10243 10244 
3 10245 10246 10247 
3 10248 10249 10250 
3 10251 10252 10253 
3 10254 10255 10256 
3 10257 10258 10259 
3 10260 10261 10262 
3 10263 10264 10265 
3 10266 10267 10268 
3 10269 10270 10271 
3 10272 10273 10274 
3 10275 10276 10277 
3 10278 10279 10280 
3 10281 10282 10283 
3 10284 10285 10286 
3 10287 10288 10289 
3 10290 10291 10292 
3 10293 10294 10295 
3 10296 10297 10298 
3 10299 10300 10301 
3 10302 10303 10304 
3 10305 10306 10307 
3 10308 10309 10310 
3 10311 10312 10313 
3 10314 10315 10316 
3 10317 10318 10319 
3 10320 10321 10322 
3 10323 10324 10325 
3 10326 10327 10328 
3 10329 10330 10331 
3 10332 10333 10334 
3 10335 10336 10337 
3 10338 10339 10340 
3 10341 10342 10343 
3 10344 10345 10346 
3 10347 10348 10349 
3 10350 10351 10352 
3 10353 10354 10355 
3 10356 10357 10358 
3 10359 10360 10361 
3 10362 10363 10364 
3 10365 10366 10367 
3 10368 10369 10370 
3 10371 10372 10373 
3 10374 10375 10376 
3 10377 10378 10379 
3 10380 10381 10382 
3 10383 10384 10385 
3 10386 10387 10388 
3 10389 10390 10391 
3 10392 10393 10394 
3 10395 10396 10397 
3 10398 10399 10400 
3 10401 10402 10403 
3 10404 10405 10406 
3 10407 10408 10409 
3 10410 10411 10412 
3 10413 10414 10415 
3 10416 10417 10418 
3 10419 10420 10421 
3 10422 10423 10424 
3 10425 10426 10427 
3 10428 10429 10430 
3 10431 10432 10433 
3 10434 10435 10436 
3 10437 10438 10439 
3 10440 10441 10442 
3 10443 10444 10445 
3 10446 10447 10448 
3 10449 10450 10451 
3 10452 10453 10454 
3 10455 10456 10457 
3 10458 10459 10460 
3 10461 10462 10463 
3 10464 10465 10466 
3 10467 10468 10469 
3 10470 10471 10472 
3 10473 10474 10475 
3 10476 10477 10478 
3 10479 10480 10481 
3 10482 10483 10484 
3 10485 10486 10487 
3 10488 10489 10490 
3 10491 10492 10493 
3 10494 10495 10496 
3 10497 10498 10499 
3 10500 10501 10502 
3 10503 10504 10505 
3 10506 10507 10508 
3 10509 10510 10511 
3 10512 10513 10514 
3 10515 10516 10517 
3 10518 10519 10520 
3 10521 10522 10523 
3 10524 10525 10526 
3 10527 10528 10529 
3 10530 10531 10532 
3 10533 10534 10535 
3 10536 10537 10538 
3 10539 10540 10541 
3 10542 10543 10544 
3 10545 10546 10547 
3 10548 10549 10550 
3 10551 10552 10553 
3 10554 10555 10556 
3 10557 10558 10559 
3 10560 10561 10562 
3 10563 10564 10565 
3 10566 10567 10568 
3 10569 10570 10571 
3 10572 10573 10574 
3 10575 10576 10577 
3 10578 10579 10580 
3 10581 10582 10583 
3 10584 10585 10586 
3 10587 10588 10589 
3 10590 10591 10592 
3 10593 10594 10595 
3 10596 10597 10598 
3 10599 10600 10601 
3 10602 10603 10604 
3 10605 10606 10607 
3 10608 10609 10610 
3 10611 10612 10613 
3 10614 10615 10616 
3 10617 10618 10619 
3 10620 10621 10622 
3 10623 10624 10625 
3 10626 10627 10628 
3 10629 10630 10631 
3 10632 10633 10634 
3 10635 10636 10637 
3 10638 10639 10640 
3 10641 10642 10643 
3 10644 10645 10646 
3 10647 10648 10649 
3 10650 10651 10652 
3 10653 10654 10655 
3 10656 10657 10658 
3 10659 10660 10661 
3 10662 10663 10664 
3 10665 10666 10667 
3 10668 10669 10670 
3 10671 10672 10673 
3 10674 10675 10676 
3 10677 10678 10679 
3 10680 10681 10682 
3 10683 10684 10685 
3 10686 10687 10688 
3 10689 10690 10691 
3 10692 10693 10694 
3 10695 10696 10697 
3 10698 10699 10700 
3 10701 10702 10703 
3 10704 10705 10706 
3 10707 10708 10709 
3 10710 10711 10712 
3 10713 10714 10715 
3 10716 10717 10718 
3 10719 10720 10721 
3 10722 10723 10724 
3 10725 10726 10727 
3 10728 10729 10730 
3 10731 10732 10733 
3 10734 10735 10736 
3 10737 10738 10739 
3 10740 10741 10742 
3 10743 10744 10745 
3 10746 10747 10748 
3 10749 10750 10751 
3 10752 10753 10754 
3 10755 10756 10757 
3 10758 10759 10760 
3 10761 10762 10763 
3 10764 10765 10766 
3 10767 10768 10769 
3 10770 10771 10772 
3 10773 10774 10775 
3 10776 10777 10778 
3 10779 10780 10781 
3 10782 10783 10784 
3 10785 10786 10787 
3 10788 10789 10790 
3 10791 10792 10793 
3 10794 10795 10796 
3 10797 10798 10799 
3 10800 10801 10802 
3 10803 10804 10805 
3 10806 10807 10808 
3 10809 10810 10811 
3 10812 10813 10814 
3 10815 10816 10817 
3 10818 10819 10820 
3 10821 10822 10823 
3 10824 10825 10826 
3 10827 10828 10829 
3 10830 10831 10832 
3 10833 10834 10835 
3 10836 10837 10838 
3 10839 10840 10841 
3 10842 10843 10844 
3 10845 10846 10847 
3 10848 10849 10850 
3 10851 10852 10853 
3 10854 10855 10856 
3 10857 10858 10859 
3 10860 10861 10862 
3 10863 10864 10865 
3 10866 10867 10868 
3 10869 10870 10871 
3 10872 10873 10874 
3 10875 10876 10877 
3 10878 10879 10880 
3 10881 10882 10883 
3 10884 10885 10886 
3 10887 10888 10889 
3 10890 10891 10892 
3 10893 10894 10895 
3 10896 10897 10898 
3 10899 10900 10901 
3 10902 10903 10904 
3 10905 10906 10907 
3 10908 10909 10910 
3 10911 10912 10913 
3 10914 10915 10916 
3 10917 10918 10919 
3 10920 10921 10922 
3 10923 10924 10925 
3 10926 10927 10928 
3 10929 10930 10931 
3 10932 10933 10934 
3 10935 10936 10937 
3 10938 10939 10940 
3 10941 10942 10943 
3 10944 10945 10946 
3 10947 10948 10949 
3 10950 10951 10952 
3 10953 10954 10955 
3 10956 10957 10958 
3 10959 10960 10961 
3 10962 10963 10964 
3 10965 10966 10967 
3 10968 10969 10970 
3 10971 10972 10973 
3 10974 10975 10976 
3 10977 10978 10979 
3 10980 10981 10982 
3 10983 10984 10985 
3 10986 10987 10988 
3 10989 10990 10991 
3 10992 10993 10994 
3 10995 10996 10997 
3 10998 10999 11000 
3 11001 11002 11003 
3 11004 11005 11006 
3 11007 11008 11009 
3 11010 11011 11012 
3 11013 11014 11015 
3 11016 11017 11018 
3 11019 11020 11021 
3 11022 11023 11024 
3 11025 11026 11027 
3 11028 11029 11030 
3 11031 11032 11033 
3 11034 11035 11036 
3 11037 11038 11039 
3 11040 11041 11042 
3 11043 11044 11045 
3 11046 11047 11048 
3 11049 11050 11051 
3 11052 11053 11054 
3 11055 11056 11057 
3 11058 11059 11060 
3 11061 11062 11063 
3 11064 11065 11066 
3 11067 11068 11069 
3 11070 11071 11072 
3 11073 11074 11075 
3 11076 11077 11078 
3 11079 11080 11081 
3 11082 11083 11084 
3 11085 11086 11087 
3 11088 11089 11090 
3 11091 11092 11093 
3 11094 11095 11096 
3 11097 11098 11099 
3 11100 11101 11102 
3 11103 11104 11105 
3 11106 11107 11108 
3 11109 11110 11111 
3 11112 11113 11114 
3 11115 11116 11117 
3 11118 11119 11120 
3 11121 11122 11123 
3 11124 11125 11126 
3 11127 11128 11129 
3 11130 11131 11132 
3 11133 11134 11135 
3 11136 11137 11138 
3 11139 11140 11141 
3 11142 11143 11144 
3 11145 11146 11147 
3 11148 11149 11150 
3 11151 11152 11153 
3 11154 11155 11156 
3 11157 11158 11159 
3 11160 11161 11162 
3 11163 11164 11165 
3 11166 11167 11168 
3 11169 11170 11171 
3 11172 11173 11174 
3 11175 11176 11177 
3 11178 11179 11180 
3 11181 11182 11183 
3 11184 11185 11186 
3 11187 11188 11189 
3 11190 11191 11192 
3 11193 11194 11195 
3 11196 11197 11198 
3 11199 11200 11201 
3 11202 11203 11204 
3 11205 11206 11207 
3 11208 11209 11210 
3 11211 11212 11213 
3 11214 11215 11216 
3 11217 11218 11219 
3 11220 11221 11222 
3 11223 11224 11225 
3 11226 11227 11228 
3 11229 11230 11231 
3 11232 11233 11234 
3 11235 11236 11237 
3 11238 11239 11240 
3 11241 11242 11243 
3 11244 11245 11246 
3 11247 11248 11249 
3 11250 11251 11252 
3 11253 11254 11255 
3 11256 11257 11258 
3 11259 11260 11261 
3 11262 11263 11264 
3 11265 11266 11267 
3 11268 11269 11270 
3 11271 11272 11273 
3 11274 11275 11276 
3 11277 11278 11279 
3 11280 11281 11282 
3 11283 11284 11285 
3 11286 11287 11288 
3 11289 11290 11291 
3 11292 11293 11294 
3 11295 11296 11297 
3 11298 11299 11300 
3 11301 11302 11303 
3 11304 11305 11306 
3 11307 11308 11309 
3 11310 11311 11312 
3 11313 11314 11315 
3 11316 11317 11318 
3 11319 11320 11321 
3 11322 11323 11324 
3 11325 11326 11327 
3 11328 11329 11330 
3 11331 11332 11333 
3 11334 11335 11336 
3 11337 11338 11339 
3 11340 11341 11342 
3 11343 11344 11345 
3 11346 11347 11348 
3 11349 11350 11351 
3 11352 11353 11354 
3 11355 11356 11357 
3 11358 11359 11360 
3 11361 11362 11363 
3 11364 11365 11366 
3 11367 11368 11369 
3 11370 11371 11372 
3 11373 11374 11375 
3 11376 11377 11378 
3 11379 11380 11381 
3 11382 11383 11384 
3 11385 11386 11387 
3 11388 11389 11390 
3 11391 11392 11393 
3 11394 11395 11396 
3 11397 11398 11399 
3 11400 11401 11402 
3 11403 11404 11405 
3 11406 11407 11408 
3 11409 11410 11411 
3 11412 11413 11414 
3 11415 11416 11417 
3 11418 11419 11420 
3 11421 11422 11423 
3 11424 11425 11426 
3 11427 11428 11429 
3 11430 11431 11432 
3 11433 11434 11435 
3 11436 11437 11438 
3 11439 11440 11441 
3 11442 11443 11444 
3 11445 11446 11447 
3 11448 11449 11450 
3 11451 11452 11453 
3 11454 11455 11456 
3 11457 11458 11459 
3 11460 11461 11462 
3 11463 11464 11465 
3 11466 11467 11468 
3 11469 11470 11471 
3 11472 11473 11474 
3 11475 11476 11477 
3 11478 11479 11480 
3 11481 11482 11483 
3 11484 11485 11486 
3 11487 11488 11489 
3 11490 11491 11492 
3 11493 11494 11495 
3 11496 11497 11498 
3 11499 11500 11501 
3 11502 11503 11504 
3 11505 11506 11507 
3 11508 11509 11510 
3 11511 11512 11513 
3 11514 11515 11516 
3 11517 11518 11519 
3 11520 11521 11522 
3 11523 11524 11525 
3 11526 11527 11528 
3 11529 11530 11531 
3 11532 11533 11534 
3 11535 11536 11537 
3 11538 11539 11540 
3 11541 11542 11543 
3 11544 11545 11546 
3 11547 11548 11549 
3 11550 11551 11552 
3 11553 11554 11555 
3 11556 11557 11558 
3 11559 11560 11561 
3 11562 11563 11564 
3 11565 11566 11567 
3 11568 11569 11570 
3 11571 11572 11573 
3 11574 11575 11576 
3 11577 11578 11579 
3 11580 11581 11582 
3 11583 11584 11585 
3 11586 11587 11588 
3 11589 11590 11591 
3 11592 11593 11594 
3 11595 11596 11597 
3 11598 11599 11600 
3 11601 11602 11603 
3 11604 11605 11606 
3 11607 11608 11609 
3 11610 11611 11612 
3 11613 11614 11615 
3 11616 11617 11618 
3 11619 11620 11621 
3 11622 11623 11624 
3 11625 11626 11627 
3 11628 11629 11630 
3 11631 11632 11633 
3 11634 11635 11636 
3 11637 11638 11639 
3 11640 11641 11642 
3 11643 11644 11645 
3 11646 11647 11648 
3 11649 11650 11651 
3 11652 11653 11654 
3 11655 11656 11657 
3 11658 11659 11660 
3 11661 11662 11663 
3 11664 11665 11666 
3 11667 11668 11669 
3 11670 11671 11672 
3 11673 11674 11675 
3 11676 11677 11678 
3 11679 11680 11681 
3 11682 11683 11684 
3 11685 11686 11687 
3 11688 11689 11690 
3 11691 11692 11693 
3 11694 11695 11696 
3 11697 11698 11699 
3 11700 11701 11702 
3 11703 11704 11705 
3 11706 11707 11708 
3 11709 11710 11711 
3 11712 11713 11714 
3 11715 11716 11717 
3 11718 11719 11720 
3 11721 11722 11723 
3 11724 11725 11726 
3 11727 11728 11729 
3 11730 11731 11732 
3 11733 11734 11735 
3 11736 11737 11738 
3 11739 11740 11741 
3 11742 11743 11744 
3 11745 11746 11747 
3 11748 11749 11750 
3 11751 11752 11753 
3 11754 11755 11756 
3 11757 11758 11759 
3 11760 11761 11762 
3 11763 11764 11765 
3 11766 11767 11768 
3 11769 11770 11771 
3 11772 11773 11774 
3 11775 11776 11777 
3 11778 11779 11780 
3 11781 11782 11783 
3 11784 11785 11786 
3 11787 11788 11789 
3 11790 11791 11792 
3 11793 11794 11795 
3 11796 11797 11798 
3 11799 11800 11801 
3 11802 11803 11804 
3 11805 11806 11807 
3 11808 11809 11810 
3 11811 11812 11813 
3 11814 11815 11816 
3 11817 11818 11819 
3 11820 11821 11822 
3 11823 11824 11825 
3 11826 11827 11828 
3 11829 11830 11831 
3 11832 11833 11834 
3 11835 11836 11837 
3 11838 11839 11840 
3 11841 11842 11843 
3 11844 11845 11846 
3 11847 11848 11849 
3 11850 11851 11852 
3 11853 11854 11855 
3 11856 11857 11858 
3 11859 11860 11861 
3 11862 11863 11864 
3 11865 11866 11867 
3 11868 11869 11870 
3 11871 11872 11873 
3 11874 11875 11876 
3 11877 11878 11879 
3 11880 11881 11882 
3 11883 11884 11885 
3 11886 11887 11888 
3 11889 11890 11891 
3 11892 11893 11894 
3 11895 11896 11897 
3 11898 11899 11900 
3 11901 11902 11903 
3 11904 11905 11906 
3 11907 11908 11909 
3 11910 11911 11912 
3 11913 11914 11915 
3 11916 11917 11918 
3 11919 11920 11921 
3 11922 11923 11924 
3 11925 11926 11927 
3 11928 11929 11930 
3 11931 11932 11933 
3 11934 11935 11936 
3 11937 11938 11939 
3 11940 11941 11942 
3 11943 11944 11945 
3 11946 11947 11948 
3 11949 11950 11951 
3 11952 11953 11954 
3 11955 11956 11957 
3 11958 11959 11960 
3 11961 11962 11963 
3 11964 11965 11966 
3 11967 11968 11969 
3 11970 11971 11972 
3 11973 11974 11975 
3 11976 11977 11978 
3 11979 11980 11981 
3 11982 11983 11984 
3 11985 11986 11987 
3 11988 11989 11990 
3 11991 11992 11993 
3 11994 11995 11996 
3 11997 11998 11999 
3 12000 12001 12002 
3 12003 12004 12005 
3 12006 12007 12008 
3 12009 12010 12011 
3 12012 12013 12014 
3 12015 12016 12017 
3 12018 12019 12020 
3 12021 12022 12023 
3 12024 12025 12026 
3 12027 12028 12029 
3 12030 12031 12032 
3 12033 12034 12035 
3 12036 12037 12038 
3 12039 12040 12041 
3 12042 12043 12044 
3 12045 12046 12047 
3 12048 12049 12050 
3 12051 12052 12053 
3 12054 12055 12056 
3 12057 12058 12059 
3 12060 12061 12062 
3 12063 12064 12065 
3 12066 12067 12068 
3 12069 12070 12071 
3 12072 12073 12074 
3 12075 12076 12077 
3 12078 12079 12080 
3 12081 12082 12083 
3 12084 12085 12086 
3 12087 12088 12089 
3 12090 12091 12092 
3 12093 12094 12095 
3 12096 12097 12098 
3 12099 12100 12101 
3 12102 12103 12104 
3 12105 12106 12107 
3 12108 12109 12110 
3 12111 12112 12113 
3 12114 12115 12116 
3 12117 12118 12119 
3 12120 12121 12122 
3 12123 12124 12125 
3 12126 12127 12128 
3 12129 12130 12131 
3 12132 12133 12134 
3 12135 12136 12137 
3 12138 12139 12140 
3 12141 12142 12143 
3 12144 12145 12146 
3 12147 12148 12149 
3 12150 12151 12152 
3 12153 12154 12155 
3 12156 12157 12158 
3 12159 12160 12161 
3 12162 12163 12164 
3 12165 12166 12167 
3 12168 12169 12170 
3 12171 12172 12173 
3 12174 12175 12176 
3 12177 12178 12179 
3 12180 12181 12182 
3 12183 12184 12185 
3 12186 12187 12188 
3 12189 12190 12191 
3 12192 12193 12194 
3 12195 12196 12197 
3 12198 12199 12200 
3 12201 12202 12203 
3 12204 12205 12206 
3 12207 12208 12209 
3 12210 12211 12212 
3 12213 12214 12215 
3 12216 12217 12218 
3 12219 12220 12221 
3 12222 12223 12224 
3 12225 12226 12227 
3 12228 12229 12230 
3 12231 12232 12233 
3 12234 12235 12236 
3 12237 12238 12239 
3 12240 12241 12242 
3 12243 12244 12245 
3 12246 12247 12248 
3 12249 12250 12251 
3 12252 12253 12254 
3 12255 12256 12257 
3 12258 12259 12260 
3 12261 12262 12263 
3 12264 12265 12266 
3 12267 12268 12269 
3 12270 12271 12272 
3 12273 12274 12275 
3 12276 12277 12278 
3 12279 12280 12281 
3 12282 12283 12284 
3 12285 12286 12287 
3 12288 12289 12290 
3 12291 12292 12293 
3 12294 12295 12296 
3 12297 12298 12299 
3 12300 12301 12302 
3 12303 12304 12305 
3 12306 12307 12308 
3 12309 12310 12311 
3 12312 12313 12314 
3 12315 12316 12317 
3 12318 12319 12320 
3 12321 12322 12323 
3 12324 12325 12326 
3 12327 12328 12329 
3 12330 12331 12332 
3 12333 12334 12335 
3 12336 12337 12338 
3 12339 12340 12341 
3 12342 12343 12344 
3 12345 12346 12347 
3 12348 12349 12350 
3 12351 12352 12353 
3 12354 12355 12356 
3 12357 12358 12359 
3 12360 12361 12362 
3 12363 12364 12365 
3 12366 12367 12368 
3 12369 12370 12371 
3 12372 12373 12374 
3 12375 12376 12377 
3 12378 12379 12380 
3 12381 12382 12383 
3 12384 12385 12386 
3 12387 12388 12389 
3 12390 12391 12392 
3 12393 12394 12395 
3 12396 12397 12398 
3 12399 12400 12401 
3 12402 12403 12404 
3 12405 12406 12407 
3 12408 12409 12410 
3 12411 12412 12413 
3 12414 12415 12416 
3 12417 12418 12419 
3 12420 12421 12422 
3 12423 12424 12425 
3 12426 12427 12428 
3 12429 12430 12431 
3 12432 12433 12434 
3 12435 12436 12437 
3 12438 12439 12440 
3 12441 12442 12443 
3 12444 12445 12446 
3 12447 12448 12449 
3 12450 12451 12452 
3 12453 12454 12455 
3 12456 12457 12458 
3 12459 12460 12461 
3 12462 12463 12464 
3 12465 12466 12467 
3 12468 12469 12470 
3 12471 12472 12473 
3 12474 12475 12476 
3 12477 12478 12479 
3 12480 12481 12482 
3 12483 12484 12485 
3 12486 12487 12488 
3 12489 12490 12491 
3 12492 12493 12494 
3 12495 12496 12497 
3 12498 12499 12500 
3 12501 12502 12503 
3 12504 12505 12506 
3 12507 12508 12509 
3 12510 12511 12512 
3 12513 12514 12515 
3 12516 12517 12518 
3 12519 12520 12521 
3 12522 12523 12524 
3 12525 12526 12527 
3 12528 12529 12530 
3 12531 12532 12533 
3 12534 12535 12536 
3 12537 12538 12539 
3 12540 12541 12542 
3 12543 12544 12545 
3 12546 12547 12548 
3 12549 12550 12551 
3 12552 12553 12554 
3 12555 12556 12557 
3 12558 12559 12560 
3 12561 12562 12563 
3 12564 12565 12566 
3 12567 12568 12569 
3 12570 12571 12572 
3 12573 12574 12575 
3 12576 12577 12578 
3 12579 12580 12581 
3 12582 12583 12584 
3 12585 12586 12587 
3 12588 12589 12590 
3 12591 12592 12593 
3 12594 12595 12596 
3 12597 12598 12599 
3 12600 12601 12602 
3 12603 12604 12605 
3 12606 12607 12608 
3 12609 12610 12611 
3 12612 12613 12614 
3 12615 12616 12617 
3 12618 12619 12620 
3 12621 12622 12623 
3 12624 12625 12626 
3 12627 12628 12629 
3 12630 12631 12632 
3 12633 12634 12635 
3 12636 12637 12638 
3 12639 12640 12641 
3 12642 12643 12644 
3 12645 12646 12647 
3 12648 12649 12650 
3 12651 12652 12653 
3 12654 12655 12656 
3 12657 12658 12659 
3 12660 12661 12662 
3 12663 12664 12665 
3 12666 12667 12668 
3 12669 12670 12671 
3 12672 12673 12674 
3 12675 12676 12677 
3 12678 12679 12680 
3 12681 12682 12683 
3 12684 12685 12686 
3 12687 12688 12689 
3 12690 12691 12692 
3 12693 12694 12695 
3 12696 12697 12698 
3 12699 12700 12701 
3 12702 12703 12704 
3 12705 12706 12707 
3 12708 12709 12710 
3 12711 12712 12713 
3 12714 12715 12716 
3 12717 12718 12719 
3 12720 12721 12722 
3 12723 12724 12725 
3 12726 12727 12728 
3 12729 12730 12731 
3 12732 12733 12734 
3 12735 12736 12737 
3 12738 12739 12740 
3 12741 12742 12743 
3 12744 12745 12746 
3 12747 12748 12749 
3 12750 12751 12752 
3 12753 12754 12755 
3 12756 12757 12758 
3 12759 12760 12761 
3 12762 12763 12764 
3 12765 12766 12767 
3 12768 12769 12770 
3 12771 12772 12773 
3 12774 12775 12776 
3 12777 12778 12779 
3 12780 12781 12782 
3 12783 12784 12785 
3 12786 12787 12788 
3 12789 12790 12791 
3 12792 12793 12794 
3 12795 12796 12797 
3 12798 12799 12800 
3 12801 12802 12803 
3 12804 12805 12806 
3 12807 12808 12809 
3 12810 12811 12812 
3 12813 12814 12815 
3 12816 12817 12818 
3 12819 12820 12821 
3 12822 12823 12824 
3 12825 12826 12827 
3 12828 12829 12830 
3 12831 12832 12833 
3 12834 12835 12836 
3 12837 12838 12839 
3 12840 12841 12842 
3 12843 12844 12845 
3 12846 12847 12848 
3 12849 12850 12851 
3 12852 12853 12854 
3 12855 12856 12857 
3 12858 12859 12860 
3 12861 12862 12863 
3 12864 12865 12866 
3 12867 12868 12869 
3 12870 12871 12872 
3 12873 12874 12875 
3 12876 12877 12878 
3 12879 12880 12881 
3 12882 12883 12884 
3 12885 12886 12887 
3 12888 12889 12890 
3 12891 12892 12893 
3 12894 12895 12896 
3 12897 12898 12899 
3 12900 12901 12902 
3 12903 12904 12905 
3 12906 12907 12908 
3 12909 12910 12911 
3 12912 12913 12914 
3 12915 12916 12917 
3 12918 12919 12920 
3 12921 12922 12923 
3 12924 12925 12926 
3 12927 12928 12929 
3 12930 12931 12932 
3 12933 12934 12935 
3 12936 12937 12938 
3 12939 12940 12941 
3 12942 12943 12944 
3 12945 12946 12947 
3 12948 12949 12950 
3 12951 12952 12953 
3 12954 12955 12956 
3 12957 12958 12959 
3 12960 12961 12962 
3 12963 12964 12965 
3 12966 12967 12968 
3 12969 12970 12971 
3 12972 12973 12974 
3 12975 12976 12977 
3 12978 12979 12980 
3 12981 12982 12983 
3 12984 12985 12986 
3 12987 12988 12989 
3 12990 12991 12992 
3 12993 12994 12995 
3 12996 12997 12998 
3 12999 13000 13001 
3 13002 13003 13004 
3 13005 13006 13007 
3 13008 13009 13010 
3 13011 13012 13013 
3 13014 13015 13016 
3 13017 13018 13019 
3 13020 13021 13022 
3 13023 13024 13025 
3 13026 13027 13028 
3 13029 13030 13031 
3 13032 13033 13034 
3 13035 13036 13037 
3 13038 13039 13040 
3 13041 13042 13043 
3 13044 13045 13046 
3 13047 13048 13049 
3 13050 13051 13052 
3 13053 13054 13055 
3 13056 13057 13058 
3 13059 13060 13061 
3 13062 13063 13064 
3 13065 13066 13067 
3 13068 13069 13070 
3 13071 13072 13073 
3 13074 13075 13076 
3 13077 13078 13079 
3 13080 13081 13082 
3 13083 13084 13085 
3 13086 13087 13088 
3 13089 13090 13091 
3 13092 13093 13094 
3 13095 13096 13097 
3 13098 13099 13100 
3 13101 13102 13103 
3 13104 13105 13106 
3 13107 13108 13109 
3 13110 13111 13112 
3 13113 13114 13115 
3 13116 13117 13118 
3 13119 13120 13121 
3 13122 13123 13124 
3 13125 13126 13127 
3 13128 13129 13130 
3 13131 13132 13133 
3 13134 13135 13136 
3 13137 13138 13139 
3 13140 13141 13142 
3 13143 13144 13145 
3 13146 13147 13148 
3 13149 13150 13151 
3 13152 13153 13154 
3 13155 13156 13157 
3 13158 13159 13160 
3 13161 13162 13163 
3 13164 13165 13166 
3 13167 13168 13169 
3 13170 13171 13172 
3 13173 13174 13175 
3 13176 13177 13178 
3 13179 13180 13181 
3 13182 13183 13184 
3 13185 13186 13187 
3 13188 13189 13190 
3 13191 13192 13193 
3 13194 13195 13196 
3 13197 13198 13199 
3 13200 13201 13202 
3 13203 13204 13205 
3 13206 13207 13208 
3 13209 13210 13211 
3 13212 13213 13214 
3 13215 13216 13217 
3 13218 13219 13220 
3 13221 13222 13223 
3 13224 13225 13226 
3 13227 13228 13229 
3 13230 13231 13232 
3 13233 13234 13235 
3 13236 13237 13238 
3 13239 13240 13241 
3 13242 13243 13244 
3 13245 13246 13247 
3 13248 13249 13250 
3 13251 13252 13253 
3 13254 13255 13256 
3 13257 13258 13259 
3 13260 13261 13262 
3 13263 13264 13265 
3 13266 13267 13268 
3 13269 13270 13271 
3 13272 13273 13274 
3 13275 13276 13277 
3 13278 13279 13280 
3 13281 13282 13283 
3 13284 13285 13286 
3 13287 13288 13289 
3 13290 13291 13292 
3 13293 13294 13295 
3 13296 13297 13298 
3 13299 13300 13301 
3 13302 13303 13304 
3 13305 13306 13307 
3 13308 13309 13310 
3 13311 13312 13313 
3 13314 13315 13316 
3 13317 13318 13319 
3 13320 13321 13322 
3 13323 13324 13325 
3 13326 13327 13328 
3 13329 13330 13331 
3 13332 13333 13334 
3 13335 13336 13337 
3 13338 13339 13340 
3 13341 13342 13343 
3 13344 13345 13346 
3 13347 13348 13349 
3 13350 13351 13352 
3 13353 13354 13355 
3 13356 13357 13358 
3 13359 13360 13361 
3 13362 13363 13364 
3 13365 13366 13367 
3 13368 13369 13370 
3 13371 13372 13373 
3 13374 13375 13376 
3 13377 13378 13379 
3 13380 13381 13382 
3 13383 13384 13385 
3 13386 13387 13388 
3 13389 13390 13391 
3 13392 13393 13394 
3 13395 13396 13397 
3 13398 13399 13400 
3 13401 13402 13403 
3 13404 13405 13406 
3 13407 13408 13409 
3 13410 13411 13412 
3 13413 13414 13415 
3 13416 13417 13418 
3 13419 13420 13421 
3 13422 13423 13424 
3 13425 13426 13427 
3 13428 13429 13430 
3 13431 13432 13433 
3 13434 13435 13436 
3 13437 13438 13439 
3 13440 13441 13442 
3 13443 13444 13445 
3 13446 13447 13448 
3 13449 13450 13451 
3 13452 13453 13454 
3 13455 13456 13457 
3 13458 13459 13460 
3 13461 13462 13463 
3 13464 13465 13466 
3 13467 13468 13469 
3 13470 13471 13472 
3 13473 13474 13475 
3 13476 13477 13478 
3 13479 13480 13481 
3 13482 13483 13484 
3 13485 13486 13487 
3 13488 13489 13490 
3 13491 13492 13493 
3 13494 13495 13496 
3 13497 13498 13499 
3 13500 13501 13502 
3 13503 13504 13505 
3 13506 13507 13508 
3 13509 13510 13511 
3 13512 13513 13514 
3 13515 13516 13517 
3 13518 13519 13520 
3 13521 13522 13523 
3 13524 13525 13526 
3 13527 13528 13529 
3 13530 13531 13532 
3 13533 13534 13535 
3 13536 13537 13538 
3 13539 13540 13541 
3 13542 13543 13544 
3 13545 13546 13547 
3 13548 13549 13550 
3 13551 13552 13553 
3 13554 13555 13556 
3 13557 13558 13559 
3 13560 13561 13562 
3 13563 13564 13565 
3 13566 13567 13568 
3 13569 13570 13571 
3 13572 13573 13574 
3 13575 13576 13577 
3 13578 13579 13580 
3 13581 13582 13583 
3 13584 13585 13586 
3 13587 13588 13589 
3 13590 13591 13592 
3 13593 13594 13595 
3 13596 13597 13598 
3 13599 13600 13601 
3 13602 13603 13604 
3 13605 13606 13607 
3 13608 13609 13610 
3 13611 13612 13613 
3 13614 13615 13616 
3 13617 13618 13619 
3 13620 13621 13622 
3 13623 13624 13625 
3 13626 13627 13628 
3 13629 13630 13631 
3 13632 13633 13634 
3 13635 13636 13637 
3 13638 13639 13640 
3 13641 13642 13643 
3 13644 13645 13646 
3 13647 13648 13649 
3 13650 13651 13652 
3 13653 13654 13655 
3 13656 13657 13658 
3 13659 13660 13661 
3 13662 13663 13664 
3 13665 13666 13667 
3 13668 13669 13670 
3 13671 13672 13673 
3 13674 13675 13676 
3 13677 13678 13679 
3 13680 13681 13682 
3 13683 13684 13685 
3 13686 13687 13688 
3 13689 13690 13691 
3 13692 13693 13694 
3 13695 13696 13697 
3 13698 13699 13700 
3 13701 13702 13703 
3 13704 13705 13706 
3 13707 13708 13709 
3 13710 13711 13712 
3 13713 13714 13715 
3 13716 13717 13718 
3 13719 13720 13721 
3 13722 13723 13724 
3 13725 13726 13727 
3 13728 13729 13730 
3 13731 13732 13733 
3 13734 13735 13736 
3 13737 13738 13739 
3 13740 13741 13742 
3 13743 13744 13745 
3 13746 13747 13748 
3 13749 13750 13751 
3 13752 13753 13754 
3 13755 13756 13757 
3 13758 13759 13760 
3 13761 13762 13763 
3 13764 13765 13766 
3 13767 13768 13769 
3 13770 13771 13772 
3 13773 13774 13775 
3 13776 13777 13778 
3 13779 13780 13781 
3 13782 13783 13784 
3 13785 13786 13787 
3 13788 13789 13790 
3 13791 13792 13793 
3 13794 13795 13796 
3 13797 13798 13799 
3 13800 13801 13802 
3 13803 13804 13805 
3 13806 13807 13808 
3 13809 13810 13811 
3 13812 13813 13814 
3 13815 13816 13817 
3 13818 13819 13820 
3 13821 13822 13823 
3 13824 13825 13826 
3 13827 13828 13829 
3 13830 13831 13832 
3 13833 13834 13835 
3 13836 13837 13838 
3 13839 13840 13841 
3 13842 13843 13844 
3 13845 13846 13847 
3 13848 13849 13850 
3 13851 13852 13853 
3 13854 13855 13856 
3 13857 13858 13859 
3 13860 13861 13862 
3 13863 13864 13865 
3 13866 13867 13868 
3 13869 13870 13871 
3 13872 13873 13874 
3 13875 13876 13877 
3 13878 13879 13880 
3 13881 13882 13883 
3 13884 13885 13886 
3 13887 13888 13889 
3 13890 13891 13892 
3 13893 13894 13895 
3 13896 13897 13898 
3 13899 13900 13901 
3 13902 13903 13904 
3 13905 13906 13907 
3 13908 13909 13910 
3 13911 13912 13913 
3 13914 13915 13916 
3 13917 13918 13919 
3 13920 13921 13922 
3 13923 13924 13925 
3 13926 13927 13928 
3 13929 13930 13931 
3 13932 13933 13934 
3 13935 13936 13937 
3 13938 13939 13940 
3 13941 13942 13943 
3 13944 13945 13946 
3 13947 13948 13949 
3 13950 13951 13952 
3 13953 13954 13955 
3 13956 13957 13958 
3 13959 13960 13961 
3 13962 13963 13964 
3 13965 13966 13967 
3 13968 13969 13970 
3 13971 13972 13973 
3 13974 13975 13976 
3 13977 13978 13979 
3 13980 13981 13982 
3 13983 13984 13985 
3 13986 13987 13988 
3 13989 13990 13991 
3 13992 13993 13994 
3 13995 13996 13997 
3 13998 13999 14000 
3 14001 14002 14003 
3 14004 14005 14006 
3 14007 14008 14009 
3 14010 14011 14012 
3 14013 14014 14015 
3 14016 14017 14018 
3 14019 14020 14021 
3 14022 14023 14024 
3 14025 14026 14027 
3 14028 14029 14030 
3 14031 14032 14033 
3 14034 14035 14036 
3 14037 14038 14039 
3 14040 14041 14042 
3 14043 14044 14045 
3 14046 14047 14048 
3 14049 14050 14051 
3 14052 14053 14054 
3 14055 14056 14057 
3 14058 14059 14060 
3 14061 14062 14063 
3 14064 14065 14066 
3 14067 14068 14069 
3 14070 14071 14072 
3 14073 14074 14075 
3 14076 14077 14078 
3 14079 14080 14081 
3 14082 14083 14084 
3 14085 14086 14087 
3 14088 14089 14090 
3 14091 14092 14093 
3 14094 14095 14096 
3 14097 14098 14099 
3 14100 14101 14102 
3 14103 14104 14105 
3 14106 14107 14108 
3 14109 14110 14111 
3 14112 14113 14114 
3 14115 14116 14117 
3 14118 14119 14120 
3 14121 14122 14123 
3 14124 14125 14126 
3 14127 14128 14129 
3 14130 14131 14132 
3 14133 14134 14135 
3 14136 14137 14138 
3 14139 14140 14141 
3 14142 14143 14144 
3 14145 14146 14147 
3 14148 14149 14150 
3 14151 14152 14153 
3 14154 14155 14156 
3 14157 14158 14159 
3 14160 14161 14162 
3 14163 14164 14165 
3 14166 14167 14168 
3 14169 14170 14171 
3 14172 14173 14174 
3 14175 14176 14177 
3 14178 14179 14180 
3 14181 14182 14183 
3 14184 14185 14186 
3 14187 14188 14189 
3 14190 14191 14192 
3 14193 14194 14195 
3 14196 14197 14198 
3 14199 14200 14201 
3 14202 14203 14204 
3 14205 14206 14207 
3 14208 14209 14210 
3 14211 14212 14213 
3 14214 14215 14216 
3 14217 14218 14219 
3 14220 14221 14222 
3 14223 14224 14225 
3 14226 14227 14228 
3 14229 14230 14231 
3 14232 14233 14234 
3 14235 14236 14237 
3 14238 14239 14240 
3 14241 14242 14243 
3 14244 14245 14246 
3 14247 14248 14249 
3 14250 14251 14252 
3 14253 14254 14255 
3 14256 14257 14258 
3 14259 14260 14261 
3 14262 14263 14264 
3 14265 14266 14267 
3 14268 14269 14270 
3 14271 14272 14273 
3 14274 14275 14276 
3 14277 14278 14279 
3 14280 14281 14282 
3 14283 14284 14285 
3 14286 14287 14288 
3 14289 14290 14291 
3 14292 14293 14294 
3 14295 14296 14297 
3 14298 14299 14300 
3 14301 14302 14303 
3 14304 14305 14306 
3 14307 14308 14309 
3 14310 14311 14312 
3 14313 14314 14315 
3 14316 14317 14318 
3 14319 14320 14321 
3 14322 14323 14324 
3 14325 14326 14327 
3 14328 14329 14330 
3 14331 14332 14333 
3 14334 14335 14336 
3 14337 14338 14339 
3 14340 14341 14342 
3 14343 14344 14345 
3 14346 14347 14348 
3 14349 14350 14351 
3 14352 14353 14354 
3 14355 14356 14357 
3 14358 14359 14360 
3 14361 14362 14363 
3 14364 14365 14366 
3 14367 14368 14369 
3 14370 14371 14372 
3 14373 14374 14375 
3 14376 14377 14378 
3 14379 14380 14381 
3 14382 14383 14384 
3 14385 14386 14387 
3 14388 14389 14390 
3 14391 14392 14393 
3 14394 14395 14396 
3 14397 14398 14399 
3 14400 14401 14402 
3 14403 14404 14405 
3 14406 14407 14408 
3 14409 14410 14411 
3 14412 14413 14414 
3 14415 14416 14417 
3 14418 14419 14420 
3 14421 14422 14423 
3 14424 14425 14426 
3 14427 14428 14429 
3 14430 14431 14432 
3 14433 14434 14435 
3 14436 14437 14438 
3 14439 14440 14441 
3 14442 14443 14444 
3 14445 14446 14447 
3 14448 14449 14450 
3 14451 14452 14453 
3 14454 14455 14456 
3 14457 14458 14459 
3 14460 14461 14462 
3 14463 14464 14465 
3 14466 14467 14468 
3 14469 14470 14471 
3 14472 14473 14474 
3 14475 14476 14477 
3 14478 14479 14480 
3 14481 14482 14483 
3 14484 14485 14486 
3 14487 14488 14489 
3 14490 14491 14492 
3 14493 14494 14495 
3 14496 14497 14498 
3 14499 14500 14501 
3 14502 14503 14504 
3 14505 14506 14507 
3 14508 14509 14510 
3 14511 14512 14513 
3 14514 14515 14516 
3 14517 14518 14519 
3 14520 14521 14522 
3 14523 14524 14525 
3 14526 14527 14528 
3 14529 14530 14531 
3 14532 14533 14534 
3 14535 14536 14537 
3 14538 14539 14540 
3 14541 14542 14543 
3 14544 14545 14546 
3 14547 14548 14549 
3 14550 14551 14552 
3 14553 14554 14555 
3 14556 14557 14558 
3 14559 14560 14561 
3 14562 14563 14564 
3 14565 14566 14567 
3 14568 14569 14570 
3 14571 14572 14573 
3 14574 14575 14576 
3 14577 14578 14579 
3 14580 14581 14582 
3 14583 14584 14585 
3 14586 14587 14588 
3 14589 14590 14591 
3 14592 14593 14594 
3 14595 14596 14597 
3 14598 14599 14600 
3 14601 14602 14603 
3 14604 14605 14606 
3 14607 14608 14609 
3 14610 14611 14612 
3 14613 14614 14615 
3 14616 14617 14618 
3 14619 14620 14621 
3 14622 14623 14624 
3 14625 14626 14627 
3 14628 14629 14630 
3 14631 14632 14633 
3 14634 14635 14636 
3 14637 14638 14639 
3 14640 14641 14642 
3 14643 14644 14645 
3 14646 14647 14648 
3 14649 14650 14651 
3 14652 14653 14654 
3 14655 14656 14657 
3 14658 14659 14660 
3 14661 14662 14663 
3 14664 14665 14666 
3 14667 14668 14669 
3 14670 14671 14672 
3 14673 14674 14675 
3 14676 14677 14678 
3 14679 14680 14681 
3 14682 14683 14684 
3 14685 14686 14687 
3 14688 14689 14690 
3 14691 14692 14693 
3 14694 14695 14696 
3 14697 14698 14699 
3 14700 14701 14702 
3 14703 14704 14705 
3 14706 14707 14708 
3 14709 14710 14711 
3 14712 14713 14714 
3 14715 14716 14717 
3 14718 14719 14720 
3 14721 14722 14723 
3 14724 14725 14726 
3 14727 14728 14729 
3 14730 14731 14732 
3 14733 14734 14735 
3 14736 14737 14738 
3 14739 14740 14741 
3 14742 14743 14744 
3 14745 14746 14747 
3 14748 14749 14750 
3 14751 14752 14753 
3 14754 14755 14756 
3 14757 14758 14759 
3 14760 14761 14762 
3 14763 14764 14765 
3 14766 14767 14768 
3 14769 14770 14771 
3 14772 14773 14774 
3 14775 14776 14777 
3 14778 14779 14780 
3 14781 14782 14783 
3 14784 14785 14786 
3 14787 14788 14789 
3 14790 14791 14792 
3 14793 14794 14795 
3 14796 14797 14798 
3 14799 14800 14801 
3 14802 14803 14804 
3 14805 14806 14807 
3 14808 14809 14810 
3 14811 14812 14813 
3 14814 14815 14816 
3 14817 14818 14819 
3 14820 14821 14822 
3 14823 14824 14825 
3 14826 14827 14828 
3 14829 14830 14831 
3 14832 14833 14834 
3 14835 14836 14837 
3 14838 14839 14840 
3 14841 14842 14843 
3 14844 14845 14846 
3 14847 14848 14849 
3 14850 14851 14852 
3 14853 14854 14855 
3 14856 14857 14858 
3 14859 14860 14861 
3 14862 14863 14864 
3 14865 14866 14867 
3 14868 14869 14870 
3 14871 14872 14873 
3 14874 14875 14876 
3 14877 14878 14879 
3 14880 14881 14882 
3 14883 14884 14885 
3 14886 14887 14888 
3 14889 14890 14891 
3 14892 14893 14894 
3 14895 14896 14897 
3 14898 14899 14900 
3 14901 14902 14903 
3 14904 14905 14906 
3 14907 14908 14909 
3 14910 14911 14912 
3 14913 14914 14915 
3 14916 14917 14918 
3 14919 14920 14921 
3 14922 14923 14924 
3 14925 14926 14927 
3 14928 14929 14930 
3 14931 14932 14933 
3 14934 14935 14936 
3 14937 14938 14939 
3 14940 14941 14942 
3 14943 14944 14945 
3 14946 14947 14948 
3 14949 14950 14951 
3 14952 14953 14954 
3 14955 14956 14957 
3 14958 14959 14960 
3 14961 14962 14963 
3 14964 14965 14966 
3 14967 14968 14969 
3 14970 14971 14972 
3 14973 14974 14975 
3 14976 14977 14978 
3 14979 14980 14981 
3 14982 14983 14984 
3 14985 14986 14987 
3 14988 14989 14990 
3 14991 14992 14993 
3 14994 14995 14996 
3 14997 14998 14999 
3 15000 15001 15002 
3 15003 15004 15005 
3 15006 15007 15008 
3 15009 15010 15011 
3 15012 15013 15014 
3 15015 15016 15017 
3 15018 15019 15020 
3 15021 15022 15023 
3 15024 15025 15026 
3 15027 15028 15029 
3 15030 15031 15032 
3 15033 15034 15035 
3 15036 15037 15038 
3 15039 15040 15041 
3 15042 15043 15044 
3 15045 15046 15047 
3 15048 15049 15050 
3 15051 15052 15053 
3 15054 15055 15056 
3 15057 15058 15059 
3 15060 15061 15062 
3 15063 15064 15065 
3 15066 15067 15068 
3 15069 15070 15071 
3 15072 15073 15074 
3 15075 15076 15077 
3 15078 15079 15080 
3 15081 15082 15083 
3 15084 15085 15086 
3 15087 15088 15089 
3 15090 15091 15092 
3 15093 15094 15095 
3 15096 15097 15098 
3 15099 15100 15101 
3 15102 15103 15104 
3 15105 15106 15107 
3 15108 15109 15110 
3 15111 15112 15113 
3 15114 15115 15116 
3 15117 15118 15119 
3 15120 15121 15122 
3 15123 15124 15125 
3 15126 15127 15128 
3 15129 15130 15131 
3 15132 15133 15134 
3 15135 15136 15137 
3 15138 15139 15140 
3 15141 15142 15143 
3 15144 15145 15146 
3 15147 15148 15149 
3 15150 15151 15152 
3 15153 15154 15155 
3 15156 15157 15158 
3 15159 15160 15161 
3 15162 15163 15164 
3 15165 15166 15167 
3 15168 15169 15170 
3 15171 15172 15173 
3 15174 15175 15176 
3 15177 15178 15179 
3 15180 15181 15182 
3 15183 15184 15185 
3 15186 15187 15188 
3 15189 15190 15191 
3 15192 15193 15194 
3 15195 15196 15197 
3 15198 15199 15200 
3 15201 15202 15203 
3 15204 15205 15206 
3 15207 15208 15209 
3 15210 15211 15212 
3 15213 15214 15215 
3 15216 15217 15218 
3 15219 15220 15221 
3 15222 15223 15224 
3 15225 15226 15227 
3 15228 15229 15230 
3 15231 15232 15233 
3 15234 15235 15236 
3 15237 15238 15239 
3 15240 15241 15242 
3 15243 15244 15245 
3 15246 15247 15248 
3 15249 15250 15251 
3 15252 15253 15254 
3 15255 15256 15257 
3 15258 15259 15260 
3 15261 15262 15263 
3 15264 15265 15266 
3 15267 15268 15269 
3 15270 15271 15272 
3 15273 15274 15275 
3 15276 15277 15278 
3 15279 15280 15281 
3 15282 15283 15284 
3 15285 15286 15287 
3 15288 15289 15290 
3 15291 15292 15293 
3 15294 15295 15296 
3 15297 15298 15299 
3 15300 15301 15302 
3 15303 15304 15305 
3 15306 15307 15308 
3 15309 15310 15311 
3 15312 15313 15314 
3 15315 15316 15317 
3 15318 15319 15320 
3 15321 15322 15323 
3 15324 15325 15326 
3 15327 15328 15329 
3 15330 15331 15332 
3 15333 15334 15335 
3 15336 15337 15338 
3 15339 15340 15341 
3 15342 15343 15344 
3 15345 15346 15347 
3 15348 15349 15350 
3 15351 15352 15353 
3 15354 15355 15356 
3 15357 15358 15359 
3 15360 15361 15362 
3 15363 15364 15365 
3 15366 15367 15368 
3 15369 15370 15371 
3 15372 15373 15374 
3 15375 15376 15377 
3 15378 15379 15380 
3 15381 15382 15383 
3 15384 15385 15386 
3 15387 15388 15389 
3 15390 15391 15392 
3 15393 15394 15395 
3 15396 15397 15398 
3 15399 15400 15401 
3 15402 15403 15404 
3 15405 15406 15407 
3 15408 15409 15410 
3 15411 15412 15413 
3 15414 15415 15416 
3 15417 15418 15419 
3 15420 15421 15422 
3 15423 15424 15425 
3 15426 15427 15428 
3 15429 15430 15431 
3 15432 15433 15434 
3 15435 15436 15437 
3 15438 15439 15440 
3 15441 15442 15443 
3 15444 15445 15446 
3 15447 15448 15449 
3 15450 15451 15452 
3 15453 15454 15455 
3 15456 15457 15458 
3 15459 15460 15461 
3 15462 15463 15464 
3 15465 15466 15467 
3 15468 15469 15470 
3 15471 15472 15473 
3 15474 15475 15476 
3 15477 15478 15479 
3 15480 15481 15482 
3 15483 15484 15485 
3 15486 15487 15488 
3 15489 15490 15491 
3 15492 15493 15494 
3 15495 15496 15497 
3 15498 15499 15500 
3 15501 15502 15503 
3 15504 15505 15506 
3 15507 15508 15509 
3 15510 15511 15512 
3 15513 15514 15515 
3 15516 15517 15518 
3 15519 15520 15521 
3 15522 15523 15524 
3 15525 15526 15527 
3 15528 15529 15530 
3 15531 15532 15533 
3 15534 15535 15536 
3 15537 15538 15539 
3 15540 15541 15542 
3 15543 15544 15545 
3 15546 15547 15548 
3 15549 15550 15551 
3 15552 15553 15554 
3 15555 15556 15557 
3 15558 15559 15560 
3 15561 15562 15563 
3 15564 15565 15566 
3 15567 15568 15569 
3 15570 15571 15572 
3 15573 15574 15575 
3 15576 15577 15578 
3 15579 15580 15581 
3 15582 15583 15584 
3 15585 15586 15587 
3 15588 15589 15590 
3 15591 15592 15593 
3 15594 15595 15596 
3 15597 15598 15599 
3 15600 15601 15602 
3 15603 15604 15605 
3 15606 15607 15608 
3 15609 15610 15611 
3 15612 15613 15614 
3 15615 15616 15617 
3 15618 15619 15620 
3 15621 15622 15623 
3 15624 15625 15626 
3 15627 15628 15629 
3 15630 15631 15632 
3 15633 15634 15635 
3 15636 15637 15638 
3 15639 15640 15641 
3 15642 15643 15644 
3 15645 15646 15647 
3 15648 15649 15650 
3 15651 15652 15653 
3 15654 15655 15656 
3 15657 15658 15659 
3 15660 15661 15662 
3 15663 15664 15665 
3 15666 15667 15668 
3 15669 15670 15671 
3 15672 15673 15674 
3 15675 15676 15677 
3 15678 15679 15680 
3 15681 15682 15683 
3 15684 15685 15686 
3 15687 15688 15689 
3 15690 15691 15692 
3 15693 15694 15695 
3 15696 15697 15698 
3 15699 15700 15701 
3 15702 15703 15704 
3 15705 15706 15707 
3 15708 15709 15710 
3 15711 15712 15713 
3 15714 15715 15716 
3 15717 15718 15719 
3 15720 15721 15722 
3 15723 15724 15725 
3 15726 15727 15728 
3 15729 15730 15731 
3 15732 15733 15734 
3 15735 15736 15737 
3 15738 15739 15740 
3 15741 15742 15743 
3 15744 15745 15746 
3 15747 15748 15749 
3 15750 15751 15752 
3 15753 15754 15755 
3 15756 15757 15758 
3 15759 15760 15761 
3 15762 15763 15764 
3 15765 15766 15767 
3 15768 15769 15770 
3 15771 15772 15773 
3 15774 15775 15776 
3 15777 15778 15779 
3 15780 15781 15782 
3 15783 15784 15785 
3 15786 15787 15788 
3 15789 15790 15791 
3 15792 15793 15794 
3 15795 15796 15797 
3 15798 15799 15800 
3 15801 15802 15803 
3 15804 15805 15806 
3 15807 15808 15809 
3 15810 15811 15812 
3 15813 15814 15815 
3 15816 15817 15818 
3 15819 15820 15821 
3 15822 15823 15824 
3 15825 15826 15827 
3 15828 15829 15830 
3 15831 15832 15833 
3 15834 15835 15836 
3 15837 15838 15839 
3 15840 15841 15842 
3 15843 15844 15845 
3 15846 15847 15848 
3 15849 15850 15851 
3 15852 15853 15854 
3 15855 15856 15857 
3 15858 15859 15860 
3 15861 15862 15863 
3 15864 15865 15866 
3 15867 15868 15869 
3 15870 15871 15872 
3 15873 15874 15875 
3 15876 15877 15878 
3 15879 15880 15881 
3 15882 15883 15884 
3 15885 15886 15887 
3 15888 15889 15890 
3 15891 15892 15893 
3 15894 15895 15896 
3 15897 15898 15899 
3 15900 15901 15902 
3 15903 15904 15905 
3 15906 15907 15908 
3 15909 15910 15911 
3 15912 15913 15914 
3 15915 15916 15917 
3 15918 15919 15920 
3 15921 15922 15923 
3 15924 15925 15926 
3 15927 15928 15929 
3 15930 15931 15932 
3 15933 15934 15935 
3 15936 15937 15938 
3 15939 15940 15941 
3 15942 15943 15944 
3 15945 15946 15947 
3 15948 15949 15950 
3 15951 15952 15953 
3 15954 15955 15956 
3 15957 15958 15959 
3 15960 15961 15962 
3 15963 15964 15965 
3 15966 15967 15968 
3 15969 15970 15971 
3 15972 15973 15974 
3 15975 15976 15977 
3 15978 15979 15980 
3 15981 15982 15983 
3 15984 15985 15986 
3 15987 15988 15989 
3 15990 15991 15992 
3 15993 15994 15995 
3 15996 15997 15998 
3 15999 16000 16001 
3 16002 16003 16004 
3 16005 16006 16007 
3 16008 16009 16010 
3 16011 16012 16013 
3 16014 16015 16016 
3 16017 16018 16019 
3 16020 16021 16022 
3 16023 16024 16025 
3 16026 16027 16028 
3 16029 16030 16031 
3 16032 16033 16034 
3 16035 16036 16037 
3 16038 16039 16040 
3 16041 16042 16043 
3 16044 16045 16046 
3 16047 16048 16049 
3 16050 16051 16052 
3 16053 16054 16055 
3 16056 16057 16058 
3 16059 16060 16061 
3 16062 16063 16064 
3 16065 16066 16067 
3 16068 16069 16070 
3 16071 16072 16073 
3 16074 16075 16076 
3 16077 16078 16079 
3 16080 16081 16082 
3 16083 16084 16085 
3 16086 16087 16088 
3 16089 16090 16091 
3 16092 16093 16094 
3 16095 16096 16097 
3 16098 16099 16100 
3 16101 16102 16103 
3 16104 16105 16106 
3 16107 16108 16109 
3 16110 16111 16112 
3 16113 16114 16115 
3 16116 16117 16118 
3 16119 16120 16121 
3 16122 16123 16124 
3 16125 16126 16127 
3 16128 16129 16130 
3 16131 16132 16133 
3 16134 16135 16136 
3 16137 16138 16139 
3 16140 16141 16142 
3 16143 16144 16145 
3 16146 16147 16148 
3 16149 16150 16151 
3 16152 16153 16154 
3 16155 16156 16157 
3 16158 16159 16160 
3 16161 16162 16163 
3 16164 16165 16166 
3 16167 16168 16169 
3 16170 16171 16172 
3 16173 16174 16175 
3 16176 16177 16178 
3 16179 16180 16181 
3 16182 16183 16184 
3 16185 16186 16187 
3 16188 16189 16190 
3 16191 16192 16193 
3 16194 16195 16196 
3 16197 16198 16199 
3 16200 16201 16202 
3 16203 16204 16205 
3 16206 16207 16208 
3 16209 16210 16211 
3 16212 16213 16214 
3 16215 16216 16217 
3 16218 16219 16220 
3 16221 16222 16223 
3 16224 16225 16226 
3 16227 16228 16229 
3 16230 16231 16232 
3 16233 16234 16235 
3 16236 16237 16238 
3 16239 16240 16241 
3 16242 16243 16244 
3 16245 16246 16247 
3 16248 16249 16250 
3 16251 16252 16253 
3 16254 16255 16256 
3 16257 16258 16259 
3 16260 16261 16262 
3 16263 16264 16265 
3 16266 16267 16268 
3 16269 16270 16271 
3 16272 16273 16274 
3 16275 16276 16277 
3 16278 16279 16280 
3 16281 16282 16283 
3 16284 16285 16286 
3 16287 16288 16289 
3 16290 16291 16292 
3 16293 16294 16295 
3 16296 16297 16298 
3 16299 16300 16301 
3 16302 16303 16304 
3 16305 16306 16307 
3 16308 16309 16310 
3 16311 16312 16313 
3 16314 16315 16316 
3 16317 16318 16319 
3 16320 16321 16322 
3 16323 16324 16325 
3 16326 16327 16328 
3 16329 16330 16331 
3 16332 16333 16334 
3 16335 16336 16337 
3 16338 16339 16340 
3 16341 16342 16343 
3 16344 16345 16346 
3 16347 16348 16349 
3 16350 16351 16352 
3 16353 16354 16355 
3 16356 16357 16358 
3 16359 16360 16361 
3 16362 16363 16364 
3 16365 16366 16367 
3 16368 16369 16370 
3 16371 16372 16373 
3 16374 16375 16376 
3 16377 16378 16379 
3 16380 16381 16382 
3 16383 16384 16385 
3 16386 16387 16388 
3 16389 16390 16391 
3 16392 16393 16394 
3 16395 16396 16397 
3 16398 16399 16400 
3 16401 16402 16403 
3 16404 16405 16406 
3 16407 16408 16409 
3 16410 16411 16412 
3 16413 16414 16415 
3 16416 16417 16418 
3 16419 16420 16421 
3 16422 16423 16424 
3 16425 16426 16427 
3 16428 16429 16430 
3 16431 16432 16433 
3 16434 16435 16436 
3 16437 16438 16439 
3 16440 16441 16442 
3 16443 16444 16445 
3 16446 16447 16448 
3 16449 16450 16451 
3 16452 16453 16454 
3 16455 16456 16457 
3 16458 16459 16460 
3 16461 16462 16463 
3 16464 16465 16466 
3 16467 16468 16469 
3 16470 16471 16472 
3 16473 16474 16475 
3 16476 16477 16478 
3 16479 16480 16481 
3 16482 16483 16484 
3 16485 16486 16487 
3 16488 16489 16490 
3 16491 16492 16493 
3 16494 16495 16496 
3 16497 16498 16499 
3 16500 16501 16502 
3 16503 16504 16505 
3 16506 16507 16508 
3 16509 16510 16511 
3 16512 16513 16514 
3 16515 16516 16517 
3 16518 16519 16520 
3 16521 16522 16523 
3 16524 16525 16526 
3 16527 16528 16529 
3 16530 16531 16532 
3 16533 16534 16535 
3 16536 16537 16538 
3 16539 16540 16541 
3 16542 16543 16544 
3 16545 16546 16547 
3 16548 16549 16550 
3 16551 16552 16553 
3 16554 16555 16556 
3 16557 16558 16559 
3 16560 16561 16562 
3 16563 16564 16565 
3 16566 16567 16568 
3 16569 16570 16571 
3 16572 16573 16574 
3 16575 16576 16577 
3 16578 16579 16580 
3 16581 16582 16583 
3 16584 16585 16586 
3 16587 16588 16589 
3 16590 16591 16592 
3 16593 16594 16595 
3 16596 16597 16598 
3 16599 16600 16601 
3 16602 16603 16604 
3 16605 16606 16607 
3 16608 16609 16610 
3 16611 16612 16613 
3 16614 16615 16616 
3 16617 16618 16619 
3 16620 16621 16622 
3 16623 16624 16625 
3 16626 16627 16628 
3 16629 16630 16631 
3 16632 16633 16634 
3 16635 16636 16637 
3 16638 16639 16640 
3 16641 16642 16643 
3 16644 16645 16646 
3 16647 16648 16649 
3 16650 16651 16652 
3 16653 16654 16655 
3 16656 16657 16658 
3 16659 16660 16661 
3 16662 16663 16664 
3 16665 16666 16667 
3 16668 16669 16670 
3 16671 16672 16673 
3 16674 16675 16676 
3 16677 16678 16679 
3 16680 16681 16682 
3 16683 16684 16685 
3 16686 16687 16688 
3 16689 16690 16691 
3 16692 16693 16694 
3 16695 16696 16697 
3 16698 16699 16700 
3 16701 16702 16703 
3 16704 16705 16706 
3 16707 16708 16709 
3 16710 16711 16712 
3 16713 16714 16715 
3 16716 16717 16718 
3 16719 16720 16721 
3 16722 16723 16724 
3 16725 16726 16727 
3 16728 16729 16730 
3 16731 16732 16733 
3 16734 16735 16736 
3 16737 16738 16739 
3 16740 16741 16742 
3 16743 16744 16745 
3 16746 16747 16748 
3 16749 16750 16751 
3 16752 16753 16754 
3 16755 16756 16757 
3 16758 16759 16760 
3 16761 16762 16763 
3 16764 16765 16766 
3 16767 16768 16769 
3 16770 16771 16772 
3 16773 16774 16775 
3 16776 16777 16778 
3 16779 16780 16781 
3 16782 16783 16784 
3 16785 16786 16787 
3 16788 16789 16790 
3 16791 16792 16793 
3 16794 16795 16796 
3 16797 16798 16799 
3 16800 16801 16802 
3 16803 16804 16805 
3 16806 16807 16808 
3 16809 16810 16811 
3 16812 16813 16814 
3 16815 16816 16817 
3 16818 16819 16820 
3 16821 16822 16823 
3 16824 16825 16826 
3 16827 16828 16829 
3 16830 16831 16832 
3 16833 16834 16835 
3 16836 16837 16838 
3 16839 16840 16841 
3 16842 16843 16844 
3 16845 16846 16847 
3 16848 16849 16850 
3 16851 16852 16853 
3 16854 16855 16856 
3 16857 16858 16859 
3 16860 16861 16862 
3 16863 16864 16865 
3 16866 16867 16868 
3 16869 16870 16871 
3 16872 16873 16874 
3 16875 16876 16877 
3 16878 16879 16880 
3 16881 16882 16883 
3 16884 16885 16886 
3 16887 16888 16889 
3 16890 16891 16892 
3 16893 16894 16895 
3 16896 16897 16898 
3 16899 16900 16901 
3 16902 16903 16904 
3 16905 16906 16907 
3 16908 16909 16910 
3 16911 16912 16913 
3 16914 16915 16916 
3 16917 16918 16919 
3 16920 16921 16922 
3 16923 16924 16925 
3 16926 16927 16928 
3 16929 16930 16931 
3 16932 16933 16934 
3 16935 16936 16937 
3 16938 16939 16940 
3 16941 16942 16943 
3 16944 16945 16946 
3 16947 16948 16949 
3 16950 16951 16952 
3 16953 16954 16955 
3 16956 16957 16958 
3 16959 16960 16961 
3 16962 16963 16964 
3 16965 16966 16967 
3 16968 16969 16970 
3 16971 16972 16973 
3 16974 16975 16976 
3 16977 16978 16979 
3 16980 16981 16982 
3 16983 16984 16985 
3 16986 16987 16988 
3 16989 16990 16991 
3 16992 16993 16994 
3 16995 16996 16997 
3 16998 16999 17000 
3 17001 17002 17003 
3 17004 17005 17006 
3 17007 17008 17009 
3 17010 17011 17012 
3 17013 17014 17015 
3 17016 17017 17018 
3 17019 17020 17021 
3 17022 17023 17024 
3 17025 17026 17027 
3 17028 17029 17030 
3 17031 17032 17033 
3 17034 17035 17036 
3 17037 17038 17039 
3 17040 17041 17042 
3 17043 17044 17045 
3 17046 17047 17048 
3 17049 17050 17051 
3 17052 17053 17054 
3 17055 17056 17057 
3 17058 17059 17060 
3 17061 17062 17063 
3 17064 17065 17066 
3 17067 17068 17069 
3 17070 17071 17072 
3 17073 17074 17075 
3 17076 17077 17078 
3 17079 17080 17081 
3 17082 17083 17084 
3 17085 17086 17087 
3 17088 17089 17090 
3 17091 17092 17093 
3 17094 17095 17096 
3 17097 17098 17099 
3 17100 17101 17102 
3 17103 17104 17105 
3 17106 17107 17108 
3 17109 17110 17111 
3 17112 17113 17114 
3 17115 17116 17117 
3 17118 17119 17120 
3 17121 17122 17123 
3 17124 17125 17126 
3 17127 17128 17129 
3 17130 17131 17132 
3 17133 17134 17135 
3 17136 17137 17138 
3 17139 17140 17141 
3 17142 17143 17144 
3 17145 17146 17147 
3 17148 17149 17150 
3 17151 17152 17153 
3 17154 17155 17156 
3 17157 17158 17159 
3 17160 17161 17162 
3 17163 17164 17165 
3 17166 17167 17168 
3 17169 17170 17171 
3 17172 17173 17174 
3 17175 17176 17177 
3 17178 17179 17180 
3 17181 17182 17183 
3 17184 17185 17186 
3 17187 17188 17189 
3 17190 17191 17192 
3 17193 17194 17195 
3 17196 17197 17198 
3 17199 17200 17201 
3 17202 17203 17204 
3 17205 17206 17207 
3 17208 17209 17210 
3 17211 17212 17213 
3 17214 17215 17216 
3 17217 17218 17219 
3 17220 17221 17222 
3 17223 17224 17225 
3 17226 17227 17228 
3 17229 17230 17231 

CELL_DATA 5744
FIELD FieldData 5
normal_stress_average 1 5744 double
0 0 0 0 0 0 0 0 0 
0 0 0 0 0 0 0 0 620515.23482 
466558.53274 2137619.5322 339210.22262 995150.62676 755043.60486 613854.56828 133964.08691 1185070.466 322493.85371 
143550.52422 0 0 0 0 0 0 0 0 
0 0 0 0 0 0 0 0 0 
0 0 0 0 0 0 0 0 0 
0 0 0 0 0 0 0 0 0 
0 0 0 0 0 0 0 0 0 
0 0 0 0 0 0 0 0 0 
0 0 0 0 0 0 0 0 0 
0 0 0 0 0 0 0 0 0 
0 0 0 0 0 0 0 0 0 
0 0 0 0 0 0 0 0 0 
0 0 0 0 0 0 0 0 0 
0 0 0 0 0 0 0 0 0 
0 0 799557.8543 1688932.5991 1279589.4547 810652.7734 2186597.4127 297342.56453 3055704.1475 
1148669.5958 5541460.0655 905779.30778 196066.69436 1572699.1653 3437438.5399 2619455.0377 5563863.5061 1514579.8177 
2843078.5298 488241.94163 1190174.5215 2054556.4593 1259745.8806 819518.82792 515889.28893 1979114.946 19954.865062 
323625.57749 1104836.0049 1496072.6488 620263.00165 523802.31975 0 0 0 0 
0 0 0 0 0 0 0 0 0 
0 0 0 0 0 0 0 0 0 
0 0 0 0 0 0 0 0 0 
0 0 0 0 0 0 0 0 0 
0 0 0 0 0 0 0 0 0 
0 0 0 0 0 0 0 0 0 
0 0 0 0 0 0 0 0 0 
0 0 0 0 0 0 0 0 0 
0 0 0 0 0 0 0 0 0 
0 0 0 0 0 0 0 0 -0 
-0 -0 -0 -0 -0 -0 -0 -0 -0 
-0 -0 -0 -0 -0 -0 -0 -0 -0 
-0 -0 -0 -0 -0 -0 -0 -0 -0 
-0 -0 -0 -0 -0 -0 -0 -0 -0 
-0 -0 -0 -0 -0 -0 -0 -0 -0 
-0 -0 -0 -0 -0 -0 -0 -0 -0 
-0 -0 -0 -0 -0 -0 -0 -0 -0 
-0 -0 -0 -0 0 0 0 0 0 
0 0 0 0 0 0 0 0 0 
0 0 0 0 0 0 0 0 0 
0 0 0 4361018.5677 1903119.6389 547894.95973 4483452.0122 6254266.186 2619352.9452 
1830963.9475 1695523.7923 0 0 0 0 0 0 0 
0 0 0 0 0 0 0 0 0 
0 0 0 0 0 0 0 0 0 
0 0 0 0 0 0 0 0 0 
0 0 0 0 0 0 0 0 0 
0 0 0 0 0 0 0 0 0 
0 0 0 0 0 0 0 0 0 
0 0 0 0 0 0 0 0 0 
0 0 0 0 0 0 0 0 0 
0 0 0 0 0 0 0 0 0 
0 0 0 0 0 0 0 0 0 
0 0 0 0 0 0 0 0 0 
0 0 0 0 0 0 0 0 0 
0 0 0 0 0 0 0 0 0 
0 0 0 0 0 0 0 -0 -0 
-0 -0 -0 -0 -0 -0 -0 -0 -0 
-0 -0 -0 -0 -0 -0 -0 -0 -0 
-0 -0 -0 -0 -0 -0 -0 -0 -0 
-0 -0 -0 -0 -0 -0 -0 0 0 
0 0 0 0 0 0 0 0 0 
0 0 0 0 -0 -0 0 0 0 
0 0 0 0 0 0 0 0 0 
0 0 0 0 0 0 0 0 0 
0 0 0 0 0 0 0 0 0 
0 0 0 0 0 0 0 0 0 
0 0 0 -0 -0 -0 -0 -0 -0 
-0 -0 -0 -0 -0 -0 0 0 0 
0 0 0 0 0 0 0 0 0 
0 0 0 0 0 0 0 0 0 
0 0 0 0 0 0 0 0 0 
0 0 0 0 0 0 0 0 0 
0 0 0 0 0 0 -0 -0 -0 
-0 -0 -0 -0 -0 -0 -0 -0 0 
0 0 0 0 0 0 0 0 0 
0 0 -0 0 0 0 0 0 0 
0 0 0 0 0 0 0 0 0 
0 0 0 0 0 0 0 0 0 
0 0 0 0 0 0 0 0 0 
0 0 0 0 0 0 0 0 0 
0 0 0 0 0 0 -0 -0 -0 
-0 -0 -0 -0 -0 -0 -0 -0 -0 
0 0 0 0 0 0 0 0 0 
0 0 0 0 0 0 0 0 0 
0 0 0 0 0 0 0 0 0 
-0 -0 0 0 0 0 0 0 0 
0 0 0 0 0 0 0 0 0 
0 0 0 0 0 0 0 0 0 
0 0 0 0 0 0 0 0 0 
0 0 -0 -0 -0 -0 -0 -0 -0 
0 0 0 0 0 0 0 0 0 
0 0 0 0 0 0 0 0 0 
0 0 0 0 0 0 -0 -0 0 
0 0 0 0 0 0 0 0 0 
0 0 0 0 0 0 0 0 0 
0 0 0 0 0 0 0 0 0 
0 0 0 0 0 0 0 0 0 
0 0 0 0 0 0 0 0 -0 
0 0 0 0 0 0 0 0 0 
0 0 0 0 0 0 0 0 0 
0 0 0 0 0 0 0 0 0 
0 0 0 0 0 0 0 0 0 
0 0 0 0 0 0 0 0 0 
0 0 0 0 0 0 0 0 0 
0 0 0 0 0 0 0 0 0 
0 0 0 0 0 0 0 0 0 
0 0 0 0 0 0 0 0 0 
0 0 0 0 0 0 0 0 0 
0 0 0 0 0 0 0 0 0 
0 0 0 0 0 0 0 0 0 
0 0 0 0 0 0 0 0 0 
0 0 0 0 0 0 0 0 0 
0 0 0 0 0 0 0 0 0 
0 0 0 0 0 0 0 0 0 
0 0 0 0 0 0 0 0 0 
0 0 0 0 0 0 0 0 0 
0 0 0 0 0 0 0 0 0 
0 0 0 0 0 0 0 0 0 
0 0 0 0 0 0 0 0 0 
0 0 0 0 0 0 0 0 0 
0 0 0 0 0 0 0 0 0 
0 0 0 0 0 0 0 0 0 
0 0 0 0 -0 -0 -0 -0 -0 
-0 0 0 0 0 0 0 0 0 
0 0 0 0 0 0 0 0 0 
0 0 0 0 0 0 0 0 0 
0 0 0 0 0 -0 -0 0 0 
0 0 0 0 0 0 0 0 0 
0 0 0 0 0 0 0 0 0 
0 0 0 0 0 0 0 -0 -0 
-0 -0 -0 -0 -0 -0 -0 -0 0 
0 0 0 0 0 0 0 0 0 
0 0 0 0 0 0 0 0 0 
0 0 0 0 0 0 0 0 0 
0 0 0 0 0 0 0 0 0 
0 0 0 0 0 0 -0 -0 0 
0 0 0 0 0 0 0 0 0 
0 0 0 0 0 0 -0 -0 -0 
-0 -0 -0 -0 -0 -0 -0 -0 -0 
-0 -0 -0 0 0 0 0 0 0 
0 0 0 0 0 0 0 0 0 
0 0 0 0 0 0 0 0 0 
0 0 0 0 0 0 0 0 0 
0 0 0 0 0 0 0 0 0 
0 -0 -0 -0 -0 -0 -0 -0 -0 
-0 -0 -0 -0 0 0 0 0 0 
0 0 0 0 0 0 0 0 0 
0 0 0 0 0 0 0 0 0 
0 0 0 0 0 0 0 0 0 
0 0 0 0 -0 0 0 0 0 
0 0 0 0 -0 -0 -0 -0 -0 
-0 -0 -0 -0 -0 -0 -0 -0 -0 
-0 -0 -0 -0 -0 -0 -0 -0 -0 
0 0 0 0 0 0 0 0 0 
0 0 0 0 0 0 0 0 0 
0 0 0 0 0 0 0 0 0 
0 0 0 0 0 0 0 0 0 
0 0 0 0 0 0 0 0 0 
0 0 0 0 0 0 0 0 0 
0 0 0 0 0 0 0 0 0 
0 0 0 0 0 0 0 0 0 
0 0 0 0 0 0 0 0 0 
0 0 0 0 0 0 0 0 0 
0 0 0 0 0 0 0 -0 -0 
-0 -0 -0 -0 -0 -0 -0 -0 -0 
-0 -0 -0 -0 -0 -0 0 0 0 
0 0 0 0 0 0 0 0 0 
0 0 0 0 0 0 0 0 0 
0 0 0 0 0 -0 -0 -0 -0 
-0 0 0 0 0 0 0 0 0 
-0 -0 0 0 0 0 0 0 0 
0 0 -0 -0 0 0 0 0 0 
0 0 0 0 0 0 0 0 -0 
-0 -0 -0 0 0 0 0 0 0 
0 0 0 0 0 0 0 0 -0 
-0 -0 0 0 0 0 0 0 0 
0 0 -0 0 0 0 0 0 0 
0 0 0 0 0 0 0 0 0 
0 -0 -0 -0 -0 0 0 0 0 
0 0 0 0 0 0 0 0 0 
0 0 0 0 0 -0 -0 0 0 
0 0 0 0 0 0 0 0 -0 
-0 -0 -0 -0 0 0 0 0 0 
0 0 0 0 0 0 0 0 0 
0 0 0 0 -0 -0 -0 0 0 
0 0 0 0 0 0 0 0 0 
0 0 0 0 0 0 -0 -0 -0 
-0 0 0 0 0 0 0 0 0 
0 0 0 0 0 0 0 0 0 
0 0 0 0 -0 -0 0 0 0 
0 0 0 0 0 0 0 0 0 
0 0 0 0 0 0 0 0 0 
-0 -0 -0 0 0 0 0 0 0 
0 0 0 0 0 0 0 0 0 
0 0 0 -0 -0 -0 -0 -0 0 
0 0 0 0 0 0 0 0 0 
0 0 0 0 0 0 0 0 0 
0 0 0 0 0 0 0 0 0 
0 0 0 0 0 0 0 0 0 
0 0 0 0 0 0 0 0 -0 
-0 -0 -0 -0 -0 0 0 0 0 
0 0 0 0 0 0 0 0 0 
0 0 0 0 0 0 0 0 0 
0 0 -0 -0 -0 0 0 0 0 
0 0 0 0 0 0 0 0 0 
0 0 0 0 0 0 0 0 0 
0 0 0 0 0 0 0 0 0 
-0 -0 -0 0 0 0 0 0 0 
0 0 0 0 0 0 0 0 0 
0 0 0 0 0 0 0 0 0 
0 0 0 0 0 -0 7311493.727 15734589.398 2434802.065 
0 0 0 0 0 0 0 0 0 
0 0 0 0 0 0 0 0 0 
0 0 0 0 0 0 0 0 0 
0 0 0 0 0 0 0 0 0 
0 0 0 0 0 0 0 0 0 
0 0 0 0 0 0 0 0 0 
0 0 0 0 0 0 0 0 0 
0 0 0 0 0 0 0 0 0 
0 0 0 0 0 0 0 0 0 
0 0 0 0 0 0 0 0 0 
0 0 0 0 0 0 0 0 0 
0 0 0 0 0 0 0 0 0 
0 0 0 0 0 0 0 0 0 
0 0 0 0 0 0 0 0 0 
0 0 0 0 0 0 0 0 0 
0 0 0 0 0 0 0 0 0 
0 0 0 0 0 0 0 0 0 
0 0 0 0 0 0 0 0 0 
0 0 0 0 0 0 0 0 0 
0 0 0 0 0 0 0 0 0 
0 0 0 0 0 0 0 0 0 
0 0 0 0 0 0 0 0 0 
0 0 0 0 0 0 0 0 0 
0 0 0 0 0 0 0 0 0 
0 0 0 0 0 0 0 0 0 
0 0 0 0 0 0 0 0 0 
0 0 0 0 0 0 0 0 0 
0 0 0 0 0 0 0 0 0 
0 0 0 0 0 0 0 0 0 
0 0 0 0 0 0 0 0 0 
0 0 0 0 0 0 0 0 0 
0 0 0 0 0 0 0 0 0 
0 0 0 0 0 0 0 0 0 
0 0 0 0 0 0 0 0 0 
0 0 0 0 0 0 0 0 0 
0 0 0 0 0 0 0 0 0 
0 0 0 0 0 0 0 0 0 
0 0 0 0 0 0 0 0 0 
0 0 0 0 0 0 0 0 0 
0 0 0 0 0 0 0 0 0 
0 0 0 0 0 0 0 0 0 
0 0 0 0 0 0 0 0 0 
0 0 0 0 0 0 0 0 0 
0 0 0 0 0 0 0 0 0 
0 0 0 0 0 0 0 0 0 
0 0 0 0 0 0 0 0 0 
0 0 0 0 0 0 0 0 0 
0 0 0 0 0 0 0 0 0 
0 0 0 0 0 0 0 0 0 
0 0 0 0 0 0 0 0 0 
0 0 0 0 0 0 0 0 0 
0 0 0 0 0 0 0 0 0 
0 0 0 0 0 0 0 0 0 
0 0 0 0 0 0 0 0 0 
0 0 0 0 0 0 0 0 0 
0 0 0 0 0 0 0 0 0 
0 0 0 0 0 0 0 0 0 
0 0 0 0 0 0 0 0 0 
0 0 0 0 0 0 0 0 0 
0 0 0 0 0 0 0 0 0 
0 0 0 0 0 0 0 0 0 
0 0 0 0 0 0 0 0 0 
0 0 0 0 0 0 0 0 0 
0 0 0 0 0 0 0 0 0 
0 0 0 0 0 0 0 0 0 
0 0 0 0 0 0 0 0 0 
0 0 0 0 0 0 0 0 0 
0 0 0 0 0 0 0 0 0 
0 0 0 0 0 0 0 0 0 
0 0 0 0 0 0 0 0 0 
0 0 0 0 0 0 0 0 0 
0 0 0 0 0 0 0 0 0 
0 0 0 0 0 0 0 0 0 
0 0 0 0 0 0 0 0 0 
0 0 0 0 0 0 0 0 0 
0 0 0 0 0 0 0 0 0 
0 0 0 0 0 0 0 0 0 
0 0 0 0 0 0 0 0 0 
0 0 0 0 0 0 0 0 0 
0 0 0 0 0 0 0 0 0 
0 0 0 0 0 0 0 0 0 
0 0 0 0 0 0 0 0 0 
0 0 0 0 0 0 0 0 0 
0 0 0 0 0 0 0 0 0 
0 0 0 0 0 0 0 0 0 
0 0 5721133.6432 3693642.6853 -0 -0 0 0 0 
0 0 0 0 0 0 0 0 0 
0 0 0 0 0 0 0 0 0 
0 0 0 0 0 -0 -0 0 0 
0 0 0 0 0 0 0 0 0 
0 0 0 0 0 0 0 0 0 
0 0 0 0 0 0 0 0 0 
0 0 0 0 0 0 4312372.9887 -0 0 
0 0 0 0 0 0 0 0 0 
0 0 0 0 0 0 0 0 0 
0 0 0 0 0 0 0 0 0 
0 -0 -0 -0 -0 -0 -0 -0 0 
0 0 0 0 0 0 0 0 0 
0 0 0 0 0 0 0 0 0 
0 0 0 0 0 0 0 0 0 
0 0 0 0 0 0 0 0 0 
0 0 0 0 0 0 0 0 -0 
-0 -0 -0 -0 -0 -0 0 0 0 
0 0 0 0 0 0 0 0 0 
0 0 0 0 0 0 -0 -0 -0 
0 0 0 0 0 0 0 0 0 
0 0 0 0 0 0 0 0 0 
0 0 0 0 0 0 0 -0 -0 
-0 -0 0 0 0 0 0 0 0 
0 0 0 0 0 0 0 -0 -0 
-0 -0 0 0 0 0 0 0 0 
0 0 0 0 0 0 0 0 -0 
-0 -0 -0 -0 0 0 0 0 0 
0 0 0 0 0 0 0 0 0 
0 0 0 0 -0 -0 -0 -0 0 
0 0 0 0 0 0 0 0 0 
0 0 0 0 0 0 0 0 0 
0 0 0 0 0 0 0 0 0 
0 0 -0 -0 -0 -0 -0 0 0 
0 0 0 0 0 0 0 0 -0 
-0 0 0 0 0 0 0 -0 -0 
-0 0 0 0 0 0 0 0 0 
0 0 0 0 0 0 -0 -0 -0 
-0 0 0 0 0 0 0 0 0 
0 0 0 -0 -0 -0 -0 0 0 
0 0 0 0 0 -0 0 0 0 
0 0 0 0 0 -0 -0 -0 -0 
0 0 0 0 0 0 0 0 0 
0 0 0 0 0 -0 -0 -0 -0 
-0 -0 0 0 0 0 0 0 0 
0 0 0 0 0 0 0 0 0 
0 0 0 0 0 0 0 0 0 
0 0 0 0 0 0 0 0 0 
0 0 0 0 0 0 0 0 0 
0 0 0 0 0 0 0 0 0 
0 0 0 0 0 0 0 0 0 
0 0 -0 -0 -0 -0 -0 -0 -0 
-0 -0 -0 -0 -0 -0 -0 -0 -0 
-0 -0 -0 -0 -0 -0 -0 -0 -0 
0 0 0 0 0 0 0 0 0 
0 0 0 0 0 0 0 0 0 
0 0 0 0 0 0 0 0 0 
-0 -0 0 0 0 0 0 0 0 
0 0 0 0 0 0 0 0 0 
0 0 0 0 0 0 0 0 0 
0 0 0 0 0 0 0 0 0 
0 0 0 0 0 0 0 0 0 
0 0 0 0 0 0 0 0 0 
0 0 0 0 0 0 0 0 0 
0 0 0 0 0 0 0 0 0 
0 0 0 0 0 0 0 0 0 
0 0 0 0 0 0 0 0 0 
0 0 0 0 0 0 0 0 0 
0 0 0 0 0 0 0 0 0 
0 0 0 0 0 0 0 0 0 
0 0 0 0 0 0 0 0 0 
-0 -0 -0 -0 -0 -0 -0 -0 -0 
-0 -0 -0 -0 -0 -0 -0 -0 -0 
-0 -0 -0 -0 -0 -0 -0 -0 0 
0 0 0 0 0 0 0 0 0 
0 0 0 0 0 0 0 0 0 
0 0 0 0 0 0 0 0 0 
0 0 0 0 0 0 0 0 0 
0 0 0 0 0 0 0 0 0 
0 0 0 0 0 0 0 0 0 
0 0 0 0 0 0 0 0 0 
0 0 0 0 0 0 0 0 0 
0 0 0 0 0 0 0 0 0 
0 0 0 0 0 0 0 0 0 
0 0 0 0 0 0 0 0 0 
0 0 0 0 0 0 11936527.903 17767280.445 0 
0 0 0 0 0 0 0 0 0 
0 0 0 0 0 0 0 0 0 
0 0 0 0 0 0 0 0 0 
13780922.808 20268954.105 0 0 0 0 0 0 0 
-0 0 0 0 0 0 0 4978348.933 5623802.224 
0 0 0 0 0 -0 -0 0 0 
0 0 -0 0 0 0 0 0 0 
0 0 0 0 0 0 0 0 0 
0 0 0 0 0 0 0 0 -0 
-0 -0 -0 0 0 0 0 0 0 
0 0 0 0 0 0 0 0 0 
0 0 -0 -0 0 0 0 0 0 
0 0 0 0 0 0 0 -0 -0 
-0 0 0 0 0 -0 -0 0 0 
0 0 0 0 0 0 0 0 0 
0 -0 0 0 0 -0 -0 0 0 
0 0 0 0 -0 -0 -0 -0 -0 
0 0 0 0 0 0 0 0 0 
0 0 0 0 0 0 0 0 0 
0 0 0 0 0 0 0 0 0 
0 0 0 0 0 0 0 0 0 
0 0 0 0 0 0 0 0 0 
0 0 0 0 0 0 0 0 0 
0 0 0 0 0 0 0 -0 -0 
-0 -0 -0 -0 -0 -0 -0 -0 -0 
-0 -0 -0 -0 -0 0 0 0 0 
0 -0 -0 0 0 0 0 -0 0 
0 0 0 0 0 0 0 -0 -0 
0 0 0 0 0 -0 0 0 0 
0 0 0 -0 -0 0 0 0 0 
0 0 0 0 -0 -0 0 0 0 
0 0 0 0 0 0 -0 -0 -0 
-0 0 0 0 0 0 0 0 0 
0 0 0 0 0 0 0 0 0 
-0 -0 -0 0 0 0 0 0 0 
-0 -0 0 0 0 0 0 0 0 
0 0 0 0 0 0 0 0 0 
-0 -0 -0 0 0 0 0 0 0 
0 0 0 0 0 0 5608401.8422 0 0 
0 0 0 0 0 0 -0 -0 0 
0 0 0 10314483.442 16346311.856 0 0 0 0 
0 0 0 0 0 0 0 0 0 
0 0 0 0 0 0 0 0 0 
0 0 19542468.482 9358615.2164 0 0 0 0 0 
0 0 0 0 0 0 0 0 0 
0 0 0 0 0 0 0 0 0 
0 0 0 0 0 0 0 0 0 
0 0 0 0 0 0 0 0 0 
0 0 0 0 0 0 0 0 0 
0 0 0 0 0 0 0 0 0 
0 0 0 0 0 0 0 0 0 
0 0 0 0 0 0 0 0 0 
0 0 0 0 0 0 0 0 0 
0 0 0 0 0 0 0 0 0 
0 0 0 0 0 0 0 0 0 
0 0 0 0 0 0 0 0 0 
0 0 0 0 0 0 0 0 0 
0 0 0 0 0 0 0 0 0 
0 0 0 0 0 0 0 0 0 
0 0 0 0 0 0 0 0 0 
0 0 0 0 0 0 0 0 0 
0 0 0 0 0 0 0 0 0 
0 0 0 0 0 0 0 0 0 
0 0 0 0 0 0 0 0 0 
0 0 0 0 0 0 0 0 0 
0 0 0 0 0 0 0 0 0 
0 0 0 0 0 0 0 0 0 
0 0 0 0 0 0 0 0 0 
0 0 0 0 0 0 0 0 0 
0 0 0 0 0 0 0 0 0 
0 0 0 0 0 0 0 0 0 
0 0 0 0 0 0 0 0 0 
0 0 0 0 0 0 0 0 0 
0 0 0 0 0 0 0 0 0 
0 0 0 0 0 0 0 0 0 
0 0 0 0 0 0 0 0 0 
0 0 0 0 0 0 0 0 0 
0 0 0 0 0 0 0 0 0 
0 0 0 0 0 0 0 0 0 
0 0 0 0 0 0 0 0 0 
0 0 0 0 0 0 0 0 0 
0 0 0 0 0 0 0 0 0 
0 0 0 0 0 0 0 0 0 
0 0 0 0 0 0 0 0 0 
0 0 0 0 0 0 0 0 0 
0 0 0 0 0 0 0 0 0 
0 0 0 0 0 0 0 0 0 
0 0 0 0 0 0 0 0 0 
0 0 0 0 0 0 0 0 0 
0 0 0 0 0 0 0 0 0 
0 0 0 0 0 0 0 0 0 
0 0 0 0 0 0 0 0 0 
0 0 0 0 0 0 0 0 0 
0 0 0 0 0 0 0 0 0 
0 0 0 0 0 0 0 0 0 
0 0 0 0 0 0 0 -0 0 
0 0 0 0 0 0 0 0 0 
0 0 0 0 0 0 0 0 0 
0 0 0 0 0 0 0 0 0 
0 0 0 -0 -0 -0 -0 -0 -0 
-0 0 0 0 0 0 0 0 0 
0 0 0 0 0 0 0 0 0 
0 0 0 0 0 0 0 0 0 
0 0 0 0 0 0 0 0 0 
-0 0 0 0 0 0 0 0 0 
0 0 0 0 0 0 0 0 0 
0 0 0 0 0 0 0 0 0 
0 0 -0 -0 -0 -0 -0 -0 0 
0 0 0 0 0 0 0 0 0 
0 0 0 0 0 0 0 0 0 
0 0 0 0 0 0 0 0 0 
0 -0 -0 -0 -0 -0 -0 -0 -0 
-0 -0 -0 0 0 0 0 0 0 
0 0 0 0 0 0 0 0 0 
0 0 0 0 0 0 0 0 0 
0 0 0 0 0 0 0 0 0 
0 0 0 0 -0 0 0 0 0 
0 0 0 0 0 0 0 0 0 
0 0 0 0 0 0 0 -0 -0 
-0 -0 -0 -0 -0 -0 -0 -0 -0 
-0 -0 -0 -0 0 0 0 0 0 
0 0 0 0 0 0 0 0 0 
0 0 0 0 0 0 0 0 0 
0 0 0 0 0 0 0 0 0 
0 0 0 0 0 0 0 0 0 
0 0 0 0 0 0 0 0 0 
0 0 0 0 0 0 0 0 0 
0 -0 -0 -0 -0 -0 -0 -0 -0 
-0 -0 -0 -0 -0 0 0 0 0 
0 0 0 0 0 0 0 0 0 
0 0 0 0 0 0 0 0 0 
0 0 0 0 0 0 0 0 0 
0 0 -0 0 0 0 0 0 0 
0 0 0 0 0 0 0 0 0 
0 0 0 0 0 0 0 0 0 
0 0 0 0 0 0 0 0 0 
0 0 0 0 0 0 0 -0 -0 
-0 -0 -0 -0 -0 -0 -0 -0 -0 
-0 -0 -0 -0 -0 -0 -0 -0 -0 
-0 -0 -0 -0 -0 -0 -0 -0 -0 
-0 -0 -0 -0 -0 -0 0 0 0 
0 0 0 0 0 0 0 0 0 
0 0 0 0 0 0 0 0 0 
0 0 0 0 0 0 0 0 0 
0 0 0 0 0 0 0 0 0 
0 0 0 0 0 0 0 0 0 
0 0 0 0 0 0 0 0 0 
0 0 0 0 0 0 0 0 0 
0 0 0 0 0 0 0 0 0 
0 0 0 0 0 0 0 0 0 
0 0 0 0 0 0 0 0 0 
0 0 0 0 0 0 0 0 0 
0 0 0 0 0 0 0 0 0 
0 0 0 0 0 0 0 0 0 
-0 -0 -0 -0 -0 -0 -0 -0 -0 
-0 -0 -0 -0 -0 -0 -0 -0 -0 
-0 -0 -0 -0 -0 -0 -0 0 0 
0 0 0 0 0 0 0 0 0 
0 0 0 0 0 0 0 0 0 
0 0 0 0 0 0 0 0 0 
0 0 0 -0 -0 -0 -0 0 0 
0 0 0 0 0 0 0 0 0 
0 0 0 0 0 0 0 0 0 
0 0 0 0 0 0 0 0 0 
0 0 0 0 0 -0 -0 -0 -0 
-0 -0 -0 -0 -0 -0 -0 -0 -0 
-0 -0 0 0 0 0 0 0 0 
0 0 0 0 0 0 0 0 0 
0 0 0 0 0 -0 -0 -0 -0 
0 0 0 0 0 0 0 0 0 
0 0 0 0 0 0 0 0 0 
0 0 0 0 0 0 0 0 0 
0 0 0 0 0 0 0 0 0 
0 0 0 0 0 0 -0 -0 -0 
-0 -0 -0 -0 -0 -0 -0 -0 -0 
-0 -0 -0 0 0 0 0 0 0 
0 0 0 0 0 0 0 0 0 
0 0 -0 0 0 0 0 0 0 
0 0 0 0 0 0 0 0 0 
0 0 0 0 0 0 0 0 0 
0 0 0 0 0 0 0 0 0 
0 0 0 0 0 0 0 0 0 
-0 -0 -0 -0 -0 -0 -0 -0 -0 
-0 -0 -0 -0 0 0 0 0 0 
0 0 0 0 0 0 0 0 0 
0 0 0 0 0 0 0 0 0 
0 0 0 0 0 0 -0 -0 -0 
-0 -0 -0 -0 0 0 0 0 0 
0 0 0 0 0 0 0 0 0 
0 0 0 0 0 0 0 0 0 
0 0 0 0 0 0 0 0 0 
-0 0 0 0 0 0 0 0 0 
0 0 0 0 0 0 0 0 0 
0 0 0 0 0 0 0 0 0 
0 0 0 0 0 0 0 0 0 
0 0 -0 -0 -0 -0 -0 -0 -0 
-0 0 0 0 0 0 0 0 0 
0 0 0 0 0 0 0 0 0 
0 0 0 0 0 0 0 0 0 
0 0 0 0 0 0 -0 0 0 
0 0 0 0 0 0 0 0 0 
0 0 0 0 0 0 0 0 0 
0 0 0 0 0 0 -0 -0 -0 
0 0 0 0 0 0 0 0 0 
0 0 0 0 0 0 0 0 0 
0 0 0 0 0 0 0 0 0 
0 0 0 0 0 0 0 0 0 
0 0 0 0 0 0 0 0 0 
0 0 0 0 0 0 0 0 0 
0 0 0 0 0 0 0 0 0 
0 0 0 0 0 0 0 0 0 
0 0 0 0 0 0 0 0 0 
0 0 0 0 0 0 0 0 0 
0 0 0 0 0 0 0 0 0 
0 0 0 0 0 0 0 0 0 
0 0 0 0 0 0 0 0 0 
0 0 0 0 0 0 0 0 0 
0 0 0 0 0 0 0 0 0 
0 0 0 0 0 0 0 0 0 
0 0 0 0 0 0 0 0 0 
0 0 0 0 0 0 0 0 0 
0 0 0 0 0 0 0 0 0 
0 0 0 0 0 0 0 0 0 
0 0 0 0 0 0 0 0 0 
0 0 0 0 0 0 0 0 0 
0 0 0 0 0 0 0 0 0 
0 0 0 0 0 0 0 0 0 
0 0 0 0 0 0 0 0 0 
0 0 0 -0 -0 -0 -0 -0 -0 
-0 -0 -0 -0 -0 -0 -0 -0 -0 
-0 -0 -0 -0 -0 -0 -0 -0 -0 
-0 -0 -0 -0 -0 -0 -0 -0 -0 
-0 -0 -0 789475.2801 957849.75961 642238.35679 665091.44652 202703.40523 487061.78738 
33405.262152 2785996.6021 1112575.5242 3601986.5503 1258457.5579 139228.52486 2614773.6992 2367798.1896 5323220.4755 
15678931.985 1937784.0709 38396.152692 141643.17205 5291584.7347 104113.17962 3658441.401 1121948.7599 1676278.4895 
1447432.0519 1457810.3886 1067549.2909 29874.734611 0 0 0 0 0 
0 0 0 0 0 0 0 0 0 
0 0 0 0 0 0 0 0 0 
0 0 0 0 0 0 0 0 0 
0 0 0 0 0 0 0 0 0 
0 0 0 0 0 0 777538.87532 1426017.2789 2707359.066 
1879497.5507 3754894.4181 3079543.5872 1066659.3809 1349564.2215 1472484.0926 99808.357767 -0 -0 
-0 -0 -0 -0 -0 -0 -0 -0 -0 
0 0 0 0 0 0 0 0 0 
0 0 0 0 0 0 0 0 0 
0 0 0 0 0 0 0 0 0 
0 0 0 0 0 0 0 0 386042.28289 
0 0 438406.16572 0 0 0 358793.10808 6304.5914137 0 
0 236233.27383 252417.14187 0 0 0 148141.75376 0 91706.812657 
214353.57034 272332.06087 24471.375628 79773.530412 99036.221404 32166.288506 0 0 316679.98726 
299905.65871 0 18047.869593 343160.87925 0 236324.39879 70112.913772 65839.843896 344102.62803 
276893.3177 254944.40165 232571.24358 284669.05956 127517.55834 324487.98886 521455.00824 572628.21741 491620.28578 
686137.09595 487892.88726 385280.45048 484154.30063 1059281.2811 1073834.0145 741203.99886 377200.43501 967581.38751 
1938143.9495 834476.40711 5613843.361 1928271.7598 0 0 0 0 0 
0 0 0 0 0 0 0 0 0 
0 0 0 0 0 0 0 0 0 
0 0 0 0 0 0 0 0 0 
0 376682.66243 
shear_stress_average 1 5744 double
0 0 0 0 0 0 0 0 0 
0 0 0 0 0 0 0 0 893224.96776 
1753897.0283 1874644.8932 1790087.5334 1624773.1019 1362016.9046 1567029.8735 743236.72615 592535.23299 249103.89094 
71775.262109 0 0 0 0 0 0 0 0 
0 0 0 0 0 0 0 0 0 
0 0 0 0 0 0 0 0 0 
0 0 0 0 0 0 0 0 0 
0 0 0 0 0 0 0 0 0 
0 0 0 0 0 0 0 0 0 
0 0 0 0 0 0 0 0 0 
0 0 0 0 0 0 0 0 0 
0 0 0 0 0 0 0 0 0 
0 0 0 0 0 0 0 0 0 
0 0 0 0 0 0 0 0 0 
0 0 0 0 0 0 0 0 0 
0 0 399770.67584 1729028.3773 3673918.3303 1337895.2052 4432723.6446 3148832.3962 3228128.7673 
6502044.5433 5903970.9906 6296782.1448 4004927.1609 7173301.2315 6166046.4122 6015067.9231 7360897.1494 4026224.5304 
7566961.0653 4514793.2887 7646357.5028 6798032.8396 4310445.7232 2672680.4834 5559060.9622 5931729.5128 3734205.0787 
755317.72957 523399.90864 3179128.9912 310131.50083 261901.15988 0 0 0 0 
0 0 0 0 0 0 0 0 0 
0 0 0 0 0 0 0 0 0 
0 0 0 0 0 0 0 0 0 
0 0 0 0 0 0 0 0 0 
0 0 0 0 0 0 0 0 0 
0 0 0 0 0 0 0 0 0 
0 0 0 0 0 0 0 0 0 
0 0 0 0 0 0 0 0 0 
0 0 0 0 0 0 0 0 0 
0 0 0 0 0 0 0 0 0 
0 0 0 0 0 0 0 0 0 
0 0 0 0 0 0 0 0 0 
0 0 0 0 0 0 0 0 0 
0 0 0 0 0 0 0 0 0 
0 0 0 0 0 0 0 0 0 
0 0 0 0 0 0 0 0 0 
0 0 0 0 0 0 0 0 0 
0 0 0 0 0 0 0 0 0 
0 0 0 0 0 0 0 0 0 
0 0 0 0 0 0 0 0 0 
0 0 0 3576069.8576 2861075.9042 2718845.1819 5200273.6021 7591278.7278 7875029.3403 
5082634.6502 2474766.1161 0 0 0 0 0 0 0 
0 0 0 0 0 0 0 0 0 
0 0 0 0 0 0 0 0 0 
0 0 0 0 0 0 0 0 0 
0 0 0 0 0 0 0 0 0 
0 0 0 0 0 0 0 0 0 
0 0 0 0 0 0 0 0 0 
0 0 0 0 0 0 0 0 0 
0 0 0 0 0 0 0 0 0 
0 0 0 0 0 0 0 0 0 
0 0 0 0 0 0 0 0 0 
0 0 0 0 0 0 0 0 0 
0 0 0 0 0 0 0 0 0 
0 0 0 0 0 0 0 0 0 
0 0 0 0 0 0 0 0 0 
0 0 0 0 0 0 0 0 0 
0 0 0 0 0 0 0 0 0 
0 0 0 0 0 0 0 0 0 
0 0 0 0 0 0 0 0 0 
0 0 0 0 0 0 0 0 0 
0 0 0 0 0 0 0 0 0 
0 0 0 0 0 0 0 0 0 
0 0 0 0 0 0 0 0 0 
0 0 0 0 0 0 0 0 0 
0 0 0 0 0 0 0 0 0 
0 0 0 0 0 0 0 0 0 
0 0 0 0 0 0 0 0 0 
0 0 0 0 0 0 0 0 0 
0 0 0 0 0 0 0 0 0 
0 0 0 0 0 0 0 0 0 
0 0 0 0 0 0 0 0 0 
0 0 0 0 0 0 0 0 0 
0 0 0 0 0 0 0 0 0 
0 0 0 0 0 0 0 0 0 
0 0 0 0 0 0 0 0 0 
0 0 0 0 0 0 0 0 0 
0 0 0 0 0 0 0 0 0 
0 0 0 0 0 0 0 0 0 
0 0 0 0 0 0 0 0 0 
0 0 0 0 0 0 0 0 0 
0 0 0 0 0 0 0 0 0 
0 0 0 0 0 0 0 0 0 
0 0 0 0 0 0 0 0 0 
0 0 0 0 0 0 0 0 0 
0 0 0 0 0 0 0 0 0 
0 0 0 0 0 0 0 0 0 
0 0 0 0 0 0 0 0 0 
0 0 0 0 0 0 0 0 0 
0 0 0 0 0 0 0 0 0 
0 0 0 0 0 0 0 0 0 
0 0 0 0 0 0 0 0 0 
0 0 0 0 0 0 0 0 0 
0 0 0 0 0 0 0 0 0 
0 0 0 0 0 0 0 0 0 
0 0 0 0 0 0 0 0 0 
0 0 0 0 0 0 0 0 0 
0 0 0 0 0 0 0 0 0 
0 0 0 0 0 0 0 0 0 
0 0 0 0 0 0 0 0 0 
0 0 0 0 0 0 0 0 0 
0 0 0 0 0 0 0 0 0 
0 0 0 0 0 0 0 0 0 
0 0 0 0 0 0 0 0 0 
0 0 0 0 0 0 0 0 0 
0 0 0 0 0 0 0 0 0 
0 0 0 0 0 0 0 0 0 
0 0 0 0 0 0 0 0 0 
0 0 0 0 0 0 0 0 0 
0 0 0 0 0 0 0 0 0 
0 0 0 0 0 0 0 0 0 
0 0 0 0 0 0 0 0 0 
0 0 0 0 0 0 0 0 0 
0 0 0 0 0 0 0 0 0 
0 0 0 0 0 0 0 0 0 
0 0 0 0 0 0 0 0 0 
0 0 0 0 0 0 0 0 0 
0 0 0 0 0 0 0 0 0 
0 0 0 0 0 0 0 0 0 
0 0 0 0 0 0 0 0 0 
0 0 0 0 0 0 0 0 0 
0 0 0 0 0 0 0 0 0 
0 0 0 0 0 0 0 0 0 
0 0 0 0 0 0 0 0 0 
0 0 0 0 0 0 0 0 0 
0 0 0 0 0 0 0 0 0 
0 0 0 0 0 0 0 0 0 
0 0 0 0 0 0 0 0 0 
0 0 0 0 0 0 0 0 0 
0 0 0 0 0 0 0 0 0 
0 0 0 0 0 0 0 0 0 
0 0 0 0 0 0 0 0 0 
0 0 0 0 0 0 0 0 0 
0 0 0 0 0 0 0 0 0 
0 0 0 0 0 0 0 0 0 
0 0 0 0 0 0 0 0 0 
0 0 0 0 0 0 0 0 0 
0 0 0 0 0 0 0 0 0 
0 0 0 0 0 0 0 0 0 
0 0 0 0 0 0 0 0 0 
0 0 0 0 0 0 0 0 0 
0 0 0 0 0 0 0 0 0 
0 0 0 0 0 0 0 0 0 
0 0 0 0 0 0 0 0 0 
0 0 0 0 0 0 0 0 0 
0 0 0 0 0 0 0 0 0 
0 0 0 0 0 0 0 0 0 
0 0 0 0 0 0 0 0 0 
0 0 0 0 0 0 0 0 0 
0 0 0 0 0 0 0 0 0 
0 0 0 0 0 0 0 0 0 
0 0 0 0 0 0 0 0 0 
0 0 0 0 0 0 0 0 0 
0 0 0 0 0 0 0 0 0 
0 0 0 0 0 0 0 0 0 
0 0 0 0 0 0 0 0 0 
0 0 0 0 0 0 0 0 0 
0 0 0 0 0 0 0 0 0 
0 0 0 0 0 0 0 0 0 
0 0 0 0 0 0 0 0 0 
0 0 0 0 0 0 0 0 0 
0 0 0 0 0 0 0 0 0 
0 0 0 0 0 0 0 0 0 
0 0 0 0 0 0 0 0 0 
0 0 0 0 0 0 0 0 0 
0 0 0 0 0 0 0 0 0 
0 0 0 0 0 0 0 0 0 
0 0 0 0 0 0 0 0 0 
0 0 0 0 0 0 0 0 0 
0 0 0 0 0 0 0 0 0 
0 0 0 0 0 0 0 0 0 
0 0 0 0 0 0 0 0 0 
0 0 0 0 0 0 0 0 0 
0 0 0 0 0 0 0 0 0 
0 0 0 0 0 0 0 0 0 
0 0 0 0 0 0 0 0 0 
0 0 0 0 0 0 0 0 0 
0 0 0 0 0 0 0 0 0 
0 0 0 0 0 0 0 0 0 
0 0 0 0 0 0 0 0 0 
0 0 0 0 0 0 0 0 0 
0 0 0 0 0 0 0 0 0 
0 0 0 0 0 0 0 0 0 
0 0 0 0 0 0 0 0 0 
0 0 0 0 0 0 0 0 0 
0 0 0 0 0 0 0 0 0 
0 0 0 0 0 0 0 0 0 
0 0 0 0 0 0 0 0 0 
0 0 0 0 0 0 0 0 0 
0 0 0 0 0 0 0 0 0 
0 0 0 0 0 0 0 0 0 
0 0 0 0 0 0 0 0 0 
0 0 0 0 0 0 0 0 0 
0 0 0 0 0 0 0 0 0 
0 0 0 0 0 0 0 0 0 
0 0 0 0 0 0 0 0 0 
0 0 0 0 0 0 0 0 0 
0 0 0 0 0 0 0 0 0 
0 0 0 0 0 0 0 0 0 
0 0 0 0 0 0 0 0 0 
0 0 0 0 0 0 0 0 0 
0 0 0 0 0 0 0 0 0 
0 0 0 0 0 0 0 0 0 
0 0 0 0 0 0 0 0 0 
0 0 0 0 0 0 0 0 0 
0 0 0 0 0 0 0 0 0 
0 0 0 0 0 0 0 0 0 
0 0 0 0 0 0 0 0 0 
0 0 0 0 0 0 0 0 0 
0 0 0 0 0 0 0 0 0 
0 0 0 0 0 0 3655745.7585 14963739.65 5565004.5416 
0 0 0 0 0 0 0 0 0 
0 0 0 0 0 0 0 0 0 
0 0 0 0 0 0 0 0 0 
0 0 0 0 0 0 0 0 0 
0 0 0 0 0 0 0 0 0 
0 0 0 0 0 0 0 0 0 
0 0 0 0 0 0 0 0 0 
0 0 0 0 0 0 0 0 0 
0 0 0 0 0 0 0 0 0 
0 0 0 0 0 0 0 0 0 
0 0 0 0 0 0 0 0 0 
0 0 0 0 0 0 0 0 0 
0 0 0 0 0 0 0 0 0 
0 0 0 0 0 0 0 0 0 
0 0 0 0 0 0 0 0 0 
0 0 0 0 0 0 0 0 0 
0 0 0 0 0 0 0 0 0 
0 0 0 0 0 0 0 0 0 
0 0 0 0 0 0 0 0 0 
0 0 0 0 0 0 0 0 0 
0 0 0 0 0 0 0 0 0 
0 0 0 0 0 0 0 0 0 
0 0 0 0 0 0 0 0 0 
0 0 0 0 0 0 0 0 0 
0 0 0 0 0 0 0 0 0 
0 0 0 0 0 0 0 0 0 
0 0 0 0 0 0 0 0 0 
0 0 0 0 0 0 0 0 0 
0 0 0 0 0 0 0 0 0 
0 0 0 0 0 0 0 0 0 
0 0 0 0 0 0 0 0 0 
0 0 0 0 0 0 0 0 0 
0 0 0 0 0 0 0 0 0 
0 0 0 0 0 0 0 0 0 
0 0 0 0 0 0 0 0 0 
0 0 0 0 0 0 0 0 0 
0 0 0 0 0 0 0 0 0 
0 0 0 0 0 0 0 0 0 
0 0 0 0 0 0 0 0 0 
0 0 0 0 0 0 0 0 0 
0 0 0 0 0 0 0 0 0 
0 0 0 0 0 0 0 0 0 
0 0 0 0 0 0 0 0 0 
0 0 0 0 0 0 0 0 0 
0 0 0 0 0 0 0 0 0 
0 0 0 0 0 0 0 0 0 
0 0 0 0 0 0 0 0 0 
0 0 0 0 0 0 0 0 0 
0 0 0 0 0 0 0 0 0 
0 0 0 0 0 0 0 0 0 
0 0 0 0 0 0 0 0 0 
0 0 0 0 0 0 0 0 0 
0 0 0 0 0 0 0 0 0 
0 0 0 0 0 0 0 0 0 
0 0 0 0 0 0 0 0 0 
0 0 0 0 0 0 0 0 0 
0 0 0 0 0 0 0 0 0 
0 0 0 0 0 0 0 0 0 
0 0 0 0 0 0 0 0 0 
0 0 0 0 0 0 0 0 0 
0 0 0 0 0 0 0 0 0 
0 0 0 0 0 0 0 0 0 
0 0 0 0 0 0 0 0 0 
0 0 0 0 0 0 0 0 0 
0 0 0 0 0 0 0 0 0 
0 0 0 0 0 0 0 0 0 
0 0 0 0 0 0 0 0 0 
0 0 0 0 0 0 0 0 0 
0 0 0 0 0 0 0 0 0 
0 0 0 0 0 0 0 0 0 
0 0 0 0 0 0 0 0 0 
0 0 0 0 0 0 0 0 0 
0 0 0 0 0 0 0 0 0 
0 0 0 0 0 0 0 0 0 
0 0 0 0 0 0 0 0 0 
0 0 0 0 0 0 0 0 0 
0 0 0 0 0 0 0 0 0 
0 0 0 0 0 0 0 0 0 
0 0 0 0 0 0 0 0 0 
0 0 0 0 0 0 0 0 0 
0 0 0 0 0 0 0 0 0 
0 0 0 0 0 0 0 0 0 
0 0 0 0 0 0 0 0 0 
0 0 0 0 0 0 0 0 0 
0 0 0 0 0 0 0 0 0 
0 0 8980265.0665 12279622.502 0 0 0 0 0 
0 0 0 0 0 0 0 0 0 
0 0 0 0 0 0 0 0 0 
0 0 0 0 0 0 0 0 0 
0 0 0 0 0 0 0 0 0 
0 0 0 0 0 0 0 0 0 
0 0 0 0 0 0 0 0 0 
0 0 0 0 0 0 2033772.9718 0 0 
0 0 0 0 0 0 0 0 0 
0 0 0 0 0 0 0 0 0 
0 0 0 0 0 0 0 0 0 
0 0 0 0 0 0 0 0 0 
0 0 0 0 0 0 0 0 0 
0 0 0 0 0 0 0 0 0 
0 0 0 0 0 0 0 0 0 
0 0 0 0 0 0 0 0 0 
0 0 0 0 0 0 0 0 0 
0 0 0 0 0 0 0 0 0 
0 0 0 0 0 0 0 0 0 
0 0 0 0 0 0 0 0 0 
0 0 0 0 0 0 0 0 0 
0 0 0 0 0 0 0 0 0 
0 0 0 0 0 0 0 0 0 
0 0 0 0 0 0 0 0 0 
0 0 0 0 0 0 0 0 0 
0 0 0 0 0 0 0 0 0 
0 0 0 0 0 0 0 0 0 
0 0 0 0 0 0 0 0 0 
0 0 0 0 0 0 0 0 0 
0 0 0 0 0 0 0 0 0 
0 0 0 0 0 0 0 0 0 
0 0 0 0 0 0 0 0 0 
0 0 0 0 0 0 0 0 0 
0 0 0 0 0 0 0 0 0 
0 0 0 0 0 0 0 0 0 
0 0 0 0 0 0 0 0 0 
0 0 0 0 0 0 0 0 0 
0 0 0 0 0 0 0 0 0 
0 0 0 0 0 0 0 0 0 
0 0 0 0 0 0 0 0 0 
0 0 0 0 0 0 0 0 0 
0 0 0 0 0 0 0 0 0 
0 0 0 0 0 0 0 0 0 
0 0 0 0 0 0 0 0 0 
0 0 0 0 0 0 0 0 0 
0 0 0 0 0 0 0 0 0 
0 0 0 0 0 0 0 0 0 
0 0 0 0 0 0 0 0 0 
0 0 0 0 0 0 0 0 0 
0 0 0 0 0 0 0 0 0 
0 0 0 0 0 0 0 0 0 
0 0 0 0 0 0 0 0 0 
0 0 0 0 0 0 0 0 0 
0 0 0 0 0 0 0 0 0 
0 0 0 0 0 0 0 0 0 
0 0 0 0 0 0 0 0 0 
0 0 0 0 0 0 0 0 0 
0 0 0 0 0 0 0 0 0 
0 0 0 0 0 0 0 0 0 
0 0 0 0 0 0 0 0 0 
0 0 0 0 0 0 0 0 0 
0 0 0 0 0 0 0 0 0 
0 0 0 0 0 0 0 0 0 
0 0 0 0 0 0 0 0 0 
0 0 0 0 0 0 0 0 0 
0 0 0 0 0 0 0 0 0 
0 0 0 0 0 0 0 0 0 
0 0 0 0 0 0 0 0 0 
0 0 0 0 0 0 0 0 0 
0 0 0 0 0 0 0 0 0 
0 0 0 0 0 0 0 0 0 
0 0 0 0 0 0 0 0 0 
0 0 0 0 0 0 0 0 0 
0 0 0 0 0 0 0 0 0 
0 0 0 0 0 0 0 0 0 
0 0 0 0 0 0 0 0 0 
0 0 0 0 0 0 0 0 0 
0 0 0 0 0 0 0 0 0 
0 0 0 0 0 0 0 0 0 
0 0 0 0 0 0 0 0 0 
0 0 0 0 0 0 0 0 0 
0 0 0 0 0 0 0 0 0 
0 0 0 0 0 0 0 0 0 
0 0 0 0 0 0 0 0 0 
0 0 0 0 0 0 0 0 0 
0 0 0 0 0 0 3564854.0387 5153634.5778 0 
0 0 0 0 0 0 0 0 0 
0 0 0 0 0 0 0 0 0 
0 0 0 0 0 0 0 0 0 
3752751.3743 15588773.022 0 0 0 0 0 0 0 
0 0 0 0 0 0 0 2489174.4665 2811901.112 
0 0 0 0 0 0 0 0 0 
0 0 0 0 0 0 0 0 0 
0 0 0 0 0 0 0 0 0 
0 0 0 0 0 0 0 0 0 
0 0 0 0 0 0 0 0 0 
0 0 0 0 0 0 0 0 0 
0 0 0 0 0 0 0 0 0 
0 0 0 0 0 0 0 0 0 
0 0 0 0 0 0 0 0 0 
0 0 0 0 0 0 0 0 0 
0 0 0 0 0 0 0 0 0 
0 0 0 0 0 0 0 0 0 
0 0 0 0 0 0 0 0 0 
0 0 0 0 0 0 0 0 0 
0 0 0 0 0 0 0 0 0 
0 0 0 0 0 0 0 0 0 
0 0 0 0 0 0 0 0 0 
0 0 0 0 0 0 0 0 0 
0 0 0 0 0 0 0 0 0 
0 0 0 0 0 0 0 0 0 
0 0 0 0 0 0 0 0 0 
0 0 0 0 0 0 0 0 0 
0 0 0 0 0 0 0 0 0 
0 0 0 0 0 0 0 0 0 
0 0 0 0 0 0 0 0 0 
0 0 0 0 0 0 0 0 0 
0 0 0 0 0 0 0 0 0 
0 0 0 0 0 0 0 0 0 
0 0 0 0 0 0 0 0 0 
0 0 0 0 0 0 0 0 0 
0 0 0 0 0 0 0 0 0 
0 0 0 0 0 0 0 0 0 
0 0 0 0 0 0 0 0 0 
0 0 0 0 0 0 2565396.7862 0 0 
0 0 0 0 0 0 0 0 0 
0 0 0 8028447.1607 19751756.26 0 0 0 0 
0 0 0 0 0 0 0 0 0 
0 0 0 0 0 0 0 0 0 
0 0 14322762.63 3717944.9083 0 0 0 0 0 
0 0 0 0 0 0 0 0 0 
0 0 0 0 0 0 0 0 0 
0 0 0 0 0 0 0 0 0 
0 0 0 0 0 0 0 0 0 
0 0 0 0 0 0 0 0 0 
0 0 0 0 0 0 0 0 0 
0 0 0 0 0 0 0 0 0 
0 0 0 0 0 0 0 0 0 
0 0 0 0 0 0 0 0 0 
0 0 0 0 0 0 0 0 0 
0 0 0 0 0 0 0 0 0 
0 0 0 0 0 0 0 0 0 
0 0 0 0 0 0 0 0 0 
0 0 0 0 0 0 0 0 0 
0 0 0 0 0 0 0 0 0 
0 0 0 0 0 0 0 0 0 
0 0 0 0 0 0 0 0 0 
0 0 0 0 0 0 0 0 0 
0 0 0 0 0 0 0 0 0 
0 0 0 0 0 0 0 0 0 
0 0 0 0 0 0 0 0 0 
0 0 0 0 0 0 0 0 0 
0 0 0 0 0 0 0 0 0 
0 0 0 0 0 0 0 0 0 
0 0 0 0 0 0 0 0 0 
0 0 0 0 0 0 0 0 0 
0 0 0 0 0 0 0 0 0 
0 0 0 0 0 0 0 0 0 
0 0 0 0 0 0 0 0 0 
0 0 0 0 0 0 0 0 0 
0 0 0 0 0 0 0 0 0 
0 0 0 0 0 0 0 0 0 
0 0 0 0 0 0 0 0 0 
0 0 0 0 0 0 0 0 0 
0 0 0 0 0 0 0 0 0 
0 0 0 0 0 0 0 0 0 
0 0 0 0 0 0 0 0 0 
0 0 0 0 0 0 0 0 0 
0 0 0 0 0 0 0 0 0 
0 0 0 0 0 0 0 0 0 
0 0 0 0 0 0 0 0 0 
0 0 0 0 0 0 0 0 0 
0 0 0 0 0 0 0 0 0 
0 0 0 0 0 0 0 0 0 
0 0 0 0 0 0 0 0 0 
0 0 0 0 0 0 0 0 0 
0 0 0 0 0 0 0 0 0 
0 0 0 0 0 0 0 0 0 
0 0 0 0 0 0 0 0 0 
0 0 0 0 0 0 0 0 0 
0 0 0 0 0 0 0 0 0 
0 0 0 0 0 0 0 0 0 
0 0 0 0 0 0 0 0 0 
0 0 0 0 0 0 0 0 0 
0 0 0 0 0 0 0 0 0 
0 0 0 0 0 0 0 0 0 
0 0 0 0 0 0 0 0 0 
0 0 0 0 0 0 0 0 0 
0 0 0 0 0 0 0 0 0 
0 0 0 0 0 0 0 0 0 
0 0 0 0 0 0 0 0 0 
0 0 0 0 0 0 0 0 0 
0 0 0 0 0 0 0 0 0 
0 0 0 0 0 0 0 0 0 
0 0 0 0 0 0 0 0 0 
0 0 0 0 0 0 0 0 0 
0 0 0 0 0 0 0 0 0 
0 0 0 0 0 0 0 0 0 
0 0 0 0 0 0 0 0 0 
0 0 0 0 0 0 0 0 0 
0 0 0 0 0 0 0 0 0 
0 0 0 0 0 0 0 0 0 
0 0 0 0 0 0 0 0 0 
0 0 0 0 0 0 0 0 0 
0 0 0 0 0 0 0 0 0 
0 0 0 0 0 0 0 0 0 
0 0 0 0 0 0 0 0 0 
0 0 0 0 0 0 0 0 0 
0 0 0 0 0 0 0 0 0 
0 0 0 0 0 0 0 0 0 
0 0 0 0 0 0 0 0 0 
0 0 0 0 0 0 0 0 0 
0 0 0 0 0 0 0 0 0 
0 0 0 0 0 0 0 0 0 
0 0 0 0 0 0 0 0 0 
0 0 0 0 0 0 0 0 0 
0 0 0 0 0 0 0 0 0 
0 0 0 0 0 0 0 0 0 
0 0 0 0 0 0 0 0 0 
0 0 0 0 0 0 0 0 0 
0 0 0 0 0 0 0 0 0 
0 0 0 0 0 0 0 0 0 
0 0 0 0 0 0 0 0 0 
0 0 0 0 0 0 0 0 0 
0 0 0 0 0 0 0 0 0 
0 0 0 0 0 0 0 0 0 
0 0 0 0 0 0 0 0 0 
0 0 0 0 0 0 0 0 0 
0 0 0 0 0 0 0 0 0 
0 0 0 0 0 0 0 0 0 
0 0 0 0 0 0 0 0 0 
0 0 0 0 0 0 0 0 0 
0 0 0 0 0 0 0 0 0 
0 0 0 0 0 0 0 0 0 
0 0 0 0 0 0 0 0 0 
0 0 0 0 0 0 0 0 0 
0 0 0 0 0 0 0 0 0 
0 0 0 0 0 0 0 0 0 
0 0 0 0 0 0 0 0 0 
0 0 0 0 0 0 0 0 0 
0 0 0 0 0 0 0 0 0 
0 0 0 0 0 0 0 0 0 
0 0 0 0 0 0 0 0 0 
0 0 0 0 0 0 0 0 0 
0 0 0 0 0 0 0 0 0 
0 0 0 0 0 0 0 0 0 
0 0 0 0 0 0 0 0 0 
0 0 0 0 0 0 0 0 0 
0 0 0 0 0 0 0 0 0 
0 0 0 0 0 0 0 0 0 
0 0 0 0 0 0 0 0 0 
0 0 0 0 0 0 0 0 0 
0 0 0 0 0 0 0 0 0 
0 0 0 0 0 0 0 0 0 
0 0 0 0 0 0 0 0 0 
0 0 0 0 0 0 0 0 0 
0 0 0 0 0 0 0 0 0 
0 0 0 0 0 0 0 0 0 
0 0 0 0 0 0 0 0 0 
0 0 0 0 0 0 0 0 0 
0 0 0 0 0 0 0 0 0 
0 0 0 0 0 0 0 0 0 
0 0 0 0 0 0 0 0 0 
0 0 0 0 0 0 0 0 0 
0 0 0 0 0 0 0 0 0 
0 0 0 0 0 0 0 0 0 
0 0 0 0 0 0 0 0 0 
0 0 0 0 0 0 0 0 0 
0 0 0 0 0 0 0 0 0 
0 0 0 0 0 0 0 0 0 
0 0 0 0 0 0 0 0 0 
0 0 0 0 0 0 0 0 0 
0 0 0 0 0 0 0 0 0 
0 0 0 0 0 0 0 0 0 
0 0 0 0 0 0 0 0 0 
0 0 0 0 0 0 0 0 0 
0 0 0 0 0 0 0 0 0 
0 0 0 0 0 0 0 0 0 
0 0 0 0 0 0 0 0 0 
0 0 0 0 0 0 0 0 0 
0 0 0 0 0 0 0 0 0 
0 0 0 0 0 0 0 0 0 
0 0 0 0 0 0 0 0 0 
0 0 0 0 0 0 0 0 0 
0 0 0 0 0 0 0 0 0 
0 0 0 0 0 0 0 0 0 
0 0 0 0 0 0 0 0 0 
0 0 0 0 0 0 0 0 0 
0 0 0 0 0 0 0 0 0 
0 0 0 0 0 0 0 0 0 
0 0 0 0 0 0 0 0 0 
0 0 0 0 0 0 0 0 0 
0 0 0 0 0 0 0 0 0 
0 0 0 0 0 0 0 0 0 
0 0 0 0 0 0 0 0 0 
0 0 0 0 0 0 0 0 0 
0 0 0 0 0 0 0 0 0 
0 0 0 0 0 0 0 0 0 
0 0 0 0 0 0 0 0 0 
0 0 0 0 0 0 0 0 0 
0 0 0 0 0 0 0 0 0 
0 0 0 0 0 0 0 0 0 
0 0 0 0 0 0 0 0 0 
0 0 0 0 0 0 0 0 0 
0 0 0 0 0 0 0 0 0 
0 0 0 0 0 0 0 0 0 
0 0 0 0 0 0 0 0 0 
0 0 0 0 0 0 0 0 0 
0 0 0 0 0 0 0 0 0 
0 0 0 0 0 0 0 0 0 
0 0 0 0 0 0 0 0 0 
0 0 0 0 0 0 0 0 0 
0 0 0 0 0 0 0 0 0 
0 0 0 0 0 0 0 0 0 
0 0 0 0 0 0 0 0 0 
0 0 0 0 0 0 0 0 0 
0 0 0 0 0 0 0 0 0 
0 0 0 0 0 0 0 0 0 
0 0 0 60759.569435 1417040.3083 1140383.4414 3980746.7267 8000899.5252 6424279.1408 
5031188.9266 3321302.7174 7050235.0003 8077504.9161 5715440.3732 3950541.2901 8735950.6484 8393811.4511 5105235.3692 
16895380.417 7907023.2923 6070445.0696 6051603.9769 8363160.7026 6221732.5506 4484098.5166 1864284.1085 8589086.6697 
3384405.7128 1418542.9846 1449939.7708 50940.239834 0 0 0 0 0 
0 0 0 0 0 0 0 0 0 
0 0 0 0 0 0 0 0 0 
0 0 0 0 0 0 0 0 0 
0 0 0 0 0 0 0 0 0 
0 0 0 0 0 0 1613991.789 9509404.2842 5261727.6072 
5110630.0705 8322684.7338 14206587.488 6613326.991 7617317.3619 3038586.0055 323057.84374 0 0 
0 0 0 0 0 0 0 0 0 
0 0 0 0 0 0 0 0 0 
0 0 0 0 0 0 0 0 0 
0 0 0 0 0 0 0 0 0 
0 0 0 0 0 0 0 0 193021.14144 
0 0 219203.08286 0 0 0 179396.55404 3152.2957068 0 
0 118116.63691 126208.57093 0 0 0 74070.876878 0 45853.406329 
107176.78517 136166.03044 23147.784249 39886.765206 49518.110702 27026.250549 0 0 232350.49781 
149952.82936 0 129485.76015 171580.43963 0 118162.19939 338129.35571 190512.98403 172051.31401 
144948.21337 187702.16731 300842.70754 142334.52978 173632.83034 592408.1865 599525.38933 372988.02623 437303.26117 
383792.78991 566507.48581 834330.3302 662363.40165 686689.67309 1055725.059 645660.32492 1526033.8846 1514851.6012 
2391582.222 1864274.2326 3674597.4762 1882155.1799 0 0 0 0 0 
0 0 0 0 0 0 0 0 0 
0 0 0 0 0 0 0 0 0 
0 0 0 0 0 0 0 0 0 
0 188341.33121 
stress 3 5744 double
0 0 0 0 0 0 0 0 0 
0 0 0 0 0 0 0 0 0 
0 0 0 0 0 0 0 0 0 
0 0 0 0 0 0 0 0 0 
0 0 0 0 0 0 0 0 0 
0 0 0 0 0 0 -9.1034866618e-07 108259.72574 1082206.0023 
-4.020547206e-06 1493838.8936 1030668.2348 -2.7202294095e-07 -407974.17729 2813763.9934 7.2954869196e-07 904631.37802 1581492.6564 
-2.2662784355e-06 1811924.1933 589188.52708 -4.7442282884e-07 310419.55906 1526047.3751 6.0483578865e-08 550925.81729 1590245.5154 
2.5261557678e-08 584560.7321 478158.92563 -6.0208844707e-06 1285955.5026 -319074.37527 1.5235671453e-09 -83446.214431 398863.08861 
-8.9060603055e-07 -62542.371085 147806.94528 0 0 0 0 0 0 
0 0 0 0 0 0 0 0 0 
0 0 0 0 0 0 0 0 0 
0 0 0 0 0 0 0 0 0 
0 0 0 0 0 0 0 0 0 
0 0 0 0 0 0 0 0 0 
0 0 0 0 0 0 0 0 0 
0 0 0 0 0 0 0 0 0 
0 0 0 0 0 0 0 0 0 
0 0 0 0 0 0 0 0 0 
0 0 0 0 0 0 0 0 0 
0 0 0 0 0 0 0 0 0 
0 0 0 0 0 0 0 0 0 
0 0 0 0 0 0 0 0 0 
0 0 0 0 0 0 0 0 0 
0 0 0 0 0 0 0 0 0 
0 0 0 0 0 0 0 0 0 
0 0 0 0 0 0 0 0 0 
0 0 0 0 0 0 0 0 0 
0 0 0 0 0 0 0 0 0 
0 0 0 0 0 0 0 0 0 
0 0 0 0 0 0 0 0 0 
0 0 0 0 0 0 0 0 0 
0 0 0 0 0 0 0 0 0 
0 0 0 0 0 0 0 0 0 
0 0 0 0 0 0 0 0 0 
0 0 0 0 0 0 0 0 0 
0 0 0 0 0 0 0 0 0 
0 0 0 0 0 0 0 0 0 
0 0 0 0 0 0 0 0 0 
0 0 0 0 0 0 0 0 0 
0 0 0 0 0 0 0 0 0 
0 0 0 0 0 0 0 0 0 
0 0 0 0 0 0 0 0 0 
0 0 0 0 0 0 0 0 0 
0 0 0 0 0 0 0 0 0 
0 0 0 0 0 0 556548.18493 -633175.26729 -297409.74158 
333876.75746 245460.71232 2381240.8117 1806183.7502 -860753.50927 3336439.5285 1233789.3691 -932723.14418 234334.86312 
2973625.0342 -3733665.1291 1283567.6898 2104376.1027 -1122313.1678 2077395.5887 810010.55796 -58645.574888 4370192.9897 
2902710.1281 -3146905.6347 5026657.3309 2792015.2166 -7592356.5243 -354156.11375 3347368.6231 -3126944.3145 4414435.8744 
638294.48717 -2848687.5549 2748716.6232 684572.34273 -4362771.2522 5867471.4257 305632.21473 -6915001.2766 1387608.867 
615709.34664 -6246829.6779 1908037.6803 2146092.314 -1761708.8151 8799434.8562 -511790.57047 -2020145.7084 3763179.2041 
-1784719.581 -7410195.6439 2691797.137 -1261274.3641 -3534065.8788 2557597.3053 -1363229.1597 -4826152.2994 5893484.4272 
-2357396.2372 -3104038.5369 5936504.0618 1970098.3102 -2407894.899 3238465.195 -1556216.8841 -2026875.4842 1133488.7986 
-1566555.1985 -3423910.1195 4122140.8083 -1361946.1252 -2782059.1802 5432086.197 -2152768.0799 -1847319.0433 2428515.5368 
-152210.48938 -281802.59602 756741.46894 -742130.66489 -869643.36561 -433096.47297 -1652169.9942 -188117.01893 3095164.1007 
-462176.91397 -468123.47659 -219455.34825 44241.365704 222957.37537 539716.40521 0 0 0 
0 0 0 0 0 0 0 0 0 
0 0 0 0 0 0 0 0 0 
0 0 0 0 0 0 0 0 0 
0 0 0 0 0 0 0 0 0 
0 0 0 0 0 0 0 0 0 
0 0 0 0 0 0 0 0 0 
0 0 0 0 0 0 0 0 0 
0 0 0 0 0 0 0 0 0 
0 0 0 0 0 0 0 0 0 
0 0 0 0 0 0 0 0 0 
0 0 0 0 0 0 0 0 0 
0 0 0 0 0 0 0 0 0 
0 0 0 0 0 0 0 0 0 
0 0 0 0 0 0 0 0 0 
0 0 0 0 0 0 0 0 0 
0 0 0 0 0 0 0 0 0 
0 0 0 0 0 0 0 0 0 
0 0 0 0 0 0 0 0 0 
0 0 0 0 0 0 0 0 0 
0 0 0 0 0 0 0 0 0 
0 0 0 0 0 0 0 0 0 
0 0 0 0 0 0 0 0 0 
0 0 0 0 0 0 0 0 0 
0 0 0 0 0 0 0 0 0 
0 0 0 0 0 0 0 0 0 
0 0 0 0 0 0 0 0 0 
0 0 0 0 0 0 0 0 0 
0 0 0 0 0 0 0 0 0 
0 0 0 0 0 0 0 0 0 
0 0 0 0 0 0 0 0 0 
0 0 0 0 0 0 0 0 0 
0 0 0 0 0 0 0 0 0 
0 0 0 0 0 0 0 0 0 
0 0 0 0 0 0 0 0 0 
0 0 0 0 0 0 0 0 0 
0 0 0 0 0 0 0 0 0 
0 0 0 0 0 0 0 0 0 
0 0 0 0 0 0 0 0 0 
0 0 0 0 0 0 0 0 0 
0 0 0 0 0 0 0 0 0 
0 0 0 0 0 0 0 0 0 
0 0 0 0 0 0 0 0 0 
0 0 0 0 0 0 0 0 0 
0 0 0 0 0 0 0 0 0 
0 0 0 0 0 0 0 0 0 
0 0 0 0 0 0 0 0 0 
0 0 0 0 0 0 0 0 0 
0 0 0 0 0 0 0 0 0 
0 0 0 0 0 0 0 0 0 
0 0 0 0 0 0 0 0 0 
0 0 0 0 0 0 0 0 0 
0 0 0 0 0 0 0 0 0 
0 0 0 0 0 0 0 0 0 
0 0 0 0 0 0 0 0 0 
0 0 0 0 0 0 0 0 0 
0 0 0 0 0 0 0 0 0 
0 0 0 0 0 0 0 0 0 
0 0 0 0 0 0 0 0 0 
0 0 0 0 0 0 0 0 0 
0 0 0 0 0 0 0 0 0 
0 0 0 0 0 0 0 0 0 
0 0 0 0 0 0 0 0 0 
4291263.8721 218393.51342 3652960.0639 -1349125.7315 169357.31188 3155756.2566 -1305892.6511 -1972301.5682 1448094.9271 
-660494.30446 -789211.40743 6788599.2746 2383977.9018 -1509211.9499 9422435.2957 373821.60496 -7672901.3999 3140690.7644 
1080105.7285 -4909885.1648 1977878.4714 599279.33299 -414505.65394 2910037.3887 0 0 0 
0 0 0 0 0 0 0 0 0 
0 0 0 0 0 0 0 0 0 
0 0 0 0 0 0 0 0 0 
0 0 0 0 0 0 0 0 0 
0 0 0 0 0 0 0 0 0 
0 0 0 0 0 0 0 0 0 
0 0 0 0 0 0 0 0 0 
0 0 0 0 0 0 0 0 0 
0 0 0 0 0 0 0 0 0 
0 0 0 0 0 0 0 0 0 
0 0 0 0 0 0 0 0 0 
0 0 0 0 0 0 0 0 0 
0 0 0 0 0 0 0 0 0 
0 0 0 0 0 0 0 0 0 
0 0 0 0 0 0 0 0 0 
0 0 0 0 0 0 0 0 0 
0 0 0 0 0 0 0 0 0 
0 0 0 0 0 0 0 0 0 
0 0 0 0 0 0 0 0 0 
0 0 0 0 0 0 0 0 0 
0 0 0 0 0 0 0 0 0 
0 0 0 0 0 0 0 0 0 
0 0 0 0 0 0 0 0 0 
0 0 0 0 0 0 0 0 0 
0 0 0 0 0 0 0 0 0 
0 0 0 0 0 0 0 0 0 
0 0 0 0 0 0 0 0 0 
0 0 0 0 0 0 0 0 0 
0 0 0 0 0 0 0 0 0 
0 0 0 0 0 0 0 0 0 
0 0 0 0 0 0 0 0 0 
0 0 0 0 0 0 0 0 0 
0 0 0 0 0 0 0 0 0 
0 0 0 0 0 0 0 0 0 
0 0 0 0 0 0 0 0 0 
0 0 0 0 0 0 0 0 0 
0 0 0 0 0 0 0 0 0 
0 0 0 0 0 0 0 0 0 
0 0 0 0 0 0 0 0 0 
0 0 0 0 0 0 0 0 0 
0 0 0 0 0 0 0 0 0 
0 0 0 0 0 0 0 0 0 
0 0 0 0 0 0 0 0 0 
0 0 0 0 0 0 0 0 0 
0 0 0 0 0 0 0 0 0 
0 0 0 0 0 0 0 0 0 
0 0 0 0 0 0 0 0 0 
0 0 0 0 0 0 0 0 0 
0 0 0 0 0 0 0 0 0 
0 0 0 0 0 0 0 0 0 
0 0 0 0 0 0 0 0 0 
0 0 0 0 0 0 0 0 0 
0 0 0 0 0 0 0 0 0 
0 0 0 0 0 0 0 0 0 
0 0 0 0 0 0 0 0 0 
0 0 0 0 0 0 0 0 0 
0 0 0 0 0 0 0 0 0 
0 0 0 0 0 0 0 0 0 
0 0 0 0 0 0 0 0 0 
0 0 0 0 0 0 0 0 0 
0 0 0 0 0 0 0 0 0 
0 0 0 0 0 0 0 0 0 
0 0 0 0 0 0 0 0 0 
0 0 0 0 0 0 0 0 0 
0 0 0 0 0 0 0 0 0 
0 0 0 0 0 0 0 0 0 
0 0 0 0 0 0 0 0 0 
0 0 0 0 0 0 0 0 0 
0 0 0 0 0 0 0 0 0 
0 0 0 0 0 0 0 0 0 
0 0 0 0 0 0 0 0 0 
0 0 0 0 0 0 0 0 0 
0 0 0 0 0 0 0 0 0 
0 0 0 0 0 0 0 0 0 
0 0 0 0 0 0 0 0 0 
0 0 0 0 0 0 0 0 0 
0 0 0 0 0 0 0 0 0 
0 0 0 0 0 0 0 0 0 
0 0 0 0 0 0 0 0 0 
0 0 0 0 0 0 0 0 0 
0 0 0 0 0 0 0 0 0 
0 0 0 0 0 0 0 0 0 
0 0 0 0 0 0 0 0 0 
0 0 0 0 0 0 0 0 0 
0 0 0 0 0 0 0 0 0 
0 0 0 0 0 0 0 0 0 
0 0 0 0 0 0 0 0 0 
0 0 0 0 0 0 0 0 0 
0 0 0 0 0 0 0 0 0 
0 0 0 0 0 0 0 0 0 
0 0 0 0 0 0 0 0 0 
0 0 0 0 0 0 0 0 0 
0 0 0 0 0 0 0 0 0 
0 0 0 0 0 0 0 0 0 
0 0 0 0 0 0 0 0 0 
0 0 0 0 0 0 0 0 0 
0 0 0 0 0 0 0 0 0 
0 0 0 0 0 0 0 0 0 
0 0 0 0 0 0 0 0 0 
0 0 0 0 0 0 0 0 0 
0 0 0 0 0 0 0 0 0 
0 0 0 0 0 0 0 0 0 
0 0 0 0 0 0 0 0 0 
0 0 0 0 0 0 0 0 0 
0 0 0 0 0 0 0 0 0 
0 0 0 0 0 0 0 0 0 
0 0 0 0 0 0 0 0 0 
0 0 0 0 0 0 0 0 0 
0 0 0 0 0 0 0 0 0 
0 0 0 0 0 0 0 0 0 
0 0 0 0 0 0 0 0 0 
0 0 0 0 0 0 0 0 0 
0 0 0 0 0 0 0 0 0 
0 0 0 0 0 0 0 0 0 
0 0 0 0 0 0 0 0 0 
0 0 0 0 0 0 0 0 0 
0 0 0 0 0 0 0 0 0 
0 0 0 0 0 0 0 0 0 
0 0 0 0 0 0 0 0 0 
0 0 0 0 0 0 0 0 0 
0 0 0 0 0 0 0 0 0 
0 0 0 0 0 0 0 0 0 
0 0 0 0 0 0 0 0 0 
0 0 0 0 0 0 0 0 0 
0 0 0 0 0 0 0 0 0 
0 0 0 0 0 0 0 0 0 
0 0 0 0 0 0 0 0 0 
0 0 0 0 0 0 0 0 0 
0 0 0 0 0 0 0 0 0 
0 0 0 0 0 0 0 0 0 
0 0 0 0 0 0 0 0 0 
0 0 0 0 0 0 0 0 0 
0 0 0 0 0 0 0 0 0 
0 0 0 0 0 0 0 0 0 
0 0 0 0 0 0 0 0 0 
0 0 0 0 0 0 0 0 0 
0 0 0 0 0 0 0 0 0 
0 0 0 0 0 0 0 0 0 
0 0 0 0 0 0 0 0 0 
0 0 0 0 0 0 0 0 0 
0 0 0 0 0 0 0 0 0 
0 0 0 0 0 0 0 0 0 
0 0 0 0 0 0 0 0 0 
0 0 0 0 0 0 0 0 0 
0 0 0 0 0 0 0 0 0 
0 0 0 0 0 0 0 0 0 
0 0 0 0 0 0 0 0 0 
0 0 0 0 0 0 0 0 0 
0 0 0 0 0 0 0 0 0 
0 0 0 0 0 0 0 0 0 
0 0 0 0 0 0 0 0 0 
0 0 0 0 0 0 0 0 0 
0 0 0 0 0 0 0 0 0 
0 0 0 0 0 0 0 0 0 
0 0 0 0 0 0 0 0 0 
0 0 0 0 0 0 0 0 0 
0 0 0 0 0 0 0 0 0 
0 0 0 0 0 0 0 0 0 
0 0 0 0 0 0 0 0 0 
0 0 0 0 0 0 0 0 0 
0 0 0 0 0 0 0 0 0 
0 0 0 0 0 0 0 0 0 
0 0 0 0 0 0 0 0 0 
0 0 0 0 0 0 0 0 0 
0 0 0 0 0 0 0 0 0 
0 0 0 0 0 0 0 0 0 
0 0 0 0 0 0 0 0 0 
0 0 0 0 0 0 0 0 0 
0 0 0 0 0 0 0 0 0 
0 0 0 0 0 0 0 0 0 
0 0 0 0 0 0 0 0 0 
0 0 0 0 0 0 0 0 0 
0 0 0 0 0 0 0 0 0 
0 0 0 0 0 0 0 0 0 
0 0 0 0 0 0 0 0 0 
0 0 0 0 0 0 0 0 0 
0 0 0 0 0 0 0 0 0 
0 0 0 0 0 0 0 0 0 
0 0 0 0 0 0 0 0 0 
0 0 0 0 0 0 0 0 0 
0 0 0 0 0 0 0 0 0 
0 0 0 0 0 0 0 0 0 
0 0 0 0 0 0 0 0 0 
0 0 0 0 0 0 0 0 0 
0 0 0 0 0 0 0 0 0 
0 0 0 0 0 0 0 0 0 
0 0 0 0 0 0 0 0 0 
0 0 0 0 0 0 0 0 0 
0 0 0 0 0 0 0 0 0 
0 0 0 0 0 0 0 0 0 
0 0 0 0 0 0 0 0 0 
0 0 0 0 0 0 0 0 0 
0 0 0 0 0 0 0 0 0 
0 0 0 0 0 0 0 0 0 
0 0 0 0 0 0 0 0 0 
0 0 0 0 0 0 0 0 0 
0 0 0 0 0 0 0 0 0 
0 0 0 0 0 0 0 0 0 
0 0 0 0 0 0 0 0 0 
0 0 0 0 0 0 0 0 0 
0 0 0 0 0 0 0 0 0 
0 0 0 0 0 0 0 0 0 
0 0 0 0 0 0 0 0 0 
0 0 0 0 0 0 0 0 0 
0 0 0 0 0 0 0 0 0 
0 0 0 0 0 0 0 0 0 
0 0 0 0 0 0 0 0 0 
0 0 0 0 0 0 0 0 0 
0 0 0 0 0 0 0 0 0 
0 0 0 0 0 0 0 0 0 
0 0 0 0 0 0 0 0 0 
0 0 0 0 0 0 0 0 0 
0 0 0 0 0 0 0 0 0 
0 0 0 0 0 0 0 0 0 
0 0 0 0 0 0 0 0 0 
0 0 0 0 0 0 0 0 0 
0 0 0 0 0 0 0 0 0 
0 0 0 0 0 0 0 0 0 
0 0 0 0 0 0 0 0 0 
0 0 0 0 0 0 0 0 0 
0 0 0 0 0 0 0 0 0 
0 0 0 0 0 0 0 0 0 
0 0 0 0 0 0 0 0 0 
0 0 0 0 0 0 0 0 0 
0 0 0 0 0 0 0 0 0 
0 0 0 0 0 0 0 0 0 
0 0 0 0 0 0 0 0 0 
0 0 0 0 0 0 0 0 0 
0 0 0 0 0 0 0 0 0 
0 0 0 0 0 0 0 0 0 
0 0 0 0 0 0 0 0 0 
0 0 0 0 0 0 0 0 0 
0 0 0 0 0 0 0 0 0 
0 0 0 0 0 0 0 0 0 
0 0 0 0 0 0 0 0 0 
0 0 0 0 0 0 0 0 0 
0 0 0 0 0 0 0 0 0 
0 0 0 0 0 0 0 0 0 
0 0 0 0 0 0 0 0 0 
0 0 0 0 0 0 0 0 0 
0 0 0 0 0 0 0 0 0 
0 0 0 0 0 0 0 0 0 
0 0 0 0 0 0 0 0 0 
0 0 0 0 0 0 0 0 0 
0 0 0 0 0 0 0 0 0 
0 0 0 0 0 0 0 0 0 
0 0 0 0 0 0 0 0 0 
0 0 0 0 0 0 0 0 0 
0 0 0 0 0 0 0 0 0 
0 0 0 0 0 0 0 0 0 
0 0 0 0 0 0 0 0 0 
0 0 0 0 0 0 0 0 0 
0 0 0 0 0 0 0 0 0 
0 0 0 0 0 0 0 0 0 
0 0 0 0 0 0 0 0 0 
0 0 0 0 0 0 0 0 0 
0 0 0 0 0 0 0 0 0 
0 0 0 0 0 0 0 0 0 
0 0 0 0 0 0 0 0 0 
0 0 0 0 0 0 0 0 0 
0 0 0 0 0 0 0 0 0 
0 0 0 0 0 0 0 0 0 
0 0 0 0 0 0 0 0 0 
0 0 0 0 0 0 0 0 0 
0 0 0 0 0 0 0 0 0 
0 0 0 0 0 0 0 0 0 
0 0 0 0 0 0 0 0 0 
0 0 0 0 0 0 0 0 0 
0 0 0 0 0 0 0 0 0 
0 0 0 0 0 0 0 0 0 
0 0 0 0 0 0 0 0 0 
0 0 0 0 0 0 0 0 0 
0 0 0 0 0 0 0 0 0 
0 0 0 0 0 0 0 0 0 
0 0 0 0 0 0 0 0 0 
0 0 0 0 0 0 0 0 0 
0 0 0 0 0 0 0 0 0 
0 0 0 0 0 0 0 0 0 
0 0 0 0 0 0 0 0 0 
0 0 0 0 0 0 0 0 0 
0 0 0 0 0 0 0 0 0 
0 0 0 0 0 0 0 0 0 
0 0 0 0 0 0 0 0 0 
0 0 0 0 0 0 0 0 0 
0 0 0 0 0 0 0 0 0 
0 0 0 0 0 0 0 0 0 
0 0 0 0 0 0 0 0 0 
0 0 0 0 0 0 0 0 0 
0 0 0 0 0 0 0 0 0 
0 0 0 0 0 0 0 0 0 
0 0 0 0 0 0 0 0 0 
0 0 0 0 0 0 0 0 0 
0 0 0 0 0 0 0 0 0 
0 0 0 0 0 0 0 0 0 
0 0 0 0 0 0 0 0 0 
0 0 0 0 0 0 0 0 0 
0 0 0 0 0 0 0 0 0 
0 0 0 0 0 0 0 0 0 
0 0 0 0 0 0 0 0 0 
0 0 0 0 0 0 0 0 0 
0 0 0 0 0 0 0 0 0 
0 0 0 0 0 0 0 0 0 
0 0 0 0 0 0 0 0 0 
0 0 0 0 0 0 0 0 0 
0 0 0 0 0 0 0 0 0 
0 0 0 0 0 0 0 0 0 
0 0 0 0 0 0 0 0 0 
0 0 0 0 0 0 0 0 0 
0 0 0 0 0 0 0 0 0 
0 0 0 0 0 0 0 0 0 
0 0 0 0 0 0 0 0 0 
0 0 0 0 0 0 0 0 0 
0 0 0 0 0 0 0 0 0 
0 0 0 0 0 0 0 0 0 
0 0 0 0 0 0 0 0 0 
0 0 0 0 0 0 0 0 0 
0 0 0 0 0 0 0 0 0 
0 0 0 0 0 0 0 0 0 
0 0 0 0 0 0 0 0 0 
0 0 0 0 0 0 0 0 0 
0 0 0 0 0 0 0 0 0 
0 0 0 0 0 0 0 0 0 
0 0 0 0 0 0 0 0 0 
0 0 0 0 0 0 0 0 0 
0 0 0 0 0 0 0 0 0 
0 0 0 0 0 0 0 0 0 
0 0 0 0 0 0 0 0 0 
0 0 0 0 0 0 0 0 0 
0 0 0 0 0 0 0 0 0 
0 0 0 0 0 0 0 0 0 
0 0 0 0 0 0 0 0 0 
0 0 0 0 0 0 0 0 0 
0 0 0 0 0 0 0 0 0 
0 0 0 0 0 0 0 0 0 
0 0 0 0 0 0 0 0 0 
0 0 0 0 0 0 0 0 0 
0 0 0 0 0 0 0 0 0 
0 0 0 0 0 0 0 0 0 
0 0 0 0 0 0 0 0 0 
0 0 0 0 0 0 0 0 0 
0 0 0 0 0 0 0 0 0 
0 0 0 0 0 0 0 0 0 
0 0 0 0 0 0 0 0 0 
0 0 0 0 0 0 0 0 0 
0 0 0 0 0 0 0 0 0 
0 0 0 0 0 0 0 0 0 
0 0 0 0 0 0 0 0 0 
0 0 0 0 0 0 0 0 0 
0 0 0 0 0 0 0 0 0 
0 0 0 0 0 0 0 0 0 
0 0 0 0 0 0 0 0 0 
0 0 0 0 0 0 0 0 0 
0 0 0 0 0 0 0 0 0 
0 0 0 0 0 0 0 0 0 
0 0 0 0 0 0 0 0 0 
0 0 0 0 0 0 0 0 0 
0 0 0 0 0 0 0 0 0 
0 0 0 0 0 0 0 0 0 
0 0 0 0 0 0 0 0 0 
0 0 0 0 0 0 0 0 0 
0 0 0 0 0 0 0 0 0 
0 0 0 0 0 0 0 0 0 
0 0 0 0 0 0 0 0 0 
0 0 0 0 0 0 0 0 0 
0 0 0 0 0 0 0 0 0 
0 0 0 0 0 0 0 0 0 
0 0 0 0 0 0 0 0 0 
0 0 0 0 0 0 0 0 0 
0 0 0 0 0 0 0 0 0 
0 0 0 0 0 0 0 0 0 
0 0 0 0 0 0 0 0 0 
0 0 0 0 0 0 0 0 0 
0 0 0 0 0 0 0 0 0 
0 0 0 0 0 0 0 0 0 
0 0 0 0 0 0 0 0 0 
0 0 0 0 0 0 0 0 0 
0 0 0 0 0 0 0 0 0 
0 0 0 0 0 0 0 0 0 
0 0 0 0 0 0 0 0 0 
0 0 0 0 0 0 0 0 0 
0 0 0 0 0 0 0 0 0 
0 0 0 0 0 0 0 0 0 
0 0 0 0 0 0 0 0 0 
0 0 0 0 0 0 0 0 0 
0 0 0 0 0 0 0 0 0 
0 0 0 0 0 0 0 0 0 
0 0 0 0 0 0 0 0 0 
0 0 0 0 0 0 0 0 0 
0 0 0 0 0 0 0 0 0 
0 0 0 0 0 0 0 0 0 
0 0 0 0 0 0 0 0 0 
0 0 0 0 0 0 0 0 0 
0 0 0 0 0 0 0 0 0 
0 0 0 0 0 0 0 0 0 
0 0 0 0 0 0 0 0 0 
0 0 0 0 0 0 0 0 0 
0 0 0 0 0 0 0 0 0 
0 0 0 0 0 0 0 0 0 
0 0 0 0 0 0 0 0 0 
0 0 0 0 0 0 0 0 0 
0 0 0 0 0 0 0 0 0 
0 0 0 0 0 0 0 0 0 
0 0 0 0 0 0 0 0 0 
0 0 0 0 0 0 0 0 0 
0 0 0 0 0 0 0 0 0 
0 0 0 0 0 0 0 0 0 
0 0 0 0 0 0 0 0 0 
0 0 0 0 0 0 0 0 0 
0 0 0 0 0 0 0 0 0 
0 0 0 0 0 0 0 0 0 
0 0 0 0 0 0 0 0 0 
0 0 0 0 0 0 0 0 0 
0 0 0 0 0 0 0 0 0 
0 0 0 0 0 0 0 0 0 
0 0 0 0 0 0 0 0 0 
0 0 0 0 0 0 0 0 0 
0 0 0 0 0 0 0 0 0 
0 0 0 0 0 0 0 0 0 
0 0 0 0 0 0 0 0 0 
0 0 0 0 0 0 0 0 0 
0 0 0 0 0 0 0 0 0 
0 0 0 0 0 0 0 0 0 
0 0 0 0 0 0 0 0 0 
0 0 0 0 0 0 0 0 0 
0 0 0 0 0 0 0 0 0 
0 0 0 0 0 0 0 0 0 
0 0 0 0 0 0 0 0 0 
0 0 0 0 0 0 0 0 0 
0 0 0 0 0 0 0 0 0 
0 0 0 0 0 0 0 0 0 
0 0 0 0 0 0 0 0 0 
0 0 0 0 0 0 0 0 0 
0 0 0 0 0 0 0 0 0 
0 0 0 0 0 0 0 0 0 
0 0 0 0 0 0 0 0 0 
0 0 0 0 0 0 0 0 0 
0 0 0 0 0 0 0 0 0 
0 0 0 0 0 0 0 0 0 
0 0 0 0 0 0 0 0 0 
0 0 0 0 0 0 0 0 0 
0 0 0 0 0 0 0 0 0 
0 0 0 0 0 0 0 0 0 
0 0 0 0 0 0 0 0 0 
0 0 0 0 0 0 0 0 0 
0 0 0 0 0 0 0 0 0 
0 0 0 0 0 0 0 0 0 
0 0 0 0 0 0 0 0 0 
0 0 0 0 0 0 0 0 0 
0 0 0 0 0 0 0 0 0 
0 0 0 0 0 0 0 0 0 
0 0 0 0 0 0 0 0 0 
0 0 0 0 0 0 0 0 0 
0 0 0 0 0 0 0 0 0 
0 0 0 0 0 0 0 0 0 
0 0 0 0 0 0 0 0 0 
0 0 0 0 0 0 0 0 0 
0 0 0 0 0 0 0 0 0 
0 0 0 0 0 0 0 0 0 
0 0 0 0 0 0 0 0 0 
0 0 0 0 0 0 0 0 0 
0 0 0 0 0 0 0 0 0 
0 0 0 0 0 0 0 0 0 
0 0 0 0 0 0 0 0 0 
0 0 0 0 0 0 0 0 0 
0 0 0 0 0 0 0 0 0 
0 0 0 0 0 0 0 0 0 
0 0 0 0 0 0 0 0 0 
0 0 0 0 0 0 0 0 0 
0 0 0 0 0 0 0 0 0 
0 0 0 0 0 0 0 0 0 
0 0 0 0 0 0 0 0 0 
0 0 0 0 0 0 0 0 0 
0 0 0 0 0 0 0 0 0 
0 0 0 0 0 0 0 0 0 
0 0 0 0 0 0 0 0 0 
0 0 0 0 0 0 0 0 0 
0 0 0 0 0 0 0 0 0 
0 0 0 0 0 0 0 0 0 
0 0 0 0 0 0 0 0 0 
0 0 0 0 0 0 0 0 0 
0 0 0 0 0 0 0 0 0 
0 0 0 0 0 0 0 0 0 
0 0 0 0 0 0 0 0 0 
0 0 0 0 0 0 0 0 0 
0 0 0 0 0 0 0 0 0 
0 0 0 0 0 0 0 0 0 
0 0 0 0 0 0 0 0 0 
0 0 0 0 0 0 0 0 0 
0 0 0 0 0 0 0 0 0 
0 0 0 0 0 0 0 0 0 
0 0 0 0 0 0 0 0 0 
0 0 0 0 0 0 0 0 0 
0 0 0 0 0 0 0 0 0 
0 0 0 0 0 0 0 0 0 
0 0 0 0 0 0 0 0 0 
0 0 0 0 0 0 0 0 0 
0 0 0 0 0 0 0 0 0 
0 0 0 0 0 0 0 0 0 
0 0 0 0 0 0 0 0 0 
0 0 0 0 0 0 0 0 0 
0 0 0 0 0 0 0 0 0 
0 0 0 0 0 0 0 0 0 
0 0 0 0 0 0 0 0 0 
0 0 0 0 0 0 0 0 0 
0 0 0 0 0 0 0 0 0 
0 0 0 0 0 0 0 0 0 
0 0 0 0 0 0 0 0 0 
0 0 0 0 0 0 0 0 0 
-984364.52483 -3892703.1756 -7120414.7379 -3623.4489765 -14410553.028 16242744.723 340078.33604 -5448013.1002 2664777.0318 
0 0 0 0 0 0 0 0 0 
0 0 0 0 0 0 0 0 0 
0 0 0 0 0 0 0 0 0 
0 0 0 0 0 0 0 0 0 
0 0 0 0 0 0 0 0 0 
0 0 0 0 0 0 0 0 0 
0 0 0 0 0 0 0 0 0 
0 0 0 0 0 0 0 0 0 
0 0 0 0 0 0 0 0 0 
0 0 0 0 0 0 0 0 0 
0 0 0 0 0 0 0 0 0 
0 0 0 0 0 0 0 0 0 
0 0 0 0 0 0 0 0 0 
0 0 0 0 0 0 0 0 0 
0 0 0 0 0 0 0 0 0 
0 0 0 0 0 0 0 0 0 
0 0 0 0 0 0 0 0 0 
0 0 0 0 0 0 0 0 0 
0 0 0 0 0 0 0 0 0 
0 0 0 0 0 0 0 0 0 
0 0 0 0 0 0 0 0 0 
0 0 0 0 0 0 0 0 0 
0 0 0 0 0 0 0 0 0 
0 0 0 0 0 0 0 0 0 
0 0 0 0 0 0 0 0 0 
0 0 0 0 0 0 0 0 0 
0 0 0 0 0 0 0 0 0 
0 0 0 0 0 0 0 0 0 
0 0 0 0 0 0 0 0 0 
0 0 0 0 0 0 0 0 0 
0 0 0 0 0 0 0 0 0 
0 0 0 0 0 0 0 0 0 
0 0 0 0 0 0 0 0 0 
0 0 0 0 0 0 0 0 0 
0 0 0 0 0 0 0 0 0 
0 0 0 0 0 0 0 0 0 
0 0 0 0 0 0 0 0 0 
0 0 0 0 0 0 0 0 0 
0 0 0 0 0 0 0 0 0 
0 0 0 0 0 0 0 0 0 
0 0 0 0 0 0 0 0 0 
0 0 0 0 0 0 0 0 0 
0 0 0 0 0 0 0 0 0 
0 0 0 0 0 0 0 0 0 
0 0 0 0 0 0 0 0 0 
0 0 0 0 0 0 0 0 0 
0 0 0 0 0 0 0 0 0 
0 0 0 0 0 0 0 0 0 
0 0 0 0 0 0 0 0 0 
0 0 0 0 0 0 0 0 0 
0 0 0 0 0 0 0 0 0 
0 0 0 0 0 0 0 0 0 
0 0 0 0 0 0 0 0 0 
0 0 0 0 0 0 0 0 0 
0 0 0 0 0 0 0 0 0 
0 0 0 0 0 0 0 0 0 
0 0 0 0 0 0 0 0 0 
0 0 0 0 0 0 0 0 0 
0 0 0 0 0 0 0 0 0 
0 0 0 0 0 0 0 0 0 
0 0 0 0 0 0 0 0 0 
0 0 0 0 0 0 0 0 0 
0 0 0 0 0 0 0 0 0 
0 0 0 0 0 0 0 0 0 
0 0 0 0 0 0 0 0 0 
0 0 0 0 0 0 0 0 0 
0 0 0 0 0 0 0 0 0 
0 0 0 0 0 0 0 0 0 
0 0 0 0 0 0 0 0 0 
0 0 0 0 0 0 0 0 0 
0 0 0 0 0 0 0 0 0 
0 0 0 0 0 0 0 0 0 
0 0 0 0 0 0 0 0 0 
0 0 0 0 0 0 0 0 0 
0 0 0 0 0 0 0 0 0 
0 0 0 0 0 0 0 0 0 
0 0 0 0 0 0 0 0 0 
0 0 0 0 0 0 0 0 0 
0 0 0 0 0 0 0 0 0 
0 0 0 0 0 0 0 0 0 
0 0 0 0 0 0 0 0 0 
0 0 0 0 0 0 0 0 0 
0 0 0 0 0 0 0 0 0 
0 0 0 0 0 0 0 0 0 
0 0 0 0 0 0 0 0 0 
0 0 0 0 0 0 0 0 0 
0 0 0 0 0 0 0 0 0 
0 0 0 0 0 0 0 0 0 
0 0 0 0 0 0 0 0 0 
0 0 0 0 0 0 0 0 0 
0 0 0 0 0 0 0 0 0 
0 0 0 0 0 0 0 0 0 
0 0 0 0 0 0 0 0 0 
0 0 0 0 0 0 0 0 0 
0 0 0 0 0 0 0 0 0 
0 0 0 0 0 0 0 0 0 
0 0 0 0 0 0 0 0 0 
0 0 0 0 0 0 0 0 0 
0 0 0 0 0 0 0 0 0 
0 0 0 0 0 0 0 0 0 
0 0 0 0 0 0 0 0 0 
0 0 0 0 0 0 0 0 0 
0 0 0 0 0 0 0 0 0 
0 0 0 0 0 0 0 0 0 
0 0 0 0 0 0 0 0 0 
0 0 0 0 0 0 0 0 0 
0 0 0 0 0 0 0 0 0 
0 0 0 0 0 0 0 0 0 
0 0 0 0 0 0 0 0 0 
0 0 0 0 0 0 0 0 0 
0 0 0 0 0 0 0 0 0 
0 0 0 0 0 0 0 0 0 
0 0 0 0 0 0 0 0 0 
0 0 0 0 0 0 0 0 0 
0 0 0 0 0 0 0 0 0 
0 0 0 0 0 0 0 0 0 
0 0 0 0 0 0 0 0 0 
0 0 0 0 0 0 0 0 0 
0 0 0 0 0 0 0 0 0 
0 0 0 0 0 0 0 0 0 
0 0 0 0 0 0 0 0 0 
0 0 0 0 0 0 0 0 0 
0 0 0 0 0 0 0 0 0 
0 0 0 0 0 0 0 0 0 
0 0 0 0 0 0 0 0 0 
0 0 0 0 0 0 0 0 0 
0 0 0 0 0 0 0 0 0 
0 0 0 0 0 0 0 0 0 
0 0 0 0 0 0 0 0 0 
0 0 0 0 0 0 0 0 0 
0 0 0 0 0 0 0 0 0 
0 0 0 0 0 0 0 0 0 
0 0 0 0 0 0 0 0 0 
0 0 0 0 0 0 0 0 0 
0 0 0 0 0 0 0 0 0 
0 0 0 0 0 0 0 0 0 
0 0 0 0 0 0 0 0 0 
0 0 0 0 0 0 0 0 0 
0 0 0 0 0 0 0 0 0 
0 0 0 0 0 0 0 0 0 
0 0 0 0 0 0 0 0 0 
0 0 0 0 0 0 0 0 0 
0 0 0 0 0 0 0 0 0 
0 0 0 0 0 0 0 0 0 
0 0 0 0 0 0 0 0 0 
0 0 0 0 0 0 0 0 0 
0 0 0 0 0 0 0 0 0 
0 0 0 0 0 0 0 0 0 
0 0 0 0 0 0 0 0 0 
0 0 0 0 0 0 0 0 0 
0 0 0 0 0 0 0 0 0 
0 0 0 0 0 0 0 0 0 
0 0 0 0 0 0 0 0 0 
0 0 0 0 0 0 0 0 0 
0 0 0 0 0 0 0 0 0 
0 0 0 0 0 0 0 0 0 
0 0 0 0 0 0 0 0 0 
0 0 0 0 0 0 0 0 0 
0 0 0 0 0 0 0 0 0 
0 0 0 0 0 0 0 0 0 
0 0 0 0 0 0 0 0 0 
0 0 0 0 0 0 0 0 0 
0 0 0 0 0 0 0 0 0 
0 0 0 0 0 0 0 0 0 
0 0 0 0 0 0 0 0 0 
0 0 0 0 0 0 0 0 0 
0 0 0 0 0 0 0 0 0 
0 0 0 0 0 0 0 0 0 
0 0 0 0 0 0 0 0 0 
0 0 0 0 0 0 0 0 0 
0 0 0 0 0 0 0 0 0 
0 0 0 0 0 0 0 0 0 
0 0 0 0 0 0 0 0 0 
0 0 0 0 0 0 0 0 0 
0 0 0 0 0 0 0 0 0 
0 0 0 0 0 0 0 0 0 
0 0 0 0 0 0 0 0 0 
0 0 0 0 0 0 0 0 0 
0 0 0 0 0 0 0 0 0 
0 0 0 0 0 0 0 0 0 
0 0 0 0 0 0 0 0 0 
0 0 0 0 0 0 0 0 0 
0 0 0 0 0 0 0 0 0 
0 0 0 0 0 0 0 0 0 
0 0 0 0 0 0 0 0 0 
0 0 0 0 0 0 0 0 0 
0 0 0 0 0 0 0 0 0 
0 0 0 0 0 0 0 0 0 
0 0 0 0 0 0 0 0 0 
0 0 0 0 0 0 0 0 0 
0 0 0 0 0 0 0 0 0 
0 0 0 0 0 0 0 0 0 
0 0 0 0 0 0 0 0 0 
0 0 0 0 0 0 0 0 0 
0 0 0 0 0 0 0 0 0 
0 0 0 0 0 0 0 0 0 
0 0 0 0 0 0 0 0 0 
0 0 0 0 0 0 0 0 0 
0 0 0 0 0 0 0 0 0 
0 0 0 0 0 0 0 0 0 
0 0 0 0 0 0 0 0 0 
0 0 0 0 0 0 0 0 0 
0 0 0 0 0 0 0 0 0 
0 0 0 0 0 0 0 0 0 
0 0 0 0 0 0 0 0 0 
0 0 0 0 0 0 0 0 0 
0 0 0 0 0 0 0 0 0 
0 0 0 0 0 0 0 0 0 
0 0 0 0 0 0 0 0 0 
0 0 0 0 0 0 0 0 0 
0 0 0 0 0 0 0 0 0 
0 0 0 0 0 0 0 0 0 
0 0 0 0 0 0 0 0 0 
0 0 0 0 0 0 0 0 0 
0 0 0 0 0 0 0 0 0 
0 0 0 0 0 0 0 0 0 
0 0 0 0 0 0 0 0 0 
0 0 0 0 0 0 0 0 0 
0 0 0 0 0 0 0 0 0 
0 0 0 0 0 0 0 0 0 
0 0 0 0 0 0 0 0 0 
0 0 0 0 0 0 0 0 0 
0 0 0 0 0 0 0 0 0 
0 0 0 0 0 0 0 0 0 
0 0 0 0 0 0 0 0 0 
0 0 0 0 0 0 0 0 0 
0 0 0 0 0 0 0 0 0 
0 0 0 0 0 0 0 0 0 
0 0 0 0 0 0 0 0 0 
0 0 0 0 0 0 0 0 0 
0 0 0 0 0 0 0 0 0 
0 0 0 0 0 0 0 0 0 
0 0 0 0 0 0 0 0 0 
0 0 0 0 0 0 0 0 0 
0 0 0 0 0 0 0 0 0 
0 0 0 0 0 0 0 0 0 
0 0 0 0 0 0 0 0 0 
0 0 0 0 0 0 0 0 0 
0 0 0 0 0 0 0 0 0 
0 0 0 0 0 0 0 0 0 
0 0 0 0 0 0 0 0 0 
0 0 0 0 0 0 0 0 0 
0 0 0 0 0 0 0 0 0 
0 0 0 0 0 0 0 0 0 
0 0 0 0 0 0 0 0 0 
0 0 0 0 0 0 0 0 0 
0 0 0 0 0 0 0 0 0 
0 0 0 0 0 0 0 0 0 
0 0 0 0 0 0 0 0 0 
0 0 0 0 0 0 0 0 0 
0 0 0 0 0 0 0 0 0 
0 0 0 0 0 0 0 0 0 
0 0 0 0 0 0 0 0 0 
0 0 0 0 0 0 0 0 0 
0 0 0 0 0 0 0 0 0 
0 0 0 0 0 0 -1956071.2388 -8580805.7846 5993336.9857 
-3662446.5195 -11489731.925 4359434.6961 0 0 0 0 0 0 
0 0 0 0 0 0 0 0 0 
0 0 0 0 0 0 0 0 0 
0 0 0 0 0 0 0 0 0 
0 0 0 0 0 0 0 0 0 
0 0 0 0 0 0 0 0 0 
0 0 0 0 0 0 0 0 0 
0 0 0 0 0 0 0 0 0 
0 0 0 0 0 0 0 0 0 
0 0 0 0 0 0 0 0 0 
0 0 0 0 0 0 0 0 0 
0 0 0 0 0 0 0 0 0 
0 0 0 0 0 0 0 0 0 
0 0 0 0 0 0 0 0 0 
0 0 0 0 0 0 0 0 0 
0 0 0 0 0 0 0 0 0 
0 0 0 0 0 0 0 0 0 
0 0 0 0 0 0 0 0 0 
0 0 0 0 0 0 0 0 0 
0 0 0 0 0 0 0 0 0 
0 0 0 0 0 0 0 0 0 
0 0 0 0 0 0 0 0 0 
-13823.538132 -2460962.623 -4083658.3075 0 0 0 0 0 0 
0 0 0 0 0 0 0 0 0 
0 0 0 0 0 0 0 0 0 
0 0 0 0 0 0 0 0 0 
0 0 0 0 0 0 0 0 0 
0 0 0 0 0 0 0 0 0 
0 0 0 0 0 0 0 0 0 
0 0 0 0 0 0 0 0 0 
0 0 0 0 0 0 0 0 0 
0 0 0 0 0 0 0 0 0 
0 0 0 0 0 0 0 0 0 
0 0 0 0 0 0 0 0 0 
0 0 0 0 0 0 0 0 0 
0 0 0 0 0 0 0 0 0 
0 0 0 0 0 0 0 0 0 
0 0 0 0 0 0 0 0 0 
0 0 0 0 0 0 0 0 0 
0 0 0 0 0 0 0 0 0 
0 0 0 0 0 0 0 0 0 
0 0 0 0 0 0 0 0 0 
0 0 0 0 0 0 0 0 0 
0 0 0 0 0 0 0 0 0 
0 0 0 0 0 0 0 0 0 
0 0 0 0 0 0 0 0 0 
0 0 0 0 0 0 0 0 0 
0 0 0 0 0 0 0 0 0 
0 0 0 0 0 0 0 0 0 
0 0 0 0 0 0 0 0 0 
0 0 0 0 0 0 0 0 0 
0 0 0 0 0 0 0 0 0 
0 0 0 0 0 0 0 0 0 
0 0 0 0 0 0 0 0 0 
0 0 0 0 0 0 0 0 0 
0 0 0 0 0 0 0 0 0 
0 0 0 0 0 0 0 0 0 
0 0 0 0 0 0 0 0 0 
0 0 0 0 0 0 0 0 0 
0 0 0 0 0 0 0 0 0 
0 0 0 0 0 0 0 0 0 
0 0 0 0 0 0 0 0 0 
0 0 0 0 0 0 0 0 0 
0 0 0 0 0 0 0 0 0 
0 0 0 0 0 0 0 0 0 
0 0 0 0 0 0 0 0 0 
0 0 0 0 0 0 0 0 0 
0 0 0 0 0 0 0 0 0 
0 0 0 0 0 0 0 0 0 
0 0 0 0 0 0 0 0 0 
0 0 0 0 0 0 0 0 0 
0 0 0 0 0 0 0 0 0 
0 0 0 0 0 0 0 0 0 
0 0 0 0 0 0 0 0 0 
0 0 0 0 0 0 0 0 0 
0 0 0 0 0 0 0 0 0 
0 0 0 0 0 0 0 0 0 
0 0 0 0 0 0 0 0 0 
0 0 0 0 0 0 0 0 0 
0 0 0 0 0 0 0 0 0 
0 0 0 0 0 0 0 0 0 
0 0 0 0 0 0 0 0 0 
0 0 0 0 0 0 0 0 0 
0 0 0 0 0 0 0 0 0 
0 0 0 0 0 0 0 0 0 
0 0 0 0 0 0 0 0 0 
0 0 0 0 0 0 0 0 0 
0 0 0 0 0 0 0 0 0 
0 0 0 0 0 0 0 0 0 
0 0 0 0 0 0 0 0 0 
0 0 0 0 0 0 0 0 0 
0 0 0 0 0 0 0 0 0 
0 0 0 0 0 0 0 0 0 
0 0 0 0 0 0 0 0 0 
0 0 0 0 0 0 0 0 0 
0 0 0 0 0 0 0 0 0 
0 0 0 0 0 0 0 0 0 
0 0 0 0 0 0 0 0 0 
0 0 0 0 0 0 0 0 0 
0 0 0 0 0 0 0 0 0 
0 0 0 0 0 0 0 0 0 
0 0 0 0 0 0 0 0 0 
0 0 0 0 0 0 0 0 0 
0 0 0 0 0 0 0 0 0 
0 0 0 0 0 0 0 0 0 
0 0 0 0 0 0 0 0 0 
0 0 0 0 0 0 0 0 0 
0 0 0 0 0 0 0 0 0 
0 0 0 0 0 0 0 0 0 
0 0 0 0 0 0 0 0 0 
0 0 0 0 0 0 0 0 0 
0 0 0 0 0 0 0 0 0 
0 0 0 0 0 0 0 0 0 
0 0 0 0 0 0 0 0 0 
0 0 0 0 0 0 0 0 0 
0 0 0 0 0 0 0 0 0 
0 0 0 0 0 0 0 0 0 
0 0 0 0 0 0 0 0 0 
0 0 0 0 0 0 0 0 0 
0 0 0 0 0 0 0 0 0 
0 0 0 0 0 0 0 0 0 
0 0 0 0 0 0 0 0 0 
0 0 0 0 0 0 0 0 0 
0 0 0 0 0 0 0 0 0 
0 0 0 0 0 0 0 0 0 
0 0 0 0 0 0 0 0 0 
0 0 0 0 0 0 0 0 0 
0 0 0 0 0 0 0 0 0 
0 0 0 0 0 0 0 0 0 
0 0 0 0 0 0 0 0 0 
0 0 0 0 0 0 0 0 0 
0 0 0 0 0 0 0 0 0 
0 0 0 0 0 0 0 0 0 
0 0 0 0 0 0 0 0 0 
0 0 0 0 0 0 0 0 0 
0 0 0 0 0 0 0 0 0 
0 0 0 0 0 0 0 0 0 
0 0 0 0 0 0 0 0 0 
0 0 0 0 0 0 0 0 0 
0 0 0 0 0 0 0 0 0 
0 0 0 0 0 0 0 0 0 
0 0 0 0 0 0 0 0 0 
0 0 0 0 0 0 0 0 0 
0 0 0 0 0 0 0 0 0 
0 0 0 0 0 0 0 0 0 
0 0 0 0 0 0 0 0 0 
0 0 0 0 0 0 0 0 0 
0 0 0 0 0 0 0 0 0 
0 0 0 0 0 0 0 0 0 
0 0 0 0 0 0 0 0 0 
0 0 0 0 0 0 0 0 0 
0 0 0 0 0 0 0 0 0 
0 0 0 0 0 0 0 0 0 
0 0 0 0 0 0 0 0 0 
0 0 0 0 0 0 0 0 0 
0 0 0 0 0 0 0 0 0 
0 0 0 0 0 0 0 0 0 
0 0 0 0 0 0 0 0 0 
0 0 0 0 0 0 0 0 0 
0 0 0 0 0 0 0 0 0 
0 0 0 0 0 0 0 0 0 
0 0 0 0 0 0 0 0 0 
0 0 0 0 0 0 0 0 0 
0 0 0 0 0 0 0 0 0 
0 0 0 0 0 0 0 0 0 
0 0 0 0 0 0 0 0 0 
0 0 0 0 0 0 0 0 0 
0 0 0 0 0 0 0 0 0 
0 0 0 0 0 0 0 0 0 
0 0 0 0 0 0 0 0 0 
0 0 0 0 0 0 0 0 0 
0 0 0 0 0 0 0 0 0 
0 0 0 0 0 0 0 0 0 
0 0 0 0 0 0 0 0 0 
0 0 0 0 0 0 0 0 0 
0 0 0 0 0 0 0 0 0 
0 0 0 0 0 0 0 0 0 
0 0 0 0 0 0 0 0 0 
0 0 0 0 0 0 0 0 0 
0 0 0 0 0 0 0 0 0 
0 0 0 0 0 0 0 0 0 
0 0 0 0 0 0 0 0 0 
0 0 0 0 0 0 0 0 0 
0 0 0 0 0 0 0 0 0 
0 0 0 0 0 0 0 0 0 
0 0 0 0 0 0 0 0 0 
0 0 0 0 0 0 0 0 0 
0 0 0 0 0 0 0 0 0 
0 0 0 0 0 0 0 0 0 
0 0 0 0 0 0 0 0 0 
0 0 0 0 0 0 0 0 0 
0 0 0 0 0 0 0 0 0 
0 0 0 0 0 0 0 0 0 
0 0 0 0 0 0 0 0 0 
0 0 0 0 0 0 0 0 0 
0 0 0 0 0 0 0 0 0 
0 0 0 0 0 0 0 0 0 
0 0 0 0 0 0 0 0 0 
0 0 0 0 0 0 0 0 0 
0 0 0 0 0 0 0 0 0 
0 0 0 0 0 0 0 0 0 
0 0 0 0 0 0 0 0 0 
0 0 0 0 0 0 0 0 0 
0 0 0 0 0 0 0 0 0 
0 0 0 0 0 0 0 0 0 
0 0 0 0 0 0 0 0 0 
0 0 0 0 0 0 0 0 0 
0 0 0 0 0 0 0 0 0 
0 0 0 0 0 0 0 0 0 
0 0 0 0 0 0 0 0 0 
0 0 0 0 0 0 0 0 0 
0 0 0 0 0 0 0 0 0 
0 0 0 0 0 0 0 0 0 
0 0 0 0 0 0 0 0 0 
0 0 0 0 0 0 0 0 0 
0 0 0 0 0 0 0 0 0 
0 0 0 0 0 0 0 0 0 
0 0 0 0 0 0 0 0 0 
0 0 0 0 0 0 0 0 0 
0 0 0 0 0 0 0 0 0 
0 0 0 0 0 0 0 0 0 
0 0 0 0 0 0 0 0 0 
0 0 0 0 0 0 0 0 0 
0 0 0 0 0 0 0 0 0 
0 0 0 0 0 0 0 0 0 
0 0 0 0 0 0 0 0 0 
0 0 0 0 0 0 0 0 0 
0 0 0 0 0 0 0 0 0 
0 0 0 0 0 0 0 0 0 
0 0 0 0 0 0 0 0 0 
0 0 0 0 0 0 0 0 0 
0 0 0 0 0 0 0 0 0 
0 0 0 0 0 0 0 0 0 
0 0 0 0 0 0 0 0 0 
0 0 0 0 0 0 0 0 0 
0 0 0 0 0 0 0 0 0 
0 0 0 0 0 0 0 0 0 
0 0 0 0 0 0 0 0 0 
0 0 0 0 0 0 0 0 0 
0 0 0 0 0 0 0 0 0 
0 0 0 0 0 0 0 0 0 
0 0 0 0 0 0 0 0 0 
0 0 0 0 0 0 0 0 0 
0 0 0 0 0 0 0 0 0 
0 0 0 0 0 0 0 0 0 
0 0 0 0 0 0 0 0 0 
0 0 0 0 0 0 0 0 0 
0 0 0 0 0 0 0 0 0 
0 0 0 0 0 0 0 0 0 
0 0 0 0 0 0 0 0 0 
0 0 0 0 0 0 0 0 0 
0 0 0 0 0 0 0 0 0 
0 0 0 0 0 0 0 0 0 
0 0 0 0 0 0 0 0 0 
0 0 0 0 0 0 0 0 0 
0 0 0 0 0 0 0 0 0 
-465.79028011 -6936681.3815 10347527.912 1714102.0562 1174323.2719 -18382573.888 0 0 0 
0 0 0 0 0 0 0 0 0 
0 0 0 0 0 0 0 0 0 
0 0 0 0 0 0 0 0 0 
0 0 0 0 0 0 0 0 0 
0 0 0 0 0 0 0 0 0 
0 0 0 0 0 0 0 0 0 
0 0 0 0 0 0 0 0 0 
0 0 0 0 0 0 0 0 0 
0 0 0 0 0 0 0 0 0 
-2916493.7606 -952509.62254 -13949328.51 2168793.2468 -11458172.727 -22756250.976 0 0 0 
0 0 0 0 0 0 0 0 0 
0 0 0 0 0 0 0 0 0 
0 0 0 0 0 0 0 0 0 
0 0 0 0 0 0 0 0 0 
0 0 0 -426882.18879 -1880156.1143 -5221372.6362 1273413.8926 -2100528.3462 -5787930.2902 
0 0 0 0 0 0 0 0 0 
0 0 0 0 0 0 0 0 0 
0 0 0 0 0 0 0 0 0 
0 0 0 0 0 0 0 0 0 
0 0 0 0 0 0 0 0 0 
0 0 0 0 0 0 0 0 0 
0 0 0 0 0 0 0 0 0 
0 0 0 0 0 0 0 0 0 
0 0 0 0 0 0 0 0 0 
0 0 0 0 0 0 0 0 0 
0 0 0 0 0 0 0 0 0 
0 0 0 0 0 0 0 0 0 
0 0 0 0 0 0 0 0 0 
0 0 0 0 0 0 0 0 0 
0 0 0 0 0 0 0 0 0 
0 0 0 0 0 0 0 0 0 
0 0 0 0 0 0 0 0 0 
0 0 0 0 0 0 0 0 0 
0 0 0 0 0 0 0 0 0 
0 0 0 0 0 0 0 0 0 
0 0 0 0 0 0 0 0 0 
0 0 0 0 0 0 0 0 0 
0 0 0 0 0 0 0 0 0 
0 0 0 0 0 0 0 0 0 
0 0 0 0 0 0 0 0 0 
0 0 0 0 0 0 0 0 0 
0 0 0 0 0 0 0 0 0 
0 0 0 0 0 0 0 0 0 
0 0 0 0 0 0 0 0 0 
0 0 0 0 0 0 0 0 0 
0 0 0 0 0 0 0 0 0 
0 0 0 0 0 0 0 0 0 
0 0 0 0 0 0 0 0 0 
0 0 0 0 0 0 0 0 0 
0 0 0 0 0 0 0 0 0 
0 0 0 0 0 0 0 0 0 
0 0 0 0 0 0 0 0 0 
0 0 0 0 0 0 0 0 0 
0 0 0 0 0 0 0 0 0 
0 0 0 0 0 0 0 0 0 
0 0 0 0 0 0 0 0 0 
0 0 0 0 0 0 0 0 0 
0 0 0 0 0 0 0 0 0 
0 0 0 0 0 0 0 0 0 
0 0 0 0 0 0 0 0 0 
0 0 0 0 0 0 0 0 0 
0 0 0 0 0 0 0 0 0 
0 0 0 0 0 0 0 0 0 
0 0 0 0 0 0 0 0 0 
0 0 0 0 0 0 0 0 0 
0 0 0 0 0 0 0 0 0 
0 0 0 0 0 0 0 0 0 
0 0 0 0 0 0 0 0 0 
0 0 0 0 0 0 0 0 0 
0 0 0 0 0 0 0 0 0 
0 0 0 0 0 0 0 0 0 
0 0 0 0 0 0 0 0 0 
0 0 0 0 0 0 0 0 0 
0 0 0 0 0 0 0 0 0 
0 0 0 0 0 0 0 0 0 
0 0 0 0 0 0 0 0 0 
0 0 0 0 0 0 0 0 0 
0 0 0 0 0 0 0 0 0 
0 0 0 0 0 0 0 0 0 
0 0 0 0 0 0 0 0 0 
0 0 0 0 0 0 0 0 0 
0 0 0 0 0 0 0 0 0 
0 0 0 0 0 0 0 0 0 
0 0 0 0 0 0 0 0 0 
0 0 0 0 0 0 0 0 0 
0 0 0 0 0 0 0 0 0 
0 0 0 0 0 0 0 0 0 
0 0 0 0 0 0 0 0 0 
0 0 0 0 0 0 0 0 0 
0 0 0 0 0 0 0 0 0 
0 0 0 0 0 0 0 0 0 
0 0 0 0 0 0 0 0 0 
0 0 0 0 0 0 0 0 0 
0 0 0 0 0 0 0 0 0 
0 0 0 0 0 0 0 0 0 
0 0 0 0 0 0 0 0 0 
0 0 0 0 0 0 0 0 0 
0 0 0 0 0 0 0 0 0 
0 0 0 0 0 0 0 0 0 
0 0 0 0 0 0 0 0 0 
0 0 0 0 0 0 0 0 0 
0 0 0 0 0 0 0 0 0 
0 0 0 0 0 0 0 0 0 
0 0 0 0 0 0 0 0 0 
0 0 0 0 0 0 0 0 0 
0 0 0 0 0 0 0 0 0 
0 0 0 0 0 0 0 0 0 
0 0 0 0 0 0 0 0 0 
0 0 0 0 0 0 0 0 0 
0 0 0 0 0 0 0 0 0 
0 0 0 0 0 0 0 0 0 
0 0 0 0 0 0 0 0 0 
0 0 0 0 0 0 0 0 0 
0 0 0 0 0 0 0 0 0 
0 0 0 0 0 0 0 0 0 
0 0 0 0 0 0 0 0 0 
-1490075.2376 -908074.00436 -5915277.6167 0 0 0 0 0 0 
0 0 0 0 0 0 0 0 0 
0 0 0 0 0 0 0 0 0 
0 0 0 0 0 0 0 0 0 
0 0 0 0 0 0 0 0 0 
6549483.0145 -3283705.225 -10824328.373 3195291.7844 -14933117.82 -20594316.916 0 0 0 
0 0 0 0 0 0 0 0 0 
0 0 0 0 0 0 0 0 0 
0 0 0 0 0 0 0 0 0 
0 0 0 0 0 0 0 0 0 
0 0 0 0 0 0 0 0 0 
0 0 0 0 0 0 0 0 0 
0 0 0 0 0 0 0 0 0 
0 0 0 0 0 0 2220633.9871 -7181399.3476 -23033581.829 
-415365.89646 -6392765.1904 7769608.5811 0 0 0 0 0 0 
0 0 0 0 0 0 0 0 0 
0 0 0 0 0 0 0 0 0 
0 0 0 0 0 0 0 0 0 
0 0 0 0 0 0 0 0 0 
0 0 0 0 0 0 0 0 0 
0 0 0 0 0 0 0 0 0 
0 0 0 0 0 0 0 0 0 
0 0 0 0 0 0 0 0 0 
0 0 0 0 0 0 0 0 0 
0 0 0 0 0 0 0 0 0 
0 0 0 0 0 0 0 0 0 
0 0 0 0 0 0 0 0 0 
0 0 0 0 0 0 0 0 0 
0 0 0 0 0 0 0 0 0 
0 0 0 0 0 0 0 0 0 
0 0 0 0 0 0 0 0 0 
0 0 0 0 0 0 0 0 0 
0 0 0 0 0 0 0 0 0 
0 0 0 0 0 0 0 0 0 
0 0 0 0 0 0 0 0 0 
0 0 0 0 0 0 0 0 0 
0 0 0 0 0 0 0 0 0 
0 0 0 0 0 0 0 0 0 
0 0 0 0 0 0 0 0 0 
0 0 0 0 0 0 0 0 0 
0 0 0 0 0 0 0 0 0 
0 0 0 0 0 0 0 0 0 
0 0 0 0 0 0 0 0 0 
0 0 0 0 0 0 0 0 0 
0 0 0 0 0 0 0 0 0 
0 0 0 0 0 0 0 0 0 
0 0 0 0 0 0 0 0 0 
0 0 0 0 0 0 0 0 0 
0 0 0 0 0 0 0 0 0 
0 0 0 0 0 0 0 0 0 
0 0 0 0 0 0 0 0 0 
0 0 0 0 0 0 0 0 0 
0 0 0 0 0 0 0 0 0 
0 0 0 0 0 0 0 0 0 
0 0 0 0 0 0 0 0 0 
0 0 0 0 0 0 0 0 0 
0 0 0 0 0 0 0 0 0 
0 0 0 0 0 0 0 0 0 
0 0 0 0 0 0 0 0 0 
0 0 0 0 0 0 0 0 0 
0 0 0 0 0 0 0 0 0 
0 0 0 0 0 0 0 0 0 
0 0 0 0 0 0 0 0 0 
0 0 0 0 0 0 0 0 0 
0 0 0 0 0 0 0 0 0 
0 0 0 0 0 0 0 0 0 
0 0 0 0 0 0 0 0 0 
0 0 0 0 0 0 0 0 0 
0 0 0 0 0 0 0 0 0 
0 0 0 0 0 0 0 0 0 
0 0 0 0 0 0 0 0 0 
0 0 0 0 0 0 0 0 0 
0 0 0 0 0 0 0 0 0 
0 0 0 0 0 0 0 0 0 
0 0 0 0 0 0 0 0 0 
0 0 0 0 0 0 0 0 0 
0 0 0 0 0 0 0 0 0 
0 0 0 0 0 0 0 0 0 
0 0 0 0 0 0 0 0 0 
0 0 0 0 0 0 0 0 0 
0 0 0 0 0 0 0 0 0 
0 0 0 0 0 0 0 0 0 
0 0 0 0 0 0 0 0 0 
0 0 0 0 0 0 0 0 0 
0 0 0 0 0 0 0 0 0 
0 0 0 0 0 0 0 0 0 
0 0 0 0 0 0 0 0 0 
0 0 0 0 0 0 0 0 0 
0 0 0 0 0 0 0 0 0 
0 0 0 0 0 0 0 0 0 
0 0 0 0 0 0 0 0 0 
0 0 0 0 0 0 0 0 0 
0 0 0 0 0 0 0 0 0 
0 0 0 0 0 0 0 0 0 
0 0 0 0 0 0 0 0 0 
0 0 0 0 0 0 0 0 0 
0 0 0 0 0 0 0 0 0 
0 0 0 0 0 0 0 0 0 
0 0 0 0 0 0 0 0 0 
0 0 0 0 0 0 0 0 0 
0 0 0 0 0 0 0 0 0 
0 0 0 0 0 0 0 0 0 
0 0 0 0 0 0 0 0 0 
0 0 0 0 0 0 0 0 0 
0 0 0 0 0 0 0 0 0 
0 0 0 0 0 0 0 0 0 
0 0 0 0 0 0 0 0 0 
0 0 0 0 0 0 0 0 0 
0 0 0 0 0 0 0 0 0 
0 0 0 0 0 0 0 0 0 
0 0 0 0 0 0 0 0 0 
0 0 0 0 0 0 0 0 0 
0 0 0 0 0 0 0 0 0 
0 0 0 0 0 0 0 0 0 
0 0 0 0 0 0 0 0 0 
0 0 0 0 0 0 0 0 0 
0 0 0 0 0 0 0 0 0 
0 0 0 0 0 0 0 0 0 
0 0 0 0 0 0 0 0 0 
0 0 0 0 0 0 0 0 0 
0 0 0 0 0 0 0 0 0 
0 0 0 0 0 0 0 0 0 
0 0 0 0 0 0 0 0 0 
0 0 0 0 0 0 0 0 0 
0 0 0 0 0 0 0 0 0 
0 0 0 0 0 0 0 0 0 
0 0 0 0 0 0 0 0 0 
0 0 0 0 0 0 0 0 0 
0 0 0 0 0 0 0 0 0 
0 0 0 0 0 0 0 0 0 
0 0 0 0 0 0 0 0 0 
0 0 0 0 0 0 0 0 0 
0 0 0 0 0 0 0 0 0 
0 0 0 0 0 0 0 0 0 
0 0 0 0 0 0 0 0 0 
0 0 0 0 0 0 0 0 0 
0 0 0 0 0 0 0 0 0 
0 0 0 0 0 0 0 0 0 
0 0 0 0 0 0 0 0 0 
0 0 0 0 0 0 0 0 0 
0 0 0 0 0 0 0 0 0 
0 0 0 0 0 0 0 0 0 
0 0 0 0 0 0 0 0 0 
0 0 0 0 0 0 0 0 0 
0 0 0 0 0 0 0 0 0 
0 0 0 0 0 0 0 0 0 
0 0 0 0 0 0 0 0 0 
0 0 0 0 0 0 0 0 0 
0 0 0 0 0 0 0 0 0 
0 0 0 0 0 0 0 0 0 
0 0 0 0 0 0 0 0 0 
0 0 0 0 0 0 0 0 0 
0 0 0 0 0 0 0 0 0 
0 0 0 0 0 0 0 0 0 
0 0 0 0 0 0 0 0 0 
0 0 0 0 0 0 0 0 0 
0 0 0 0 0 0 0 0 0 
0 0 0 0 0 0 0 0 0 
0 0 0 0 0 0 0 0 0 
0 0 0 0 0 0 0 0 0 
0 0 0 0 0 0 0 0 0 
0 0 0 0 0 0 0 0 0 
0 0 0 0 0 0 0 0 0 
0 0 0 0 0 0 0 0 0 
0 0 0 0 0 0 0 0 0 
0 0 0 0 0 0 0 0 0 
0 0 0 0 0 0 0 0 0 
0 0 0 0 0 0 0 0 0 
0 0 0 0 0 0 0 0 0 
0 0 0 0 0 0 0 0 0 
0 0 0 0 0 0 0 0 0 
0 0 0 0 0 0 0 0 0 
0 0 0 0 0 0 0 0 0 
0 0 0 0 0 0 0 0 0 
0 0 0 0 0 0 0 0 0 
0 0 0 0 0 0 0 0 0 
0 0 0 0 0 0 0 0 0 
0 0 0 0 0 0 0 0 0 
0 0 0 0 0 0 0 0 0 
0 0 0 0 0 0 0 0 0 
0 0 0 0 0 0 0 0 0 
0 0 0 0 0 0 0 0 0 
0 0 0 0 0 0 0 0 0 
0 0 0 0 0 0 0 0 0 
0 0 0 0 0 0 0 0 0 
0 0 0 0 0 0 0 0 0 
0 0 0 0 0 0 0 0 0 
0 0 0 0 0 0 0 0 0 
0 0 0 0 0 0 0 0 0 
0 0 0 0 0 0 0 0 0 
0 0 0 0 0 0 0 0 0 
0 0 0 0 0 0 0 0 0 
0 0 0 0 0 0 0 0 0 
0 0 0 0 0 0 0 0 0 
0 0 0 0 0 0 0 0 0 
0 0 0 0 0 0 0 0 0 
0 0 0 0 0 0 0 0 0 
0 0 0 0 0 0 0 0 0 
0 0 0 0 0 0 0 0 0 
0 0 0 0 0 0 0 0 0 
0 0 0 0 0 0 0 0 0 
0 0 0 0 0 0 0 0 0 
0 0 0 0 0 0 0 0 0 
0 0 0 0 0 0 0 0 0 
0 0 0 0 0 0 0 0 0 
0 0 0 0 0 0 0 0 0 
0 0 0 0 0 0 0 0 0 
0 0 0 0 0 0 0 0 0 
0 0 0 0 0 0 0 0 0 
0 0 0 0 0 0 0 0 0 
0 0 0 0 0 0 0 0 0 
0 0 0 0 0 0 0 0 0 
0 0 0 0 0 0 0 0 0 
0 0 0 0 0 0 0 0 0 
0 0 0 0 0 0 0 0 0 
0 0 0 0 0 0 0 0 0 
0 0 0 0 0 0 0 0 0 
0 0 0 0 0 0 0 0 0 
0 0 0 0 0 0 0 0 0 
0 0 0 0 0 0 0 0 0 
0 0 0 0 0 0 0 0 0 
0 0 0 0 0 0 0 0 0 
0 0 0 0 0 0 0 0 0 
0 0 0 0 0 0 0 0 0 
0 0 0 0 0 0 0 0 0 
0 0 0 0 0 0 0 0 0 
0 0 0 0 0 0 0 0 0 
0 0 0 0 0 0 0 0 0 
0 0 0 0 0 0 0 0 0 
0 0 0 0 0 0 0 0 0 
0 0 0 0 0 0 0 0 0 
0 0 0 0 0 0 0 0 0 
0 0 0 0 0 0 0 0 0 
0 0 0 0 0 0 0 0 0 
0 0 0 0 0 0 0 0 0 
0 0 0 0 0 0 0 0 0 
0 0 0 0 0 0 0 0 0 
0 0 0 0 0 0 0 0 0 
0 0 0 0 0 0 0 0 0 
0 0 0 0 0 0 0 0 0 
0 0 0 0 0 0 0 0 0 
0 0 0 0 0 0 0 0 0 
0 0 0 0 0 0 0 0 0 
0 0 0 0 0 0 0 0 0 
0 0 0 0 0 0 0 0 0 
0 0 0 0 0 0 0 0 0 
0 0 0 0 0 0 0 0 0 
0 0 0 0 0 0 0 0 0 
0 0 0 0 0 0 0 0 0 
0 0 0 0 0 0 0 0 0 
0 0 0 0 0 0 0 0 0 
0 0 0 0 0 0 0 0 0 
0 0 0 0 0 0 0 0 0 
0 0 0 0 0 0 0 0 0 
0 0 0 0 0 0 0 0 0 
0 0 0 0 0 0 0 0 0 
0 0 0 0 0 0 0 0 0 
0 0 0 0 0 0 0 0 0 
0 0 0 0 0 0 0 0 0 
0 0 0 0 0 0 0 0 0 
0 0 0 0 0 0 0 0 0 
0 0 0 0 0 0 0 0 0 
0 0 0 0 0 0 0 0 0 
0 0 0 0 0 0 0 0 0 
0 0 0 0 0 0 0 0 0 
0 0 0 0 0 0 0 0 0 
0 0 0 0 0 0 0 0 0 
0 0 0 0 0 0 0 0 0 
0 0 0 0 0 0 0 0 0 
0 0 0 0 0 0 0 0 0 
0 0 0 0 0 0 0 0 0 
0 0 0 0 0 0 0 0 0 
0 0 0 0 0 0 0 0 0 
0 0 0 0 0 0 0 0 0 
0 0 0 0 0 0 0 0 0 
0 0 0 0 0 0 0 0 0 
0 0 0 0 0 0 0 0 0 
0 0 0 0 0 0 0 0 0 
0 0 0 0 0 0 0 0 0 
0 0 0 0 0 0 0 0 0 
0 0 0 0 0 0 0 0 0 
0 0 0 0 0 0 0 0 0 
0 0 0 0 0 0 0 0 0 
0 0 0 0 0 0 0 0 0 
0 0 0 0 0 0 0 0 0 
0 0 0 0 0 0 0 0 0 
0 0 0 0 0 0 0 0 0 
0 0 0 0 0 0 0 0 0 
0 0 0 0 0 0 0 0 0 
0 0 0 0 0 0 0 0 0 
0 0 0 0 0 0 0 0 0 
0 0 0 0 0 0 0 0 0 
0 0 0 0 0 0 0 0 0 
0 0 0 0 0 0 0 0 0 
0 0 0 0 0 0 0 0 0 
0 0 0 0 0 0 0 0 0 
0 0 0 0 0 0 0 0 0 
0 0 0 0 0 0 0 0 0 
0 0 0 0 0 0 0 0 0 
0 0 0 0 0 0 0 0 0 
0 0 0 0 0 0 0 0 0 
0 0 0 0 0 0 0 0 0 
0 0 0 0 0 0 0 0 0 
0 0 0 0 0 0 0 0 0 
0 0 0 0 0 0 0 0 0 
0 0 0 0 0 0 0 0 0 
0 0 0 0 0 0 0 0 0 
0 0 0 0 0 0 0 0 0 
0 0 0 0 0 0 0 0 0 
0 0 0 0 0 0 0 0 0 
0 0 0 0 0 0 0 0 0 
0 0 0 0 0 0 0 0 0 
0 0 0 0 0 0 0 0 0 
0 0 0 0 0 0 0 0 0 
0 0 0 0 0 0 0 0 0 
0 0 0 0 0 0 0 0 0 
0 0 0 0 0 0 0 0 0 
0 0 0 0 0 0 0 0 0 
0 0 0 0 0 0 0 0 0 
0 0 0 0 0 0 0 0 0 
0 0 0 0 0 0 0 0 0 
0 0 0 0 0 0 0 0 0 
0 0 0 0 0 0 0 0 0 
0 0 0 0 0 0 0 0 0 
0 0 0 0 0 0 0 0 0 
0 0 0 0 0 0 0 0 0 
0 0 0 0 0 0 0 0 0 
0 0 0 0 0 0 0 0 0 
0 0 0 0 0 0 0 0 0 
0 0 0 0 0 0 0 0 0 
0 0 0 0 0 0 0 0 0 
0 0 0 0 0 0 0 0 0 
0 0 0 0 0 0 0 0 0 
0 0 0 0 0 0 0 0 0 
0 0 0 0 0 0 0 0 0 
0 0 0 0 0 0 0 0 0 
0 0 0 0 0 0 0 0 0 
0 0 0 0 0 0 0 0 0 
0 0 0 0 0 0 0 0 0 
0 0 0 0 0 0 0 0 0 
0 0 0 0 0 0 0 0 0 
0 0 0 0 0 0 0 0 0 
0 0 0 0 0 0 0 0 0 
0 0 0 0 0 0 0 0 0 
0 0 0 0 0 0 0 0 0 
0 0 0 0 0 0 0 0 0 
0 0 0 0 0 0 0 0 0 
0 0 0 0 0 0 0 0 0 
0 0 0 0 0 0 0 0 0 
0 0 0 0 0 0 0 0 0 
0 0 0 0 0 0 0 0 0 
0 0 0 0 0 0 0 0 0 
0 0 0 0 0 0 0 0 0 
0 0 0 0 0 0 0 0 0 
0 0 0 0 0 0 0 0 0 
0 0 0 0 0 0 0 0 0 
0 0 0 0 0 0 0 0 0 
0 0 0 0 0 0 0 0 0 
0 0 0 0 0 0 0 0 0 
0 0 0 0 0 0 0 0 0 
0 0 0 0 0 0 0 0 0 
0 0 0 0 0 0 0 0 0 
0 0 0 0 0 0 0 0 0 
0 0 0 0 0 0 0 0 0 
0 0 0 0 0 0 0 0 0 
0 0 0 0 0 0 0 0 0 
0 0 0 0 0 0 0 0 0 
0 0 0 0 0 0 0 0 0 
0 0 0 0 0 0 0 0 0 
0 0 0 0 0 0 0 0 0 
0 0 0 0 0 0 0 0 0 
0 0 0 0 0 0 0 0 0 
0 0 0 0 0 0 0 0 0 
0 0 0 0 0 0 0 0 0 
0 0 0 0 0 0 0 0 0 
0 0 0 0 0 0 0 0 0 
0 0 0 0 0 0 0 0 0 
0 0 0 0 0 0 0 0 0 
0 0 0 0 0 0 0 0 0 
0 0 0 0 0 0 0 0 0 
0 0 0 0 0 0 0 0 0 
0 0 0 0 0 0 0 0 0 
0 0 0 0 0 0 0 0 0 
0 0 0 0 0 0 0 0 0 
0 0 0 0 0 0 0 0 0 
0 0 0 0 0 0 0 0 0 
0 0 0 0 0 0 0 0 0 
0 0 0 0 0 0 0 0 0 
0 0 0 0 0 0 0 0 0 
0 0 0 0 0 0 0 0 0 
0 0 0 0 0 0 0 0 0 
0 0 0 0 0 0 0 0 0 
0 0 0 0 0 0 0 0 0 
0 0 0 0 0 0 0 0 0 
0 0 0 0 0 0 0 0 0 
0 0 0 0 0 0 0 0 0 
0 0 0 0 0 0 0 0 0 
0 0 0 0 0 0 0 0 0 
0 0 0 0 0 0 0 0 0 
0 0 0 0 0 0 0 0 0 
0 0 0 0 0 0 0 0 0 
0 0 0 0 0 0 0 0 0 
0 0 0 0 0 0 0 0 0 
0 0 0 0 0 0 0 0 0 
0 0 0 0 0 0 0 0 0 
0 0 0 0 0 0 0 0 0 
0 0 0 0 0 0 0 0 0 
0 0 0 0 0 0 0 0 0 
0 0 0 0 0 0 0 0 0 
0 0 0 0 0 0 0 0 0 
0 0 0 0 0 0 0 0 0 
0 0 0 0 0 0 0 0 0 
0 0 0 0 0 0 0 0 0 
0 0 0 0 0 0 0 0 0 
0 0 0 0 0 0 0 0 0 
0 0 0 0 0 0 0 0 0 
0 0 0 0 0 0 0 0 0 
0 0 0 0 0 0 0 0 0 
0 0 0 0 0 0 0 0 0 
0 0 0 0 0 0 0 0 0 
0 0 0 0 0 0 0 0 0 
0 0 0 0 0 0 0 0 0 
0 0 0 0 0 0 0 0 0 
0 0 0 0 0 0 0 0 0 
0 0 0 0 0 0 0 0 0 
0 0 0 0 0 0 0 0 0 
0 0 0 0 0 0 0 0 0 
0 0 0 0 0 0 0 0 0 
0 0 0 0 0 0 0 0 0 
0 0 0 0 0 0 0 0 0 
0 0 0 0 0 0 0 0 0 
0 0 0 0 0 0 0 0 0 
0 0 0 0 0 0 0 0 0 
0 0 0 0 0 0 0 0 0 
0 0 0 0 0 0 0 0 0 
0 0 0 0 0 0 0 0 0 
0 0 0 0 0 0 0 0 0 
0 0 0 0 0 0 0 0 0 
0 0 0 0 0 0 0 0 0 
0 0 0 0 0 0 0 0 0 
0 0 0 0 0 0 0 0 0 
0 0 0 0 0 0 0 0 0 
0 0 0 0 0 0 0 0 0 
0 0 0 0 0 0 0 0 0 
0 0 0 0 0 0 0 0 0 
0 0 0 0 0 0 0 0 0 
0 0 0 0 0 0 0 0 0 
0 0 0 0 0 0 0 0 0 
0 0 0 0 0 0 0 0 0 
0 0 0 0 0 0 0 0 0 
0 0 0 0 0 0 0 0 0 
0 0 0 0 0 0 0 0 0 
0 0 0 0 0 0 0 0 0 
0 0 0 0 0 0 0 0 0 
0 0 0 0 0 0 0 0 0 
0 0 0 0 0 0 0 0 0 
0 0 0 0 0 0 0 0 0 
0 0 0 0 0 0 0 0 0 
0 0 0 0 0 0 0 0 0 
0 0 0 0 0 0 0 0 0 
0 0 0 0 0 0 0 0 0 
0 0 0 0 0 0 0 0 0 
0 0 0 0 0 0 0 0 0 
0 0 0 0 0 0 0 0 0 
0 0 0 0 0 0 0 0 0 
0 0 0 0 0 0 0 0 0 
0 0 0 0 0 0 0 0 0 
0 0 0 0 0 0 0 0 0 
0 0 0 0 0 0 0 0 0 
0 0 0 0 0 0 0 0 0 
0 0 0 0 0 0 0 0 0 
0 0 0 0 0 0 0 0 0 
0 0 0 0 0 0 0 0 0 
0 0 0 0 0 0 0 0 0 
0 0 0 0 0 0 0 0 0 
0 0 0 0 0 0 0 0 0 
0 0 0 0 0 0 0 0 0 
0 0 0 0 0 0 0 0 0 
0 0 0 0 0 0 0 0 0 
0 0 0 0 0 0 0 0 0 
0 0 0 0 0 0 0 0 0 
0 0 0 0 0 0 0 0 0 
0 0 0 0 0 0 0 0 0 
0 0 0 0 0 0 0 0 0 
0 0 0 0 0 0 0 0 0 
0 0 0 0 0 0 0 0 0 
0 0 0 0 0 0 0 0 0 
0 0 0 0 0 0 0 0 0 
0 0 0 0 0 0 0 0 0 
0 0 0 0 0 0 0 0 0 
0 0 0 0 0 0 0 0 0 
0 0 0 0 0 0 0 0 0 
0 0 0 0 0 0 0 0 0 
0 0 0 0 0 0 0 0 0 
0 0 0 0 0 0 0 0 0 
0 0 0 0 0 0 0 0 0 
0 0 0 0 0 0 0 0 0 
0 0 0 0 0 0 0 0 0 
0 0 0 0 0 0 0 0 0 
0 0 0 0 0 0 0 0 0 
0 0 0 0 0 0 0 0 0 
0 0 0 0 0 0 0 0 0 
0 0 0 0 0 0 0 0 0 
0 0 0 0 0 0 0 0 0 
0 0 0 0 0 0 0 0 0 
0 0 0 0 0 0 0 0 0 
0 0 0 0 0 0 0 0 0 
0 0 0 0 0 0 0 0 0 
0 0 0 0 0 0 0 0 0 
0 0 0 0 0 0 0 0 0 
0 0 0 0 0 0 0 0 0 
0 0 0 0 0 0 0 0 0 
0 0 0 0 0 0 0 0 0 
0 0 0 0 0 0 0 0 0 
0 0 0 0 0 0 0 0 0 
0 0 0 0 0 0 0 0 0 
0 0 0 0 0 0 0 0 0 
0 0 0 0 0 0 0 0 0 
0 0 0 0 0 0 0 0 0 
0 0 0 0 0 0 0 0 0 
0 0 0 0 0 0 0 0 0 
0 0 0 0 0 0 0 0 0 
0 0 0 0 0 0 0 0 0 
0 0 0 0 0 0 0 0 0 
0 0 0 0 0 0 0 0 0 
0 0 0 0 0 0 0 0 0 
0 0 0 0 0 0 0 0 0 
0 0 0 0 0 0 0 0 0 
0 0 0 0 0 0 0 0 0 
0 0 0 0 0 0 0 0 0 
0 0 0 0 0 0 0 0 0 
0 0 0 0 0 0 0 0 0 
0 0 0 0 0 0 0 0 0 
0 0 0 0 0 0 0 0 0 
0 0 0 0 0 0 0 0 0 
0 0 0 0 0 0 0 0 0 
0 0 0 0 0 0 0 0 0 
0 0 0 0 0 0 0 0 0 
0 0 0 0 0 0 0 0 0 
0 0 0 0 0 0 0 0 0 
0 0 0 0 0 0 0 0 0 
0 0 0 0 0 0 0 0 0 
0 0 0 0 0 0 0 0 0 
0 0 0 0 0 0 0 0 0 
0 0 0 0 0 0 0 0 0 
0 0 0 0 0 0 0 0 0 
0 0 0 0 0 0 0 0 0 
0 0 0 0 0 0 0 0 0 
0 0 0 0 0 0 0 0 0 
0 0 0 0 0 0 0 0 0 
0 0 0 0 0 0 0 0 0 
0 0 0 0 0 0 0 0 0 
0 0 0 0 0 0 0 0 0 
0 0 0 0 0 0 0 0 0 
0 0 0 0 0 0 0 0 0 
0 0 0 0 0 0 0 0 0 
0 0 0 0 0 0 0 0 0 
0 0 0 0 0 0 0 0 0 
0 0 0 0 0 0 0 0 0 
0 0 0 0 0 0 0 0 0 
0 0 0 0 0 0 0 0 0 
0 0 0 0 0 0 0 0 0 
0 0 0 0 0 0 0 0 0 
0 0 0 0 0 0 0 0 0 
0 0 0 0 0 0 0 0 0 
0 0 0 0 0 0 0 0 0 
0 0 0 0 0 0 0 0 0 
0 0 0 0 0 0 0 0 0 
0 0 0 0 0 0 0 0 0 
0 0 0 0 0 0 0 0 0 
0 0 0 0 0 0 0 0 0 
0 0 0 0 0 0 0 0 0 
0 0 0 0 0 0 0 0 0 
0 0 0 0 0 0 0 0 0 
0 0 0 0 0 0 0 0 0 
0 0 0 0 0 0 0 0 0 
0 0 0 0 0 0 0 0 0 
0 0 0 0 0 0 0 0 0 
0 0 0 0 0 0 0 0 0 
0 0 0 0 0 0 0 0 0 
0 0 0 0 0 0 0 0 0 
-322642.82756 -503280.73317 -519204.24941 -1167109.269 -1214191.8519 298451.83544 -459069.48267 -149864.4903 1216445.7839 
-2214000.8181 -1390681.7942 3074556.1727 -6997444.6571 -866459.61252 3786884.9854 -3439226.0661 -3875262.1315 3829185.1799 
-3752215.4055 -1834007.6997 2805578.9482 -1798142.4233 -3943760.4299 79159.9899 -2319708.1382 -5551306.3592 3839998.6608 
-1945437.7302 -3341170.2512 7954385.342 -140889.34896 -5158464.8839 2760500.7368 -451222.38842 -2878437.8506 2671545.426 
-558239.55481 -8316848.1728 3697604.6705 0 -4847184.8377 7250333.6539 0 -7338979.783 -734493.12598 
-15094172.067 3544513.1452 17055356.455 1365092.2683 -7144142.0234 3657018.2252 -1319512.2823 -4601482.5787 3733232.2487 
-1292168.9131 -4521347.3108 3811783.241 32257.806838 -2868697.5217 9471687.2786 2656408.6427 -4002471.0037 3955314.7123 
-2252881.528 -5211962.4887 -1118617.3736 686702.4426 -306382.08361 2041786.9701 5469632.9576 -5386101.2184 4201826.7894 
1539527.9503 -695307.16359 3270422.4822 1284780.8127 -1572509.4994 -118437.60275 519419.71612 79700.020014 1722160.8208 
-31863.228367 -44136.741839 -22893.022959 0 0 0 0 0 0 
0 0 0 0 0 0 0 0 0 
0 0 0 0 0 0 0 0 0 
0 0 0 0 0 0 0 0 0 
0 0 0 0 0 0 0 0 0 
0 0 0 0 0 0 0 0 0 
0 0 0 0 0 0 0 0 0 
0 0 0 0 0 0 0 0 0 
0 0 0 0 0 0 0 0 0 
0 0 0 0 0 0 0 0 0 
0 0 0 0 0 0 0 0 0 
0 0 0 0 0 0 0 0 0 
0 0 0 0 0 0 0 0 0 
0 0 0 0 0 0 0 0 0 
0 0 0 0 0 0 0 0 0 
0 0 0 0 0 0 0 0 0 
1241085.2735 -1174396.7783 538549.67164 5338706.5308 -3597193.9739 7142877.7962 3542584.3608 -4544748.6321 1345706.6703 
1260442.8424 -4910727.2689 1986729.0434 2272489.3757 -3529130.4876 8108473.5498 5494558.1214 -12032852.992 6027519.9449 
22430.597741 -5724268.2433 3479383.0017 -3114630.7534 -3813641.0476 5966578.9704 -1094802.5888 -802250.93575 3091765.6838 
333126.43142 -57702.657626 5026.1984667 0 0 0 0 0 0 
0 0 0 0 0 0 0 0 0 
0 0 0 0 0 0 0 0 0 
0 0 0 0 0 0 0 0 0 
0 0 0 0 0 0 0 0 0 
0 0 0 0 0 0 0 0 0 
0 0 0 0 0 0 0 0 0 
0 0 0 0 0 0 0 0 0 
0 0 0 0 0 0 0 0 0 
0 0 0 0 0 0 0 0 0 
0 0 0 0 0 0 0 0 0 
0 0 0 0 0 0 0 0 0 
0 0 0 0 0 0 0 0 0 
0 0 0 0 0 0 0 0 0 
0 0 0 0 0 0 0 0 0 
0 0 0 0 0 0 -3.0230895709e-05 418906.05847 -103939.97977 
0 0 0 0 0 0 7.2266713027e-06 -191005.64941 451405.36058 
0 0 0 0 0 0 0 0 0 
1.5449154033e-05 -156319.6779 369431.6937 4.7778182762e-07 -2746.7966269 6491.52905 0 0 0 
0 0 0 -3.7047967955e-05 256343.81001 -63604.643298 -2.2948157874e-05 -109973.59042 259901.5704 
0 0 0 0 0 0 0 0 0 
-1.3611337748e-05 160753.05974 -39886.436198 0 0 0 -2.68107473e-06 99513.81268 -24691.606783 
7.4606696937e-06 232601.48759 -57713.641094 4.1385037272e-10 295515.68643 -73324.063576 -1.0762448353e-06 33641.463317 1708.8260918 
-1.5746041455e-06 -34755.886604 82138.897845 1.8021829563e-06 -43148.293214 101972.74749 -1.4086776667e-06 -6907.2919973 41441.255437 
0 0 0 0 0 0 5.9453697911e-06 391704.92882 -28986.495029 
-3.3850629483e-05 325436.62437 -80748.11872 0 0 0 -9.0481807213e-08 70370.56651 110182.89816 
4.182863454e-05 -149508.99812 353335.95316 0 0 0 1.363226813e-05 256442.69244 -63629.178245 
7.2278059023e-06 272911.72805 211580.88421 4.0145730481e-07 73663.275584 187626.7677 -3.2805590802e-06 -149919.30103 354305.62576 
-3.3608533702e-06 -116414.99633 290047.31093 1.649071163e-05 -71958.437711 308302.99186 1.4546967251e-06 372230.27031 77719.64927 
-1.0750403573e-05 -124025.16852 293109.79071 7.025517133e-06 15800.3907 214847.4694 -8.1912916695e-06 137995.73806 661208.81015 
6.637439965e-06 -7156.9050522 794540.61997 -8.1457245418e-06 -193193.56689 655514.59846 -2.1858511923e-06 -89825.248613 651809.84369 
-2.8215501345e-06 770996.21935 -153772.07084 3.8935785433e-08 -3079.4810229 747636.75519 1.0244404751e-06 834823.75758 384210.12374 
1.6644387254e-06 798324.43695 189232.01638 1.2506011693e-06 -359514.5374 1210111.0846 -1.401451688e-06 1502188.3698 105380.22798 
-6.2221154265e-07 -144293.10456 972337.4533 1.1266724244e-07 704254.26704 1405377.3559 -1.8824113856e-06 248062.75669 1780296.0383 
6.5733754394e-06 79432.185066 3077297.1943 2.6190312909e-06 1845290.1001 875656.17403 -2.5923631612e-05 6655260.141 -851713.77223 
1.3383881896e-06 -243907.34123 2683514.3581 0 0 0 0 0 0 
0 0 0 0 0 0 0 0 0 
0 0 0 0 0 0 0 0 0 
0 0 0 0 0 0 0 0 0 
0 0 0 0 0 0 0 0 0 
0 0 0 0 0 0 0 0 0 
0 0 0 0 0 0 0 0 0 
0 0 0 0 0 0 0 0 0 
0 0 0 0 0 0 0 0 0 
0 0 0 0 0 0 0 0 0 
0 0 0 0 0 0 0 0 0 
0 0 0 7.302565947e-06 -164113.83366 387851.69178 
meshid 1 5744 int
0 1 2 3 4 5 6 7 8 
9 10 11 12 13 14 15 16 17 
18 19 20 21 22 23 24 25 26 
27 28 29 30 31 32 33 34 35 
36 37 38 39 40 41 42 43 44 
45 46 47 48 49 50 51 52 53 
54 55 56 57 58 59 60 61 62 
63 64 65 66 67 68 69 70 71 
72 73 74 75 76 77 78 79 80 
81 82 83 84 85 86 87 88 89 
90 91 92 93 94 95 96 97 98 
99 100 101 102 103 104 105 106 107 
108 109 110 111 112 113 114 115 116 
117 118 119 120 121 122 123 124 125 
126 127 128 129 130 131 132 133 134 
135 136 137 138 139 140 141 142 143 
144 145 146 147 148 149 150 151 152 
153 154 155 156 157 158 159 160 161 
162 163 164 165 166 167 168 169 170 
171 172 173 174 175 176 177 178 179 
180 181 182 183 184 185 186 187 188 
189 190 191 192 193 194 195 196 197 
198 199 200 201 202 203 204 205 206 
207 208 209 210 211 212 213 214 215 
216 217 218 219 220 221 222 223 224 
225 226 227 228 229 230 231 232 233 
234 235 236 237 238 239 240 241 242 
243 244 245 246 247 248 249 250 251 
252 253 254 255 256 257 258 259 260 
261 262 263 264 265 266 267 268 269 
270 271 272 273 274 275 276 277 278 
279 280 281 282 283 284 285 286 287 
288 289 290 291 292 293 294 295 296 
297 298 299 300 301 302 303 304 305 
306 307 308 309 310 311 312 313 314 
315 316 317 318 319 320 321 322 323 
324 325 326 327 328 329 330 331 332 
333 334 335 336 337 338 339 340 341 
342 343 344 345 346 347 348 349 350 
351 352 353 354 355 356 357 358 359 
360 361 362 363 364 365 366 367 368 
369 370 371 372 373 374 375 376 377 
378 379 380 381 382 383 384 385 386 
387 388 389 390 391 392 393 394 395 
396 397 398 399 400 401 402 403 404 
405 406 407 408 409 410 411 412 413 
414 415 416 417 418 419 420 421 422 
423 424 425 426 427 428 429 430 431 
432 433 434 435 436 437 438 439 440 
441 442 443 444 445 446 447 448 449 
450 451 452 453 454 455 456 457 458 
459 460 461 462 463 464 465 466 467 
468 469 470 471 472 473 474 475 476 
477 478 479 480 481 482 483 484 485 
486 487 488 489 490 491 492 493 494 
495 496 497 498 499 500 501 502 503 
504 505 506 507 508 509 510 511 512 
513 514 515 516 517 518 519 520 521 
522 523 524 525 526 527 528 529 530 
531 532 533 534 535 536 537 538 539 
540 541 542 543 544 545 546 547 548 
549 550 551 552 553 554 555 556 557 
558 559 560 561 562 563 564 565 566 
567 568 569 570 571 572 573 574 575 
576 577 578 579 580 581 582 583 584 
585 586 587 588 589 590 591 592 593 
594 595 596 597 598 599 600 601 602 
603 604 605 606 607 608 609 610 611 
612 613 614 615 616 617 618 619 620 
621 622 623 624 625 626 627 628 629 
630 631 632 633 634 635 636 637 638 
639 640 641 642 643 644 645 646 647 
648 649 650 651 652 653 654 655 656 
657 658 659 660 661 662 663 664 665 
666 667 668 669 670 671 672 673 674 
675 676 677 678 679 680 681 682 683 
684 685 686 687 688 689 690 691 692 
693 694 695 696 697 698 699 700 701 
702 703 704 705 706 707 708 709 710 
711 712 713 714 715 716 717 718 719 
720 721 722 723 724 725 726 727 728 
729 730 731 732 733 734 735 736 737 
738 739 740 741 742 743 744 745 746 
747 748 749 750 751 752 753 754 755 
756 757 758 759 760 761 762 763 764 
765 766 767 768 769 770 771 772 773 
774 775 776 777 778 779 780 781 782 
783 784 785 786 787 788 789 790 791 
792 793 794 795 796 797 798 799 800 
801 802 803 804 805 806 807 808 809 
810 811 812 813 814 815 816 817 818 
819 820 821 822 823 824 825 826 827 
828 829 830 831 832 833 834 835 836 
837 838 839 840 841 842 843 844 845 
846 847 848 849 850 851 852 853 854 
855 856 857 858 859 860 861 862 863 
864 865 866 867 868 869 870 871 872 
873 874 875 876 877 878 879 880 881 
882 883 884 885 886 887 888 889 890 
891 892 893 894 895 896 897 898 899 
900 901 902 903 904 905 906 907 908 
909 910 911 912 913 914 915 916 917 
918 919 920 921 922 923 924 925 926 
927 928 929 930 931 932 933 934 935 
936 937 938 939 940 941 942 943 944 
945 946 947 948 949 950 951 952 953 
954 955 956 957 958 959 960 961 962 
963 964 965 966 967 968 969 970 971 
972 973 974 975 976 977 978 979 980 
981 982 983 984 985 986 987 988 989 
990 991 992 993 994 995 996 997 998 
999 1000 1001 1002 1003 1004 1005 1006 1007 
1008 1009 1010 1011 1012 1013 1014 1015 1016 
1017 1018 1019 1020 1021 1022 1023 1024 1025 
1026 1027 1028 1029 1030 1031 1032 1033 1034 
1035 1036 1037 1038 1039 1040 1041 1042 1043 
1044 1045 1046 1047 1048 1049 1050 1051 1052 
1053 1054 1055 1056 1057 1058 1059 1060 1061 
1062 1063 1064 1065 1066 1067 1068 1069 1070 
1071 1072 1073 1074 1075 1076 1077 1078 1079 
1080 1081 1082 1083 1084 1085 1086 1087 1088 
1089 1090 1091 1092 1093 1094 1095 1096 1097 
1098 1099 1100 1101 1102 1103 1104 1105 1106 
1107 1108 1109 1110 1111 1112 1113 1114 1115 
1116 1117 1118 1119 1120 1121 1122 1123 1124 
1125 1126 1127 1128 1129 1130 1131 1132 1133 
1134 1135 1136 1137 1138 1139 1140 1141 1142 
1143 1144 1145 1146 1147 1148 1149 1150 1151 
1152 1153 1154 1155 1156 1157 1158 1159 1160 
1161 1162 1163 1164 1165 1166 1167 1168 1169 
1170 1171 1172 1173 1174 1175 1176 1177 1178 
1179 1180 1181 1182 1183 1184 1185 1186 1187 
1188 1189 1190 1191 1192 1193 1194 1195 1196 
1197 1198 1199 1200 1201 1202 1203 1204 1205 
1206 1207 1208 1209 1210 1211 1212 1213 1214 
1215 1216 1217 1218 1219 1220 1221 1222 1223 
1224 1225 1226 1227 1228 1229 1230 1231 1232 
1233 1234 1235 1236 1237 1238 1239 1240 1241 
1242 1243 1244 1245 1246 1247 1248 1249 1250 
1251 1252 1253 1254 1255 1256 1257 1258 1259 
1260 1261 1262 1263 1264 1265 1266 1267 1268 
1269 1270 1271 1272 1273 1274 1275 1276 1277 
1278 1279 1280 1281 1282 1283 1284 1285 1286 
1287 1288 1289 1290 1291 1292 1293 1294 1295 
1296 1297 1298 1299 1300 1301 1302 1303 1304 
1305 1306 1307 1308 1309 1310 1311 1312 1313 
1314 1315 1316 1317 1318 1319 1320 1321 1322 
1323 1324 1325 1326 1327 1328 1329 1330 1331 
1332 1333 1334 1335 1336 1337 1338 1339 1340 
1341 1342 1343 1344 1345 1346 1347 1348 1349 
1350 1351 1352 1353 1354 1355 1356 1357 1358 
1359 1360 1361 1362 1363 1364 1365 1366 1367 
1368 1369 1370 1371 1372 1373 1374 1375 1376 
1377 1378 1379 1380 1381 1382 1383 1384 1385 
1386 1387 1388 1389 1390 1391 1392 1393 1394 
1395 1396 1397 1398 1399 1400 1401 1402 1403 
1404 1405 1406 1407 1408 1409 1410 1411 1412 
1413 1414 1415 1416 1417 1418 1419 1420 1421 
1422 1423 1424 1425 1426 1427 1428 1429 1430 
1431 1432 1433 1434 1435 1436 1437 1438 1439 
1440 1441 1442 1443 1444 1445 1446 1447 1448 
1449 1450 1451 1452 1453 1454 1455 1456 1457 
1458 1459 1460 1461 1462 1463 1464 1465 1466 
1467 1468 1469 1470 1471 1472 1473 1474 1475 
1476 1477 1478 1479 1480 1481 1482 1483 1484 
1485 1486 1487 1488 1489 1490 1491 1492 1493 
1494 1495 1496 1497 1498 1499 1500 1501 1502 
1503 1504 1505 1506 1507 1508 1509 1510 1511 
1512 1513 1514 1515 1516 1517 1518 1519 1520 
1521 1522 1523 1524 1525 1526 1527 1528 1529 
1530 1531 1532 1533 1534 1535 1536 1537 1538 
1539 1540 1541 1542 1543 1544 1545 1546 1547 
1548 1549 1550 1551 1552 1553 1554 1555 1556 
1557 1558 1559 1560 1561 1562 1563 1564 1565 
1566 1567 1568 1569 1570 1571 1572 1573 1574 
1575 1576 1577 1578 1579 1580 1581 1582 1583 
1584 1585 1586 1587 1588 1589 1590 1591 1592 
1593 1594 1595 1596 1597 1598 1599 1600 1601 
1602 1603 1604 1605 1606 1607 1608 1609 1610 
1611 1612 1613 1614 1615 1616 1617 1618 1619 
1620 1621 1622 1623 1624 1625 1626 1627 1628 
1629 1630 1631 1632 1633 1634 1635 1636 1637 
1638 1639 1640 1641 1642 1643 1644 1645 1646 
1647 1648 1649 1650 1651 1652 1653 1654 1655 
1656 1657 1658 1659 1660 1661 1662 1663 1664 
1665 1666 1667 1668 1669 1670 1671 1672 1673 
1674 1675 1676 1677 1678 1679 1680 1681 1682 
1683 1684 1685 1686 1687 1688 1689 1690 1691 
1692 1693 1694 1695 1696 1697 1698 1699 1700 
1701 1702 1703 1704 1705 1706 1707 1708 1709 
1710 1711 1712 1713 1714 1715 1716 1717 1718 
1719 1720 1721 1722 1723 1724 1725 1726 1727 
1728 1729 1730 1731 1732 1733 1734 1735 1736 
1737 1738 1739 1740 1741 1742 1743 1744 1745 
1746 1747 1748 1749 1750 1751 1752 1753 1754 
1755 1756 1757 1758 1759 1760 1761 1762 1763 
1764 1765 1766 1767 1768 1769 1770 1771 1772 
1773 1774 1775 1776 1777 1778 1779 1780 1781 
1782 1783 1784 1785 1786 1787 1788 1789 1790 
1791 1792 1793 1794 1795 1796 1797 1798 1799 
1800 1801 1802 1803 1804 1805 1806 1807 1808 
1809 1810 1811 1812 1813 1814 1815 1816 1817 
1818 1819 1820 1821 1822 1823 1824 1825 1826 
1827 1828 1829 1830 1831 1832 1833 1834 1835 
1836 1837 1838 1839 1840 1841 1842 1843 1844 
1845 1846 1847 1848 1849 1850 1851 1852 1853 
1854 1855 1856 1857 1858 1859 1860 1861 1862 
1863 1864 1865 1866 1867 1868 1869 1870 1871 
1872 1873 1874 1875 1876 1877 1878 1879 1880 
1881 1882 1883 1884 1885 1886 1887 1888 1889 
1890 1891 1892 1893 1894 1895 1896 1897 1898 
1899 1900 1901 1902 1903 1904 1905 1906 1907 
1908 1909 1910 1911 1912 1913 1914 1915 1916 
1917 1918 1919 1920 1921 1922 1923 1924 1925 
1926 1927 1928 1929 1930 1931 1932 1933 1934 
1935 1936 1937 1938 1939 1940 1941 1942 1943 
1944 1945 1946 1947 1948 1949 1950 1951 1952 
1953 1954 1955 1956 1957 1958 1959 1960 1961 
1962 1963 1964 1965 1966 1967 1968 1969 1970 
1971 1972 1973 1974 1975 1976 1977 1978 1979 
1980 1981 1982 1983 1984 1985 1986 1987 1988 
1989 1990 1991 1992 1993 1994 1995 1996 1997 
1998 1999 2000 2001 2002 2003 2004 2005 2006 
2007 2008 2009 2010 2011 2012 2013 2014 2015 
2016 2017 2018 2019 2020 2021 2022 2023 2024 
2025 2026 2027 2028 2029 2030 2031 2032 2033 
2034 2035 2036 2037 2038 2039 2040 2041 2042 
2043 2044 2045 2046 2047 2048 2049 2050 2051 
2052 2053 2054 2055 2056 2057 2058 2059 2060 
2061 2062 2063 2064 2065 2066 2067 2068 2069 
2070 2071 2072 2073 2074 2075 2076 2077 2078 
2079 2080 2081 2082 2083 2084 2085 2086 2087 
2088 2089 2090 2091 2092 2093 2094 2095 2096 
2097 2098 2099 2100 2101 2102 2103 2104 2105 
2106 2107 2108 2109 2110 2111 2112 2113 2114 
2115 2116 2117 2118 2119 2120 2121 2122 2123 
2124 2125 2126 2127 2128 2129 2130 2131 2132 
2133 2134 2135 2136 2137 2138 2139 2140 2141 
2142 2143 2144 2145 2146 2147 2148 2149 2150 
2151 2152 2153 2154 2155 2156 2157 2158 2159 
2160 2161 2162 2163 2164 2165 2166 2167 2168 
2169 2170 2171 2172 2173 2174 2175 2176 2177 
2178 2179 2180 2181 2182 2183 2184 2185 2186 
2187 2188 2189 2190 2191 2192 2193 2194 2195 
2196 2197 2198 2199 2200 2201 2202 2203 2204 
2205 2206 2207 2208 2209 2210 2211 2212 2213 
2214 2215 2216 2217 2218 2219 2220 2221 2222 
2223 2224 2225 2226 2227 2228 2229 2230 2231 
2232 2233 2234 2235 2236 2237 2238 2239 2240 
2241 2242 2243 2244 2245 2246 2247 2248 2249 
2250 2251 2252 2253 2254 2255 2256 2257 2258 
2259 2260 2261 2262 2263 2264 2265 2266 2267 
2268 2269 2270 2271 2272 2273 2274 2275 2276 
2277 2278 2279 2280 2281 2282 2283 2284 2285 
2286 2287 2288 2289 2290 2291 2292 2293 2294 
2295 2296 2297 2298 2299 2300 2301 2302 2303 
2304 2305 2306 2307 2308 2309 2310 2311 2312 
2313 2314 2315 2316 2317 2318 2319 2320 2321 
2322 2323 2324 2325 2326 2327 2328 2329 2330 
2331 2332 2333 2334 2335 2336 2337 2338 2339 
2340 2341 2342 2343 2344 2345 2346 2347 2348 
2349 2350 2351 2352 2353 2354 2355 2356 2357 
2358 2359 2360 2361 2362 2363 2364 2365 2366 
2367 2368 2369 2370 2371 2372 2373 2374 2375 
2376 2377 2378 2379 2380 2381 2382 2383 2384 
2385 2386 2387 2388 2389 2390 2391 2392 2393 
2394 2395 2396 2397 2398 2399 2400 2401 2402 
2403 2404 2405 2406 2407 2408 2409 2410 2411 
2412 2413 2414 2415 2416 2417 2418 2419 2420 
2421 2422 2423 2424 2425 2426 2427 2428 2429 
2430 2431 2432 2433 2434 2435 2436 2437 2438 
2439 2440 2441 2442 2443 2444 2445 2446 2447 
2448 2449 2450 2451 2452 2453 2454 2455 2456 
2457 2458 2459 2460 2461 2462 2463 2464 2465 
2466 2467 2468 2469 2470 2471 2472 2473 2474 
2475 2476 2477 2478 2479 2480 2481 2482 2483 
2484 2485 2486 2487 2488 2489 2490 2491 2492 
2493 2494 2495 2496 2497 2498 2499 2500 2501 
2502 2503 2504 2505 2506 2507 2508 2509 2510 
2511 2512 2513 2514 2515 2516 2517 2518 2519 
2520 2521 2522 2523 2524 2525 2526 2527 2528 
2529 2530 2531 2532 2533 2534 2535 2536 2537 
2538 2539 2540 2541 2542 2543 2544 2545 2546 
2547 2548 2549 2550 2551 2552 2553 2554 2555 
2556 2557 2558 2559 2560 2561 2562 2563 2564 
2565 2566 2567 2568 2569 2570 2571 2572 2573 
2574 2575 2576 2577 2578 2579 2580 2581 2582 
2583 2584 2585 2586 2587 2588 2589 2590 2591 
2592 2593 2594 2595 2596 2597 2598 2599 2600 
2601 2602 2603 2604 2605 2606 2607 2608 2609 
2610 2611 2612 2613 2614 2615 2616 2617 2618 
2619 2620 2621 2622 2623 2624 2625 2626 2627 
2628 2629 2630 2631 2632 2633 2634 2635 2636 
2637 2638 2639 2640 2641 2642 2643 2644 2645 
2646 2647 2648 2649 2650 2651 2652 2653 2654 
2655 2656 2657 2658 2659 2660 2661 2662 2663 
2664 2665 2666 2667 2668 2669 2670 2671 2672 
2673 2674 2675 2676 2677 2678 2679 2680 2681 
2682 2683 2684 2685 2686 2687 2688 2689 2690 
2691 2692 2693 2694 2695 2696 2697 2698 2699 
2700 2701 2702 2703 2704 2705 2706 2707 2708 
2709 2710 2711 2712 2713 2714 2715 2716 2717 
2718 2719 2720 2721 2722 2723 2724 2725 2726 
2727 2728 2729 2730 2731 2732 2733 2734 2735 
2736 2737 2738 2739 2740 2741 2742 2743 2744 
2745 2746 2747 2748 2749 2750 2751 2752 2753 
2754 2755 2756 2757 2758 2759 2760 2761 2762 
2763 2764 2765 2766 2767 2768 2769 2770 2771 
2772 2773 2774 2775 2776 2777 2778 2779 2780 
2781 2782 2783 2784 2785 2786 2787 2788 2789 
2790 2791 2792 2793 2794 2795 2796 2797 2798 
2799 2800 2801 2802 2803 2804 2805 2806 2807 
2808 2809 2810 2811 2812 2813 2814 2815 2816 
2817 2818 2819 2820 2821 2822 2823 2824 2825 
2826 2827 2828 2829 2830 2831 2832 2833 2834 
2835 2836 2837 2838 2839 2840 2841 2842 2843 
2844 2845 2846 2847 2848 2849 2850 2851 2852 
2853 2854 2855 2856 2857 2858 2859 2860 2861 
2862 2863 2864 2865 2866 2867 2868 2869 2870 
2871 2872 2873 2874 2875 2876 2877 2878 2879 
2880 2881 2882 2883 2884 2885 2886 2887 2888 
2889 2890 2891 2892 2893 2894 2895 2896 2897 
2898 2899 2900 2901 2902 2903 2904 2905 2906 
2907 2908 2909 2910 2911 2912 2913 2914 2915 
2916 2917 2918 2919 2920 2921 2922 2923 2924 
2925 2926 2927 2928 2929 2930 2931 2932 2933 
2934 2935 2936 2937 2938 2939 2940 2941 2942 
2943 2944 2945 2946 2947 2948 2949 2950 2951 
2952 2953 2954 2955 2956 2957 2958 2959 2960 
2961 2962 2963 2964 2965 2966 2967 2968 2969 
2970 2971 2972 2973 2974 2975 2976 2977 2978 
2979 2980 2981 2982 2983 2984 2985 2986 2987 
2988 2989 2990 2991 2992 2993 2994 2995 2996 
2997 2998 2999 3000 3001 3002 3003 3004 3005 
3006 3007 3008 3009 3010 3011 3012 3013 3014 
3015 3016 3017 3018 3019 3020 3021 3022 3023 
3024 3025 3026 3027 3028 3029 3030 3031 3032 
3033 3034 3035 3036 3037 3038 3039 3040 3041 
3042 3043 3044 3045 3046 3047 3048 3049 3050 
3051 3052 3053 3054 3055 3056 3057 3058 3059 
3060 3061 3062 3063 3064 3065 3066 3067 3068 
3069 3070 3071 3072 3073 3074 3075 3076 3077 
3078 3079 3080 3081 3082 3083 3084 3085 3086 
3087 3088 3089 3090 3091 3092 3093 3094 3095 
3096 3097 3098 3099 3100 3101 3102 3103 3104 
3105 3106 3107 3108 3109 3110 3111 3112 3113 
3114 3115 3116 3117 3118 3119 3120 3121 3122 
3123 3124 3125 3126 3127 3128 3129 3130 3131 
3132 3133 3134 3135 3136 3137 3138 3139 3140 
3141 3142 3143 3144 3145 3146 3147 3148 3149 
3150 3151 3152 3153 3154 3155 3156 3157 3158 
3159 3160 3161 3162 3163 3164 3165 3166 3167 
3168 3169 3170 3171 3172 3173 3174 3175 3176 
3177 3178 3179 3180 3181 3182 3183 3184 3185 
3186 3187 3188 3189 3190 3191 3192 3193 3194 
3195 3196 3197 3198 3199 3200 3201 3202 3203 
3204 3205 3206 3207 3208 3209 3210 3211 3212 
3213 3214 3215 3216 3217 3218 3219 3220 3221 
3222 3223 3224 3225 3226 3227 3228 3229 3230 
3231 3232 3233 3234 3235 3236 3237 3238 3239 
3240 3241 3242 3243 3244 3245 3246 3247 3248 
3249 3250 3251 3252 3253 3254 3255 3256 3257 
3258 3259 3260 3261 3262 3263 3264 3265 3266 
3267 3268 3269 3270 3271 3272 3273 3274 3275 
3276 3277 3278 3279 3280 3281 3282 3283 3284 
3285 3286 3287 3288 3289 3290 3291 3292 3293 
3294 3295 3296 3297 3298 3299 3300 3301 3302 
3303 3304 3305 3306 3307 3308 3309 3310 3311 
3312 3313 3314 3315 3316 3317 3318 3319 3320 
3321 3322 3323 3324 3325 3326 3327 3328 3329 
3330 3331 3332 3333 3334 3335 3336 3337 3338 
3339 3340 3341 3342 3343 3344 3345 3346 3347 
3348 3349 3350 3351 3352 3353 3354 3355 3356 
3357 3358 3359 3360 3361 3362 3363 3364 3365 
3366 3367 3368 3369 3370 3371 3372 3373 3374 
3375 3376 3377 3378 3379 3380 3381 3382 3383 
3384 3385 3386 3387 3388 3389 3390 3391 3392 
3393 3394 3395 3396 3397 3398 3399 3400 3401 
3402 3403 3404 3405 3406 3407 3408 3409 3410 
3411 3412 3413 3414 3415 3416 3417 3418 3419 
3420 3421 3422 3423 3424 3425 3426 3427 3428 
3429 3430 3431 3432 3433 3434 3435 3436 3437 
3438 3439 3440 3441 3442 3443 3444 3445 3446 
3447 3448 3449 3450 3451 3452 3453 3454 3455 
3456 3457 3458 3459 3460 3461 3462 3463 3464 
3465 3466 3467 3468 3469 3470 3471 3472 3473 
3474 3475 3476 3477 3478 3479 3480 3481 3482 
3483 3484 3485 3486 3487 3488 3489 3490 3491 
3492 3493 3494 3495 3496 3497 3498 3499 3500 
3501 3502 3503 3504 3505 3506 3507 3508 3509 
3510 3511 3512 3513 3514 3515 3516 3517 3518 
3519 3520 3521 3522 3523 3524 3525 3526 3527 
3528 3529 3530 3531 3532 3533 3534 3535 3536 
3537 3538 3539 3540 3541 3542 3543 3544 3545 
3546 3547 3548 3549 3550 3551 3552 3553 3554 
3555 3556 3557 3558 3559 3560 3561 3562 3563 
3564 3565 3566 3567 3568 3569 3570 3571 3572 
3573 3574 3575 3576 3577 3578 3579 3580 3581 
3582 3583 3584 3585 3586 3587 3588 3589 3590 
3591 3592 3593 3594 3595 3596 3597 3598 3599 
3600 3601 3602 3603 3604 3605 3606 3607 3608 
3609 3610 3611 3612 3613 3614 3615 3616 3617 
3618 3619 3620 3621 3622 3623 3624 3625 3626 
3627 3628 3629 3630 3631 3632 3633 3634 3635 
3636 3637 3638 3639 3640 3641 3642 3643 3644 
3645 3646 3647 3648 3649 3650 3651 3652 3653 
3654 3655 3656 3657 3658 3659 3660 3661 3662 
3663 3664 3665 3666 3667 3668 3669 3670 3671 
3672 3673 3674 3675 3676 3677 3678 3679 3680 
3681 3682 3683 3684 3685 3686 3687 3688 3689 
3690 3691 3692 3693 3694 3695 3696 3697 3698 
3699 3700 3701 3702 3703 3704 3705 3706 3707 
3708 3709 3710 3711 3712 3713 3714 3715 3716 
3717 3718 3719 3720 3721 3722 3723 3724 3725 
3726 3727 3728 3729 3730 3731 3732 3733 3734 
3735 3736 3737 3738 3739 3740 3741 3742 3743 
3744 3745 3746 3747 3748 3749 3750 3751 3752 
3753 3754 3755 3756 3757 3758 3759 3760 3761 
3762 3763 3764 3765 3766 3767 3768 3769 3770 
3771 3772 3773 3774 3775 3776 3777 3778 3779 
3780 3781 3782 3783 3784 3785 3786 3787 3788 
3789 3790 3791 3792 3793 3794 3795 3796 3797 
3798 3799 3800 3801 3802 3803 3804 3805 3806 
3807 3808 3809 3810 3811 3812 3813 3814 3815 
3816 3817 3818 3819 3820 3821 3822 3823 3824 
3825 3826 3827 3828 3829 3830 3831 3832 3833 
3834 3835 3836 3837 3838 3839 3840 3841 3842 
3843 3844 3845 3846 3847 3848 3849 3850 3851 
3852 3853 3854 3855 3856 3857 3858 3859 3860 
3861 3862 3863 3864 3865 3866 3867 3868 3869 
3870 3871 3872 3873 3874 3875 3876 3877 3878 
3879 3880 3881 3882 3883 3884 3885 3886 3887 
3888 3889 3890 3891 3892 3893 3894 3895 3896 
3897 3898 3899 3900 3901 3902 3903 3904 3905 
3906 3907 3908 3909 3910 3911 3912 3913 3914 
3915 3916 3917 3918 3919 3920 3921 3922 3923 
3924 3925 3926 3927 3928 3929 3930 3931 3932 
3933 3934 3935 3936 3937 3938 3939 3940 3941 
3942 3943 3944 3945 3946 3947 3948 3949 3950 
3951 3952 3953 3954 3955 3956 3957 3958 3959 
3960 3961 3962 3963 3964 3965 3966 3967 3968 
3969 3970 3971 3972 3973 3974 3975 3976 3977 
3978 3979 3980 3981 3982 3983 3984 3985 3986 
3987 3988 3989 3990 3991 3992 3993 3994 3995 
3996 3997 3998 3999 4000 4001 4002 4003 4004 
4005 4006 4007 4008 4009 4010 4011 4012 4013 
4014 4015 4016 4017 4018 4019 4020 4021 4022 
4023 4024 4025 4026 4027 4028 4029 4030 4031 
4032 4033 4034 4035 4036 4037 4038 4039 4040 
4041 4042 4043 4044 4045 4046 4047 4048 4049 
4050 4051 4052 4053 4054 4055 4056 4057 4058 
4059 4060 4061 4062 4063 4064 4065 4066 4067 
4068 4069 4070 4071 4072 4073 4074 4075 4076 
4077 4078 4079 4080 4081 4082 4083 4084 4085 
4086 4087 4088 4089 4090 4091 4092 4093 4094 
4095 4096 4097 4098 4099 4100 4101 4102 4103 
4104 4105 4106 4107 4108 4109 4110 4111 4112 
4113 4114 4115 4116 4117 4118 4119 4120 4121 
4122 4123 4124 4125 4126 4127 4128 4129 4130 
4131 4132 4133 4134 4135 4136 4137 4138 4139 
4140 4141 4142 4143 4144 4145 4146 4147 4148 
4149 4150 4151 4152 4153 4154 4155 4156 4157 
4158 4159 4160 4161 4162 4163 4164 4165 4166 
4167 4168 4169 4170 4171 4172 4173 4174 4175 
4176 4177 4178 4179 4180 4181 4182 4183 4184 
4185 4186 4187 4188 4189 4190 4191 4192 4193 
4194 4195 4196 4197 4198 4199 4200 4201 4202 
4203 4204 4205 4206 4207 4208 4209 4210 4211 
4212 4213 4214 4215 4216 4217 4218 4219 4220 
4221 4222 4223 4224 4225 4226 4227 4228 4229 
4230 4231 4232 4233 4234 4235 4236 4237 4238 
4239 4240 4241 4242 4243 4244 4245 4246 4247 
4248 4249 4250 4251 4252 4253 4254 4255 4256 
4257 4258 4259 4260 4261 4262 4263 4264 4265 
4266 4267 4268 4269 4270 4271 4272 4273 4274 
4275 4276 4277 4278 4279 4280 4281 4282 4283 
4284 4285 4286 4287 4288 4289 4290 4291 4292 
4293 4294 4295 4296 4297 4298 4299 4300 4301 
4302 4303 4304 4305 4306 4307 4308 4309 4310 
4311 4312 4313 4314 4315 4316 4317 4318 4319 
4320 4321 4322 4323 4324 4325 4326 4327 4328 
4329 4330 4331 4332 4333 4334 4335 4336 4337 
4338 4339 4340 4341 4342 4343 4344 4345 4346 
4347 4348 4349 4350 4351 4352 4353 4354 4355 
4356 4357 4358 4359 4360 4361 4362 4363 4364 
4365 4366 4367 4368 4369 4370 4371 4372 4373 
4374 4375 4376 4377 4378 4379 4380 4381 4382 
4383 4384 4385 4386 4387 4388 4389 4390 4391 
4392 4393 4394 4395 4396 4397 4398 4399 4400 
4401 4402 4403 4404 4405 4406 4407 4408 4409 
4410 4411 4412 4413 4414 4415 4416 4417 4418 
4419 4420 4421 4422 4423 4424 4425 4426 4427 
4428 4429 4430 4431 4432 4433 4434 4435 4436 
4437 4438 4439 4440 4441 4442 4443 4444 4445 
4446 4447 4448 4449 4450 4451 4452 4453 4454 
4455 4456 4457 4458 4459 4460 4461 4462 4463 
4464 4465 4466 4467 4468 4469 4470 4471 4472 
4473 4474 4475 4476 4477 4478 4479 4480 4481 
4482 4483 4484 4485 4486 4487 4488 4489 4490 
4491 4492 4493 4494 4495 4496 4497 4498 4499 
4500 4501 4502 4503 4504 4505 4506 4507 4508 
4509 4510 4511 4512 4513 4514 4515 4516 4517 
4518 4519 4520 4521 4522 4523 4524 4525 4526 
4527 4528 4529 4530 4531 4532 4533 4534 4535 
4536 4537 4538 4539 4540 4541 4542 4543 4544 
4545 4546 4547 4548 4549 4550 4551 4552 4553 
4554 4555 4556 4557 4558 4559 4560 4561 4562 
4563 4564 4565 4566 4567 4568 4569 4570 4571 
4572 4573 4574 4575 4576 4577 4578 4579 4580 
4581 4582 4583 4584 4585 4586 4587 4588 4589 
4590 4591 4592 4593 4594 4595 4596 4597 4598 
4599 4600 4601 4602 4603 4604 4605 4606 4607 
4608 4609 4610 4611 4612 4613 4614 4615 4616 
4617 4618 4619 4620 4621 4622 4623 4624 4625 
4626 4627 4628 4629 4630 4631 4632 4633 4634 
4635 4636 4637 4638 4639 4640 4641 4642 4643 
4644 4645 4646 4647 4648 4649 4650 4651 4652 
4653 4654 4655 4656 4657 4658 4659 4660 4661 
4662 4663 4664 4665 4666 4667 4668 4669 4670 
4671 4672 4673 4674 4675 4676 4677 4678 4679 
4680 4681 4682 4683 4684 4685 4686 4687 4688 
4689 4690 4691 4692 4693 4694 4695 4696 4697 
4698 4699 4700 4701 4702 4703 4704 4705 4706 
4707 4708 4709 4710 4711 4712 4713 4714 4715 
4716 4717 4718 4719 4720 4721 4722 4723 4724 
4725 4726 4727 4728 4729 4730 4731 4732 4733 
4734 4735 4736 4737 4738 4739 4740 4741 4742 
4743 4744 4745 4746 4747 4748 4749 4750 4751 
4752 4753 4754 4755 4756 4757 4758 4759 4760 
4761 4762 4763 4764 4765 4766 4767 4768 4769 
4770 4771 4772 4773 4774 4775 4776 4777 4778 
4779 4780 4781 4782 4783 4784 4785 4786 4787 
4788 4789 4790 4791 4792 4793 4794 4795 4796 
4797 4798 4799 4800 4801 4802 4803 4804 4805 
4806 4807 4808 4809 4810 4811 4812 4813 4814 
4815 4816 4817 4818 4819 4820 4821 4822 4823 
4824 4825 4826 4827 4828 4829 4830 4831 4832 
4833 4834 4835 4836 4837 4838 4839 4840 4841 
4842 4843 4844 4845 4846 4847 4848 4849 4850 
4851 4852 4853 4854 4855 4856 4857 4858 4859 
4860 4861 4862 4863 4864 4865 4866 4867 4868 
4869 4870 4871 4872 4873 4874 4875 4876 4877 
4878 4879 4880 4881 4882 4883 4884 4885 4886 
4887 4888 4889 4890 4891 4892 4893 4894 4895 
4896 4897 4898 4899 4900 4901 4902 4903 4904 
4905 4906 4907 4908 4909 4910 4911 4912 4913 
4914 4915 4916 4917 4918 4919 4920 4921 4922 
4923 4924 4925 4926 4927 4928 4929 4930 4931 
4932 4933 4934 4935 4936 4937 4938 4939 4940 
4941 4942 4943 4944 4945 4946 4947 4948 4949 
4950 4951 4952 4953 4954 4955 4956 4957 4958 
4959 4960 4961 4962 4963 4964 4965 4966 4967 
4968 4969 4970 4971 4972 4973 4974 4975 4976 
4977 4978 4979 4980 4981 4982 4983 4984 4985 
4986 4987 4988 4989 4990 4991 4992 4993 4994 
4995 4996 4997 4998 4999 5000 5001 5002 5003 
5004 5005 5006 5007 5008 5009 5010 5011 5012 
5013 5014 5015 5016 5017 5018 5019 5020 5021 
5022 5023 5024 5025 5026 5027 5028 5029 5030 
5031 5032 5033 5034 5035 5036 5037 5038 5039 
5040 5041 5042 5043 5044 5045 5046 5047 5048 
5049 5050 5051 5052 5053 5054 5055 5056 5057 
5058 5059 5060 5061 5062 5063 5064 5065 5066 
5067 5068 5069 5070 5071 5072 5073 5074 5075 
5076 5077 5078 5079 5080 5081 5082 5083 5084 
5085 5086 5087 5088 5089 5090 5091 5092 5093 
5094 5095 5096 5097 5098 5099 5100 5101 5102 
5103 5104 5105 5106 5107 5108 5109 5110 5111 
5112 5113 5114 5115 5116 5117 5118 5119 5120 
5121 5122 5123 5124 5125 5126 5127 5128 5129 
5130 5131 5132 5133 5134 5135 5136 5137 5138 
5139 5140 5141 5142 5143 5144 5145 5146 5147 
5148 5149 5150 5151 5152 5153 5154 5155 5156 
5157 5158 5159 5160 5161 5162 5163 5164 5165 
5166 5167 5168 5169 5170 5171 5172 5173 5174 
5175 5176 5177 5178 5179 5180 5181 5182 5183 
5184 5185 5186 5187 5188 5189 5190 5191 5192 
5193 5194 5195 5196 5197 5198 5199 5200 5201 
5202 5203 5204 5205 5206 5207 5208 5209 5210 
5211 5212 5213 5214 5215 5216 5217 5218 5219 
5220 5221 5222 5223 5224 5225 5226 5227 5228 
5229 5230 5231 5232 5233 5234 5235 5236 5237 
5238 5239 5240 5241 5242 5243 5244 5245 5246 
5247 5248 5249 5250 5251 5252 5253 5254 5255 
5256 5257 5258 5259 5260 5261 5262 5263 5264 
5265 5266 5267 5268 5269 5270 5271 5272 5273 
5274 5275 5276 5277 5278 5279 5280 5281 5282 
5283 5284 5285 5286 5287 5288 5289 5290 5291 
5292 5293 5294 5295 5296 5297 5298 5299 5300 
5301 5302 5303 5304 5305 5306 5307 5308 5309 
5310 5311 5312 5313 5314 5315 5316 5317 5318 
5319 5320 5321 5322 5323 5324 5325 5326 5327 
5328 5329 5330 5331 5332 5333 5334 5335 5336 
5337 5338 5339 5340 5341 5342 5343 5344 5345 
5346 5347 5348 5349 5350 5351 5352 5353 5354 
5355 5356 5357 5358 5359 5360 5361 5362 5363 
5364 5365 5366 5367 5368 5369 5370 5371 5372 
5373 5374 5375 5376 5377 5378 5379 5380 5381 
5382 5383 5384 5385 5386 5387 5388 5389 5390 
5391 5392 5393 5394 5395 5396 5397 5398 5399 
5400 5401 5402 5403 5404 5405 5406 5407 5408 
5409 5410 5411 5412 5413 5414 5415 5416 5417 
5418 5419 5420 5421 5422 5423 5424 5425 5426 
5427 5428 5429 5430 5431 5432 5433 5434 5435 
5436 5437 5438 5439 5440 5441 5442 5443 5444 
5445 5446 5447 5448 5449 5450 5451 5452 5453 
5454 5455 5456 5457 5458 5459 5460 5461 5462 
5463 5464 5465 5466 5467 5468 5469 5470 5471 
5472 5473 5474 5475 5476 5477 5478 5479 5480 
5481 5482 5483 5484 5485 5486 5487 5488 5489 
5490 5491 5492 5493 5494 5495 5496 5497 5498 
5499 5500 5501 5502 5503 5504 5505 5506 5507 
5508 5509 5510 5511 5512 5513 5514 5515 5516 
5517 5518 5519 5520 5521 5522 5523 5524 5525 
5526 5527 5528 5529 5530 5531 5532 5533 5534 
5535 5536 5537 5538 5539 5540 5541 5542 5543 
5544 5545 5546 5547 5548 5549 5550 5551 5552 
5553 5554 5555 5556 5557 5558 5559 5560 5561 
5562 5563 5564 5565 5566 5567 5568 5569 5570 
5571 5572 5573 5574 5575 5576 5577 5578 5579 
5580 5581 5582 5583 5584 5585 5586 5587 5588 
5589 5590 5591 5592 5593 5594 5595 5596 5597 
5598 5599 5600 5601 5602 5603 5604 5605 5606 
5607 5608 5609 5610 5611 5612 5613 5614 5615 
5616 5617 5618 5619 5620 5621 5622 5623 5624 
5625 5626 5627 5628 5629 5630 5631 5632 5633 
5634 5635 5636 5637 5638 5639 5640 5641 5642 
5643 5644 5645 5646 5647 5648 5649 5650 5651 
5652 5653 5654 5655 5656 5657 5658 5659 5660 
5661 5662 5663 5664 5665 5666 5667 5668 5669 
5670 5671 5672 5673 5674 5675 5676 5677 5678 
5679 5680 5681 5682 5683 5684 5685 5686 5687 
5688 5689 5690 5691 5692 5693 5694 5695 5696 
5697 5698 5699 5700 5701 5702 5703 5704 5705 
5706 5707 5708 5709 5710 5711 5712 5713 5714 
5715 5716 5717 5718 5719 5720 5721 5722 5723 
5724 5725 5726 5727 5728 5729 5730 5731 5732 
5733 5734 5735 5736 5737 5738 5739 5740 5741 
5742 5743 
v 3 5744 double
0 -1.2404289278 -90.954223071 0 -2.4244862318 -89.942942597 0 -3.5989887326 -88.939822696 
0 -4.75920699 -87.948902691 0 -5.9004694209 -86.974172492 0 -7.0181805727 -86.019556985 
0 -8.1078394441 -85.088900389 0 -9.165058375 -84.18595012 0 -10.185580893 -83.314341549 
0 -11.165297471 -82.477584542 0 -12.100262992 -81.679048549 0 -12.986713079 -80.921948651 
0 -13.821077384 -80.209334213 0 -14.599996673 -79.544074293 0 -15.320335356 -78.928846937 
0 -15.979191743 -78.366130423 0 -16.573913226 -77.858190291 0 -17.102105397 -77.407071559 
0 -17.561641161 -77.014590939 0 -17.950669842 -76.682329057 0 -18.267624786 -76.411623961 
0 -18.511230949 -76.203564641 0 -18.68050642 -76.058989731 0 -18.774769251 -75.978481668 
0 -18.793641258 -75.962363451 0 -18.737045741 -76.010700589 0 -18.605209762 -76.123299152 
0 -18.398664907 -76.299705124 0 -18.118243483 -76.539207646 0 -17.76507321 -76.840843555 
0 -17.340577215 -77.203397386 0 -16.846464922 -77.625409152 0 -16.284725215 -78.105180185 
0 -15.657620367 -78.640778323 0 -14.967675404 -79.23004699 0 -14.217668993 -79.87061298 
0 -13.410620534 -80.559897481 0 -12.549779907 -81.295124834 0 -11.638613801 -82.073334207 
0 -10.680790908 -82.891392239 0 -9.6801674943 -83.746005371 0 -8.6407729693 -84.633732159 
0 -7.566793181 -85.550997553 0 -6.4625523788 -86.494108294 0 -5.3324968871 -87.459266863 
0 -4.1811770684 -88.442586883 0 -3.013228624 -89.440109091 0 -1.8333546523 -90.447816661 
0 1.7301854302 -93.491367418 0 2.9100594019 -94.499074988 0 4.0780078463 -95.496597196 
0 5.2293276649 -96.479917216 0 6.3593831567 -97.445075785 0 7.4636239588 -98.388186526 
0 8.5376037471 -99.30545192 0 9.5769982721 -100.19317871 0 10.577621686 -101.04779184 
0 11.535444579 -101.86584987 0 12.446610685 -102.64405924 0 13.307451312 -103.3792866 
0 14.114499771 -104.0685711 0 14.864506182 -104.70913709 0 15.554451145 -105.29840576 
0 16.181555993 -105.83400389 0 16.743295699 -106.31377493 0 17.237407993 -106.73578669 
0 17.661903988 -107.09834052 0 18.015074261 -107.39997643 0 18.295495684 -107.63947895 
0 18.50204054 -107.81588493 0 18.633876519 -107.92848349 0 18.690472036 -107.97682063 
0 18.671600029 -107.96070241 0 18.577337198 -107.88019435 0 18.408061727 -107.73561944 
0 18.164455564 -107.52756012 0 17.84750062 -107.25685502 0 17.458471938 -106.92459314 
0 16.998936175 -106.53211252 0 16.470744004 -106.08099379 0 15.87602252 -105.57305366 
0 15.217166134 -105.01033714 0 14.496827451 -104.39510979 0 13.717908162 -103.72984987 
0 12.883543857 -103.01723543 0 11.99709377 -102.26013553 0 11.062128248 -101.46159954 
0 10.082411671 -100.62484253 0 9.0618891529 -99.753233959 0 8.004670222 -98.85028369 
0 6.9150113506 -97.919627094 0 5.7973001987 -96.965011587 0 4.6560377679 -95.990281388 
0 3.4958195105 -94.999361383 0 2.3213170097 -93.996241482 0 1.1372597057 -92.984961008 
0 0.24592597087 -92.223690081 0 -0.349095193 -91.715493998 0 5.6685733654 -83.216001201 
0 11.809436002 -74.821726087 0 10.204935133 -73.451352885 0 4.0616881512 -81.843591576 
0 1.9991675948 -80.092542098 0 9.2506412175 -72.646818376 0 0.46784424346 -78.774158908 
0 6.5336894458 -70.321867433 0 5.7131687865 -69.615037765 0 -1.5039962345 -77.08400922 
0 -3.0217850979 -75.793733888 0 3.1546517377 -67.42984201 0 1.7801058536 -65.99693247 
0 -4.5165768112 -74.517061157 0 -6.4055412324 -72.9215948 0 0.96512122076 -65.318731508 
0 -1.5818056699 -63.37835769 0 -7.7540035091 -71.752037543 0 -2.7741108387 -62.360032875 
0 -9.0676149083 -70.623939889 0 -3.2113582253 -61.992755857 0 -10.749449173 -69.193685257 
0 -4.4815932932 -60.90787262 0 -5.5647561584 -59.715708508 0 -11.983640538 -68.139586251 
0 -13.45263237 -66.8849487 0 -6.172907363 -59.19629831 0 -7.1344510114 -58.642118081 
0 -8.224725779 -57.70421632 0 -14.543582612 -65.953189169 0 -15.843962419 -64.846820426 
0 -8.7750991754 -57.238413566 0 -16.747770153 -64.070635163 0 -10.34179079 -55.902791125 
0 -10.856013361 -55.457963999 0 -17.807299636 -63.160071936 0 -10.565669855 -55.71158034 
0 -18.559201846 -62.523526341 0 -12.087857342 -54.411509407 0 -12.733637856 -53.861909766 
0 -19.227339697 -61.952882707 0 -19.970012637 -61.330891514 0 -13.051814801 -53.602472403 
0 -20.421670203 -60.93282809 0 -13.866949676 -52.899824981 0 -14.180901124 -52.63256769 
0 -20.797984863 -60.619228982 0 -21.16169118 -60.300790467 0 -14.510797955 -52.342122628 
0 -14.512824603 -52.056884952 0 -21.340641487 -60.147952466 0 -21.434986334 -60.067374354 
0 -14.550573933 -52.024643979 0 -14.708852648 -52.17296794 0 -14.637286137 -52.230140932 
0 -21.406671869 -60.091557192 0 -14.490416478 -52.352353864 0 -21.286858754 -60.189936678 
0 -21.001884746 -60.437278055 0 -14.162986053 -52.639182055 0 -13.938862459 -52.830601688 
0 -20.570485748 -60.805727608 0 -14.078578038 -52.71127331 0 -20.133075288 -61.179311433 
0 -13.220827815 -53.443861209 0 -12.657135675 -53.925299778 0 -19.605064615 -61.630275151 
0 -18.801460885 -62.328101579 0 -12.286563667 -54.253282177 0 -18.095610853 -62.919470454 
0 -11.03436834 -55.305975929 0 -10.59342816 -55.68257442 0 -17.05994919 -63.804009077 
0 -16.170846117 -64.56337484 0 -9.0901258645 -56.971813962 0 -7.9379602376 -57.68575375 
0 -15.195590672 -65.396321678 0 -13.834772858 -66.576980545 0 -7.3560617126 -58.201152697 
0 -5.5197777213 -60.024018832 0 -12.731174322 -67.501132084 0 -4.4087217165 -60.974967624 
0 -11.571738934 -68.494222935 0 -9.9413337482 -69.883881033 0 -2.726607134 -62.406772401 
0 -1.3759701396 -63.560354265 0 -8.615718593 -71.016063334 0 -6.8729068566 -72.504565176 
0 -0.6536809211 -64.177247536 0 0.38262569804 -65.06230811 0 1.8739569043 -66.333099127 
0 -5.4407523074 -73.727740715 0 -3.5774132918 -75.319182579 0 2.6476370485 -66.993884395 
0 3.7105592033 -67.904631839 0 -2.0625155361 -76.613027493 0 5.2383708537 -69.209506261 
0 6.2069792149 -70.036775954 0 -0.099822249609 -78.28932592 0 5.641392546 -69.553719304 
0 1.4622801094 -79.623487374 0 8.7821223256 -72.236155947 0 10.536067435 -73.472616557 
0 3.0524021892 -80.98157993 0 5.125225786 -82.759098957 0 11.424833728 -74.23885511 
0 14.090908197 -76.760671014 0 6.0165595208 -83.520369884 0 13.049643969 -75.888124187 
0 15.550668923 -78.007424455 0 8.2466680649 -85.40828568 0 10.315597018 -87.184934348 
0 17.641405036 -79.802698197 0 19.235924553 -81.164546519 0 11.905719098 -88.543026904 
0 13.95134818 -90.272673141 0 20.121335378 -81.903272752 0 22.731401133 -84.149965553 
0 15.430514743 -91.553486785 0 24.194562871 -85.396332457 0 16.945412499 -92.847331698 
0 18.808751515 -94.438773562 0 26.081585624 -87.011293419 0 26.974180297 -87.769971767 
0 20.61188996 -95.975129759 0 26.456521242 -87.331518689 0 21.9837178 -97.150450943 
0 29.219855497 -89.691629103 0 30.549992966 -90.8305816 0 23.309332956 -98.282633244 
0 24.938270578 -99.674003487 0 31.243965068 -91.42341585 0 26.099173529 -100.66538219 
0 33.326230781 -93.19368545 0 33.907683157 -93.690292694 0 34.654291068 -94.333075561 
0 27.51499021 -101.87460387 0 28.563589879 -102.7701926 0 35.674356043 -95.204293354 
0 36.763433837 -95.863224182 0 29.538845324 -103.60313944 0 30.6612198 -104.5617378 
0 37.226951927 -96.259106029 0 37.710503668 -96.943327713 0 38.510251487 -97.621457039 
0 31.463610061 -105.24704382 0 39.122497031 -98.144364133 0 32.166246516 -105.84223221 
0 39.339621643 -98.33472591 0 32.973063822 -106.53623913 0 39.920992763 -98.831263755 
0 40.413887727 -99.252235824 0 33.501074496 -106.98720284 0 34.041869775 -107.44908565 
0 40.637728063 -99.443413531 0 40.917724978 -99.682553488 0 41.216905491 -99.935146371 
0 34.369883954 -107.72923622 0 34.651789794 -107.98017457 0 41.329535861 -100.04150981 
0 34.774671076 -108.07495708 0 41.545025903 -100.20988733 0 41.544436604 -100.20938402 
0 34.792953784 -108.09057199 0 34.708640694 -108.01856181 0 41.397059224 -100.09194361 
0 41.176154373 -99.904528614 0 34.529690387 -107.86572381 0 34.15837571 -107.5561797 
0 41.011384553 -99.771390476 0 40.346110903 -99.196295344 0 33.78966941 -107.23368619 
0 39.882292408 -98.801501805 0 33.33096387 -106.84386104 0 32.595338904 -106.21363157 
0 39.101029839 -98.130949259 0 38.394556498 -97.527682225 0 31.927201054 -105.64298794 
0 30.935977326 -104.79847012 0 37.965072477 -97.162935444 0 36.617444138 -95.75635947 
0 30.11576936 -104.09587911 0 35.735136639 -95.011605056 0 29.334006438 -103.17478329 
0 27.911581819 -102.21332511 0 34.257499735 -93.994183747 0 33.560817318 -93.399160751 
0 26.518469109 -101.02349445 0 33.973597952 -93.751708718 0 25.351639745 -100.02692803 
0 31.643765492 -91.761843814 0 30.38530426 -90.687016382 0 24.11744838 -98.97282902 
0 22.438208143 -97.53949181 0 29.615851806 -90.030711346 0 21.122002716 -96.414476734 
0 27.284540368 -88.026788539 0 25.995570745 -86.92590448 0 19.769702442 -95.247577896 
0 17.884576019 -93.649453121 0 24.075046114 -85.297546779 0 22.551457164 -83.996704412 
0 16.389784305 -92.37278039 0 14.402705243 -90.679397613 0 21.694433593 -83.268480204 
0 19.000336385 -80.960022926 0 12.900154964 -89.39235537 0 17.584922189 -79.751144999 
0 11.365248079 -88.078108756 0 17.05236619 -79.299611496 0 9.3063110561 -86.322922701 
0 15.449558037 -77.93068401 0 13.840257434 -76.556211448 0 7.6994051454 -84.9504954 
0 15.029710938 -77.572100712 0 16.634211808 -78.942473914 0 20.298926644 -82.076179145 
0 23.684495203 -84.963984789 0 25.18442411 -86.245045098 0 28.423546637 -89.01238653 
0 30.050505166 -90.401070942 0 31.320740234 -91.485954179 0 32.535273606 -92.523263674 
0 35.062718431 -94.690712863 0 37.231959718 -96.536679795 0 38.927004282 -97.982317391 
0 39.571163438 -98.533826164 0 40.698488257 -99.502896223 0 41.349944895 -100.05170417 
0 41.491959197 -100.17299584 0 41.473364911 -100.16728284 0 41.002132993 -99.754644744 
0 40.059974755 -98.94996559 0 39.496282615 -98.46852702 0 37.918172445 -97.120693605 
0 35.929272805 -95.422012837 0 34.923971448 -94.563404365 0 32.357457098 -92.371520112 
0 29.565754074 -89.987054398 0 28.216428204 -88.83095171 0 24.968243015 -86.057117725 
0 23.128587737 -84.48919496 0 21.518716141 -83.096748672 0 18.057024615 -80.157670852 
0 16.435540572 -78.772792649 0 6.9815101856 -84.33735518 0 9.1977419047 -72.591128602 
0 7.6032223874 -71.22928028 0 4.1077458071 -68.243861246 0 0.75756131632 -65.38253338 
0 -2.3807085564 -62.702197696 0 -3.7132820516 -61.56608973 0 -6.4926345666 -59.208691766 
0 -8.8352091029 -57.189533445 0 -9.7898117329 -56.374225776 0 -11.674318123 -54.776189271 
0 -12.500474703 -54.059100889 0 -13.081845822 -53.562563044 0 -13.574740787 -53.141590975 
0 -14.374717941 -52.455120331 0 -14.699410189 -52.181032561 0 -14.557912284 -52.301883189 
0 -14.338062585 -52.490535147 0 -13.514011937 -53.205769733 0 -12.261882899 -54.26287754 
0 -11.55223178 -54.863337294 0 -9.6562523862 -56.492556768 0 -7.4183527944 -58.399643052 
0 -4.8046185519 -60.631982985 0 -3.5461573198 -61.706810417 0 -0.44923142494 -64.36969668 
0 2.7641008265 -67.09628002 0 4.2917576058 -68.394983348 0 7.8352270217 -71.437940449 
0 9.7867807502 -73.094215303 0 11.389588903 -74.463142789 0 12.99886881 -75.837597675 
0 19.909469433 -67.446291891 0 19.024793339 -66.129130921 0 19.314747855 -66.938351678 
0 17.416908635 -65.410316668 0 16.46261472 -64.605782159 0 14.046720106 -62.44198073 
0 13.824091957 -61.599154465 0 12.494548509 -61.115132059 0 11.828034758 -59.921799243 
0 10.264440038 -59.245085878 0 9.4349979256 -58.27773894 0 5.9401205203 -55.529661654 
0 5.7585054937 -54.787224488 0 4.5300833731 -54.372013511 0 3.9088052586 -53.234179097 
0 4.0928359866 -54.004736493 0 2.5857029411 -52.691466242 0 1.9459881954 -51.878042604 
0 0.10979856578 -50.245032067 0 -0.59082025095 -49.639927927 0 -0.37479228006 -48.922508143 
0 -1.6071250047 -48.819449473 0 -2.8630482092 -47.763905406 0 -2.8182677888 -47.139606941 
0 -3.9335779441 -47.068670544 0 -4.0786757179 -46.305160909 0 -5.0174394779 -46.17156503 
0 -5.433337061 -45.818303961 0 -5.1668699186 -45.124937992 0 -5.9126827213 -45.13984953 
0 -5.6658446582 -44.39010786 0 -6.5433565675 -44.557084851 0 -6.1760980903 -43.930990271 
0 -6.8826074601 -44.287069109 0 -6.730403207 -43.77709852 0 -7.4387711097 -44.110975551 
0 -7.393642421 -43.866012338 0 -7.6446221423 -43.935374924 0 -7.6013678192 -43.968367024 
0 -7.240918275 -43.642574595 0 -7.4803943171 -44.066765689 0 -7.0150889571 -44.169004635 
0 -6.5591311671 -43.909275821 0 -6.7954080586 -44.643467278 0 -6.1769112742 -44.503382223 
0 -6.1473813488 -45.177756718 0 -5.7960442826 -45.477826921 0 -5.4234284592 -45.376043186 
0 -5.3085309084 -46.153990182 0 -4.2128029158 -46.863433611 0 -3.6287722317 -46.781095069 
0 -3.4104468858 -47.597204837 0 -2.4772141752 -47.776827541 0 -2.0355185094 -48.735219147 
0 -1.2585451801 -49.128714441 0 1.1643080364 -51.458300024 0 1.9197445399 -51.451555368 
0 2.3986760001 -52.498018866 0 3.5472551799 -52.840540591 0 4.2677658109 -54.10584587 
0 5.1178389755 -54.831905835 0 5.9342068946 -54.874115132 0 6.5492551758 -56.035034077 
0 7.7176839004 -56.398165304 0 7.0656031069 -56.476007978 0 8.5776761633 -57.784776698 
0 9.4906797418 -57.883424218 0 9.9872147107 -58.942277429 0 11.120487749 -59.024339698 
0 10.497738237 -59.381231875 0 11.943663442 -60.40852936 0 12.875236938 -60.521684329 
0 13.618282391 -62.045075606 0 14.866727469 -62.532265164 0 15.753100519 -63.971783227 
0 16.916811477 -64.704136248 0 20.569333355 -68.027720087 0 21.624154604 -68.091070379 
0 22.449730303 -69.423160081 0 23.848991224 -70.003621691 0 24.668496081 -71.541097125 
0 25.678747249 -72.403933135 0 26.427588262 -72.218147462 0 27.214229395 -73.496752933 
0 29.231015434 -75.44428173 0 29.938879778 -75.415277865 0 30.776134115 -76.744880925 
0 32.730820994 -78.181671949 0 33.546541426 -78.227809418 0 34.297214135 -79.734812646 
0 35.265106035 -79.924517965 0 36.829887354 -81.342353647 0 36.049473904 -81.248654531 
0 37.435269395 -82.499258989 0 38.129241496 -83.09209324 0 39.995732571 -84.62163626 
0 40.677161319 -84.617871009 0 41.121848337 -85.626944169 0 42.157210971 -85.893591811 
0 41.464729257 -85.924911611 0 42.702107277 -86.944737604 0 43.446038685 -87.30888557 
0 44.766683751 -88.697842448 0 45.285420088 -89.135965294 0 45.821265097 -89.009018166 
0 46.002347011 -89.796641835 0 46.755990867 -89.809894681 0 46.219471623 -89.987003612 
0 46.954226759 -90.563806128 0 47.270448116 -90.833884682 0 47.735769501 -90.576826152 
0 47.718733557 -91.197615735 0 48.22704889 -91.086735405 0 47.858449136 -91.316944113 
0 48.181423526 -91.699316785 0 48.294053896 -91.805680228 0 48.557616867 -91.922358672 
0 48.841864994 -91.580695616 0 48.555997016 -91.974321171 0 48.800092128 -91.541595606 
0 48.439792493 -91.818304538 0 48.303568284 -91.703213643 0 48.527302104 -91.248758555 
0 48.028285616 -91.479781041 0 47.605375339 -90.878933071 0 47.743025714 -90.344788246 
0 47.035089816 -90.619791282 0 46.971018236 -89.924951331 0 46.176452957 -89.896692946 
0 45.734208977 -89.519099107 0 45.948275802 -88.806786527 0 45.097708833 -88.720572188 
0 44.094617144 -87.554867674 0 41.610921036 -86.004237057 0 41.582434192 -85.101099623 
0 40.441187959 -84.757677769 0 38.733907746 -83.59119593 0 37.943164501 -82.915837397 
0 37.77834667 -82.119273149 0 36.473371827 -81.592722939 0 35.877565121 -80.477959148 
0 34.376895833 -79.839268281 0 33.616802228 -79.190087014 0 32.405860204 -77.439620687 
0 31.140009091 -77.040710871 0 30.175557172 -76.217416642 0 30.036250494 -75.453552357 
0 28.659602347 -74.933343882 0 26.552794572 -73.130440253 0 26.264099145 -72.300508874 
0 24.931315068 -71.80312779 0 24.055289054 -70.422675001 0 24.398759069 -71.351594287 
0 22.505636104 -69.682508539 0 21.491067427 -68.815985027 0 17.131020763 -63.46386765 
0 8.5218592677 -56.111130343 0 4.332587595 -52.363176876 0 1.5652017402 -50.146439515 
0 -6.8327283207 -43.151627016 0 -4.202591434 -45.330613989 0 -1.6441080512 -47.3032271 
0 0.56586138934 -49.526789291 0 19.140498221 -65.213099332 0 39.238514478 -82.277253598 
0 42.606660759 -85.232739535 0 44.96284438 -87.469442544 0 47.194655472 -89.139838868 
0 49.10465632 -90.77398369 0 49.30916019 -90.82480207 0 43.371018945 -86.142211677 
0 24.634816446 -69.872906361 0 19.863688202 -65.226212642 0 18.952734162 -64.057909495 
0 15.028091978 -61.337248174 0 12.27582301 -59.042760737 0 10.58964211 -56.513797091 
0 6.5520681823 -54.219861814 0 5.699393289 -52.892622756 0 3.4572788351 -51.128347186 
0 -3.224289884 -45.66080848 0 -4.0418684665 -44.53536065 0 -6.1454659297 -42.753352124 
0 -6.5559148259 -42.980295009 0 -6.2746605774 -42.916466408 0 -5.5597298153 -43.810959964 
0 -4.4651037657 -44.242981957 0 -3.0193532839 -46.055591966 0 -1.967921814 -46.398101293 
0 -0.31666354209 -47.870672775 0 2.4660709477 -50.619639697 0 4.1949309638 -52.141373646 
0 6.0723073725 -53.740751553 0 7.9752641905 -55.405186678 0 10.062578045 -56.972664343 
0 15.785516239 -61.956161943 0 22.085354568 -66.927203455 0 26.676482696 -70.866676633 
0 30.526152919 -74.374293668 0 31.765432859 -75.181012617 0 34.322234426 -77.668044901 
0 35.523139981 -78.92630037 0 37.432006607 -80.569313527 0 38.541102972 -81.023583923 
0 41.125490776 -83.754608493 0 42.044739631 -84.124277094 0 44.32328016 -85.907139287 
0 46.290834886 -88.16368647 0 46.937085446 -88.303890916 0 48.264292965 -89.388108743 
0 48.78407575 -90.279359222 0 49.187078426 -90.199036627 0 49.361549244 -90.782662651 
0 49.150857754 -90.531607279 0 48.974822981 -89.96661381 0 47.601163176 -89.206766488 
0 46.768186636 -88.255646815 0 42.172915118 -84.354121206 0 38.8021502 -81.744273183 
0 36.315269553 -79.599643597 0 34.502720101 -77.752932971 0 33.401347825 -76.766351927 
0 31.202769998 -75.198134463 0 29.195611929 -73.499961296 0 27.025945972 -71.703216187 
0 26.201041957 -70.594873862 0 22.487463699 -67.761247305 0 17.859761176 -62.16619361 
0 16.407697857 -60.283543186 0 12.556272097 -57.02686736 0 6.6851580745 -52.508953697 
0 3.8712273432 -50.207126131 0 2.6275621034 -49.432689824 0 1.0793792939 -48.313666851 
0 -0.18724818421 -47.292295023 0 -1.1725153038 -45.897526879 0 -4.5316832943 -43.523538964 
0 -4.892781897 -42.985354351 0 -5.2503664075 -42.548875179 0 -5.3950907822 -42.188412615 
0 -5.5344115203 -42.124414398 0 -5.4840076708 -42.334727399 0 -5.1217467595 -42.729540384 
0 -4.3221087178 -43.067466085 0 -3.5487990609 -43.814017677 0 -2.5038484542 -44.723274525 
0 -1.2699908239 -45.72030414 0 0.28077223038 -47.187834514 0 2.2843975616 -48.739566471 
0 3.9852699946 -50.10416971 0 5.6482240608 -51.562291375 0 7.5031601262 -53.149889744 
0 9.8475062514 -54.798646997 0 13.606988908 -58.550775555 0 23.903316605 -67.24297422 
0 25.393386404 -68.518952612 0 28.050206866 -71.252453085 0 34.160084426 -76.317591399 
0 36.953408667 -78.298252373 0 39.097991901 -80.20837527 0 40.990375441 -81.826858837 
0 42.445072985 -83.196925315 0 43.667694338 -84.187426249 0 45.059224357 -85.267834168 
0 46.390649437 -86.444271664 0 47.443266514 -87.444288824 0 48.108939239 -87.624009974 
0 49.612550048 -89.24074934 0 49.893479014 -89.542531381 0 50.031813809 -89.608618938 
0 49.965303254 -89.544025343 0 49.883804676 -88.967670229 0 48.874631377 -88.849493793 
0 48.236699977 -87.933333648 0 47.185768127 -87.397656786 0 46.20851428 -86.863554667 
0 45.196623755 -85.79650186 0 43.822573608 -84.335437046 0 42.355130802 -83.297153372 
0 40.924855123 -82.046381334 0 31.497494715 -73.607973347 0 29.290813754 -71.760762496 
0 27.140801372 -70.136977176 0 25.136413591 -68.405958925 0 9.4306056749 -53.634168895 
0 -1.8243473955 -44.321995697 0 -2.5851327083 -43.287504265 0 12.436973135 -56.262592093 
0 18.260650487 -61.936423556 0 20.643949573 -63.719397118 0 21.800508166 -64.4821528 
0 28.878460553 -70.732281547 0 30.347738452 -72.008647336 0 49.871998206 -88.349543732 
0 22.341722501 -64.414511265 0 20.330672307 -62.38193732 0 19.157142336 -61.125683963 
0 17.147342571 -59.544791184 0 15.261714243 -58.139078126 0 13.752596338 -56.01276723 
0 11.247858239 -54.435016202 0 7.615364279 -51.238951845 0 5.8485430026 -49.749221389 
0 4.0782777766 -48.177424945 0 2.3062628962 -46.880078593 0 1.4577791493 -46.082421698 
0 0.23201650941 -44.621401275 0 -1.7080669511 -43.571376701 0 -2.6706113513 -42.249800237 
0 -3.4017385852 -41.702749533 0 -3.7824753779 -41.573475354 0 -4.0848920076 -41.296450784 
0 -3.8119816652 -41.545156692 0 -3.3234196257 -41.980765201 0 -2.558249093 -42.498305346 
0 -1.7324431629 -43.406799888 0 -0.66145679538 -44.280791928 0 0.068943706428 -44.945363767 
0 1.8737055855 -46.580733676 0 3.8162414043 -47.965993948 0 5.6049882528 -49.703416226 
0 7.7814651346 -51.509776645 0 9.3135170301 -52.581608058 0 15.308681986 -57.506056891 
0 18.010230727 -59.688804452 0 20.571037112 -61.686193613 0 24.286836176 -65.929823403 
0 30.970403205 -70.533620934 0 32.750632103 -73.353910661 0 35.212081751 -74.791993128 
0 36.964317797 -76.344191079 0 38.912435651 -77.985992253 0 40.995609851 -79.782813742 
0 42.054393114 -80.695744601 0 43.476682903 -81.934503027 0 44.791941769 -83.125701439 
0 46.221395249 -84.32581636 0 47.561359309 -85.413963251 0 48.639170847 -86.643308555 
0 49.349934409 -87.413532234 0 49.718867142 -87.502052626 0 50.254931168 -87.714356988 
0 50.626895868 -88.068432756 0 50.502935485 -87.746463257 0 49.613477354 -87.135019852 
0 48.834037421 -86.378134054 0 47.931244303 -85.70626858 0 47.015088825 -84.863160134 
0 45.741454286 -83.87996932 0 44.390023242 -82.727710831 0 42.73103788 -81.379586672 
0 40.680075308 -79.812347178 0 38.957716705 -78.167787824 0 38.250939394 -76.869544597 
0 31.727174681 -71.820647231 0 29.908557508 -70.317519179 0 27.948696077 -68.664587447 
0 22.884667447 -62.46542819 0 16.361916419 -56.724952125 0 12.051454328 -53.782609315 
0 10.054971283 -51.664928524 0 2.79167955 -45.560445002 0 0.48159272159 -43.992037587 
0 -0.81167572095 -43.078840905 0 -1.0501876329 -42.454348281 0 -2.4398250755 -41.670408317 
0 -2.2495535462 -40.739957249 0 -0.011398672864 -43.080577834 0 3.7785041134 -46.204813871 
0 7.615809462 -49.649719479 0 10.274083199 -52.51956895 0 12.283308168 -54.457889811 
0 13.915299822 -55.218905967 0 16.935034095 -58.097327524 0 23.598895304 -63.528765631 
0 25.162951963 -64.53266069 0 33.637255987 -72.044316692 0 45.272434981 -81.805910602 
0 46.806784724 -82.939746045 0 48.298554823 -84.400949589 0 49.543126829 -85.211870556 
0 50.438526702 -86.894220892 0 42.717650865 -79.669881116 0 40.774942391 -77.771144703 
0 36.543378165 -74.823776344 0 34.408418991 -72.812562367 0 20.49162567 -60.036364216 
0 18.638319344 -57.750510851 0 14.672204669 -54.63040781 0 6.8919014787 -48.371533692 
0 5.2645873606 -46.59499196 0 0.90968578992 -42.961653152 0 -0.31236066676 -42.010994065 
0 -1.4436533841 -41.204640765 0 -1.3587928669 -40.705400537 0 -2.3730068046 -40.551411526 
0 -1.9246381587 -40.976053649 0 -1.4942999493 -41.251441484 0 -0.2400128007 -41.798771179 
0 1.8789614805 -44.078463122 0 6.6001475532 -47.694502226 0 12.348624335 -52.738747657 
0 14.972120471 -54.992335346 0 17.912705085 -57.743438312 0 19.687565564 -59.3132336 
0 22.550059513 -61.367496828 0 27.584440279 -66.392014658 0 30.013688182 -68.24801967 
0 31.586825907 -69.297994485 0 34.154035253 -71.444904044 0 36.255682602 -73.432290055 
0 38.482965979 -75.404792405 0 40.765474056 -77.382593871 0 42.667071307 -79.202898176 
0 44.165055043 -79.871635497 0 50.298893073 -85.579648943 0 50.78605174 -85.992619599 
0 50.936643943 -86.190519763 0 51.089644157 -86.274575328 0 51.0096864 -86.129466631 
0 50.629771395 -85.797536569 0 50.073894835 -85.192136023 0 48.285163198 -83.683035672 
0 46.995889967 -82.506707804 0 45.630277726 -81.499964054 0 44.764272944 -80.433152808 
0 38.737265149 -75.136913951 0 32.575230117 -70.339952668 0 30.50605561 -68.560929863 
0 29.329970971 -67.57217696 0 26.95775385 -65.803356979 0 23.44111915 -61.117163786 
0 12.612468335 -52.406024809 0 10.10479554 -50.58578525 0 9.0833968485 -49.350468684 
0 3.7500497324 -44.79059506 0 3.0473209552 -43.850555536 0 1.1986591043 -42.603713389 
0 2.0653090649 -42.987509501 0 3.6530718951 -44.979494093 0 4.9603286099 -46.189920302 
0 6.1049749905 -46.804192242 0 9.2009894071 -49.296348851 0 10.873099354 -50.391931245 
0 25.894740123 -63.568117276 0 29.124087394 -65.843893848 0 43.219785845 -77.815166977 
0 45.679801522 -80.300468061 0 47.495296115 -82.093784416 0 48.957967432 -83.296410028 
0 49.289392795 -83.688191194 0 47.797227115 -82.466074991 0 42.839137791 -78.23997985 
0 40.726021787 -76.739757664 0 39.871920254 -75.646160108 0 36.603813606 -72.774153932 
0 35.305919044 -71.340732944 0 26.915211995 -64.164371194 0 21.371011196 -58.750254241 
0 19.176500177 -56.897779646 0 16.8867947 -54.913836272 0 14.571521312 -52.694280526 
0 12.035233032 -50.446515642 0 9.7983454784 -48.719829787 0 7.8129519439 -47.110494191 
0 6.0315481312 -45.429377152 0 3.6256996294 -43.362389943 0 1.8297822779 -42.081578972 
0 0.6554957282 -41.059447467 0 -0.06276607301 -40.409729489 0 -0.45405090861 -40.134935979 
0 -0.51518710463 -40.103752853 0 -0.25060588561 -40.297885506 0 0.43255239048 -40.731805697 
0 1.705691093 -41.56357098 0 2.9413197585 -42.766508512 0 4.2919974427 -43.95891385 
0 5.8161283232 -45.13863362 0 7.4315699879 -46.627751256 0 8.9264732309 -47.686688278 
0 14.872824596 -53.153155283 0 18.060913071 -55.907778687 0 20.849746437 -58.301506011 
0 23.603959249 -60.468729153 0 26.709934411 -62.783791889 0 32.720197389 -68.437664483 
0 35.149855849 -70.467832595 0 37.415100607 -72.451504264 0 39.687633883 -74.419530875 
0 41.803294697 -75.862883203 0 44.756469598 -78.339496277 0 47.026578184 -80.678401081 
0 48.31291886 -81.3784461 0 49.458843249 -82.69755942 0 49.967098675 -83.289088062 
0 50.65380772 -83.16418626 0 51.195059997 -84.299061629 0 51.25234529 -84.453261431 
0 51.055991925 -84.148826093 0 50.702324931 -83.80781962 0 50.082203345 -83.152444836 
0 49.101307322 -82.277286554 0 47.840301053 -81.172655026 0 44.379328145 -78.201703735 
0 42.178969955 -76.201741072 0 39.969181758 -74.434016439 0 38.53119936 -73.026889498 
0 33.009768645 -68.646129938 0 30.335121176 -66.015976367 0 25.126740935 -61.20434291 
0 23.928866439 -59.868997394 0 11.975363295 -49.561460014 0 29.635152302 -64.701478423 
0 43.751360596 -76.485064275 0 45.687602741 -78.52561307 0 51.134539663 -82.683924514 
0 46.98301208 -79.830855358 0 36.053757581 -70.271385657 0 27.683688821 -63.336013499 
0 24.312145999 -59.373669369 0 21.851905713 -57.398156066 0 19.447815654 -55.347411841 
0 17.022599026 -53.273971909 0 14.629114801 -51.226491386 0 12.344251401 -49.302850614 
0 10.476032117 -47.717290424 0 8.2127948579 -45.781965417 0 7.2651382064 -44.961875798 
0 5.8316750692 -43.696763446 0 4.3731282066 -42.493683603 0 3.1226347346 -41.457591646 
0 2.0930086576 -40.492574319 0 1.5420292889 -40.040304322 0 1.3462760615 -39.931462523 
0 1.3713501936 -39.937406495 0 1.6747132017 -40.17832085 0 2.4035255666 -40.742950372 
0 3.7750485289 -41.877126326 0 5.0499327544 -43.040618466 0 6.3316487106 -44.147266748 
0 7.8413678308 -45.417786838 0 10.581110882 -47.566964796 0 12.859974475 -49.578608852 
0 15.16164124 -51.67978581 0 17.664509742 -53.842094443 0 20.082430058 -55.892152905 
0 22.469479072 -57.915624141 0 25.063709427 -60.131881432 0 27.88159951 -62.386746957 
0 30.257223319 -64.440183979 0 32.167599528 -66.252701359 0 34.377477339 -68.123057418 
0 36.802756355 -70.227559023 0 38.147835689 -71.395311808 0 40.170222755 -73.117718353 
0 42.172056798 -74.410667682 0 45.568781593 -77.653992736 0 47.219661237 -79.047930543 
0 48.986712383 -80.55359661 0 50.025343947 -81.432812633 0 50.628917945 -82.042919971 
0 50.982883171 -82.410406295 0 50.840265145 -82.1900157 0 50.35145389 -81.775137151 
0 49.53212452 -81.062369395 0 48.42745551 -80.014557128 0 47.005824735 -78.843337568 
0 45.447294165 -77.56855927 0 43.591921791 -75.985074689 0 41.448984543 -74.160467683 
0 39.015951303 -72.00311051 0 35.467850622 -68.987492633 0 33.632017749 -67.490225546 
0 30.72999783 -64.850031391 0 27.089135459 -61.592433573 0 28.364184294 -62.348110979 
0 29.960408894 -63.709710841 0 32.836766427 -66.330745299 0 36.625746067 -69.49953002 
0 38.336101641 -70.963067107 0 40.733146806 -73.090990411 0 42.907088552 -74.957241795 
0 44.828493891 -76.580354898 0 46.396112475 -77.91907005 0 47.836820173 -79.052532898 
0 49.032485948 -80.128697237 0 49.966583855 -80.97502343 0 50.561421566 -81.463478032 
0 50.931388831 -81.885095954 0 51.003540971 -81.929422776 0 50.722039831 -81.676282155 
0 50.278968892 -81.177113671 0 49.557620805 -80.5999679 0 48.385125429 -79.563837055 
0 47.587668031 -78.874703715 0 46.177192279 -77.747534377 0 44.449283547 -76.327843926 
0 40.915388975 -73.248415588 0 38.841139427 -71.514881846 0 35.772967864 -68.843686001 
0 33.27503232 -66.703031909 0 31.240095825 -64.955541626 0 29.310164313 -63.137386169 
0 26.714724465 -61.066388216 0 24.016062642 -58.782025305 0 21.503061409 -56.624994606 
0 19.135699914 -54.628611189 0 16.687664586 -52.502026127 0 14.224824171 -50.426105445 
0 12.086634753 -48.421415395 0 9.8663564184 -46.670512559 0 8.8147256534 -45.79483286 
0 7.2987452252 -44.511274083 0 6.1386073398 -43.513451417 0 4.9361033189 -42.457910832 
0 3.8051413536 -41.430331655 0 3.2346380749 -40.962975827 0 2.3976214307 -40.348302681 
0 1.9966009791 -39.996555444 0 1.8689389205 -39.918099351 0 2.3031861122 -40.194309378 
0 2.9163256487 -40.776161782 0 3.3963420278 -41.212157379 0 4.4159106537 -42.08839118 
0 5.753053989 -43.187383355 0 7.2027003192 -44.430489047 0 9.2177125 -46.146494404 
0 10.34281725 -47.105244466 0 12.091114332 -48.640335242 0 14.125543639 -50.345399031 
0 16.487856587 -52.358211135 0 18.767537548 -54.306127816 0 21.177926542 -56.346473154 
0 23.427337182 -58.285008677 0 25.875221071 -60.23689808 0 26.723934883 -62.064550379 
0 29.549408357 -64.608364559 0 51.111366242 -82.228601951 0 51.176939941 -82.69459821 
0 42.604641264 -75.557280538 0 27.98124781 -63.260668086 0 10.341952145 -48.128265685 
0 1.4942188562 -40.951347723 0 32.310961971 -67.417123446 0 34.916731382 -70.003125061 
0 37.891502688 -71.823466447 0 41.027312508 -74.746994331 0 43.285475228 -76.643047318 
0 45.304574981 -78.531935478 0 46.230580637 -79.869964048 0 48.453749045 -81.147161466 
0 49.574652359 -82.078354375 0 50.424545541 -82.936573578 0 50.908076859 -83.37292086 
0 51.191331043 -83.764749493 0 51.261127609 -83.838432711 0 51.09021453 -83.636210646 
0 50.219094995 -82.703939633 0 48.953931034 -81.445430121 0 47.573065817 -80.287874689 
0 46.257797797 -79.864678306 0 43.9397255 -77.625096291 0 40.625544011 -74.585573112 
0 38.539008888 -72.832106078 0 36.353190828 -70.905630389 0 34.203930852 -69.069132646 
0 31.786311085 -67.041258705 0 30.236736364 -66.005393416 0 24.959271073 -60.975363975 
0 22.161814032 -58.758845445 0 19.736780126 -56.725443006 0 16.935372831 -54.287971841 
0 14.075938161 -51.885037568 0 12.254509912 -50.614208366 0 7.1589366161 -45.795830404 
0 5.5314630233 -44.39658272 0 4.0035085446 -43.236764927 0 2.8266891782 -41.989577546 
0 0.61895087184 -40.353426515 0 0.17990565884 -40.063630891 0 0.15359457119 -39.990891628 
0 0.34347384944 -40.1570013 0 0.92561191179 -40.591297451 0 1.7809725047 -41.428764904 
0 3.1286620607 -42.515698137 0 4.9487868555 -43.849755501 0 5.9119966239 -44.701594553 
0 7.489433793 -46.230703375 0 9.2666300364 -47.756444629 0 11.260884628 -49.343190953 
0 13.622170966 -51.287267658 0 16.113207586 -53.549265027 0 18.476464246 -55.679827179 
0 20.821830756 -57.617047221 0 22.73403718 -59.655754031 0 26.326478373 -63.189786913 
0 29.058135264 -65.718209588 0 37.799198526 -73.360623945 0 41.974940737 -76.982360736 
0 44.137019926 -79.018016604 0 50.854260964 -84.023352795 0 48.298187793 -82.429227673 
0 44.811707014 -79.359223113 0 42.230074375 -76.980737625 0 27.251189933 -64.063102658 
0 23.998172776 -61.782171685 0 8.5476552417 -48.355363002 0 4.9441153144 -45.356282532 
0 3.2856193233 -44.32417631 0 0.95367171275 -41.956705835 0 4.9760925916 -45.484893025 
0 11.594092574 -51.058471043 0 14.002959139 -53.201082277 0 24.814866644 -61.954054045 
0 25.94843263 -64.455911162 0 28.795828255 -66.543903418 0 31.94770548 -69.059429593 
0 34.026480945 -71.264260896 0 46.286532462 -81.252396529 0 48.913693215 -84.192819481 
0 49.911363717 -84.232325364 0 50.522513853 -84.983501537 0 50.95749754 -85.397759885 
0 51.169195032 -85.569044777 0 51.106726804 -85.6194209 0 50.695091128 -85.163990454 
0 50.04211765 -84.778962994 0 43.389877972 -79.041979347 0 41.833077478 -77.734113713 
0 39.701550713 -75.730028783 0 37.345140869 -73.713692683 0 35.122307362 -71.732303842 
0 32.697850277 -69.548964634 0 29.078177278 -66.941084473 0 26.273900584 -64.799838651 
0 20.843778391 -59.596714862 0 17.030408993 -56.253094938 0 13.940076314 -53.512202538 
0 11.091032268 -51.482486647 0 1.536687567 -43.518542104 0 -0.54965988614 -41.186094298 
0 -1.5295764514 -40.614351894 0 -1.7447878787 -40.37698785 0 -1.7510515104 -40.42222088 
0 -0.41774277387 -41.377119733 0 0.80968760855 -42.346135867 0 1.8305556863 -43.5585093 
0 6.6435610511 -47.419266903 0 7.9719166899 -49.247043296 0 16.014353956 -55.488177304 
0 20.107776926 -58.968233683 0 22.461941909 -61.279794529 0 24.40867705 -63.830070283 
0 35.991184383 -73.786915199 0 38.094074011 -75.587305083 0 42.13905522 -78.659600753 
0 44.044986454 -80.665396417 0 48.967232036 -84.320846233 0 47.48639854 -83.041070128 
0 45.909104449 -81.678701381 0 44.396480082 -80.940089666 0 32.060748448 -70.706743487 
0 22.444666669 -62.349046536 0 11.748676838 -53.45786431 0 9.8327393307 -51.247112389 
0 8.615075736 -49.987929948 0 6.2542154445 -48.297277605 0 2.9400651396 -45.429949185 
0 0.67003760644 -43.134745992 0 -0.67646168846 -42.391610575 0 -2.328665681 -40.653332276 
0 0.026149426571 -43.251003973 0 1.5817249591 -44.223536956 0 2.6883607894 -44.949493762 
0 4.141863262 -46.511645235 0 11.694438168 -52.791585132 0 13.638730025 -54.826374525 
0 17.567086337 -57.744613919 0 23.87203484 -64.799838214 0 26.381207164 -66.615443127 
0 27.690027166 -67.678944756 0 29.631122472 -69.340179976 0 31.411015283 -70.818792141 
0 33.273327561 -72.89010923 0 39.984427031 -78.426181506 0 42.049186313 -80.167590738 
0 43.911561572 -81.651160276 0 45.389452906 -82.808758218 0 46.691636611 -83.82548643 
0 47.807278264 -84.761342189 0 48.711634647 -85.508910411 0 49.563234715 -86.229723444 
0 50.062046287 -87.322296446 0 50.746369038 -87.38148568 0 50.810662354 -87.521944259 
0 50.677320381 -87.424673436 0 50.526728178 -87.226773272 0 50.118056676 -86.895861805 
0 49.253104954 -86.504932017 0 48.260515509 -85.430350449 0 46.919784808 -84.283238308 
0 45.471725697 -83.109533317 0 44.083796544 -81.834527285 0 42.713422909 -80.579077688 
0 40.320713662 -78.472522275 0 38.138611311 -76.570827471 0 36.219214198 -74.896753384 
0 34.01756818 -73.317659669 0 29.659975345 -69.206116453 0 26.893474747 -67.097898839 
0 25.563197977 -66.000907365 0 22.975841517 -64.419543338 0 19.520217129 -60.421162643 
0 14.091948731 -56.352112532 0 7.155920016 -50.392587112 0 5.1171006906 -48.468314855 
0 3.276359099 -46.919540284 0 1.756796583 -45.611924143 0 1.0631454957 -44.915755863 
0 -0.69096519884 -43.637094848 0 -1.6873233016 -42.641860118 0 -2.4642403327 -41.891505191 
0 -3.108617031 -41.469567783 0 -3.4270920225 -41.09062294 0 -3.6146845921 -41.033583796 
0 -3.3989304015 -41.200952363 0 -2.1065157312 -42.535832625 0 1.4354675075 -45.463851885 
0 3.6341349664 -47.212709014 0 5.5742564559 -48.703736589 0 7.2658537536 -50.144441519 
0 8.9923598098 -51.927222763 0 15.133633444 -57.053575336 0 16.872093527 -58.747701932 
0 18.975587191 -60.171030363 0 21.659203972 -62.893393196 0 24.835243734 -66.237765242 
0 35.765342353 -75.63906844 0 36.838164252 -76.80642747 0 50.568421439 -88.100943503 
0 31.279974666 -71.907445131 0 28.500268908 -69.303574861 0 27.107182746 -68.302793269 
0 19.965390443 -62.4987502 0 17.356310754 -60.391508778 0 15.053182113 -58.559829426 
0 11.444076027 -55.145581078 0 -4.1421061532 -41.365388264 0 -0.87716540831 -44.748912265 
0 10.40735498 -54.643044611 0 12.42992457 -55.8898194 0 24.302832286 -67.072836832 
0 26.631966306 -69.090683887 0 28.734966178 -70.68821994 0 30.780564482 -72.391916826 
0 33.110913791 -74.125937069 0 34.184526019 -75.411889656 0 36.742383698 -77.847602196 
0 38.062833992 -78.819207118 0 40.257108673 -80.67521768 0 42.029673325 -82.395506767 
0 43.534957026 -83.357783834 0 45.029641203 -84.776575145 0 46.231889052 -85.937569739 
0 47.115680093 -86.734071453 0 48.123735112 -87.239077555 0 48.997244925 -87.977686555 
0 49.300815726 -89.034074377 0 50.13826154 -88.792665307 0 50.210504028 -89.184770369 
0 50.205964733 -89.07128057 0 49.927478951 -88.955190054 0 49.540812732 -88.606107095 
0 47.274341922 -86.447200207 0 45.979277265 -85.45361276 0 44.621558412 -84.156205889 
0 43.230964055 -83.25689754 0 42.031762039 -81.991197715 0 40.301341317 -80.625985946 
0 38.383982425 -78.878673045 0 36.307568379 -77.178935189 0 35.223224405 -76.240120396 
0 32.882005695 -74.905715123 0 16.025614248 -59.853804384 0 12.207513185 -57.407482581 
0 9.0554251698 -53.633673783 0 6.8875455311 -51.980483517 0 4.9912119011 -50.402413617 
0 3.29818706 -48.902851412 0 1.3997983924 -47.463902398 0 -0.3487412886 -45.942591687 
0 -1.5624887058 -44.79904873 0 -2.6442945079 -43.974722762 0 -3.5078735075 -43.10254003 
0 -4.2316635964 -42.552491411 0 -4.916867423 -42.233403082 0 -5.036921898 -41.852308853 
0 -5.109803191 -41.900360797 0 -4.8109387208 -42.025963074 0 -4.4979150406 -42.426188256 
0 -4.0273917174 -42.841307549 0 -3.6535199053 -43.683703292 0 -0.041021744344 -46.388585701 
0 1.1866385563 -47.49543289 0 2.643146444 -48.663028485 0 5.0674507336 -50.458074179 
0 6.3438829751 -51.623482087 0 8.3948852434 -53.831369586 0 14.007024663 -58.235317979 
0 17.666342122 -61.172355791 0 19.344258654 -63.098836927 0 22.50523247 -66.746083256 
0 24.079023146 -68.730284713 0 28.521552963 -72.317862058 0 30.681802954 -74.158918256 
0 33.092073988 -75.933142142 0 35.678482043 -78.188076696 0 37.764720306 -79.763826602 
0 38.785472764 -80.637501783 0 40.153559434 -82.675474858 0 43.115798044 -84.926342877 
0 47.505749115 -88.525693016 0 48.20950049 -89.486214358 0 49.350680246 -89.917456232 
0 49.511023897 -90.333181311 0 49.584749328 -90.459494671 0 49.496128007 -90.40303773 
0 48.988222405 -89.346366853 0 48.82000343 -88.845697249 0 47.968497261 -88.745245104 
0 45.913323469 -87.301155834 0 43.443724396 -85.235916465 0 40.484437532 -82.662917836 
0 36.55832178 -79.173684202 0 30.067467481 -73.204385069 0 28.696252059 -72.750462987 
0 25.308147559 -69.685812177 0 21.293540788 -65.6766621 0 20.136982196 -64.913906418 
0 17.430038589 -62.70085404 0 15.285431631 -60.654027066 0 13.770774914 -59.832440475 
0 11.181862526 -57.674625377 0 9.1788942962 -55.686085346 0 7.0916111021 -54.03396429 
0 5.2445349262 -52.438484864 0 3.5926781918 -50.966936249 0 1.8448732521 -49.593588216 
0 -3.2627820422 -45.302020608 0 -4.9696875669 -43.719293083 0 -5.8022341292 -43.33618194 
0 -6.2627515415 -42.670661546 0 -6.1033443833 -43.043228357 0 -3.0897617139 -44.889780619 
0 -2.2542254611 -46.241638172 0 8.1169573423 -54.772951108 0 11.556492896 -57.442816641 
0 13.808892375 -59.301276257 0 15.027863492 -60.325735695 0 16.601345397 -62.288893484 
0 21.50733158 -65.525684717 0 44.24477706 -86.571232561 0 44.275559144 -86.892655545 
0 17.853972787 -64.162200982 0 -0.27317361578 -48.822854351 0 -4.691257638 -44.874564717 
0 -6.7683364639 -43.206410093 0 2.2490890249 -51.062346504 0 9.6942196744 -57.128359637 
0 21.245389523 -67.951707258 0 22.085789005 -69.32392524 0 23.097962989 -70.188403491 
0 27.270983474 -73.750886883 0 28.339930827 -74.018969028 0 30.74945818 -76.707148881 
0 31.704283316 -77.522646587 0 33.50723248 -78.426201732 0 35.005383595 -80.388842275 
0 36.908025186 -81.963082535 0 38.410882488 -83.315306296 0 39.18196774 -83.973875317 
0 40.045533884 -83.83262311 0 40.853968592 -85.110225735 0 42.026483781 -86.367968551 
0 42.698901989 -86.688860744 0 44.379538221 -88.0536877 0 45.216192185 -87.873114771 
0 46.0024274 -89.748061078 0 46.416703624 -90.103231279 0 47.799195483 -91.050113299 
0 48.275984001 -90.811787342 0 48.392678164 -91.7780651 0 48.487537129 -91.85908231 
0 48.514268062 -91.903935073 0 48.65721098 -91.48099722 0 48.069975855 -91.607062897 
0 47.093208751 -90.682507963 0 46.741871685 -90.382437761 0 44.974352528 -88.875208339 
0 44.596842011 -88.281554417 0 42.957024038 -87.162457087 0 42.326914979 -86.624293109 
0 39.457596202 -84.167269934 0 38.923686111 -83.138430699 0 36.930183251 -82.064966894 
0 35.546610441 -80.815499037 0 33.77955508 -79.296359569 0 32.154738628 -77.686359851 
0 31.691736223 -76.657341312 0 30.26255761 -76.309536427 0 28.583642966 -74.873887357 
0 28.109169022 -73.643292006 0 25.084115661 -71.89606978 0 24.052865769 -71.015299166 
0 19.82557971 -67.409271301 0 19.092103203 -66.521273152 0 16.168720098 -64.326755882 
0 15.15846893 -63.463919872 0 13.052695722 -61.562018956 0 11.378350918 -59.925706853 
0 7.9985408181 -57.293074548 0 4.6136643886 -54.401271164 0 3.760243641 -53.674398305 
0 0.62208850516 -51.01077197 0 0.16238835007 -50.348048326 0 -1.7806017477 -48.95293863 
0 -2.3900579921 -48.432413823 0 -4.5717412165 -46.573653432 0 -4.7208512197 -46.026273747 
0 -5.5224419439 -45.959808894 0 -6.0083993564 -45.296458554 0 -6.3246207139 -45.02638 
0 -6.9351236376 -44.524138901 0 -7.1234960182 -44.073190651 0 -6.9042952944 -43.626760332 
0 -7.6351796839 -43.943439545 0 -7.4957836077 -43.778988287 0 -7.4858854386 -44.070736113 
0 -7.3507163816 -44.18706397 0 -6.348976038 -44.727608952 0 -5.1914650354 -46.022933163 
0 -4.7460432778 -46.397719723 0 -3.643234438 -47.322286885 0 -2.5071043091 -48.07217075 
0 -1.5268401712 -48.007470315 0 -0.17410321718 -50.002557038 0 0.65394970612 -50.442725417 
0 2.2626776825 -52.415576607 0 3.0534209278 -53.090935141 0 6.5621762574 -56.084976646 
0 7.447652886 -56.582308683 0 9.8738891273 -58.911523888 0 10.842408876 -59.732679077 
0 14.767856324 -63.062344156 0 16.143770399 -63.675909588 0 16.998754252 -65.053179086 
0 18.00923552 -65.91621162 0 60.655325502 -20.711162263 0 60.467269706 -20.65394813 
0 60.316002388 -20.555231426 0 59.93021716 -20.187569585 0 59.740812179 -19.989658831 
0 59.651983635 -19.851092368 0 59.327757103 -19.607824985 0 59.124917286 -19.524765156 
0 58.8960351 -19.232031067 0 58.769463705 -19.216516696 0 58.646013916 -19.114311477 
0 58.604214014 -19.088935298 0 58.539796059 -19.099486574 0 58.529758228 -19.060087626 
0 58.549434842 -18.989701818 0 58.530355048 -19.025076273 0 58.093397601 -19.592451338 
0 58.612335585 -19.049499723 0 58.629070253 -19.096455698 0 58.656681642 -19.147551593 
0 58.69556453 -19.192563866 0 58.540786171 -19.73083608 0 58.630527326 -19.780483562 
0 58.351948417 -20.455351779 0 59.229388844 -19.562054233 0 59.338297819 -19.618064791 
0 59.514944833 -19.766907769 0 59.627878002 -19.873873926 0 59.917323959 -20.19796943 
0 60.144202415 -20.361995687 0 59.851609571 -21.086545219 0 60.46958439 -20.644480454 
0 60.586912921 -20.783418106 0 60.706918304 -20.923692448 0 61.171311097 -21.177833819 
0 61.291896051 -21.247752739 0 61.38147019 -21.372502495 0 61.511640625 -21.484000322 
0 61.650591891 -21.5582542 0 61.400807731 -22.252081148 0 62.101570832 -21.923097131 
0 62.210972382 -22.009872216 0 62.27126002 -22.127192176 0 62.471338135 -22.431101142 
0 62.722248506 -22.265100217 0 62.841206365 -22.43710896 0 62.751656887 -22.655988918 
0 62.79154361 -22.677898955 0 62.809941138 -22.720506878 0 62.38126493 -23.236238483 
0 62.896589114 -22.622605786 0 62.876718533 -22.626282011 0 62.829572644 -22.591477874 
0 62.291607321 -23.128946829 0 62.662591018 -22.559810653 0 62.628085659 -22.487222742 
0 62.464037843 -22.336859284 0 62.380227555 -22.286195079 0 62.307667546 -22.234113877 
0 62.183309375 -22.215022267 0 61.588261254 -22.638460066 0 61.936688041 -21.9457752 
0 61.873029621 -21.808106029 0 61.665234108 -21.654764852 0 61.04098388 -22.097215853 
0 61.314478994 -21.392060275 0 61.185548946 -21.291561333 0 60.767209166 -20.858458372 
0 58.490926152 -22.37145028 0 57.769499962 -21.670453792 0 57.249787746 -21.282221987 
0 56.927405398 -21.082171021 0 56.726318958 -20.97712062 0 56.788456104 -20.958340869 
0 58.32005171 -21.605961883 0 58.694417092 -22.434065623 0 59.407092312 -22.927202449 
0 60.48907555 -23.565898878 0 60.834340505 -24.356083218 0 61.109257991 -24.667298739 
0 61.235071309 -24.692348117 0 61.139541959 -24.463995819 0 60.920061708 -24.381242891 
0 60.524987143 -24.009040925 0 60.225541047 -23.229630244 0 59.3234275 -23.00365635 
0 55.496531776 -22.839621186 0 56.282640217 -22.96453025 0 56.49778823 -23.955730066 
0 57.906918091 -25.13723272 0 58.631903875 -25.509269509 0 58.597524483 -25.866410979 
0 55.826666921 -24.697605195 0 55.14767218 -24.151309558 0 54.623957585 -23.871853022 
0 54.332105156 -23.551110606 0 54.547756156 -23.260650247 0 54.143267108 -23.869695928 
0 55.96744174 -25.200700551 0 56.927136558 -24.941886708 0 58.864938132 -26.672573723 
0 59.138109524 -27.278944842 0 59.354705217 -27.267266217 0 59.025228068 -27.228238523 
0 58.77037653 -26.742503892 0 57.905604884 -27.174691283 0 57.104458705 -26.507237777 
0 56.870509877 -25.212975008 0 53.953853676 -27.185026896 0 51.942392413 -25.567477663 
0 52.56141312 -25.343420042 0 53.196892591 -25.38465839 0 54.014262428 -25.575998919 
0 54.621632102 -26.380416735 0 55.795623455 -27.421858589 0 56.379619392 -27.706269286 
0 56.959825268 -28.525347205 0 57.427223998 -29.264608643 0 57.597264314 -29.923380862 
0 57.555861572 -29.983754199 0 57.199480068 -30.002645627 0 56.6299345 -28.76258575 
0 55.954847788 -28.204939287 0 55.246136615 -27.504584523 0 52.928821156 -29.358539297 
0 52.50690015 -27.268624617 0 51.902091297 -26.931532888 0 51.474068083 -26.568861169 
0 51.496055602 -25.933682464 0 50.998087795 -27.644812306 0 52.158071957 -27.946396253 
0 52.980545831 -28.757037931 0 53.836758436 -29.51928682 0 54.743195154 -30.298297952 
0 55.590509455 -30.982298806 0 55.941944835 -31.968921666 0 56.036293209 -31.364657411 
0 55.799607061 -30.982788407 0 53.815340214 -30.266731668 0 51.314729843 -30.349856402 
0 48.832488945 -28.463143105 0 48.929211022 -27.977150204 0 49.161652927 -27.759033785 
0 49.856780791 -27.487446658 0 50.086281264 -27.586350188 0 55.947297519 -32.710995139 
0 55.957177025 -32.754623154 0 55.840317476 -32.694022039 0 54.902480689 -33.417065113 
0 54.440336982 -32.300296402 0 54.451992192 -31.248167011 0 50.412695094 -31.862348806 
0 49.310371662 -30.691187691 0 49.178454882 -29.573479323 0 48.797060009 -29.370634822 
0 47.759111442 -29.46207608 0 47.33198286 -29.314098739 0 48.11103148 -29.376968672 
0 49.148651918 -29.747588652 0 50.740658316 -30.903805415 0 51.360723456 -31.517828187 
0 52.313054343 -32.351664291 0 53.194814527 -33.560458467 0 54.001404267 -34.263882181 
0 54.452372902 -35.205057288 0 54.528752483 -35.558163969 0 53.696989134 -35.174064296 
0 53.270548444 -34.159125206 0 52.25604248 -33.750088724 0 51.653341158 -32.624347112 
0 48.829566297 -33.056036042 0 47.80047244 -32.208267591 0 46.771667658 -31.702142991 
0 45.897228643 -31.132273909 0 46.168246335 -30.337712686 0 46.317108497 -29.966677832 
0 46.308343177 -29.789274511 0 46.08031887 -30.040870765 0 45.782402001 -30.818339138 
0 46.613690677 -31.073860149 0 47.490470764 -31.794287896 0 48.566186447 -32.874904655 
0 49.820520401 -33.836783307 0 50.351061619 -35.294293742 0 52.518999927 -37.486714938 
0 53.236450536 -38.179895195 0 52.901857862 -37.030860964 0 49.415226993 -34.536872189 
0 43.496499598 -32.085452638 0 43.424949635 -31.687130599 0 43.419022498 -31.617107022 
0 44.293631503 -32.683455114 0 45.337382887 -33.239219163 0 47.507900272 -35.202497678 
0 48.434798859 -36.38385401 0 49.923805816 -36.726760788 0 50.778114865 -36.459644322 
0 51.688086421 -37.107231265 0 52.083149657 -39.082155279 0 52.709876551 -38.508914268 
0 52.72259737 -39.610099956 0 52.98266402 -38.915189137 0 52.838739737 -38.753225301 
0 51.832137433 -38.661927957 0 51.463274984 -37.740485916 0 50.91382679 -36.548810656 
0 49.97074433 -35.832755568 0 48.90665622 -35.946608468 0 46.503783273 -36.188406485 
0 45.547677059 -35.10606711 0 44.572388536 -33.920904512 0 43.854649304 -33.341054338 
0 43.230654232 -32.896078304 0 42.02849448 -33.022819984 0 41.582277223 -32.89578884 
0 42.616330035 -32.712548546 0 45.210069652 -35.535418239 0 47.793715043 -38.02142166 
0 48.829254519 -38.581235807 0 49.617951576 -39.59568157 0 50.763409083 -40.174392337 
0 51.836279342 -41.038425314 0 51.60693109 -40.552188797 0 48.341539917 -38.350089709 
0 47.570810441 -37.163268797 0 45.20777858 -38.919036241 0 41.647687564 -36.167330669 
0 41.466505594 -35.114767103 0 40.722089419 -34.559019555 0 40.048013071 -33.83559845 
0 40.470545719 -33.427057656 0 40.205461925 -33.43986189 0 39.68432084 -33.820224116 
0 40.168638547 -34.497661136 0 41.34990624 -34.682137849 0 42.444144628 -35.218511276 
0 43.213442853 -35.84942083 0 44.553736402 -37.326427167 0 46.207473067 -37.778744841 
0 50.404399521 -42.895551047 0 51.026162095 -42.943977222 0 51.345131467 -43.061896716 
0 51.622691124 -42.624177884 0 51.572686872 -42.641882068 0 51.364285287 -42.387282117 
0 51.063656061 -42.438568666 0 50.491095439 -41.850733373 0 49.69789931 -41.44057454 
0 48.497466915 -41.268865164 0 45.982778869 -39.531858316 0 43.99039612 -39.579811203 
0 43.355858655 -38.159420126 0 42.211294795 -37.49425774 0 40.413913312 -37.308254113 
0 38.62081255 -34.9863515 0 38.369892062 -34.748995722 0 37.873663406 -34.831961939 
0 39.161802225 -34.521484651 0 42.262050823 -37.986896816 0 43.067648452 -38.26236122 
0 43.731883832 -39.621868481 0 45.705103369 -40.42868865 0 46.895517689 -41.136488801 
0 47.647677165 -42.265894782 0 48.471637818 -43.074495313 0 49.212718787 -43.751099535 
0 50.681258134 -45.639169414 0 50.506391586 -45.525232663 0 49.97144156 -44.517955784 
0 49.00545712 -44.12472516 0 46.424238601 -41.172338 0 43.326836884 -41.028092638 
0 41.804431656 -40.569514472 0 38.553698388 -36.924079482 0 37.680288997 -36.292936418 
0 36.757007527 -35.896086002 0 36.688803371 -35.431039835 0 36.710146962 -35.143151455 
0 36.743794391 -35.115262322 0 36.27287107 -35.473482326 0 36.971715951 -36.014826083 
0 37.84655278 -36.467838725 0 39.059006448 -37.10482556 0 39.756848257 -38.071281958 
0 40.510563603 -39.072272748 0 43.669257665 -42.536365325 0 45.03909205 -43.30337612 
0 48.939261574 -46.327104509 0 49.749714175 -46.139869145 0 50.156709686 -46.432827316 
0 49.2800152 -47.468332775 0 48.819407195 -46.51183142 0 48.133643033 -45.564954737 
0 47.317235308 -44.545113268 0 46.008949162 -44.221173054 0 38.793941487 -39.233986026 
0 38.059725931 -38.22273104 0 37.292854982 -37.958750737 0 35.4995246 -37.704608041 
0 33.874516236 -36.706634819 0 33.916488921 -36.357041141 0 33.876609602 -36.278166577 
0 34.415834916 -36.363453172 0 36.093893673 -38.161044603 0 40.619400375 -41.751448441 
0 42.249582014 -42.122172552 0 42.462823712 -43.211610666 0 46.615524542 -46.068941625 
0 47.503882308 -47.078159764 0 48.153206466 -48.189583101 0 48.788337283 -49.091510084 
0 49.268124446 -49.545731074 0 49.646377285 -49.401136811 0 49.817692452 -49.052819449 
0 49.716578222 -48.998852405 0 49.420800643 -48.887964224 0 44.605941273 -45.451849913 
0 43.984662153 -44.231738003 0 42.493915275 -43.38333873 0 39.843310172 -43.493778671 
0 39.310860055 -42.252747278 0 37.237279616 -40.911843444 0 35.528654864 -40.037404718 
0 34.216965897 -38.987856605 0 33.552675091 -38.158029276 0 33.305924559 -37.493193442 
0 32.925751339 -37.50882272 0 34.258320659 -37.766652973 0 34.458674669 -38.766936521 
0 35.473045868 -39.708376058 0 36.895547123 -40.568038258 0 38.208911839 -41.87663018 
0 39.158700365 -43.033467946 0 40.181507352 -44.080440829 0 41.694241664 -44.606274722 
0 43.094605781 -45.445561686 0 44.333122729 -46.865119606 0 45.175646586 -48.781542644 
0 48.428722548 -51.363022824 0 48.242435599 -50.322739443 0 47.266942045 -48.91478489 
0 46.208333467 -48.067996849 0 45.093558996 -47.092217538 0 38.507044136 -44.738403949 
0 36.519147111 -43.442745536 0 35.624517464 -42.690879118 0 33.832026274 -41.449369133 
0 30.248665917 -38.048591275 0 30.642852503 -37.540369841 0 30.79632705 -37.373850401 
0 30.867782256 -37.396158486 0 31.069587066 -37.611990859 0 30.958399891 -38.209010208 
0 31.241190596 -38.971731981 0 41.041563763 -46.924661431 0 42.366041074 -48.393194841 
0 45.090124826 -50.625270276 0 45.907307973 -50.432790534 0 46.74881067 -51.350141908 
0 47.538649924 -52.108486466 0 47.860344673 -52.387098384 0 48.491564951 -52.877556764 
0 48.896938046 -52.785174244 0 49.061120474 -52.813608862 0 49.050542132 -52.725609756 
0 48.694080006 -52.560223332 0 46.640992617 -52.310581851 0 45.276144204 -50.896992197 
0 44.466631249 -50.193483148 0 42.875972283 -48.408164182 0 41.941105962 -47.275316156 
0 40.763126478 -46.287085676 0 31.998226398 -41.510047026 0 32.072275354 -40.654930342 
0 30.513015114 -39.528332332 0 29.716356155 -38.93252521 0 27.449804806 -38.372762772 
0 27.769970023 -38.31926231 0 28.305825908 -38.403449428 0 30.521556714 -40.32139137 
0 31.826080495 -40.592851528 0 33.392819069 -41.922217837 0 34.494959809 -42.950345306 
0 35.648009635 -43.983201295 0 36.859761072 -44.981066571 0 38.085663165 -45.900963304 
0 39.104197319 -47.583611226 0 43.415550993 -51.42692275 0 48.332539585 -56.236863494 
0 48.569460931 -56.132103011 0 48.615258249 -56.21684368 0 48.519119112 -56.059566984 
0 48.276661481 -55.817356272 0 47.899322895 -55.2408099 0 47.215003134 -54.211997131 
0 36.514570274 -47.106145031 0 34.807182521 -45.491561223 0 32.678762773 -43.741866555 
0 31.313846468 -42.940075726 0 30.014796352 -42.268319146 0 28.781384967 -41.535159209 
0 27.88000012 -40.704398147 0 27.104158627 -40.10129356 0 26.084444842 -39.705743085 
0 26.727742438 -38.763117422 0 25.445955701 -39.073214857 0 26.874139595 -39.441979799 
0 28.261202315 -39.831289313 0 28.716014884 -41.169890185 0 29.721362866 -41.970317309 
0 30.735265434 -43.063824351 0 31.87137097 -44.160408523 0 33.27619929 -45.33661269 
0 34.914507015 -46.735528709 0 35.834855543 -47.513406269 0 40.180474689 -50.811927536 
0 41.787461426 -51.447687708 0 42.814734554 -52.779381341 0 44.100011819 -53.729508754 
0 45.458386534 -54.451224113 0 46.316325904 -55.32574007 0 46.733060972 -55.688353062 
0 47.373875463 -56.14945151 0 47.921686904 -56.573536692 0 48.068364543 -57.526452793 
0 46.090865584 -56.297631037 0 45.307677988 -54.475460552 0 44.593598947 -53.926952663 
0 42.618046281 -52.290511384 0 41.715499536 -51.48283445 0 40.497083217 -50.275627505 
0 39.440185704 -49.277150152 0 38.175753812 -48.157573011 0 33.426160774 -47.592894296 
0 31.619765591 -46.196497605 0 30.200534765 -45.015307941 0 24.160247924 -39.972419291 
0 23.87887702 -39.219754297 0 24.640861458 -39.084636942 0 23.989536684 -39.736548013 
0 24.631733124 -39.880350527 0 24.977146907 -40.487678347 0 25.427650463 -41.243140084 
0 28.084851224 -43.475656539 0 36.69024318 -50.528928027 0 38.408880844 -51.139809157 
0 38.970215421 -52.017468024 0 40.149034298 -53.418977997 0 41.827800844 -54.953498893 
0 43.206927769 -56.066704298 0 44.56602344 -57.172092092 0 45.866441206 -58.408733734 
0 46.690329876 -59.097678389 0 47.476439125 -59.312033089 0 48.005207063 -59.772114732 
0 48.266442303 -59.709370413 0 48.339667014 -59.815802655 0 48.25044131 -59.652736447 
0 48.056431394 -59.055298711 0 47.657809844 -59.08556799 0 47.20887983 -58.389135503 
0 46.609936956 -58.300659413 0 44.670261097 -57.404170437 0 43.375189308 -56.222567046 
0 39.965719759 -53.376611712 0 38.681495537 -51.828786537 0 37.19457763 -50.540643408 
0 32.836259987 -48.525869535 0 27.675859331 -44.639178131 0 27.603145293 -43.773971698 
0 26.442967071 -42.827792599 0 25.209138166 -42.079550694 0 24.227966917 -41.286783337 
0 23.729165755 -40.609818294 0 21.874443561 -40.022984532 0 22.255944521 -39.621132637 
0 21.758908583 -39.614899534 0 21.383401693 -39.684800094 0 21.918127953 -39.741763137 
0 22.298516165 -40.048694382 0 24.146439656 -42.021826033 0 25.902588112 -42.419879276 
0 27.702707785 -44.599548372 0 29.04185293 -44.960992446 0 30.29429697 -46.490109167 
0 32.35047132 -47.887157447 0 34.769960858 -49.999953021 0 47.262581297 -62.166222635 
0 46.937605358 -61.866649826 0 45.502315152 -60.263297636 0 44.54013164 -59.04663838 
0 43.428079223 -58.46064823 0 42.432180077 -57.141652923 0 38.000908175 -54.26285173 
0 36.752054934 -52.845174905 0 34.976638351 -51.586546172 0 32.349545202 -50.671781189 
0 30.304617673 -49.369163154 0 29.035371017 -47.969694861 0 27.766024979 -46.540979883 
0 26.121413074 -45.461265558 0 24.3801088 -43.925869351 0 20.439206576 -41.374082317 
0 20.467016686 -40.722258698 0 19.743692404 -40.329932468 0 20.499859234 -40.639477212 
0 21.723128749 -40.938877901 0 22.504918392 -41.636896388 0 22.881765094 -43.49527002 
0 24.569761041 -44.122848663 0 26.205555171 -45.208567367 0 29.493495888 -48.669457292 
0 33.391144814 -51.954602864 0 34.669663979 -52.421586756 0 36.456978139 -53.537993282 
0 38.464421844 -55.231078171 0 39.934810624 -56.535684325 0 40.707837559 -57.302333114 
0 42.086273943 -58.469313891 0 43.723208381 -59.741767893 0 44.827236536 -60.707344565 
0 45.372952267 -61.275346426 0 46.245871094 -62.046993845 0 47.834187033 -64.348925309 
0 48.139121344 -63.879538543 0 48.24033015 -63.615330778 0 48.210635231 -63.52228632 
0 47.418470873 -63.976476049 0 46.206308715 -63.00547802 0 40.580684069 -57.756794075 
0 39.180243908 -55.926728792 0 21.335006703 -43.331387195 0 20.819170957 -42.245432376 
0 17.623378688 -40.619110009 0 18.112577601 -40.225653486 0 17.910246914 -40.136883292 
0 18.06019849 -40.203659609 0 18.232047699 -40.439215714 0 17.6299647 -41.002719483 
0 19.541405355 -42.22066938 0 20.997159056 -42.85806168 0 23.550895088 -45.579195431 
0 24.958136144 -46.897613976 0 26.737995759 -48.054724477 0 27.805231049 -48.951803598 
0 30.643476495 -50.956068759 0 32.577524416 -52.636701053 0 34.108291758 -54.64959387 
0 35.959899396 -56.274343877 0 37.514747609 -57.624678822 0 39.155426612 -59.070158706 
0 40.866392736 -60.475405071 0 42.357929899 -61.726640099 0 43.118081826 -62.377255457 
0 44.448197586 -63.18070782 0 45.665421005 -64.184202736 0 46.579106172 -65.029787584 
0 47.300547458 -65.276338255 0 48.378064304 -67.246696488 0 48.381355102 -66.884924112 
0 48.222652702 -66.419997102 0 47.918567496 -66.002738604 0 46.863570686 -65.320050393 
0 45.194690473 -63.792097748 0 44.100524602 -62.180038196 0 43.389432218 -61.568042878 
0 41.63640161 -60.025962112 0 40.574573703 -59.482242588 0 38.658589279 -58.265132156 
0 37.11390917 -56.64442975 0 35.740733002 -55.185645386 0 34.156426049 -53.838450543 
0 30.550439397 -53.379308806 0 29.172748623 -51.537938128 0 27.376106541 -49.958880196 
0 25.752107036 -48.478471192 0 24.065578795 -47.025930833 0 22.519802727 -45.7140558 
0 17.721222015 -43.065628147 0 17.6019077 -41.98998982 0 17.09665922 -41.287352946 
0 15.496674507 -40.898414067 0 15.030259184 -40.620277303 0 16.184014131 -41.433787426 
0 19.865040575 -44.28551923 0 21.646363608 -45.017655471 0 22.135131242 -45.69690729 
0 26.810358929 -50.876288045 0 29.066538616 -52.407850546 0 30.973137792 -54.053841703 
0 31.959405634 -55.185004112 0 43.728764687 -65.192319047 0 45.198072848 -66.137368796 
0 46.400224157 -67.158896858 0 47.244993825 -67.931485322 0 47.9733791 -67.873554509 
0 48.290320025 -67.846364859 0 48.525444351 -69.493896594 0 47.673737755 -67.854175062 
0 46.957046861 -67.266499555 0 46.220124707 -66.710333549 0 45.353193422 -65.927319957 
0 44.082123663 -64.874660223 0 40.931043113 -62.524535859 0 39.119125833 -60.951370301 
0 36.809594368 -58.692571398 0 35.693922967 -57.746406637 0 33.974619123 -56.222343324 
0 32.073960755 -54.854993355 0 27.831432617 -53.263756823 0 26.068050185 -51.438996953 
0 24.345756223 -49.957977009 0 22.198180739 -48.430372485 0 20.508096139 -46.677642163 
0 19.066406872 -45.173457279 0 18.117667008 -44.016753408 0 15.34071394 -42.662693295 
0 14.729761151 -41.760780816 0 13.570886843 -40.836356103 0 14.163658394 -40.549021011 
0 14.111879842 -40.43261841 0 14.189930772 -40.471287285 0 13.896151097 -41.076228235 
0 15.114774567 -42.153266556 0 16.591918338 -42.728713037 0 21.998595891 -48.350635079 
0 24.12180821 -49.382274258 0 32.20981281 -56.673102675 0 33.79515785 -57.323136873 
0 36.674139946 -59.816085759 0 37.905052452 -60.944502124 0 39.907509093 -62.721897908 
0 41.714776932 -64.154103955 0 48.346489871 -71.305899308 0 48.564735403 -70.666740025 
0 48.688448344 -70.438568845 0 48.351314264 -70.50319752 0 48.037774 -69.758265804 
0 47.4517977 -69.942971108 0 44.572687149 -67.913168095 0 42.007822279 -65.423901014 
0 41.161738421 -64.328664278 0 36.061109813 -60.667983351 0 33.776066872 -58.055753136 
0 32.244465457 -56.965236509 0 29.105102316 -55.212070043 0 27.690780914 -54.387949131 
0 24.553410171 -52.31794769 0 23.270775454 -51.237144363 0 18.454245024 -47.491822592 
0 17.394048145 -45.921879989 0 15.699477341 -44.748751199 0 15.035709272 -43.6325723 
0 14.37162889 -43.049318567 0 12.602260048 -42.060646493 0 12.033182607 -41.36198363 
0 11.430294274 -40.856516648 0 11.189509725 -40.614127333 0 11.054253903 -40.502763413 
0 11.070621665 -40.514693965 0 11.705532751 -40.74093901 0 11.830318259 -41.115159916 
0 12.428285182 -41.66132208 0 13.082189765 -42.22171635 0 13.520070018 -42.882231522 
0 15.036464276 -43.937361999 0 16.557804401 -44.988024841 0 17.88346738 -46.380823507 
0 19.417077829 -47.66526861 0 24.531321183 -52.024587422 0 27.173235158 -53.748890673 
0 29.278314173 -55.513191791 0 31.280417305 -57.488615873 0 33.449652392 -59.599329508 
0 35.605453958 -61.712241891 0 38.370256003 -64.10956829 0 40.367012325 -65.842776225 
0 42.002916859 -67.19410297 0 43.527449277 -67.85674721 0 44.937913174 -69.063664038 
0 46.131048823 -69.854961839 0 47.090256042 -70.688683286 0 47.962849874 -71.790352211 
0 48.940143036 -73.299856001 0 49.007579291 -72.915562131 0 49.021517713 -73.030436578 
0 48.677405502 -72.45565432 0 48.118930137 -72.126996719 0 47.368925349 -71.109826652 
0 46.571889014 -70.121360353 0 45.728661754 -69.502654172 0 43.20389523 -68.325295436 
0 38.482151931 -64.255382899 0 37.344538334 -62.648844465 0 32.757354708 -59.709403092 
0 30.892397837 -57.070944066 0 27.774580836 -56.878401114 0 19.310122751 -49.670959378 
0 15.110801792 -46.406409618 0 12.473145034 -44.054734174 0 8.3399975908 -40.566394522 
0 8.5687511057 -40.448204211 0 8.3905818666 -40.704385262 0 19.108829035 -49.166861121 
0 21.383516385 -50.426820605 0 25.308618224 -55.136322461 0 27.351091796 -56.525887678 
0 29.259616847 -58.171947658 0 31.524862299 -60.095100375 0 42.944207698 -70.044896913 
0 46.216491946 -72.892039517 0 47.179177001 -73.450759054 0 48.902639508 -75.031588847 
0 49.225756497 -75.019891981 0 49.254198786 -75.185275435 0 48.699625996 -74.402676397 
0 47.983951346 -74.172923657 0 47.067875915 -73.364737476 0 46.036017709 -72.464406246 
0 44.656654493 -70.697569178 0 41.799539946 -68.847336464 0 39.763656643 -66.509967485 
0 35.359345687 -63.384875882 0 34.11797252 -61.712337058 0 29.31750673 -58.583186326 
0 24.163073354 -55.189228225 0 22.646275766 -53.30337467 0 20.461936295 -51.525058304 
0 15.504093935 -47.859862465 0 14.400544636 -46.923092206 0 12.551949565 -45.287729057 
0 9.4162365264 -42.504723851 0 8.9792154436 -41.601120157 0 8.2979528861 -41.087096663 
0 7.8913743214 -40.762698196 0 6.7995882279 -40.442528133 0 7.45402321 -40.996732442 
0 8.9568460806 -41.59909908 0 9.7273413213 -42.288653259 0 10.187713841 -42.675200317 
0 11.121513745 -43.499005317 0 12.012691593 -44.293486642 0 13.264642309 -45.349417728 
0 14.799470647 -46.595883134 0 16.36577374 -47.949200902 0 17.738085853 -49.425862833 
0 19.355672955 -51.081405521 0 21.645336029 -52.724102218 0 23.492622252 -54.057078895 
0 34.007521625 -63.659347849 0 35.992899913 -64.714425384 0 37.875638547 -66.336060864 
0 39.640642235 -67.859636583 0 41.357634935 -69.292751227 0 45.181985316 -73.140885837 
0 46.047294065 -73.898305835 0 48.287564373 -75.862323154 0 48.532231187 -75.461811349 
0 49.873448128 -77.170032407 0 49.65805699 -76.358740199 0 49.624945261 -76.614337231 
0 49.26007985 -76.612770335 0 44.858732472 -73.177601722 0 43.223926751 -71.191085783 
0 37.927897 -66.959897899 0 36.607017373 -65.281778242 0 31.658146501 -61.643107229 
0 30.849589875 -60.406111954 0 26.730085664 -58.81317176 0 24.800816249 -57.094945215 
0 23.600118941 -56.305836297 0 22.131983268 -55.991159703 0 19.815762462 -54.028015988 
0 19.255772217 -52.843486018 0 15.166649804 -49.773941631 0 14.462165675 -48.472505976 
0 12.152483382 -46.496341647 0 9.5271396116 -45.258873556 0 9.8714852484 -44.594105453 
0 8.6164486846 -44.223552003 0 7.6971747349 -43.365022168 0 6.2192795629 -42.349791603 
0 6.0333185401 -41.489543299 0 5.2552204203 -40.877758083 0 4.9581264648 -40.638914609 
0 3.8085940899 -40.379318496 0 4.8833012188 -40.340360609 0 5.1352366616 -40.273258981 
0 3.7086604735 -40.066482978 0 5.0403728841 -40.488767674 0 5.2794371649 -40.714586749 
0 5.1265692045 -41.501127446 0 6.595018014 -42.038341598 0 6.1580667564 -42.380171065 
0 7.4570829617 -43.480423822 0 8.711527067 -44.54812714 0 10.315695173 -45.219690818 
0 11.947698966 -46.585747316 0 13.592944704 -48.734892689 0 15.224228163 -49.405223378 
0 15.503690029 -50.353214348 0 17.221248504 -51.080060016 0 17.7018439 -52.203964449 
0 19.97835376 -54.15851073 0 21.532916671 -54.7727957 0 23.521330395 -56.242763028 
0 25.587011388 -57.787288559 0 26.985064766 -59.943087515 0 28.428691832 -61.158362693 
0 30.824194541 -63.201467929 0 35.154074441 -66.431745426 0 37.453045386 -68.386964816 
0 38.713946221 -70.178823414 0 40.687106518 -71.164960944 0 43.213977826 -73.792585945 
0 45.36641247 -74.903708726 0 46.648168748 -76.015671146 0 47.532309297 -77.448751388 
0 48.448329152 -77.501798446 0 49.038494968 -78.962663265 0 49.613667775 -79.477965346 
0 50.211489457 -79.714597285 0 50.213883388 -78.865010532 0 50.381906039 -79.242316832 
0 50.438469931 -79.460255051 0 50.62649416 -80.362892923 0 50.42474858 -80.127930853 
0 50.047995411 -79.08298933 0 49.995337608 -79.765534331 0 49.344096459 -79.234270397 
0 47.663758159 -76.669167677 0 46.552053327 -75.699637579 0 45.890970497 -76.080356347 
0 42.615336084 -73.593511733 0 40.478474467 -71.396051528 0 39.512086904 -69.58245008 
0 37.842184822 -68.43944466 0 36.846954401 -67.870220429 0 35.901595434 -67.759310341 
0 33.908167885 -64.802710178 0 33.16359457 -65.125648924 0 29.619851324 -62.402586385 
0 27.325265671 -60.258705412 0 28.801827727 -60.844264368 0 31.157636596 -62.734989818 
0 31.83082209 -63.985147249 0 34.872987149 -65.907266481 0 38.619918085 -69.831977633 
0 41.101713883 -70.933765753 0 41.981907677 -71.968973864 0 43.52659718 -73.66853832 
0 44.304250957 -75.061620685 0 45.137527222 -74.720591465 0 47.206281902 -77.193588781 
0 48.334329683 -78.184418748 0 48.722392291 -77.808480801 0 49.528188317 -78.65553579 
0 50.749943043 -80.560788646 0 50.460683676 -80.0189782 0 49.789053561 -78.396958456 
0 49.552464823 -78.457850537 0 47.74043865 -76.671751773 0 46.342967364 -76.695185139 
0 44.800757308 -75.139389266 0 43.871074482 -73.379453207 0 42.450293143 -72.420428191 
0 41.427566131 -72.515606769 0 39.477662576 -70.124674948 0 36.346834916 -68.154595094 
0 33.692858359 -65.896545261 0 33.017608581 -64.384398598 0 32.026000682 -63.310295489 
0 29.793694825 -61.394527412 0 26.920671468 -58.933570598 0 24.222477058 -57.556614694 
0 22.052211347 -55.919474098 0 19.447402552 -52.972108136 0 13.573934218 -47.992810405 
0 11.938888978 -47.286207 0 10.246883158 -45.863739804 0 9.0445307897 -44.107442007 
0 7.819313282 -43.078503956 0 5.6968348588 -41.289313536 0 4.3731580718 -40.844554115 
0 3.7059335321 -40.253653151 0 4.7583721903 -40.232213818 0 5.0075597688 -40.187269929 
0 3.7930890012 -40.098035251 0 4.5384509214 -40.963258613 0 5.4850835129 -41.719456049 
0 7.8916763934 -42.784069987 0 9.2079195652 -43.711115419 0 11.190386433 -45.702812638 
0 11.540867326 -46.928082263 0 12.747000321 -47.967476333 0 16.650279233 -50.043916286 
0 17.428583318 -50.973003511 0 17.598864513 -52.104012903 0 21.391414464 -54.657722801 
0 25.071897672 -58.270998438 0 29.531056373 -59.939672526 0 35.492696909 -64.909281143 
0 36.932666579 -66.390673668 0 42.308815009 -70.719183249 0 43.808280515 -72.515902986 
0 48.61515756 -76.416511469 0 49.139230559 -77.051331306 0 49.701695411 -77.534429818 
0 49.923536081 -77.421136437 0 48.980166318 -76.405660852 0 42.315306422 -70.702613114 
0 40.752162043 -69.659920479 0 38.971441606 -68.133509683 0 37.120958682 -66.535367531 
0 35.132226142 -64.843173 0 24.066323513 -55.208714908 0 22.428334458 -53.944448617 
0 20.218967033 -52.366046707 0 18.103513077 -50.563562517 0 16.576359415 -48.994369362 
0 14.994632002 -47.617972633 0 13.38758285 -46.270261223 0 11.89357044 -45.020854836 
0 10.767820049 -44.051637491 0 9.7604548062 -43.152889967 0 8.4824961688 -42.076773842 
0 7.6396335801 -41.348852926 0 6.8852159866 -40.556606403 0 6.9866190179 -40.563830778 
0 6.9375888972 -40.79882414 0 7.4372287596 -41.16463021 0 8.2920747231 -41.840532716 
0 11.723998595 -44.593757227 0 18.887036639 -50.739349823 0 20.660390678 -52.498185107 
0 22.817309307 -54.278382395 0 32.970948429 -61.320526679 0 34.222929401 -62.962136294 
0 38.586281273 -66.116586952 0 40.042303972 -67.870127432 0 40.945292459 -68.658229111 
0 43.684267494 -70.181059395 0 45.246765706 -72.369294302 0 46.528313624 -73.806360818 
0 47.549091874 -74.733593134 0 48.396010498 -75.088493598 0 49.039622349 -75.292133297 
0 49.551964661 -75.797071858 0 49.619366776 -76.425395282 0 49.283076436 -75.944198446 
0 47.73335489 -74.250630321 0 47.025495983 -74.232405214 0 44.481546746 -71.346692421 
0 43.736291074 -71.349579251 0 33.571875241 -62.123947902 0 32.35074059 -61.723563508 
0 30.169622675 -59.874891839 0 28.088365673 -58.077918998 0 26.128159435 -56.401044446 
0 22.12013876 -51.605732543 0 20.045419577 -50.260549094 0 8.7203248092 -40.918692226 
0 8.1595370158 -40.468315505 0 7.4172202736 -40.378788141 0 7.5012382612 -40.431909728 
0 11.225917871 -42.917206428 0 11.212102569 -43.542645816 0 14.224303669 -45.564575477 
0 17.606210008 -48.244020058 0 18.047911177 -49.126638223 0 25.64412915 -55.314332061 
0 26.240487 -56.473275135 0 27.993098076 -58.042244516 0 30.738002559 -58.250161503 
0 31.575434973 -59.276239345 0 36.320086033 -62.416419026 0 37.498118452 -63.989798421 
0 42.234279424 -67.463475039 0 45.056837711 -69.560180385 0 46.117730539 -70.735154909 
0 47.029738474 -71.408988349 0 47.841922261 -72.504906303 0 48.564574719 -73.109196872 
0 49.027033216 -73.642275983 0 49.281795013 -74.317838997 0 49.225790637 -74.007274687 
0 48.430804788 -72.900794535 0 47.986749463 -72.97729702 0 47.57638817 -72.339105866 
0 46.774072606 -71.29723698 0 45.727149182 -70.668118216 0 44.403844829 -69.45374428 
0 42.813067818 -68.445013012 0 41.176385252 -67.384124984 0 39.4367422 -65.951118573 
0 37.478352979 -64.220637482 0 36.252370076 -63.159693235 0 34.209507621 -61.145041893 
0 31.986141721 -58.949772384 0 29.909132055 -56.930999683 0 27.891525087 -55.202108446 
0 25.813260656 -53.80794792 0 24.643173193 -53.06206119 0 23.321194373 -51.4393458 
0 19.93511096 -48.416638817 0 17.742724599 -47.378663889 0 16.311355166 -45.92927102 
0 14.922979341 -44.733793461 0 13.497248398 -43.825618073 0 12.938981003 -43.310415334 
0 12.129861795 -42.593131855 0 11.807300211 -42.018392199 0 10.822676204 -41.453908379 
0 10.957394981 -40.961732668 0 10.175239264 -40.67309836 0 10.029822172 -40.551106872 
0 10.372580797 -40.519314329 0 10.224439363 -40.677502008 0 10.450607805 -40.94427658 
0 10.720277022 -41.165165938 0 11.152845156 -41.720404303 0 12.614440994 -42.642686533 
0 14.281923569 -44.101064174 0 15.631730355 -45.293019887 0 17.062386106 -46.590982411 
0 21.03860107 -49.677584635 0 21.826027046 -50.945991075 0 24.610639362 -53.216750034 
0 26.262728699 -54.316861595 0 29.253384767 -56.240125487 0 33.950350823 -59.195366343 
0 34.995412587 -60.386640972 0 39.34120527 -63.419702146 0 40.255300751 -64.818971004 
0 43.692131667 -67.194792929 0 47.918220656 -70.728522451 0 48.739001081 -70.957288324 
0 48.782807955 -71.476771056 0 48.628852008 -71.788005424 0 43.180470141 -66.022354139 
0 42.289918739 -65.587971177 0 40.618402125 -64.218886989 0 38.589633096 -62.504236862 
0 35.819901447 -60.039438345 0 34.329273017 -58.788207195 0 25.406096243 -50.960820847 
0 24.195969433 -50.375579226 0 22.510410775 -49.267128894 0 20.341543666 -46.905583935 
0 19.334088228 -46.090462322 0 16.591322548 -43.358203725 0 15.293309706 -42.609445666 
0 14.301209532 -41.430108251 0 13.514254199 -40.61273799 0 12.950268288 -40.484772654 
0 12.967422731 -40.48781122 0 13.067418493 -40.658786209 0 13.837004972 -41.388816813 
0 14.375353679 -42.074189823 0 16.914343894 -43.677588441 0 17.656586159 -44.619424292 
0 18.871615843 -45.931644288 0 20.422387358 -47.568718044 0 22.400217893 -49.242720456 
0 24.428887808 -50.683994477 0 26.346151211 -52.293866942 0 32.625385571 -55.957236018 
0 34.684732797 -57.515771317 0 37.040385376 -59.882891664 0 38.018865653 -61.021164231 
0 39.76007602 -62.139094998 0 42.717277804 -64.438471294 0 43.431971385 -65.347542812 
0 44.780985447 -66.444640557 0 45.816719167 -67.338321282 0 46.586225769 -68.260871884 
0 47.327485674 -68.23500331 0 48.338162394 -69.214043595 0 48.462951637 -68.647598522 
0 48.297744181 -68.827304152 0 47.958008186 -69.230884268 0 47.640689569 -69.314766845 
0 46.917382921 -68.654060421 0 45.930073495 -67.751244582 0 44.609812168 -66.636631875 
0 29.873302544 -54.117807389 0 27.753260317 -52.350017176 0 22.75394686 -47.357800568 
0 21.614927765 -46.66411963 0 20.118704693 -45.169746198 0 18.26357762 -44.230192632 
0 18.183610831 -43.396802977 0 16.544701989 -41.778762458 0 15.145372986 -40.845550863 
0 15.429573519 -41.166297152 0 16.485356668 -41.705287374 0 16.811672443 -42.633986734 
0 20.94327279 -45.108487298 0 22.279417103 -46.525023655 0 24.070051212 -48.040203781 
0 25.825774894 -49.583896449 0 27.535250248 -51.087963232 0 29.190829967 -52.85886173 
0 30.605363448 -54.608324811 0 32.976265023 -53.784655163 0 34.603355333 -55.173896041 
0 36.121186962 -56.464727989 0 37.619948713 -58.046863838 0 39.510115382 -59.644252721 
0 41.78808712 -61.590930232 0 42.728237954 -62.409628932 0 44.36037283 -63.428745109 
0 46.395082912 -64.888051457 0 47.649006031 -66.124583296 0 48.124282876 -67.232122406 
0 48.384238564 -67.559405944 0 47.706323143 -65.970512571 0 47.068683918 -66.101461401 
0 46.238257315 -65.364647943 0 45.0953872 -64.364575865 0 43.669835753 -63.509187924 
0 41.786247473 -62.254740435 0 40.084029162 -60.877779509 0 38.294325899 -59.354542366 
0 36.609148451 -57.836316269 0 34.744233424 -56.181044035 0 32.908809008 -54.303588145 
0 31.462866486 -52.342241785 0 29.346983873 -50.957711834 0 27.830136941 -50.012850418 
0 25.284477742 -48.206999131 0 23.945978322 -46.663122804 0 21.301084816 -43.485788865 
0 19.481148027 -42.82440239 0 18.24446395 -42.163579279 0 18.375782741 -41.66980781 
0 16.996381989 -40.768362936 0 17.131207188 -40.398664714 0 16.634927059 -40.283821493 
0 16.626862181 -40.27219484 0 16.793830925 -40.447286847 0 19.413673692 -41.851447255 
0 19.916954537 -42.815616353 0 20.342597296 -43.920563956 0 21.758382365 -44.458264859 
0 32.099853231 -52.758550523 0 37.939517088 -55.637085652 0 39.393276556 -57.152341208 
0 45.639725021 -62.472794333 0 47.07743899 -63.763013272 0 47.954591148 -64.011693206 
0 48.151657349 -64.55172604 0 48.278747123 -64.716075551 0 48.250735201 -65.053973413 
0 48.093818835 -65.271027955 0 47.012659353 -63.370421103 0 46.552292176 -63.321099086 
0 45.69984878 -62.575237135 0 44.399889189 -61.364450201 0 43.219762851 -60.426093046 
0 42.459610924 -59.775477687 0 41.064738181 -58.641140938 0 39.184034325 -56.936812776 
0 37.656235841 -55.634560556 0 36.725409539 -54.831196325 0 35.05552633 -53.449690669 
0 30.814894402 -49.728861038 0 27.28687262 -46.801489495 0 26.110099354 -46.142371352 
0 24.658508727 -44.879882618 0 22.973379768 -44.142909657 0 22.327243386 -42.285923105 
0 21.23509139 -41.605301953 0 20.160761505 -41.060473858 0 19.339919321 -40.719113573 
0 19.846684082 -40.502089811 0 19.238743135 -41.094690454 0 23.237991412 -43.259888675 
0 23.89290916 -44.535068773 0 24.410056587 -45.310854341 0 26.017320905 -46.365374194 
0 27.496338693 -47.639803933 0 28.841471007 -49.183345867 0 30.476751582 -50.594672379 
0 33.005640252 -51.694630508 0 35.251012355 -52.704261567 0 36.794846297 -53.991113225 
0 41.533940352 -56.722387057 0 42.540751701 -58.719779466 0 43.672490317 -59.715545244 
0 44.797432376 -60.333894139 0 46.534962857 -61.54111351 0 47.619449916 -62.321567574 
0 47.886008727 -62.478629423 0 47.678333292 -62.450552525 0 35.411256708 -51.292794687 
0 33.568693448 -50.298561139 0 32.400601255 -49.288549577 0 30.391849492 -47.653611476 
0 28.721473584 -46.229129582 0 25.983698875 -43.291642538 0 24.397035603 -42.603445763 
0 21.388515253 -39.98390608 0 20.414879613 -39.903184314 0 20.304040424 -39.838337188 
0 20.969884843 -39.918371368 0 22.677254039 -40.479155871 0 22.719391842 -41.132312985 
0 23.353278915 -41.922537789 0 24.658816767 -42.71632241 0 26.097286001 -43.618379845 
0 30.672139706 -47.585783811 0 31.389639825 -48.476750817 0 33.624031455 -49.495390681 
0 35.957689182 -50.516569312 0 37.714569377 -51.751533605 0 38.925042972 -53.194166342 
0 40.282311781 -54.734940241 0 41.448600712 -54.926145638 0 43.93755258 -57.125433148 
0 46.039117313 -58.567970245 0 46.695747745 -59.460216809 0 47.25728804 -59.887545872 
0 47.734969093 -60.237673232 0 48.075632244 -60.500305793 0 48.244188145 -61.094222651 
0 48.267697128 -61.143121551 0 48.127461467 -61.007144769 0 47.780584515 -60.675107986 
0 47.115510367 -60.203912275 0 46.304407158 -59.942784102 0 45.481008629 -59.213052768 
0 44.935292899 -58.645050907 0 43.781286269 -57.611703443 0 42.407969029 -56.581830688 
0 41.149205136 -55.502174273 0 40.376178201 -54.735525483 0 38.988054239 -53.513402233 
0 37.35010226 -51.746022709 0 27.329808459 -42.980934833 0 24.345084802 -41.04360995 
0 23.625017856 -40.414540733 0 23.991236526 -39.321244992 0 23.536274964 -39.286770866 
0 23.977770049 -39.736416839 0 29.230696889 -44.514024841 0 29.836404423 -45.844831508 
0 31.735307673 -47.01414629 0 35.261177337 -49.448263141 0 38.142363427 -49.364263061 
0 39.459326067 -50.530783431 0 40.759929474 -51.756075981 0 42.633803536 -53.71086492 
0 43.662152407 -54.588020461 0 45.352444396 -56.045748028 0 47.554384035 -57.456123734 
0 46.870750063 -56.899126978 0 45.904442437 -56.081208625 0 44.796845801 -55.073782328 
0 43.294830958 -54.282819373 0 42.14666318 -52.934934471 0 40.865283488 -51.775219522 
0 37.12036944 -49.011808042 0 35.794079431 -48.631288403 0 33.622333559 -46.750626831 
0 31.906784529 -45.309640998 0 30.579262758 -44.072739556 0 29.579999045 -42.828185408 
0 28.390416123 -42.011955272 0 27.574296456 -41.267106483 0 27.349954755 -40.671987022 
0 26.970960128 -39.846510772 0 25.538156557 -39.227127944 0 25.735630499 -38.817344273 
0 25.156679737 -39.04340293 0 26.066237358 -39.130964503 0 25.801685139 -40.150901297 
0 26.540214317 -40.714680909 0 27.42361197 -41.43351348 0 28.351061467 -42.292666612 
0 29.612561247 -42.959036986 0 30.859268071 -43.629857147 0 32.301731912 -44.523298564 
0 33.245002477 -45.310813897 0 34.872798737 -46.955992936 0 36.531456169 -48.265647187 
0 46.684670351 -54.378267014 0 47.19201801 -55.864050322 0 47.541482226 -56.112957447 
0 47.967242303 -56.715010073 0 48.288691323 -57.005539668 0 48.461668249 -57.261756681 
0 48.499510179 -57.329403451 0 48.40836294 -57.184751077 0 44.204293529 -51.969016052 
0 40.292118718 -49.404304944 0 39.184246284 -49.246020733 0 38.176350814 -47.508776993 
0 37.070457903 -46.286112219 0 35.775232295 -45.206204741 0 34.441150086 -44.098511121 
0 33.294595454 -43.0392144 0 32.125597261 -42.034496756 0 31.351485407 -41.399712379 
0 28.048080955 -38.899880048 0 27.354294357 -38.828830708 0 27.167912834 -38.582830245 
0 26.697637822 -38.573038873 0 28.233138854 -38.750574459 0 28.068868463 -39.089350588 
0 29.034406021 -39.499309969 0 29.922553522 -40.12003316 0 30.519168807 -40.655695059 
0 39.517200407 -46.630106764 0 40.719502159 -47.727439015 0 41.699546657 -48.569871367 
0 42.629078905 -49.840678789 0 43.53162565 -50.648355722 0 45.2883424 -52.11115051 
0 46.002421441 -52.659658399 0 48.259012522 -53.224499341 0 48.643809556 -53.678880089 
0 48.812162847 -53.815520088 0 48.911088397 -53.924743651 0 48.835241078 -53.908408452 
0 48.555334543 -54.060981221 0 48.122092354 -54.100522936 0 47.823603066 -53.863303576 
0 47.11585401 -53.31481461 0 46.699118942 -52.952201617 0 45.919961728 -52.093695849 
0 43.481226188 -49.880927801 0 42.521207994 -49.746139628 0 41.246679888 -48.295378732 
0 40.006953628 -46.371178135 0 31.451547893 -39.503353069 0 30.08072855 -39.046288871 
0 30.087765341 -38.256185772 0 29.981434231 -37.830303855 0 29.794231122 -37.705736124 
0 29.524232936 -37.787100487 0 29.441481961 -38.020338192 0 33.549881448 -42.188679993 
0 34.356409594 -42.822301273 0 36.436188426 -44.536347024 0 38.519809769 -45.843770243 
0 44.110430543 -47.096694362 0 45.150428296 -48.340202375 0 46.306857324 -49.352451124 
0 47.27577911 -50.453245814 0 47.737870029 -51.404310317 0 44.355490483 -48.57929347 
0 43.303691514 -46.813809149 0 41.951839215 -45.654230076 0 40.404723065 -45.050368771 
0 39.020071659 -44.323400229 0 38.01359504 -43.305985374 0 36.927855211 -42.328707931 
0 36.272013237 -41.707710202 0 35.216717309 -40.693676799 0 33.78417102 -39.816780298 
0 33.430575323 -38.724969449 0 33.033626952 -37.970982736 0 32.327679484 -37.467139515 
0 32.120602795 -38.20877637 0 32.627037545 -38.910800478 0 33.92633721 -39.812308431 
0 35.508392883 -40.819348736 0 37.162923058 -41.651904651 0 38.057552705 -42.403771068 
0 42.356350116 -44.597936298 0 43.613042318 -45.468764522 0 49.022836642 -49.34773001 
0 49.261754033 -50.238981028 0 49.497759783 -50.30647087 0 49.520506879 -50.360823546 
0 49.248687848 -50.73068792 0 48.852605052 -50.416792942 0 48.345101136 -50.017758888 
0 48.023406387 -49.73914697 0 47.511639058 -48.865895374 0 46.728400165 -47.901500983 
0 45.87995411 -46.756503544 0 45.312981089 -45.565300506 0 41.257784253 -42.546908666 
0 36.768432111 -38.788591215 0 34.374609564 -36.711431409 0 33.019549601 -36.790141668 
0 32.911925458 -36.66639667 0 32.834562328 -36.676042669 0 32.996873211 -36.808118228 
0 35.743168504 -38.300768047 0 37.279730367 -39.257027675 0 38.771752717 -40.106857777 
0 41.239567033 -43.041526309 0 43.802408119 -41.978064806 0 46.22442753 -45.285072277 
0 47.244271946 -46.080053002 0 48.057789274 -47.11523235 0 48.790354816 -47.792559435 
0 50.12165036 -47.239109494 0 49.700873209 -47.409897788 0 49.252697642 -46.950419574 
0 45.534108206 -44.097427833 0 44.043442183 -43.722360991 0 41.132325869 -40.506903583 
0 39.866942658 -40.359567894 0 39.092938937 -39.165351132 0 38.402048726 -38.173495233 
0 37.390770963 -37.274689498 0 36.328465545 -36.686596162 0 36.119216059 -36.098556375 
0 35.780677674 -35.509525067 0 35.888005483 -35.592791437 0 35.594929834 -36.09380613 
0 36.014839004 -36.534968618 0 37.097022717 -36.980508628 0 40.417495112 -39.819517465 
0 40.515270987 -40.813304012 0 41.996277585 -41.556705376 0 45.240967643 -41.142605446 
0 45.977420037 -42.407447076 0 47.008808091 -42.413796735 0 49.373068867 -44.83588892 
0 49.907440271 -45.869671626 0 50.057188987 -46.47019682 0 50.324827432 -46.702871444 
0 50.392941594 -46.681498954 0 50.571029095 -45.827475734 0 49.365568455 -44.620532926 
0 48.353117966 -44.594321553 0 47.509526538 -43.725774165 0 46.720083201 -42.619580734 
0 45.941201817 -41.509418951 0 44.428809084 -41.036650154 0 43.521639448 -40.67283539 
0 42.581544443 -39.49507284 0 38.783040021 -35.056557063 0 37.761233748 -35.10905775 
0 40.715092664 -37.937801616 0 41.935886012 -38.503101838 0 43.126628423 -39.232046213 
0 48.590415764 -42.336282473 0 49.643449014 -42.517915458 0 50.451476237 -43.13960994 
0 51.137306774 -43.495075075 0 51.314280658 -43.552564225 0 51.194616314 -43.767886578 
0 50.756603574 -44.315203694 0 50.475109173 -43.791572202 0 46.476551667 -38.926526136 
0 45.040425512 -38.14886173 0 43.182908242 -36.653801837 0 41.868657815 -36.478183644 
0 40.989292793 -35.742939916 0 39.875401712 -35.23717272 0 38.865727813 -34.09337971 
0 38.894151315 -34.105528124 0 40.056094082 -34.441604387 0 40.049126673 -35.304138034 
0 40.55434359 -36.047136341 0 47.248513496 -38.465798819 0 48.259076247 -39.445881761 
0 49.300916507 -39.536059265 0 51.303384087 -40.262811981 0 52.021655844 -41.177069817 
0 51.016552299 -40.912822436 0 49.998406637 -41.287687557 0 49.551956465 -40.996912869 
0 48.675783556 -40.21338463 0 47.976582617 -39.150654025 0 45.775300184 -35.932579165 
0 42.917978464 -33.303991642 0 41.99154252 -33.355183705 0 41.172188266 -33.319953564 
0 41.785655003 -33.391470143 0 42.686099646 -33.57930373 0 43.308017998 -34.131399232 
0 43.824220107 -35.024466712 0 44.086647985 -35.72184628 0 45.092296511 -36.534796858 
0 46.296713282 -37.420472772 0 49.727924972 -36.933706788 0 50.569281995 -38.055371082 
0 51.07429908 -39.172508431 0 52.398896139 -39.140671774 0 52.347403913 -40.113455774 
0 52.434925492 -40.335822473 0 52.484929744 -40.318118288 0 52.524106093 -39.330050671 
0 51.673120397 -38.083021669 0 50.625731588 -37.69641628 0 47.453384046 -36.226228792 
0 46.16239698 -34.166808706 0 44.945901439 -34.291794944 0 44.180411115 -33.537172681 
0 43.142963641 -31.916576485 0 42.465894894 -32.197651174 0 42.708482323 -32.242722103 
0 53.165069566 -37.220227966 0 49.61372891 -35.195091041 0 48.696106576 -34.001815162 
0 47.507869799 -32.947272769 0 46.536479394 -31.961248052 0 45.527814559 -31.498113694 
0 44.650686453 -31.362206103 0 44.767231103 -30.990398767 0 45.409179013 -30.386504332 
0 45.363659132 -30.491050649 0 44.991432388 -31.297933085 0 45.129847889 -31.870467959 
0 45.562455341 -32.120612648 0 46.32823216 -32.712089961 0 47.502278912 -33.294246547 
0 48.286451205 -34.521466231 0 50.782091247 -32.869360164 0 51.350565014 -34.178006238 
0 52.062123615 -35.019941923 0 53.016244608 -35.373108774 0 54.104878036 -35.820632308 
0 53.978657031 -36.466749525 0 54.064293401 -36.520475834 0 54.010980519 -36.504968326 
0 53.863613377 -36.058847754 0 53.60023398 -35.75496767 0 52.935136238 -35.019839045 
0 52.100147986 -34.411078729 0 51.81343043 -33.666466008 0 51.057477024 -32.621184292 
0 49.668647865 -31.244568626 0 48.887635007 -30.603194155 0 47.828698959 -30.05129449 
0 47.15061064 -29.719759775 0 47.745548946 -29.885080214 0 48.568775381 -30.407649108 
0 53.47612252 -31.837142617 0 55.047157887 -33.874266124 0 55.502255512 -33.618672591 
0 55.415186873 -33.35057548 0 49.575967383 -28.293242107 0 48.693680871 -28.245277603 
0 48.0561427 -28.570525584 0 48.134860864 -28.671526314 0 50.815848125 -29.761266725 
0 52.898036319 -30.626018649 0 55.273807798 -32.289141414 0 54.577784212 -31.497658996 
0 53.671620646 -30.765203301 0 52.781438566 -30.002391705 0 51.898678316 -29.153748786 
0 50.853104851 -28.424833032 0 50.825536263 -26.449874669 0 50.705240588 -26.6494662 
0 50.582396786 -27.056869014 0 50.600687418 -27.753134635 0 51.164927613 -28.041900145 
0 52.306314054 -28.059447855 0 55.014782607 -28.608308176 0 55.731275067 -29.274387173 
0 56.709921704 -29.418857594 0 56.858827136 -30.874809244 0 57.006197753 -30.951684754 
0 56.993285592 -30.81864181 0 57.015691921 -30.338107557 0 56.670178568 -29.588580145 
0 56.045567097 -28.719704822 0 54.851799027 -27.891465846 0 54.290452723 -27.381291661 
0 53.571118851 -26.548810472 0 52.746198478 -26.193563974 0 51.959095789 -26.129014802 
0 51.441608997 -26.118805835 0 54.07747906 -27.895528662 0 56.522709276 -26.2368313 
0 58.139474655 -27.937774983 0 58.498884633 -28.183860697 0 58.787836709 -28.067298032 
0 58.713796641 -28.155418492 0 58.409305439 -27.917013087 0 58.172503391 -26.956936338 
0 56.787846457 -25.886615781 0 53.466685585 -24.183046189 0 53.305387119 -24.353545214 
0 53.518488394 -24.631127914 0 53.880941154 -24.98798453 0 54.51079486 -25.321582387 
0 55.470311832 -25.770226465 0 58.223142884 -25.541025893 0 57.753278047 -26.064244841 
0 55.595122168 -24.162634696 0 55.15247459 -23.568988888 0 58.271749574 -23.624421356 
0 59.281412827 -23.875851927 0 59.878160183 -24.355804962 0 60.10912309 -25.08745955 
0 60.58902367 -25.321191019 0 60.629548744 -25.476781379 0 60.32567818 -25.502988235 
0 60.102404542 -24.88760046 0 59.711009624 -23.903205312 0 59.179433563 -23.66809913 
0 58.27386694 -23.451606965 0 57.8780332 -22.67937488 0 57.62732479 -21.684212622 
0 56.788785026 -21.395934614 0 56.127995725 -21.728269112 0 56.011506045 -21.867010196 
0 56.3534737 -22.006996539 0 56.787002658 -22.310403496 0 57.446041544 -22.887382661 
0 60.415290523 -21.585166091 0 61.059788635 -21.224448337 0 61.78282045 -21.726694516 
0 62.03762171 -22.973605991 0 62.844355397 -22.629683815 0 62.808559524 -22.697347818 
0 62.348953849 -22.939059683 0 61.935170551 -22.854012527 0 62.293476206 -22.244965276 
0 61.983349032 -21.867163855 0 60.565622665 -21.607870683 0 60.018578912 -20.282672356 
0 59.327773494 -20.551400168 0 59.420533285 -19.686756005 0 57.982746552 -20.192167857 
0 58.532963204 -19.006430647 0 58.067512245 -19.558375835 0 58.208191425 -19.678394557 
0 58.517694803 -19.834802323 0 59.100858676 -19.393159593 0 59.199346211 -19.589289588 
0 58.988457614 -20.238797131 0 59.847389494 -20.080339045 0 59.649553656 -20.886971834 
0 70.023111394 -9.5818904772 0 78.95750881 1.0252449827 0 70.211167191 -9.6391046098 
0 69.625417355 -9.2676188339 0 69.747396374 -9.376885394 0 78.590415684 1.3438587676 
0 69.31534597 -8.9666492347 0 78.249953211 1.6342957765 0 69.421923285 -9.0573294482 
0 69.014705765 -8.6320998567 0 69.113298674 -8.7313848213 0 77.935810548 1.9176776227 
0 68.709534946 -8.4616410956 0 77.670716666 2.1450453124 0 68.484978491 -8.2033341112 
0 77.398565888 2.3329441182 0 68.253576672 -8.0554391024 0 68.286754164 -8.1266223557 
0 68.158982035 -7.9849719587 0 77.240940729 2.5104157202 0 68.094564079 -7.9955232352 
0 77.091395553 2.5725699583 0 68.070439529 -7.8823455568 0 68.052193764 -7.9285097369 
0 77.066421083 2.6556477068 0 68.040471984 -7.9084209938 0 77.063812927 2.6370020805 
0 68.089368643 -7.9836575593 0 68.072633975 -7.9367015841 0 77.123767831 2.553132537 
0 68.188195404 -8.1073802782 0 77.247777938 2.4354147489 0 68.149312516 -8.0623680047 
0 68.402927838 -8.2380845446 0 77.46196676 2.2794789182 0 68.313186683 -8.1884370625 
0 68.675915649 -8.4256331118 0 68.567006675 -8.3696225541 0 77.730862621 2.0868266504 
0 68.940896619 -8.6499204154 0 78.015939126 1.8438316292 0 68.846485072 -8.5697686517 
0 69.259315439 -8.9578617939 0 69.15616079 -8.8442855045 0 78.33464353 1.5461584583 
0 69.599412647 -9.2185860006 0 78.69415219 1.2670783318 0 69.974245307 -9.5732042419 
0 69.856916776 -9.4342665895 0 79.056594828 0.91879345467 0 70.366719884 -9.9052820911 
0 70.218698392 -9.8197669624 0 70.61175254 -10.081489391 0 79.453511725 0.62070156771 
0 70.701326679 -10.206239147 0 79.788199971 0.28660458716 0 71.091114785 -10.495049698 
0 70.952163519 -10.420795819 0 80.161036395 0.012593912993 0 71.421276603 -10.721626573 
0 80.494807949 -0.22743624537 0 71.693296792 -11.01312055 0 71.633009154 -10.89580059 
0 80.745760544 -0.50759946278 0 71.877698421 -11.244796831 0 72.200261722 -11.13999329 
0 80.979598917 -0.682700028 0 72.260357096 -11.208630962 0 81.164141958 -0.85762604939 
0 72.263489077 -11.494511922 0 72.223602354 -11.472601885 0 81.289155902 -0.95224160054 
0 72.31421909 -11.564734395 0 81.333757752 -1.0123142285 0 72.312837476 -11.541575336 
0 72.324933404 -11.558130239 0 72.344803984 -11.554454014 0 81.313887171 -1.0159904535 
0 72.266899763 -11.514027084 0 81.255884183 -0.94087094423 0 72.155035402 -11.376597647 
0 72.189540762 -11.449185558 0 81.136251604 -0.7955775189 0 71.951907705 -11.218791702 
0 72.035717993 -11.269455907 0 71.807694765 -11.105513115 0 80.927993649 -0.6386249652 
0 71.683336593 -11.086421506 0 80.643648591 -0.48289164547 0 71.428389739 -10.781138371 
0 71.492048159 -10.918807541 0 80.389325214 -0.1823792178 0 71.118263224 -10.540398261 
0 80.056189117 0.073647328441 0 70.747725067 -10.235064742 0 70.876655114 -10.335563683 
0 79.693373913 0.37390306513 0 70.447498557 -9.8926890982 0 79.394460011 0.75545409191 
0 70.501298351 -10.0648929 0 71.235849567 -10.612327926 0 72.281682516 -11.552233025 
0 71.803846935 -11.206337975 0 71.303054802 -10.665693297 0 69.473789145 -9.1392626696 
0 68.04308014 -7.8897753675 0 68.597142381 -8.2545912069 0 68.783963872 -8.5261655279 
0 87.98406674 11.615328781 0 88.217951898 11.415571985 0 88.433501651 11.231475104 
0 88.624166609 11.068631846 0 88.784153496 10.931990136 0 88.908601163 10.825701787 
0 88.993728383 10.752996273 0 89.036948619 10.716082704 0 89.036948619 10.716082704 
0 88.993728383 10.752996273 0 88.908601163 10.825701787 0 88.784153496 10.931990136 
0 88.624166609 11.068631846 0 88.433501651 11.231475104 0 88.217951898 11.415571985 
0 87.98406674 11.615328781 0 87.738952633 11.824676005 0 87.490057228 12.037252763 
0 87.244943121 12.246599988 0 87.011057963 12.446356784 0 86.79550821 12.630453665 
0 86.604843252 12.793296923 0 86.235281478 13.108932496 0 86.192061242 13.145846065 
0 86.192061242 13.145846065 0 86.235281478 13.108932496 0 86.320408698 13.036226982 
0 86.444856365 12.929938633 0 86.604843252 12.793296923 0 86.79550821 12.630453665 
0 87.011057963 12.446356784 0 87.244943121 12.246599988 0 87.490057228 12.037252763 
0 87.738952633 11.824676005 0 83.9073572 6.8342323438 0 83.750914011 6.9678474495 
0 83.606735176 7.0909878081 0 83.479201519 7.1999118413 0 83.372188089 7.2913099447 
0 83.288946427 7.3624050402 0 83.23200576 7.4110369643 0 83.203096205 7.4357280571 
0 83.203096205 7.4357280571 0 83.23200576 7.4110369643 0 83.288946427 7.3624050402 
0 83.372188089 7.2913099447 0 83.479201519 7.1999118413 0 83.606735176 7.0909878081 
0 83.750914011 6.9678474495 0 83.9073572 6.8342323438 0 84.401748789 6.4119820369 
0 84.558191977 6.2783669311 0 84.702370813 6.1552265725 0 84.82990447 6.0463025394 
0 84.936917899 5.954904436 0 85.020159561 5.8838093404 0 85.077100228 5.8351774163 
0 85.106009784 5.8104863235 0 85.106009784 5.8104863235 0 85.077100228 5.8351774163 
0 85.020159561 5.8838093404 0 84.936917899 5.954904436 0 84.82990447 6.0463025394 
0 84.702370813 6.1552265725 0 84.558191977 6.2783669311 0 84.401748789 6.4119820369 
0 84.23779468 6.5520120745 0 84.071311309 6.6942023061 0 56.970111148 -25.63718839 
0 56.77331455 -25.472704192 0 70.551711107 -9.5466385546 0 57.158763901 -25.798313063 
0 70.820148829 -9.6785677986 0 57.189393112 -25.929806834 0 57.333194024 -26.052624416 
0 71.007221229 -9.9436766761 0 57.40083176 -26.110628905 0 57.599379238 -26.272111557 
0 57.532364332 -26.222968334 0 71.2190378 -10.124821523 0 57.824025461 -26.376142788 
0 57.655999436 -26.320469774 0 71.439536323 -10.304912923 0 57.941909104 -26.476824931 
0 71.629540231 -10.379496038 0 57.943939727 -26.570877821 0 58.014313818 -26.630982973 
0 71.714812516 -10.544644024 0 58.045837463 -26.65742602 0 58.134396923 -26.69566901 
0 58.092271601 -26.697084521 0 71.803276828 -10.619718995 0 58.163007623 -26.711568028 
0 71.874311705 -10.642994577 0 58.136307265 -26.730552199 0 58.150944983 -26.734517163 
0 71.862249065 -10.665943712 0 58.115846049 -26.738679274 0 58.045872535 -26.738860542 
0 71.812878294 -10.649379695 0 57.996769382 -26.563543083 0 58.024742395 -26.695211093 
0 71.734807486 -10.557098321 0 57.892654251 -26.47462036 0 71.649340237 -10.436269889 
0 57.818658432 -26.457709956 0 57.710744061 -26.365542377 0 71.468330988 -10.327961382 
0 57.652090442 -26.323884467 0 57.504161533 -26.085942569 0 57.527022174 -26.217066075 
0 71.282143713 -10.177379439 0 57.330786214 -25.930477105 0 71.115104236 -9.9231155749 
0 57.046098797 -25.799426203 0 57.195730962 -25.919835191 0 70.823605795 -9.778858556 
0 56.971648694 -25.747704686 0 56.84414497 -25.545063963 0 70.585201583 -9.5871070012 
0 56.544019302 -25.273271574 0 56.737263952 -25.441914072 0 70.311837195 -9.3417668788 
0 56.355366549 -25.112146902 0 70.139539557 -9.0972725645 0 56.220700219 -25.102464945 
0 56.076899307 -24.979647363 0 69.848430038 -8.9539755019 0 56.009028077 -24.921916261 
0 55.818473876 -24.751074685 0 55.877495505 -24.809576831 0 69.636379973 -8.7731040411 
0 55.68058103 -24.545468299 0 55.761853678 -24.702716467 0 69.424012229 -8.5834927233 
0 55.562697387 -24.444786156 0 69.320624196 -8.4074954476 0 55.469484784 -24.457493647 
0 55.399110694 -24.397388496 0 69.144169932 -8.3491078434 0 55.368061819 -24.370389563 
0 55.316435913 -24.288902938 0 55.321627681 -24.330731062 0 69.05618039 -8.2734769864 
0 55.296256938 -24.263131638 0 69.022079066 -8.2069577697 0 55.28168335 -24.292473049 
0 55.275477358 -24.278635802 0 69.001299486 -8.2224619342 0 55.276857172 -24.313953708 
0 55.287624405 -24.383094088 0 69.025382863 -8.268633686 0 55.468464841 -24.404167007 
0 55.33404194 -24.397135803 0 69.128741065 -8.3313073253 0 55.572579973 -24.49308973 
0 69.261451922 -8.3968205997 0 55.600857678 -24.563529168 0 55.708772048 -24.655696747 
0 69.396743057 -8.558658141 0 55.759092527 -24.70711151 0 56.017246145 -24.815996856 
0 55.884160795 -24.813929902 0 69.574597193 -8.7189969367 0 56.197919447 -24.96291748 
0 69.851861378 -8.844204249 0 56.371891818 -25.223599044 0 56.229557637 -25.094645216 
0 70.039942756 -9.1095470904 0 56.434623907 -25.289039561 0 56.654715518 -25.3832733 
0 70.266628704 -9.3150174314 0 31.817370511 -53.774352527 0 31.946531712 -54.250985856 
0 31.045417895 -53.47801814 0 30.568463382 -53.071734829 0 30.340348595 -52.535961234 
0 29.523126919 -52.201155167 0 29.076493479 -51.812883097 0 28.635206915 -51.42707369 
0 28.367041119 -50.851422222 0 27.49100257 -50.424908574 0 27.077341543 -50.082026238 
0 26.453658419 -49.262234665 0 26.682733673 -49.707030092 0 24.815293334 -48.025716306 
0 23.171381809 -46.882030219 0 23.009918812 -46.743851987 0 22.881137057 -46.634229718 
0 23.026182455 -46.619135879 0 22.449540071 -46.362266351 0 23.013550847 -46.492685263 
0 22.780341154 -46.425411186 0 22.839413159 -46.469512045 0 23.432188934 -46.650271928 
0 22.98861344 -46.607794715 0 23.1120036 -46.713455673 0 23.809598337 -46.940529923 
0 23.51307939 -46.997719921 0 24.471873689 -47.483731725 0 25.29505574 -48.211704767 
0 26.432184457 -49.581077873 0 26.455187028 -49.234026436 0 27.527353888 -50.283309344 
0 26.823624988 -49.916810216 0 27.620046384 -50.684338281 0 28.047484793 -51.051296406 
0 28.490665135 -51.427423118 0 29.219336649 -51.809653985 0 29.606788245 -52.365804588 
0 30.150290652 -52.7858155 0 31.231794099 -53.335233766 0 33.593637346 -55.474452068 
0 35.083392463 -56.892734609 0 37.964432449 -59.444603702 0 39.037544182 -60.514703934 
0 39.193872972 -60.416450386 0 39.701942211 -61.002629619 0 39.956262097 -61.210643188 
0 40.105679446 -61.182446096 0 41.080589629 -62.112134211 0 41.269035028 -62.16831783 
0 41.309906192 -62.214864081 0 41.105542808 -62.031067341 0 41.006709038 -62.111311044 
0 40.411764257 -61.239747717 0 40.844278456 -61.972172453 0 40.318905029 -61.40036272 
0 40.093737661 -61.210565387 0 39.832541018 -60.982336642 0 39.368651074 -60.227217419 
0 39.199940083 -60.438663818 0 38.885947268 -60.176238501 0 38.2971148 -59.313901325 
0 38.059522197 -59.463186594 0 36.60456626 -57.833114548 0 34.817564317 -56.553104352 
0 33.390018288 -55.354137858 0 32.427735104 -54.662014407 0 29.14054547 -50.644739234 
0 25.763606666 -48.200023812 0 24.790396168 -47.350213237 0 23.957364933 -46.789487229 
0 29.461820275 -51.363574254 0 31.523754825 -52.98179189 0 35.069062912 -56.233916641 
0 36.525446426 -57.498045535 0 37.79078875 -58.650997809 0 38.904051723 -59.523151936 
0 39.88514915 -60.346355047 0 40.302657502 -60.794636908 0 40.707446163 -61.132497324 
0 40.949436389 -61.254851026 0 40.968291311 -61.27097041 0 40.784017618 -61.111487062 
0 40.171711015 -60.42960097 0 33.726759658 -54.991264737 0 32.460494203 -53.355185356 
0 31.460426801 -52.523077374 0 30.41300016 -51.149887023 0 27.816032991 -49.114174774 
0 24.75923148 -46.826912902 0 25.117642571 -47.111958627 0 25.531963995 -47.444551404 
0 26.415249709 -48.220787192 0 27.485638137 -49.178875079 0 28.562784511 -49.809007851 
0 33.784632498 -54.193442811 0 39.168814393 -59.093397415 0 37.973178157 -58.082521701 
0 36.424003387 -56.726168235 0 35.38095861 -55.550361882 0 27.208853738 -48.016556086 
0 26.421305797 -47.331975041 0 26.164957981 -46.973959197 0 30.836158754 -50.909066084 
0 32.847608948 -52.251536122 0 35.544364268 -55.148354992 0 36.817878847 -56.105861759 
0 38.049454253 -57.420061945 0 39.092793534 -58.187463172 0 39.798056138 -58.735149746 
0 40.285939789 -59.304763924 0 40.409855334 -59.433182304 0 40.13294146 -59.236985103 
0 39.671150674 -58.518029314 0 34.062118349 -53.235200729 0 32.435944272 -51.660229761 
0 31.418982228 -50.881235778 0 30.200701388 -49.641134598 0 29.295261176 -48.508895819 
0 27.364387148 -46.961099191 0 27.260473193 -47.053990981 0 27.747084252 -47.512067465 
0 29.005125595 -48.587161436 0 30.317790163 -49.20700296 0 34.862060398 -53.094081255 
0 38.3200567 -56.106296035 0 40.083291607 -57.666585048 0 39.978449756 -57.607937086 
0 39.444513262 -57.340636559 0 38.517230593 -56.685537906 0 37.131539626 -55.502710574 
0 35.709787033 -53.671915673 0 32.545774357 -50.021356819 0 28.974681042 -47.58071117 
0 29.11377524 -47.26105471 0 36.244235953 -53.633362961 0 39.153200299 -56.301865215 
0 35.015372412 -50.991217808 0 31.781055828 -48.785627678 0 29.615460286 -46.846555259 
0 29.509620952 -46.829613424 0 29.581420098 -46.943730062 0 29.813760205 -47.360893934 
0 30.790362722 -47.907541825 0 31.693580631 -48.910694344 0 33.045079068 -50.163159207 
0 34.715146657 -51.224355058 0 37.531306387 -53.948358366 0 39.853869813 -55.520933812 
0 39.891642391 -55.69623511 0 39.567595956 -55.687492943 0 39.199114684 -55.392372883 
0 38.078437919 -54.184375715 0 37.242699388 -53.460057071 0 35.936194498 -52.416483714 
0 33.772820721 -48.682968439 0 31.848327118 -46.956758941 0 36.142008691 -51.76384657 
0 37.410826765 -51.790119136 0 39.433324191 -54.663510473 0 39.422100761 -53.387910497 
0 35.537823608 -49.729158783 0 35.272710774 -48.885809912 0 33.511918227 -47.6999518 
0 32.914488195 -47.02869114 0 32.261156256 -46.547463991 0 31.831392952 -46.378279373 
0 33.974788871 -48.266726456 0 35.091902658 -49.171641247 0 36.264857348 -49.969739963 
0 37.139295979 -50.099659989 0 38.422554981 -51.894031805 0 39.223588683 -52.437408233 
0 39.810373232 -53.03278202 0 40.000313416 -53.376425684 0 37.807509261 -51.514649858 
0 36.721820454 -50.563722556 0 33.734368495 -45.865904945 0 33.096797165 -46.573355182 
0 34.04921823 -46.954731039 0 40.199407417 -51.391368051 0 39.605480441 -52.094833626 
0 39.079808474 -51.213798773 0 36.120928529 -47.75998415 0 34.655325869 -46.096949973 
0 34.157455876 -45.723616983 0 35.934182762 -47.170731128 0 36.900316101 -48.258779236 
0 37.955122597 -49.326533877 0 39.826952833 -50.513936675 0 40.273758129 -50.951230836 
0 38.566334412 -49.418801013 0 37.340544972 -48.634770212 0 35.610480044 -45.151862088 
0 35.54991453 -45.488475884 0 40.610986085 -49.422697715 0 40.287991097 -49.535175566 
0 38.116944427 -46.631508684 0 37.908121932 -45.788064953 0 36.42862516 -44.971472559 
0 36.234258273 -44.663590722 0 38.757459068 -47.178559868 0 39.6231861 -47.252868133 
0 40.661168627 -48.586406184 0 40.995665607 -48.730216761 0 38.827484257 -44.870631736 
0 38.135716268 -44.225002247 0 37.771281333 -43.786924913 0 37.498641631 -44.176324591 
0 37.543674105 -44.963773123 0 40.385504237 -46.201306509 0 41.131400765 -46.783558516 
0 41.621094824 -47.074976259 0 41.279139549 -47.405174844 0 40.494341184 -47.483880885 
0 40.038699901 -45.17138956 0 39.286808622 -44.161817545 0 39.89897337 -45.052051828 
0 41.013736995 -45.636753713 0 39.128199825 -42.870489925 0 38.879005869 -42.916655043 
0 42.313978159 -45.591401668 0 42.307363933 -45.844749449 0 40.738551079 -43.291705097 
0 40.212579219 -43.029113517 0 40.60088367 -42.481143075 0 41.123269509 -43.181114456 
0 41.646034456 -44.066769121 0 41.987673224 -44.545187021 0 42.468152898 -44.075941658 
0 41.695080219 -43.669486939 0 42.269555376 -42.078246941 0 41.846374155 -41.193660808 
0 41.499942689 -41.415246141 0 41.001061272 -41.252408049 0 40.6823756 -41.303996462 
0 41.096593529 -40.835646537 0 40.587579891 -41.581133525 0 41.085627856 -41.127255386 
0 41.118276852 -41.606651797 0 41.940058234 -41.616907603 0 42.333013022 -41.536839575 
0 42.605051084 -42.364787345 0 43.544946627 -42.64437875 0 43.380283198 -43.021208653 
0 43.619158683 -43.488474481 0 43.618058832 -43.811306809 0 44.015844632 -43.32892252 
0 43.359163055 -43.948289173 0 43.729541334 -43.385370821 0 43.250939659 -43.428117909 
0 43.112255231 -42.618058417 0 43.129865816 -42.217416155 0 42.942233933 -41.982674964 
0 42.986495972 -42.114220571 0 43.060946075 -42.165942089 0 43.264921068 -42.228058068 
0 43.567177673 -42.483304448 0 43.590038314 -42.614427953 0 43.646658512 -42.66278617 
0 43.705312131 -42.70444408 0 43.606699033 -43.21896478 0 43.680694852 -43.235875183 
0 43.73688214 -43.283863662 0 43.939681739 -43.357956992 0 43.988028405 -43.339304651 
0 44.008489621 -43.331177575 0 44.027907272 -43.305973385 0 44.013244401 -43.269575885 
0 43.971119079 -43.270991395 0 43.946311789 -43.249803968 0 43.914788144 -43.223360921 
0 43.947811568 -42.92233033 0 43.945780946 -42.82827744 0 43.875825145 -42.768529542 
0 43.488326429 -42.596020533 0 43.421311524 -42.546877309 0 43.358227022 -42.492998055 
0 43.290589286 -42.434993566 0 43.222519139 -42.376856169 0 43.191889928 -42.245362397 
0 43.083949598 -42.153172646 0 42.712816077 -41.774868726 0 42.594217044 -41.685437834 
0 42.457366869 -41.662298998 0 42.394634781 -41.596858481 0 42.301374833 -41.405111839 
0 42.001987615 -41.146505851 0 41.868902266 -41.144438897 0 41.812282068 -41.09608068 
0 41.761961589 -41.044665917 0 41.269201932 -41.222553654 0 41.240924228 -41.152114216 
0 41.184736939 -41.104125738 0 41.079831021 -40.91541373 0 41.090690636 -40.864744423 
0 41.095516815 -40.843263764 0 41.11737311 -40.820142372 0 41.155616275 -40.828930896 
0 41.160808043 -40.87075902 0 41.185615333 -40.891946447 0 41.216664207 -40.91894538 
0 41.508822611 -40.839236969 0 41.602035213 -40.826529478 0 41.671991013 -40.886277376 
0 41.902994352 -41.242019026 0 41.962015982 -41.300521173 0 42.025100484 -41.354400427 
0 42.092971714 -41.412131529 0 42.161041861 -41.470268927 0 42.29570819 -41.479950884 
0 42.40364852 -41.572140635 0 42.835352916 -41.879525073 0 42.41098273 -43.438663581 
0 42.895211629 -44.407435295 0 42.741357245 -44.017407368 0 41.920201539 -43.13513278 
0 41.239259223 -42.437917165 0 40.20666466 -42.111199257 0 40.615958872 -42.202145668 
0 41.615828243 -42.875173428 0 42.618173198 -45.056369648 0 42.813848585 -44.958587868 
0 39.609058078 -42.486342543 0 39.675025675 -42.277779845 0 40.900814402 -44.861791089 
0 41.86517298 -45.081727641 0 41.973624897 -45.660401931 0 41.632795031 -46.615926939 
0 40.67818064 -45.012683616 0 40.069895156 -44.152119009 0 39.701807422 -43.234038902 
0 39.113292003 -43.217446852 0 38.222848678 -43.703557621 0 39.955688553 -44.395617079 
0 40.302334861 -46.893610069 0 41.314195235 -46.805698819 0 41.126983568 -46.015726608 
0 38.156714113 -45.06107683 0 38.085253194 -44.047921787 0 38.894785893 -44.109249688 
0 39.1193181 -46.489847948 0 41.149988833 -48.255318055 0 41.172431564 -47.950745789 
0 40.487216922 -47.961792327 0 38.740569936 -46.166366456 0 36.679168717 -44.436876946 
0 36.976480376 -44.367064923 0 37.072761025 -45.045571494 0 39.270030467 -47.437105833 
0 39.964610534 -48.769604195 0 40.48503857 -48.697994491 0 39.698817142 -48.947992094 
0 39.27531139 -48.707706604 0 37.781397213 -46.165692923 0 36.356648313 -45.688113348 
0 36.345963501 -45.162890419 0 36.222035911 -45.978540398 0 36.525613985 -46.359243159 
0 38.430502007 -48.531228012 0 39.272030171 -49.588345077 0 40.509620077 -50.317424811 
0 40.248540721 -49.999683181 0 39.451180957 -50.086859444 0 38.498181188 -49.689310458 
0 37.866525767 -48.270621758 0 36.832076679 -47.166043813 0 35.656330928 -46.500246189 
0 34.74656176 -45.391509781 0 35.097297173 -45.600105561 0 35.135928742 -46.401285875 
0 35.67766525 -47.280362272 0 37.177699759 -47.682308769 0 39.575341363 -51.232238966 
0 40.146450198 -50.971539661 0 33.953486644 -46.468183663 0 34.153376336 -45.852971029 
0 36.548886576 -49.555794464 0 37.649311255 -50.530271304 0 38.532310721 -52.028633263 
0 39.951084531 -52.878253568 0 40.012774354 -52.523346192 0 39.649769118 -51.974920158 
0 38.9556022 -51.438609311 0 38.150872209 -51.055856975 0 36.1144743 -49.18477133 
0 34.979850541 -48.250336468 0 33.322008394 -47.641605966 0 32.304627701 -46.343774753 
0 32.672027862 -46.232516767 0 33.304612966 -46.535408619 0 33.878346757 -47.102223503 
0 34.382274283 -47.837170275 0 39.714747633 -53.751502049 0 39.079917983 -53.678498269 
0 36.942309127 -51.196698731 0 35.685524171 -50.951054859 0 31.475165496 -46.714244596 
0 31.216645338 -46.927890655 0 31.627904426 -47.276990444 0 34.219993933 -49.251986198 
0 35.78935491 -51.484230263 0 37.026858048 -52.48035456 0 38.587398039 -53.718656609 
0 39.080307664 -54.360684637 0 39.741435807 -55.019396249 0 39.914183102 -54.926513025 
0 39.737599005 -54.480282299 0 38.583849193 -54.246146145 0 38.194472674 -53.460478603 
0 37.019343251 -53.116173729 0 34.271908192 -50.229910079 0 32.860011864 -49.121280363 
0 31.898529007 -48.054947611 0 30.869640476 -47.391056564 0 30.279961047 -46.962680805 
0 30.30862433 -46.706420739 0 30.166102074 -46.98298424 0 31.091874291 -47.816428726 
0 32.012029529 -48.165857719 0 32.671490964 -49.165519923 0 39.414039259 -55.988732173 
0 38.676416441 -55.544291391 0 35.835419031 -52.874456208 0 29.809105911 -47.928699789 
0 33.489690361 -50.207177756 0 34.019956006 -51.103060495 0 36.621013447 -54.39748725 
0 37.9890693 -55.585814707 0 39.054929216 -56.511768784 0 39.700114109 -56.894867 
0 39.996138187 -57.07740189 0 39.918482522 -56.879839055 0 39.782926782 -57.164409242 
0 37.564323165 -55.296030552 0 34.198272543 -52.256771817 0 29.272749778 -48.143447034 
0 28.730520263 -47.698749933 0 28.131783245 -47.155260723 0 27.955592251 -46.940695397 
0 28.225251806 -46.990151738 0 27.966693818 -47.168407257 0 30.347055856 -49.016394714 
0 31.508984754 -50.266204458 0 33.548460225 -51.978162767 0 35.081189162 -54.10854287 
0 40.184639695 -58.772662434 0 40.290818815 -58.857640115 0 39.942856841 -58.398279043 
0 39.377287119 -57.814412985 0 38.512346974 -57.236920046 0 37.37167144 -56.100436205 
0 36.137861048 -54.916275005 0 34.677380539 -54.085067996 0 32.137653938 -51.152368491 
0 29.983816759 -49.894149495 0 26.705910899 -47.139367821 0 27.542994518 -47.680670937 
0 28.126695528 -48.496792349 0 33.404716441 -53.875635705 0 37.12552887 -56.749659062 
0 38.507350206 -57.935296412 0 39.617818463 -59.228167223 0 32.618648762 -53.197220375 
0 27.594005817 -48.644175199 0 26.517221767 -47.718255275 0 25.693322964 -47.018324917 
0 25.132187074 -46.852061237 0 28.838244171 -49.751018128 0 31.429962204 -51.928881007 
0 34.683931013 -55.792648772 0 40.410130391 -60.350440694 0 40.732044326 -60.658551342 
0 40.624461086 -60.549916005 0 40.224124164 -60.224215945 0 39.307896071 -59.364557581 
0 38.226056466 -58.529199427 0 37.060393944 -57.54728588 0 35.689434549 -56.2887014 
0 34.03124459 -55.201945048 0 30.451219827 -51.79280523 0 28.425726954 -50.394693464 
0 23.999747136 -46.713440206 0 25.008271039 -47.151650114 0 25.869290146 -47.866423313 
0 26.79250772 -48.96753901 0 32.906054771 -55.068704548 0 35.262812986 -57.055524953 
0 35.713987245 -57.446642949 0 36.146329046 -57.808881771 0 37.153008831 -58.670795173 
0 37.582502642 -59.045996767 0 41.134139405 -62.21930631 0 41.451444546 -62.495075366 
0 41.429428304 -62.464648499 0 36.730495382 -58.306530372 0 36.350691242 -58.136821187 
0 35.923221212 -57.775344279 0 35.481343026 -57.394527297 0 33.066077474 -55.171986029 
0 32.449582891 -54.632586882 0 31.678918659 -53.939407972 0 25.761245383 -48.964222885 
0 25.410467457 -48.667740267 0 25.092582814 -48.393761512 0 24.445128843 -47.848908014 
0 24.200046975 -47.630281868 0 23.761033318 -47.208328947 0 23.755907661 -47.141322423 
0 23.620324483 -47.26094816 0 23.850574649 -47.455643476 0 24.116738474 -47.677920309 
0 24.837166425 -48.278065127 0 25.158141683 -48.548720869 0 25.622024562 -48.893785242 
0 29.700772562 -55.97407273 0 28.323110799 -58.074264504 0 26.541733804 -56.549291886 
0 28.939678527 -55.319918324 0 25.001196568 -55.237525636 0 25.83639479 -55.94913706 
0 27.757384999 -54.313480187 0 26.597184488 -53.320891614 0 24.310914567 -54.647580358 
0 23.408888465 -53.873581312 0 22.613507041 -53.191521735 0 25.875495356 -52.698088544 
0 21.992541804 -52.661167319 0 21.187666376 -51.96781289 0 24.813243555 -51.781924721 
0 23.785025837 -50.888923894 0 20.576151668 -51.44556939 0 19.761448932 -50.740845576 
0 19.025083253 -50.127648143 0 23.098175685 -50.312676603 0 22.0521597 -49.370794862 
0 18.373675138 -49.560762548 0 17.391034862 -48.667736957 0 16.406624288 -47.889116382 
0 20.235041703 -47.871106386 0 15.3201855 -46.960787095 0 19.483041454 -47.232320524 
0 14.365866991 -46.145887572 0 13.821673636 -45.686492561 0 18.371090694 -46.293651813 
0 13.437491054 -45.358585028 0 17.809210302 -45.8136503 0 12.195142352 -44.295935088 
0 11.972005931 -44.107410045 0 17.614556335 -45.648224896 0 17.124014986 -45.231054425 
0 11.749456586 -43.917334948 0 11.26831472 -43.505534157 0 16.918098216 -45.054420514 
0 16.915397148 -44.914271388 0 11.120568254 -43.380478869 0 11.223277746 -43.329576105 
0 16.770112147 -44.794664826 0 11.140602419 -43.261013543 0 10.82907637 -43.136118035 
0 10.828097416 -43.127333486 0 16.508504293 -44.703719559 0 16.545785677 -44.731859825 
0 10.837318018 -43.13998662 0 16.687729118 -44.841974713 0 10.986646936 -43.260181266 
0 11.130708982 -43.379502447 0 11.313916621 -43.529063035 0 16.83881753 -44.964562565 
0 17.135041685 -45.218665115 0 11.486750616 -43.677504628 0 17.504109019 -45.524275122 
0 12.316778989 -44.385010536 0 18.079847381 -46.014977718 0 13.051963097 -45.019507514 
0 18.634015878 -46.50690312 0 13.821102023 -45.685975464 0 14.355776831 -46.144448577 
0 19.758574468 -47.481325262 0 15.335613721 -46.982135756 0 16.000281957 -47.548915095 
0 16.86957941 -48.269994295 0 20.923611861 -48.475846361 0 22.01140442 -49.404746119 
0 17.585222805 -48.881095921 0 19.103338433 -50.198335147 0 22.636976385 -49.939896615 
0 23.656682014 -50.810387223 0 19.708559084 -50.715791399 0 20.454046295 -51.351150123 
0 24.713988388 -51.716921468 0 21.08391426 -51.890726243 0 21.944519479 -52.629080588 
0 22.740654571 -53.302653392 0 25.431952304 -52.326117466 0 26.565083278 -53.288121342 
0 23.411819337 -53.880662879 0 24.305532843 -54.63817704 0 25.360082809 -55.488572446 
0 27.390519735 -53.944146057 0 26.298257436 -56.290437659 0 29.042524229 -55.348421954 
0 27.585728996 -57.428321389 0 29.873399971 -59.37087685 0 32.133270068 -58.035412401 
0 31.524010544 -60.804158959 0 33.314403896 -58.896083332 0 33.064364804 -61.963203991 
0 33.898703877 -62.833047882 0 35.11739007 -60.598210258 0 35.363213556 -64.087471674 
0 36.240141409 -64.835666561 0 37.081569527 -65.552501631 0 37.593731864 -65.988634619 
0 36.645688606 -61.903721163 0 38.368331051 -66.497516426 0 37.537655083 -62.509563337 
0 39.671582083 -67.76617312 0 38.941222019 -66.987686233 0 38.504827109 -63.338532446 
0 39.375371782 -64.080836921 0 40.187092549 -68.206460652 0 40.773797648 -68.550434477 
0 40.222468353 -64.805523524 0 41.272871451 -68.976520916 0 41.974881231 -69.734613619 
0 42.520066298 -70.197847462 0 40.78995706 -65.443794029 0 41.516265332 -66.0601089 
0 42.955263308 -70.570155474 0 43.491618426 -71.026181422 0 43.938415351 -71.399150656 
0 41.928383181 -66.402280009 0 44.270698153 -71.682946979 0 44.591133674 -71.808900866 
0 42.410083331 -66.65787924 0 44.880229324 -72.055851277 0 45.282777112 -72.419950951 
0 45.486313747 -72.595261249 0 45.852371608 -73.044477689 0 43.633288598 -67.707935348 
0 46.083361375 -73.07884213 0 46.334676348 -73.44711941 0 46.472271915 -73.570323967 
0 46.411679518 -73.512896837 0 44.04181603 -68.21938144 0 46.474165152 -73.573953009 
0 46.282341274 -73.245543024 0 46.191568884 -73.333872205 0 46.206124 -73.18436901 
0 43.634382854 -67.876541118 0 45.564006451 -72.798931312 0 45.823986083 -73.024232023 
0 43.425735692 -67.696104271 0 43.040755765 -67.366890583 0 45.341457106 -72.608856216 
0 45.021149153 -72.333196513 0 44.623697822 -71.991631755 0 42.731812615 -67.099093385 
0 43.878660424 -71.362845752 0 44.299629454 -71.716713562 0 42.182576879 -66.63437786 
0 41.537321191 -66.077871658 0 43.49460138 -71.034568296 0 42.952467882 -70.560998907 
0 42.429423821 -70.114284957 0 41.078976718 -65.676910289 0 41.99839883 -69.746154837 
0 41.404468036 -69.244395615 0 40.333958911 -65.046354853 0 39.348460963 -64.204455206 
0 40.83398392 -68.753904275 0 39.828506057 -67.892434281 0 38.872742835 -67.073009581 
0 37.470172356 -62.585341196 0 37.570942923 -65.95939964 0 36.746717276 -65.269092853 
0 35.751893148 -61.136281569 0 35.324469423 -64.047766987 0 34.679753652 -60.214809157 
0 33.903934264 -62.835119489 0 33.00685601 -61.945662598 0 32.798792616 -58.490329819 
0 32.316849136 -61.355970687 0 31.611560777 -57.602612173 0 28.987675595 -58.641856461 
0 29.847535005 -59.374139148 0 30.846540751 -56.952693238 0 30.77253677 -60.163595293 
0 31.475805092 -60.765879628 0 33.959174163 -59.477604188 0 34.703504186 -63.517412571 
0 36.135410042 -64.746992405 0 36.795542183 -62.020620839 0 38.289845352 -66.57540713 
0 38.482563651 -63.458145241 0 46.047904197 -73.214246856 0 43.749450944 -67.807927498 
0 43.885886382 -67.922957142 0 46.487399289 -73.583243965 0 44.004672413 -68.176034574 
0 43.767275967 -67.813926478 0 46.025542758 -73.190866835 0 43.36374622 -67.504059867 
0 42.865599457 -66.919533646 0 35.831984174 -61.211336613 0 34.573787332 -63.409190213 
0 34.044356052 -59.520275238 0 32.1775845 -61.362363851 0 30.665718685 -60.061623387 
0 30.72445677 -56.805266717 0 28.496997306 -58.191987242 0 18.33621295 -49.543873063 
0 20.274470331 -47.92382531 0 14.792800588 -46.51629158 0 19.035068962 -46.860151816 
0 13.384245898 -45.303303837 0 12.644563423 -44.665104106 0 11.823666051 -43.972294567 
0 10.9037755 -43.194167237 0 11.49121329 -43.697044889 0 12.682617432 -44.710959526 
0 13.014247658 -44.996265723 0 19.021437101 -46.843836178 0 14.889160509 -46.592656976 
0 15.915573892 -47.469764377 0 21.189974978 -48.635522764 0 27.465871993 -57.339339585 
0 26.625052466 -60.184589063 0 25.009599409 -58.810325379 0 22.881162173 -57.313174557 
0 22.250396282 -56.485326918 0 21.505833546 -55.861453762 0 19.957614078 -54.489386275 
0 18.718765252 -53.42830971 0 17.278715038 -52.211941866 0 16.11606896 -51.218344162 
0 15.35647152 -50.876770636 0 14.882329644 -50.177612474 0 13.787572039 -49.54394856 
0 13.146491899 -48.669905667 0 12.123228988 -48.093568799 0 11.936993595 -47.633366219 
0 10.632885847 -46.541972004 0 9.7432891213 -45.783327245 0 8.8108397194 -44.98408498 
0 7.6360237259 -43.979100287 0 7.3037409243 -43.695303964 0 7.0100355951 -43.448474791 
0 6.3251688322 -42.864551976 0 5.966315478 -42.554870797 0 5.2366152106 -42.224369167 
0 5.4456747153 -42.100632449 0 5.1434004972 -41.845830702 0 4.5640715812 -41.662935996 
0 4.8502978846 -41.614814294 0 4.7674264489 -41.548800265 0 4.2310908506 -41.397579399 
0 4.658972243 -41.451073166 0 4.6583264564 -41.447844988 0 4.2448246431 -41.381145513 
0 4.786064828 -41.535767276 0 4.9646914651 -41.686949811 0 4.728478078 -41.755446356 
0 5.3803349253 -42.024588147 0 5.7326950365 -42.326766669 0 5.6310156822 -42.526275784 
0 6.537796317 -43.028446309 0 6.8306174295 -43.278045342 0 6.7833543166 -43.567289711 
0 7.8470928004 -44.189761416 0 8.6552148924 -44.868318652 0 9.4328496345 -45.532904367 
0 9.2902271677 -45.830377624 0 10.232140792 -46.318733047 0 10.652135077 -46.680993373 
0 11.979407377 -47.686541212 0 13.14161953 -48.964522754 0 14.178840651 -49.555413028 
0 15.345901679 -50.566448261 0 15.448755177 -50.974613631 0 16.655428261 -51.705656442 
0 17.196889292 -52.481982072 0 18.559860306 -53.325856801 0 19.117288311 -54.09890609 
0 20.386156834 -54.868351331 0 21.98713131 -56.236442936 0 23.271794647 -57.334741793 
0 24.952923012 -58.771879671 0 26.257835639 -59.888056187 0 27.9209049 -61.290151188 
0 28.539887657 -61.817175962 0 29.227446407 -62.405199879 0 29.984761008 -63.359643423 
0 31.350317823 -64.241168919 0 32.767915089 -65.446799774 0 34.019314596 -66.516129146 
0 34.870751634 -67.551612271 0 35.675417893 -67.938344812 0 36.256578749 -68.435291459 
0 36.867885983 -68.957391907 0 37.68418349 -70.097240595 0 38.858646416 -70.792475534 
0 40.029741737 -71.646763453 0 41.763679247 -73.428852158 0 42.323025578 -73.608496653 
0 43.318623934 -74.462579437 0 43.976437425 -75.327168446 0 44.735695524 -75.670753151 
0 45.598477367 -76.396493302 0 46.28360125 -76.98057793 0 47.016792877 -77.611066912 
0 47.539699876 -78.059799321 0 47.904683001 -78.684045821 0 48.023473828 -78.488788888 
0 48.210611986 -78.651706367 0 48.570447466 -79.263739256 0 48.597342906 -78.97397065 
0 48.8387482 -79.177943808 0 49.098309033 -79.695923312 0 49.03957231 -79.337131367 
0 49.10309197 -79.394621024 0 49.272761139 -79.859857622 0 49.088681499 -79.406345147 
0 49.048240044 -79.371849536 0 48.971236874 -79.306072108 0 48.969202007 -79.619277464 
0 48.525977903 -78.919754081 0 48.352806753 -78.773364935 0 48.246621759 -78.980743652 
0 47.665217505 -78.167747491 0 47.050707899 -77.631724774 0 46.474288673 -77.139305924 
0 45.692739656 -76.494739118 0 45.362248135 -76.213087345 0 44.429576118 -75.406363184 
0 43.602290821 -74.698132079 0 42.496424791 -73.741461058 0 41.541710679 -72.927828582 
0 40.896435555 -72.683640746 0 40.213276875 -71.812629349 0 39.706886227 -71.379731616 
0 39.13399526 -70.889561809 0 38.383759253 -70.551702154 0 37.162009489 -69.202595065 
0 35.842387519 -68.082810059 0 34.617911626 -67.037150692 0 33.644694113 -66.508936148 
0 32.898593932 -65.56178538 0 31.62941135 -64.477412296 0 30.537980434 -63.842423671 
0 29.295906304 -62.477983132 0 28.503587589 -61.787236595 0 27.482699548 -61.214228283 
0 24.841469623 -59.614928941 0 22.444551684 -57.726284706 0 19.594427757 -55.190831019 
0 16.926216795 -52.832862634 0 14.660605765 -50.932546935 0 12.701193293 -49.259489251 
0 10.910820089 -47.731492938 0 9.7996703725 -46.781977097 0 7.6774295013 -44.965306601 
0 6.3111875375 -43.762287364 0 5.1241706141 -42.773790176 0 4.1819787543 -42.076924775 
0 3.6627681423 -41.543687973 0 3.2012044052 -41.254903816 0 3.2980624005 -41.221551135 
0 3.8617896075 -41.648441741 0 4.6552661432 -42.424090232 0 7.1517746941 -44.686886665 
0 10.434169554 -47.424341482 0 12.755413304 -49.274839035 0 14.626523651 -51.046867283 
0 16.893930072 -52.941619001 0 19.257176603 -54.85250809 0 20.812708283 -56.164953256 
0 24.425636556 -59.375916842 0 27.365120606 -61.76739646 0 30.067004272 -64.170073473 
0 32.540417914 -66.201817776 0 34.951386068 -68.271021046 0 40.140622199 -72.834588102 
0 42.217873675 -74.461130646 0 44.29416242 -76.355543013 0 45.867640171 -77.682700919 
0 47.148090533 -78.666467443 0 48.177095358 -79.706162314 0 48.922930163 -80.205751374 
0 49.411097435 -80.612969388 0 49.568458921 -80.759325607 0 49.258196062 -80.651668524 
0 48.553024447 -80.066237573 0 47.585441923 -79.03629452 0 46.38809597 -78.026343628 
0 44.91221012 -76.892454654 0 42.792851282 -74.945060619 0 40.648562754 -73.131784293 
0 38.211956301 -71.058876484 0 35.922381886 -69.227814874 0 33.15702444 -66.731564787 
0 30.079351729 -64.23442223 0 27.280613196 -61.801662741 0 25.095035226 -61.053939341 
0 20.575952155 -57.280854347 0 17.138477692 -54.188190353 0 14.660004976 -52.014577188 
0 11.828167031 -49.612791094 0 9.6920238505 -47.804301884 0 7.7801720224 -46.163685231 
0 6.3052121762 -44.905266499 0 5.0605906551 -43.799716999 0 3.9309373364 -42.830528435 
0 2.3250779552 -41.632169113 0 1.7848795332 -41.124883698 0 1.9143881271 -41.179603215 
0 2.2635381351 -41.448535993 0 2.7400166657 -41.940151426 0 3.8552864417 -42.952287249 
0 7.6706442992 -45.970813064 0 8.956345412 -46.936025223 0 11.264798596 -49.10251447 
0 15.375806311 -52.859707043 0 18.397097508 -55.275133682 0 26.299554431 -62.128327247 
0 28.740564917 -64.377435133 0 32.054029804 -67.019386389 0 34.296834275 -68.802732866 
0 36.265603983 -70.46957973 0 38.23801809 -71.973606905 0 40.04662345 -73.50084728 
0 42.023075081 -75.403814379 0 47.039299312 -79.804503813 0 49.631146086 -81.901967789 
0 49.855933333 -82.091955304 0 48.242357181 -80.895271513 0 47.074450119 -79.706746192 
0 42.662128504 -76.073979453 0 41.439561684 -74.934248803 0 38.606412594 -72.541558184 
0 33.391103157 -68.147785298 0 22.649988936 -59.726269783 0 2.3457729139 -42.317421623 
0 1.3268834407 -41.32892151 0 2.4327005738 -42.255422332 0 3.9586080847 -43.542933807 
0 5.0150597185 -44.14967324 0 12.493208858 -50.987436692 0 20.816100331 -57.947406042 
0 23.537096931 -59.966823065 0 29.776842996 -66.104213108 0 43.992618389 -77.755234855 
0 45.661588579 -78.859782504 0 48.030486269 -81.413963586 0 49.701253629 -82.822407487 
0 49.334776447 -82.268399921 0 45.68250491 -79.347382431 0 44.245034594 -77.83418738 
0 36.614076725 -71.684949384 0 30.278751683 -66.057689613 0 27.685541058 -63.44103555 
0 24.614752499 -61.878332621 0 20.403190848 -58.728832832 0 19.122483558 -57.343334883 
0 16.548363315 -55.150772761 0 14.424981333 -53.087939449 0 13.089652215 -51.964944065 
0 10.927156626 -50.151207925 0 9.0126916981 -48.509349746 0 6.844286555 -46.841804821 
0 5.1293537121 -45.349328397 0 3.7303452034 -44.10248216 0 2.691210891 -43.084290593 
0 0.69443821622 -42.041748008 0 0.26433229717 -41.495568117 0 0.166903733 -41.264272499 
0 0.26136060043 -41.21527055 0 0.50273229495 -41.419293812 0 0.93826618993 -41.763111246 
0 1.2035516053 -42.346186972 0 2.1299004481 -42.936658853 0 3.146744228 -43.804812906 
0 4.3045353462 -44.933414384 0 6.0221967337 -46.231509041 0 8.0102505376 -47.654838944 
0 10.006467609 -49.302118217 0 13.747593189 -52.994436888 0 16.904328479 -55.246491869 
0 19.688053337 -57.716406999 0 22.520702834 -60.439650324 0 25.026818857 -62.482598169 
0 33.703685689 -69.809810333 0 36.066009184 -71.564433104 0 37.386622019 -72.697121016 
0 39.517899157 -74.541779583 0 41.464979538 -76.20440711 0 43.474023768 -78.264135413 
0 45.266401859 -79.907562493 0 46.792821777 -81.050987042 0 49.218302019 -83.159771321 
0 49.744640623 -83.336609141 0 49.973919376 -83.626473396 0 50.014701059 -83.545710335 
0 48.276090292 -82.304495326 0 47.137767314 -81.015569834 0 42.676765529 -77.718472684 
0 40.324823574 -75.416065474 0 38.312366814 -73.814624086 0 34.984473325 -71.73204133 
0 30.693190427 -67.121502832 0 27.12972817 -64.308780834 0 24.437688318 -63.29650553 
0 22.217123289 -61.07631822 0 13.372950217 -53.894983722 0 10.989534459 -51.631536618 
0 8.7219205362 -49.710004292 0 1.4421114377 -43.659022661 0 0.83476012882 -42.784906164 
0 6.4998365561 -47.965864967 0 8.0068555181 -49.060447696 0 10.751950894 -51.185507975 
0 14.78475918 -55.082673906 0 17.461725776 -57.169262843 0 26.9059123 -65.149038362 
0 28.817107828 -66.614796089 0 35.455151658 -72.753132018 0 38.062678165 -74.754847684 
0 40.327056344 -76.69700996 0 47.547461616 -82.850143959 0 48.437552255 -83.281089029 
0 49.053949401 -83.98365538 0 49.626269881 -84.711707204 0 50.008114066 -85.158002595 
0 49.803832295 -84.698220799 0 49.13544204 -83.907852156 0 48.352744951 -83.368418893 
0 47.318474334 -82.654439009 0 45.686962251 -81.111112986 0 44.333360488 -79.796862764 
0 33.550870069 -71.197293882 0 32.263407581 -69.663598007 0 19.094366917 -59.687563253 
0 16.569706428 -56.917294027 0 6.2024987924 -48.612618205 0 4.2574950525 -46.349311131 
0 2.6467352216 -44.933542726 0 -1.628909809 -41.678914379 0 -1.5272882941 -41.826263672 
0 -0.80536394652 -41.974257495 0 0.29644132991 -43.132662016 0 1.6924374478 -44.046935794 
0 3.0175730459 -45.252697862 0 3.9493370643 -46.070062228 0 11.878592224 -53.238694189 
0 21.282529552 -61.498666576 0 23.866685058 -62.980693981 0 29.761595362 -68.392193961 
0 31.828280869 -69.794568481 0 41.802976068 -79.009982055 0 44.330886948 -80.573235353 
0 46.120154132 -82.038372702 0 49.789465585 -85.837148331 0 49.922196705 -85.502262264 
0 39.652845843 -76.735482077 0 38.518234526 -75.624109092 0 26.691776035 -65.746136388 
0 22.014886502 -62.816786841 0 19.033022028 -60.742335982 0 15.931114435 -58.476310301 
0 14.139342003 -56.36752871 0 12.18391111 -54.584786219 0 10.139408316 -52.715328311 
0 8.2094028781 -51.04263243 0 4.1851791178 -48.073874867 0 3.0561417075 -46.856958746 
0 1.7573157031 -45.752439792 0 0.43718611256 -44.606342828 0 -0.74356135105 -43.426989803 
0 -1.2655777408 -42.720294361 0 -1.4823708023 -42.390955132 0 -1.8429758337 -42.032447076 
0 -2.9006580373 -42.021985079 0 -2.4297752713 -41.908963308 0 -2.3450013579 -42.478260384 
0 -1.4338617422 -42.745251346 0 -0.74589055395 -43.337630635 0 0.095870435933 -44.323313368 
0 1.7981276984 -45.761428626 0 3.1569997179 -46.986146253 0 4.9696599749 -48.438878387 
0 7.4208797491 -50.405284779 0 9.0587650119 -51.759072853 0 11.192875737 -53.633952699 
0 13.466509349 -55.733768962 0 15.942194217 -57.711438349 0 18.761862592 -59.938224839 
0 22.463395495 -63.788181648 0 25.410224466 -65.803539675 0 28.803575212 -68.85512999 
0 32.578428185 -72.155031707 0 34.958922056 -74.03650682 0 37.125189442 -75.76338902 
0 39.091005401 -77.411684921 0 42.640948271 -80.918204546 0 44.019502499 -81.842974009 
0 45.458185789 -83.027129229 0 47.258539967 -84.423638234 0 48.10838398 -85.073112318 
0 48.687873799 -85.571271615 0 49.203657709 -86.088077788 0 49.703125004 -86.980871171 
0 49.743036777 -86.58666243 0 49.352635184 -86.238576145 0 49.094416655 -85.982512975 
0 48.461904098 -85.455482333 0 47.616024889 -84.755444383 0 46.364000224 -83.659952203 
0 45.353550002 -82.790032667 0 44.296155558 -81.850119065 0 42.849498656 -80.715089664 
0 41.199482263 -79.121299944 0 39.416336605 -77.654684865 0 34.99708599 -74.146101463 
0 32.776336661 -71.854370475 0 30.285808411 -69.953878357 0 28.150505531 -67.897616835 
0 26.924903656 -66.974380537 0 24.509167028 -65.116876223 0 4.7755195438 -49.517274057 
0 -3.5207720113 -42.43305052 0 -3.5630998504 -42.659418421 0 41.122970131 -80.56092957 
0 49.499973474 -87.476550895 0 36.211963991 -76.367842184 0 21.792953783 -64.791489846 
0 19.37707253 -62.6054279 0 17.299665177 -60.795596544 0 13.15643959 -57.656996501 
0 11.018265772 -55.642151757 0 8.8325681514 -53.718531731 0 6.8632116131 -52.063928494 
0 5.8782023376 -51.205792831 0 2.5524064164 -48.842269694 0 1.9996215571 -47.982995093 
0 0.71661412867 -46.845194154 0 -0.44365995145 -45.868736454 0 -1.5669641846 -45.053377371 
0 -2.3145441835 -44.197494058 0 -3.0734977612 -43.748507144 0 -3.6907280088 -43.07002546 
0 -4.6186424065 -42.882859502 0 -4.1442978262 -42.67090407 0 -4.0999241882 -43.368941222 
0 -3.2776080134 -43.55656576 0 -2.5992001135 -44.012427985 0 -1.6849915094 -44.58956556 
0 -0.70820844547 -45.599675772 0 0.24803436295 -46.481681828 0 1.4232752964 -47.488713179 
0 2.9649578118 -48.567233289 0 4.4649292251 -50.076399806 0 6.0046949354 -51.348671109 
0 7.4766914825 -52.608365056 0 9.378759632 -54.13828616 0 11.831206901 -56.24595768 
0 14.169505933 -58.419624222 0 17.458733989 -60.943857498 0 19.915841037 -63.052924156 
0 21.121420525 -64.082583685 0 23.374705219 -66.149590999 0 26.087781814 -68.567073229 
0 31.77394432 -73.571740406 0 34.096919174 -75.353183873 0 36.338774683 -77.21105146 
0 38.281082245 -78.897324979 0 39.282742233 -79.735965162 0 42.137435583 -82.651078539 
0 43.072605692 -83.062637537 0 44.397104994 -84.151857734 0 45.549194768 -85.144994718 
0 46.529312051 -86.127679715 0 47.486385138 -86.731505909 0 47.981067951 -87.362442771 
0 48.572722502 -87.701526496 0 48.927224208 -88.020277871 0 49.221712437 -88.613685359 
0 49.209048652 -88.256240089 0 48.902179049 -87.97086022 0 48.382977377 -87.357145837 
0 47.500642678 -86.849382067 0 46.626647157 -86.086087374 0 45.77174248 -85.265951632 
0 44.829443905 -84.557802649 0 43.652453077 -83.533343085 0 42.239869179 -82.226759912 
0 40.5658705 -80.823557182 0 39.057922815 -79.620606705 0 37.472832613 -78.213105935 
0 33.963502197 -75.628569541 0 32.710246916 -74.103742835 0 29.617648319 -71.483588066 
0 27.294788045 -69.293076219 0 24.578838532 -67.155323175 0 18.730508962 -64.152700205 
0 3.5898573258 -50.783380759 0 -5.1000415186 -43.252460493 0 16.475108496 -62.21303099 
0 40.057929739 -81.930057043 0 48.947057513 -89.148796212 0 48.039343536 -89.213548633 
0 47.403025141 -88.420220238 0 35.067461482 -77.913754964 0 33.757777354 -76.77884087 
0 26.754366611 -70.991579806 0 15.995221376 -62.886518446 0 11.635415862 -58.954034663 
0 10.52430128 -57.654100209 0 7.691141831 -55.168238993 0 5.6926359484 -53.409688834 
0 1.1343546028 -49.943826227 0 -0.32509986146 -48.367318963 0 -1.6623909438 -47.150873059 
0 -3.5629275838 -45.668889457 0 -5.0053621058 -44.540360949 0 -5.5653489335 -43.914641544 
0 -5.845837639 -43.825061811 0 -5.8713493457 -43.767861992 0 -5.4720443102 -43.762757277 
0 -5.1501746043 -44.086243722 0 -4.2310734724 -45.119862087 0 -2.4331331598 -46.898151524 
0 -1.6669552872 -47.22663517 0 -0.2004148977 -48.499231344 0 2.5920756535 -51.557568189 
0 3.9029830772 -51.974694613 0 5.8321826681 -53.591522805 0 6.8378227076 -54.458439904 
0 9.3253665629 -56.5640408 0 14.055240776 -60.684448751 0 18.305542861 -64.838269637 
0 21.30594839 -66.79012022 0 26.41201923 -71.255893793 0 30.729267497 -75.261724556 
0 32.187014217 -76.155804923 0 35.085474139 -78.565209108 0 37.135008826 -80.264012214 
0 41.271273216 -84.223993189 0 43.056680038 -85.418859276 0 44.468263401 -86.548576899 
0 46.228383886 -88.194642232 0 47.510616144 -89.345671191 0 48.030508426 -89.649873153 
0 48.319996846 -89.921327439 0 48.415977307 -90.144816843 0 48.470720199 -90.163142739 
0 48.347095659 -89.866807889 0 46.756076778 -88.919632026 0 44.995538297 -87.0388488 
0 44.393232557 -86.565751976 0 42.908080995 -85.31692115 0 39.893148072 -82.58524154 
0 38.358769404 -81.34754992 0 36.695257588 -79.987648133 0 32.694765246 -77.067204568 
0 28.629264559 -73.127680255 0 24.192319974 -69.840265795 0 21.830765724 -67.239612138 
0 12.091744422 -60.197734707 0 2.056179668 -51.89384209 0 -3.255143533 -47.151498642 
0 -4.8652059923 -45.672982582 0 -6.513077212 -44.281052095 0 -5.4707512275 -45.107492778 
0 29.429493951 -75.005571709 0 39.201060074 -83.618567008 0 44.715880046 -88.122578689 
0 46.428073741 -89.481582097 0 48.069980286 -90.875174186 0 47.04107144 -90.00820485 
0 40.23487375 -83.744723027 0 19.402886755 -67.424476748 0 17.911022411 -66.773881446 
0 17.266051822 -65.356271154 0 15.555243757 -63.943681522 0 14.344993438 -63.77435113 
0 13.551883747 -62.439977156 0 11.501314287 -60.766651997 0 10.401004474 -60.454775791 
0 9.4577917996 -59.649196064 0 8.6778841531 -58.360828146 0 6.0428882246 -56.68343388 
0 6.9364547233 -56.821899808 0 5.2891486606 -55.383362865 0 2.8599565829 -53.961646406 
0 3.7424667818 -54.072689488 0 2.0714298662 -53.287773826 0 0.16603680436 -51.406035318 
0 -0.54599288422 -51.06357849 0 -1.0489744945 -50.000942453 0 -2.9964465368 -48.953496243 
0 -2.2927827066 -48.939060664 0 -3.5467227446 -48.482375967 0 -4.7622756353 -47.231943902 
0 -5.2448792589 -47.082477763 0 -5.5059914316 -46.419993606 0 -6.4930931313 -45.960269473 
0 -6.1023691089 -45.884700126 0 -6.4502237726 -45.359481737 0 -6.881191366 -45.623385978 
0 -6.8870256091 -44.990039967 0 -7.3422708376 -45.238625438 0 -7.2001462315 -44.948867162 
0 -7.5611699792 -45.269766798 0 -7.4009311751 -45.184177561 0 -7.2124153728 -44.934921059 
0 -6.9653084692 -44.912457832 0 -6.924598684 -45.602868819 0 -6.7068753723 -45.147800852 
0 -6.7178997338 -45.779369626 0 -6.2427681683 -45.768946093 0 -6.3913699554 -46.262910385 
0 -5.7122067073 -46.228550112 0 -5.6478552476 -46.699735677 0 -4.8404391906 -46.781795648 
0 -3.9096934701 -48.205524095 0 -3.9393744305 -47.598957997 0 -3.4001196637 -48.640741241 
0 -2.5080453681 -48.776632482 0 -1.4664670884 -49.61186185 0 -1.2823347457 -50.396761224 
0 0.022923765192 -50.748488314 0 1.5422558477 -52.853683443 0 1.4942916755 -52.066704446 
0 2.3078942585 -53.507600422 0 3.4381012575 -53.835273999 0 4.802360492 -54.986035534 
0 5.1682683041 -55.928334479 0 6.4908535812 -56.406734504 0 8.0502234777 -57.732360537 
0 8.471156655 -58.721335124 0 9.8513005909 -59.340401807 0 10.128486325 -60.230431423 
0 12.475814895 -61.585849456 0 13.239722072 -62.796281186 0 15.001767716 -63.367762011 
0 17.000812041 -65.156191267 0 17.192496426 -66.242846658 0 18.231611711 -67.131926743 
0 19.710728409 -67.752199453 0 22.324659864 -70.631980649 0 21.971100239 -69.686999909 
0 24.748826973 -72.087104013 0 25.544425807 -73.339570004 0 26.986441112 -73.91417312 
0 28.959944599 -75.677730941 0 29.440107468 -76.715705927 0 30.383320142 -77.521285654 
0 31.777830549 -78.090046198 0 33.846777486 -80.430198679 0 33.570231706 -79.56929431 
0 35.248753315 -80.971282544 0 37.032975448 -83.148161783 0 36.78524448 -82.293887714 
0 37.821904293 -83.821563531 0 39.978544622 -85.409129285 0 40.428171222 -86.058820656 
0 41.556408105 -86.389376828 0 42.895610262 -88.149015571 0 42.799790839 -87.451756788 
0 43.447012429 -88.618817517 0 44.872203966 -89.623794263 0 45.09532577 -90.07707458 
0 45.79050059 -90.231336673 0 46.398981482 -91.134368815 0 46.412497742 -90.736633603 
0 46.985666279 -90.998043341 0 46.792429322 -91.464988727 0 47.418890469 -91.371673996 
0 47.244581542 -91.860201736 0 47.508539226 -91.674498738 0 47.248066954 -92.081277447 
0 47.307535574 -91.909622343 0 47.524232946 -91.684435175 0 47.507763577 -91.436856545 
0 46.902609986 -91.381113481 0 47.318015882 -91.09488239 0 46.695947357 -91.204570147 
0 46.631915608 -90.73365764 0 46.084153572 -91.081241489 0 46.011846274 -90.405064736 
0 45.536394998 -90.415215212 0 45.329037623 -89.630576794 0 43.777236926 -88.934010296 
0 44.380978315 -88.868437991 0 43.26766312 -88.49879315 0 42.993893761 -87.638959843 
0 42.006008711 -86.74086378 0 41.201968106 -86.681783725 0 40.754165717 -85.65156821 
0 39.432302621 -84.581591774 0 38.544183137 -84.451245303 0 37.909106857 -83.259519879 
0 37.231798064 -83.287520816 0 35.877370441 -81.490665226 0 34.727702845 -81.158075376 
0 33.99249204 -79.628869725 0 32.414273466 -78.290518105 0 31.421746614 -78.333726118 
0 30.59063469 -77.063844646 0 29.700556114 -76.946200971 0 27.994544574 -74.839894481 
0 26.683278758 -74.278318272 0 25.844333522 -72.627421046 0 24.061170105 -71.169548272 
0 22.956840684 -71.150070304 0 21.991327979 -69.703459123 0 21.133568455 -69.564075657 
0 20.547990177 -69.06394456 0 22.331277748 -70.617380873 0 24.48661531 -72.118751988 
0 25.971620034 -73.659842459 0 28.297596283 -75.751248726 0 29.1426647 -76.469716689 
0 30.85788153 -77.850445608 0 32.704026641 -79.169513731 0 34.107532 -80.61802916 
0 36.050531615 -82.270131783 0 36.762522557 -82.878891428 0 38.095252863 -84.067822627 
0 39.70985286 -85.410625147 0 40.738009505 -86.265948728 0 42.068451131 -87.446802333 
0 42.932227534 -88.213927405 0 43.483859271 -88.683442107 0 44.598923109 -89.632153339 
0 45.273830624 -90.164641726 0 45.914962739 -90.94747163 0 46.547336852 -91.077644785 
0 46.789855546 -91.284775317 0 47.11757051 -91.736347268 0 47.262214857 -91.868159369 
0 47.248066954 -92.081277447 0 47.250394534 -92.083265389 0 47.291841855 -91.899685906 
0 47.046848671 -91.678422105 0 46.907641312 -91.558647839 0 46.547591987 -91.261294177 
0 46.013091076 -91.027493422 0 45.845079831 -90.892348594 0 45.38611181 -90.295235216 
0 43.871888261 -88.718979465 0 43.230816278 -88.43416856 0 41.912655085 -87.322542067 
0 40.90985315 -86.452587994 0 38.404291548 -84.05329526 0 37.505196156 -83.551069228 
0 35.665531488 -81.961016238 0 34.477378817 -80.955158319 0 32.527952798 -79.314916489 
0 30.946809516 -78.004999145 0 29.997998883 -77.192190209 0 27.707836969 -75.156278799 
0 26.273412586 -73.933066381 0 23.809897342 -71.908725422 0 22.950667233 -71.164209113 
0 21.119958599 -69.533016667 0 20.534380321 -69.03288557 0 18.817189989 -67.63205784 
0 17.81648717 -66.77737689 0 15.716568136 -64.629191087 0 13.961836168 -63.402518022 
0 11.528273201 -61.429096031 0 10.68637774 -60.706915705 0 9.0366951124 -59.202656365 
0 7.1591529705 -57.612193827 0 5.8042199465 -56.449757669 0 4.0184405203 -54.941657876 
0 2.7849036038 -53.907174649 0 1.9911861215 -53.237106119 0 0.42426694251 -51.742252148 
0 -0.80107533507 -50.790740321 0 -2.1734825134 -49.66062132 0 -3.0662874025 -48.927484238 
0 -3.6163158148 -48.456092284 0 -4.727781252 -47.503167866 0 -5.3592926195 -46.919869119 
0 -6.2327797475 -46.409091981 0 -6.5692892284 -45.906294989 0 -6.8118079221 -45.699164457 
0 -7.2000723214 -45.344697646 0 -7.352888957 -45.222454066 0 -7.5611699792 -45.269766798 
0 -7.5634975596 -45.267778857 0 -7.3886620339 -45.198123663 0 -7.13179698 -45.40548729 
0 -6.9917205053 -45.524243952 0 -6.6417036367 -45.833344111 0 -6.3271669932 -46.324689933 
0 -6.1674032729 -46.469491372 0 -5.5058429341 -46.829399623 0 -3.7121167561 -48.078399842 
0 -3.3305265935 -48.667024924 0 -2.026380226 -49.795060669 0 -1.0102639476 -50.649425648 
0 1.7514457001 -52.748807554 0 2.3881380032 -53.558268129 0 4.2464017611 -55.126544383 
0 5.4257439273 -56.142718078 0 7.3507490747 -57.811553075 0 8.8918844664 -59.168313641 
0 9.843113059 -59.978291509 0 12.212219275 -61.921771017 0 13.644765329 -63.147182676 
0 15.878307167 -64.843146812 0 17.287417435 -66.238840141 0 18.326146952 -67.128431298 
0 19.716016673 -68.35337206 0 29.082069198 -74.386994004 0 45.037783962 -87.989216436 
0 46.590192939 -89.813381806 0 48.085674005 -90.885110622 0 46.882059647 -89.851734198 
0 45.32827471 -88.657533182 0 40.153425546 -84.423477042 0 25.01348624 -70.910748377 
0 12.736479281 -60.431059316 0 -3.3784088711 -47.005096226 0 -5.0987799743 -45.4209152 
0 -6.5253463532 -44.267105992 0 -5.3018199493 -45.282490542 0 -3.8793114802 -46.630328893 
0 1.1121966289 -51.079117488 0 22.748040785 -68.906866077 0 27.066330444 -72.247545557 
0 30.787369186 -75.034799504 0 31.434991555 -76.323811619 0 35.14058521 -79.175622395 
0 37.009888335 -81.051892878 0 38.615551246 -82.367080974 0 41.475510634 -83.992732075 
0 41.717252362 -85.070543886 0 42.982847332 -86.171214385 0 43.677206909 -86.822075397 
0 46.030635141 -87.978701732 0 46.103944008 -88.856346742 0 47.917087244 -90.145221791 
0 48.138217364 -90.516977765 0 47.931611381 -90.38834421 0 47.571817113 -90.046483287 
0 46.700672333 -88.629309373 0 45.039514309 -87.176821976 0 43.507200979 -86.597213561 
0 41.993022918 -85.340237265 0 39.05823464 -82.29577391 0 37.69702701 -81.605733791 
0 35.806448123 -79.962432444 0 33.947880855 -78.449888054 0 32.583745832 -77.35176956 
0 28.423719523 -73.290685686 0 27.232774314 -72.720739239 0 23.955363985 -69.165114084 
0 22.477914985 -68.651972671 0 19.805890207 -66.399616494 0 15.185803872 -62.10138428 
0 11.694514747 -58.748985535 0 10.314769165 -58.291565733 0 8.2295274801 -56.443317745 
0 7.0989914394 -55.498055893 0 5.0408099531 -53.731863014 0 4.0639845814 -52.929151088 
0 0.44892570833 -49.706672587 0 -1.0566422507 -48.557936936 0 -1.8081118525 -47.973943171 
0 -3.5124295483 -46.02542552 0 -4.1860530463 -45.897915073 0 -5.0337033207 -44.457361472 
0 -5.7899284478 -44.338450787 0 -6.1542273825 -44.139867528 0 -5.9658590803 -44.371302859 
0 -5.7071199832 -44.589544632 0 -4.0660699747 -45.270415303 0 -2.3723200777 -46.684931663 
0 -1.559423652 -48.106679905 0 -0.081053184441 -49.405581507 0 3.3850298084 -51.827978675 
0 4.2795141764 -53.064481523 0 6.1983354533 -54.67471528 0 7.9830018881 -56.273786428 
0 9.2809984539 -57.449343106 0 13.942855137 -60.922859105 0 14.692089474 -62.009982534 
0 18.831706291 -65.218859332 0 20.175344722 -66.607178775 0 25.175469292 -69.631119915 
0 47.58806306 -89.214492916 0 41.318602843 -83.053366288 0 30.650007155 -73.781844053 
0 29.240139239 -72.637263891 0 18.078143202 -63.579225808 0 2.6072818742 -50.475107096 
0 1.5985093255 -49.642637963 0 -2.1526581248 -46.037465524 0 -2.8134322228 -45.510245019 
0 2.2831651593 -49.713952913 0 13.124745176 -58.799963586 0 14.475785591 -60.013421904 
0 17.113140792 -62.8261017 0 22.638123188 -66.309506211 0 25.537215137 -68.575038584 
0 27.918789889 -70.683841422 0 30.016159157 -72.671461148 0 31.369130169 -73.796758291 
0 36.304638225 -77.602520147 0 37.790328248 -79.33636649 0 39.311733224 -80.56754539 
0 40.890503507 -81.821722278 0 42.483150628 -83.238288222 0 43.835641716 -84.534164202 
0 44.96072016 -85.400373591 0 45.857956608 -86.142619936 0 46.757080025 -86.971801533 
0 47.741433691 -87.586484788 0 48.495849303 -88.189937004 0 48.875681697 -88.716057948 
0 49.012965449 -89.053155004 0 49.15214481 -88.343719286 0 48.82372535 -88.721716729 
0 48.522392749 -88.481417524 0 48.019637211 -88.169170028 0 47.471016592 -87.675676215 
0 46.787466516 -87.043301311 0 45.846710121 -86.303039255 0 44.85456835 -85.2836491 
0 43.560279105 -84.238431248 0 40.074807076 -80.799601549 0 37.511433805 -78.984956656 
0 35.241375719 -77.092883682 0 32.980976059 -75.157084945 0 28.666242372 -71.001209888 
0 27.029067572 -70.189786236 0 24.412611217 -67.887546492 0 21.745491393 -65.565306139 
0 18.812454062 -62.886099055 0 16.239345899 -60.714697968 0 14.721051942 -59.685714641 
0 12.461730232 -57.736284551 0 10.074588814 -55.53113373 0 7.8392999468 -53.703536826 
0 6.3171775955 -52.412767566 0 4.907624395 -51.190915529 0 3.475494128 -49.777717797 
0 1.9448414679 -48.463269629 0 0.42760254797 -47.46064027 0 -0.60469926376 -46.483828937 
0 -1.4899894339 -45.481796005 0 -2.4598906973 -44.663984096 0 -3.3944941754 -44.233550147 
0 -3.9834529045 -43.740058972 0 -4.4694527103 -43.017621212 0 -4.8640113894 -43.044034599 
0 -4.3228517297 -42.91225186 0 -4.4597862921 -43.229505422 0 -3.9813732166 -43.79446671 
0 -3.2446860156 -44.360374168 0 -2.5132213724 -44.93658066 0 -1.6340441593 -45.756039368 
0 -0.47346791299 -46.571445862 0 0.76201488842 -47.68526041 0 4.7037548396 -50.58986901 
0 6.8970583697 -52.837809899 0 9.1209521078 -54.783934379 0 11.386522362 -56.713679129 
0 16.023550622 -59.915001646 0 17.619053898 -61.920723485 0 20.080107546 -63.930626983 
0 35.180512092 -75.528805672 0 41.924925534 -81.289097315 0 -3.3783928498 -42.824441227 
0 -3.6312658376 -42.380413148 0 3.9308632871 -48.839102588 0 25.401890561 -66.519144476 
0 28.428837438 -68.998148035 0 30.850617448 -71.048553185 0 33.461670705 -73.141840725 
0 37.310927305 -76.335348473 0 38.196961689 -77.466500229 0 39.959802095 -78.685530785 
0 41.551740259 -80.312387656 0 43.212994569 -81.631296824 0 44.492332616 -82.740637016 
0 45.507472652 -83.606377183 0 46.496993798 -84.47695571 0 47.062674141 -84.994754515 
0 47.923560558 -85.724357775 0 48.680529904 -86.351167673 0 49.321772753 -86.888806749 
0 49.530881153 -87.090504165 0 49.629951264 -87.312928709 0 49.56311101 -86.7040842 
0 49.318781204 -86.869813733 0 48.862430466 -86.458650897 0 48.359596575 -86.007419957 
0 47.745223902 -85.483964827 0 46.741546737 -84.755557719 0 45.956374391 -84.107016348 
0 44.59354281 -82.933316233 0 43.33539127 -81.8857218 0 40.876040769 -79.241862351 
0 39.843248816 -78.73418422 0 38.062973453 -77.237399413 0 36.170639111 -75.649409389 
0 33.982601082 -73.858449082 0 31.485714538 -72.06442196 0 29.787880506 -70.638471603 
0 26.74065132 -67.595155267 0 23.719448963 -65.037502144 0 20.019726588 -61.510050149 
0 17.304256967 -59.538857289 0 14.672317139 -57.316014058 0 12.333174811 -55.347052255 
0 9.9950786457 -53.140010554 0 8.0798375338 -51.662176689 0 6.5052510377 -50.287376688 
0 5.4195242925 -49.401115635 0 3.5045285912 -47.903678049 0 2.0958627669 -46.675145042 
0 0.94597204289 -45.596038321 0 0.20736350612 -44.996546389 0 -1.0147035911 -44.034212306 
0 -1.5554878884 -43.241427778 0 -2.3606878052 -42.839267167 0 -2.4993991945 -42.070363681 
0 -3.1683210432 -42.151300905 0 -2.4066991122 -42.046724724 0 -2.4201168669 -42.463721724 
0 -1.7921494335 -43.176889755 0 -1.0947678467 -43.835727082 0 -0.55370794026 -44.338045672 
0 0.6143140761 -45.434371613 0 1.8894237172 -46.460552925 0 3.1209387876 -47.539334658 
0 6.1225194167 -49.565881399 0 6.7855114438 -50.506539612 0 8.5368179726 -52.019677675 
0 10.401311738 -53.640300962 0 12.512481187 -55.521234366 0 14.415043816 -57.431763473 
0 20.263859675 -62.048039047 0 22.840945594 -64.235038557 0 25.274706978 -64.696056389 
0 36.113301488 -74.061949625 0 37.395690904 -75.412160123 0 41.923915203 -78.66531362 
0 49.902127877 -85.910345223 0 45.47706606 -81.965200187 0 43.737966366 -80.544822172 
0 42.765928167 -79.958156504 0 34.442005324 -72.549866156 0 32.787586213 -71.292904089 
0 25.500237086 -64.787774615 0 22.520618971 -62.747138545 0 13.427762648 -54.619624753 
0 5.4536086877 -47.71927008 0 4.1628285422 -46.748516982 0 2.2327658976 -45.01916913 
0 0.82907515442 -43.827753346 0 -0.6659417832 -42.28936449 0 -1.5575974582 -42.069137568 
0 -1.5945097422 -41.574074857 0 -2.0123749079 -41.706812106 0 1.4237058497 -44.290284066 
0 2.8032171115 -45.567669667 0 4.3783116344 -46.930487076 0 5.1098147502 -47.798783143 
0 13.731521648 -54.863934816 0 14.956545171 -56.027237095 0 17.268573878 -58.302132469 
0 29.591439689 -67.918081195 0 30.924065136 -69.225999771 0 36.209892966 -73.136128919 
0 42.872969532 -78.958771442 0 43.446294989 -79.817459774 0 44.819725144 -80.913314895 
0 46.02461005 -82.097312808 0 46.700773813 -82.698992769 0 47.829982201 -83.645237832 
0 48.677131179 -84.209750002 0 49.33410171 -84.784929789 0 49.592320238 -85.040992959 
0 49.834387078 -85.029914488 0 49.338840689 -84.969703228 0 48.744209753 -84.214650657 
0 48.130003705 -83.703402347 0 47.039157955 -83.159527336 0 41.57447973 -77.946968529 
0 39.289280834 -76.3387699 0 36.926618721 -74.353752312 0 18.768142659 -58.687826335 
0 16.093382958 -56.592242406 0 11.927189815 -52.392646116 0 9.4475236298 -50.823934063 
0 8.3261206788 -49.893998149 0 0.12370992847 -42.513542681 0 0.49406054194 -43.241757892 
0 7.2881695597 -48.672009421 0 9.2380914242 -50.67895721 0 11.563436256 -52.690862474 
0 20.603579925 -59.855953691 0 22.846089277 -62.299073648 0 27.695452782 -65.590387774 
0 29.369514561 -66.839096284 0 32.254458001 -68.638085979 0 37.250538719 -73.192646639 
0 38.85985079 -74.832193575 0 40.765553081 -76.574031976 0 41.727711201 -77.425014862 
0 46.190429852 -80.515600205 0 47.567860019 -81.835019386 0 49.875029182 -83.734540995 
0 50.029421533 -84.16513047 0 49.921766075 -84.075293276 0 49.585009766 -83.674963816 
0 47.442709636 -81.795038581 0 45.978569934 -80.984937785 0 44.261806946 -79.569032576 
0 42.342569234 -77.618658997 0 40.350029987 -75.715232453 0 38.268322845 -73.939634875 
0 35.04448762 -71.365666234 0 32.398214871 -69.130331993 0 26.543333509 -63.868703177 
0 23.755845621 -61.955852722 0 21.393452852 -60.216019613 0 20.136929955 -58.977004683 
0 18.001438347 -56.602652098 0 15.05599213 -54.303534113 0 11.096583632 -50.50216991 
0 8.8220919622 -48.765181985 0 6.735711534 -47.177275046 0 4.8082624519 -45.80471094 
0 3.3453235262 -44.579324795 0 2.2786652979 -43.505952637 0 1.0110387736 -42.782550681 
0 0.44727678612 -42.144208594 0 0.14193951355 -41.683346312 0 -0.41426200107 -41.467331098 
0 -0.55110737237 -41.376542657 0 -0.51930980724 -41.446728585 0 -0.2815444261 -41.713476263 
0 -0.098104739631 -41.914500663 0 1.888042325 -42.696636015 0 2.5859795906 -43.589825511 
0 3.8095064224 -44.81493797 0 5.4208604523 -46.249574617 0 7.4980950384 -47.869228618 
0 9.6589023906 -49.515771809 0 11.741617806 -51.298019817 0 14.796621967 -54.076497589 
0 17.417829319 -56.517879211 0 23.134442065 -60.887104134 0 25.289032764 -63.064978588 
0 28.389351205 -64.493676125 0 33.835582365 -69.268973097 0 35.278135202 -70.829232573 
0 43.157205779 -77.209609033 0 44.692672653 -78.826443082 0 48.563414753 -81.884202236 
0 49.098380273 -82.646227957 0 48.913796915 -82.156433214 0 48.442786798 -82.046755644 
0 46.612555145 -79.97884557 0 45.129687136 -78.854548683 0 31.291264533 -67.217374492 
0 24.936546071 -61.501584399 0 22.392226931 -59.431634437 0 17.002756356 -54.524536157 
0 13.968979493 -52.272565528 0 6.3613123249 -45.621178173 0 5.1624076818 -44.765641929 
0 2.8946577353 -42.644872565 0 1.2059719515 -41.191645245 0 1.8632190054 -41.933897098 
0 21.532281083 -58.78836301 0 31.395540049 -66.45308496 0 37.091913193 -71.362273634 
0 39.190404221 -73.486211382 0 40.544855124 -74.618454059 0 46.179352476 -79.057983201 
0 47.524940015 -80.496115052 0 49.775603766 -82.171502058 0 49.940467924 -82.57992447 
0 49.874664311 -82.519084094 0 49.553275699 -82.270672955 0 49.089139737 -81.605689524 
0 47.807342577 -80.495570289 0 43.362114043 -76.654439973 0 41.2859384 -75.177259901 
0 39.393533759 -73.354541619 0 37.480682663 -71.91833101 0 35.504562478 -70.226246606 
0 33.51747905 -68.585063463 0 27.418250957 -63.607682928 0 20.251881408 -56.902092144 
0 12.54362608 -50.327482691 0 10.124265351 -48.562416778 0 8.8941046397 -47.527229007 
0 2.001857101 -41.649818718 0 1.5607400053 -41.297776021 0 1.3822656606 -41.121895833 
0 2.035408623 -41.372349016 0 3.2176082123 -42.357199368 0 3.8622706039 -43.178405268 
0 5.033896555 -44.218258972 0 6.3215081142 -45.323880114 0 8.0114437229 -46.781363718 
0 10.039463342 -48.504864115 0 12.069649622 -50.252712841 0 13.336838348 -51.317510833 
0 15.515085527 -53.153911995 0 17.800114846 -55.196492978 0 19.226870581 -56.436591315 
0 23.473696837 -59.70194332 0 25.751637758 -62.069494292 0 28.451491404 -63.287096514 
0 31.343402135 -65.655929807 0 34.383199483 -68.249853125 0 36.850674865 -70.363330772 
0 39.220710155 -72.27777742 0 41.512331681 -74.213137062 0 43.355712728 -75.893618406 
0 44.319925957 -76.832867426 0 45.798742964 -78.003118219 0 47.143106822 -79.012651692 
0 48.234202385 -80.129545482 0 49.070952481 -80.996736252 0 49.596370165 -81.272426764 
0 49.663157931 -81.170431735 0 49.360354611 -80.917376653 0 48.729585676 -80.525359079 
0 47.842495611 -79.758421892 0 46.665329088 -78.711784627 0 45.29064383 -77.65635704 
0 43.520059242 -76.032741152 0 41.371957969 -74.084087226 0 37.490897408 -70.582260487 
0 36.174073479 -69.664873927 0 33.835188368 -67.65221311 0 31.538614574 -65.786660459 
0 28.914491674 -63.530275859 0 26.072497323 -61.135200053 0 23.253244524 -58.834282701 
0 21.544155601 -57.253780175 0 18.133840019 -54.314376546 0 15.530237515 -52.237547022 
0 13.486055812 -50.382132598 0 11.512462027 -48.555642959 0 7.9439803707 -45.455234929 
0 6.0633609235 -44.138981646 0 4.73370199 -42.918641909 0 3.7209738614 -41.972876818 
0 3.1425134459 -41.414433624 0 2.9241660305 -41.245914054 0 2.6908983697 -41.158228162 
0 2.8829776143 -41.326810421 0 3.3602945973 -41.727579879 0 4.0236190174 -42.290994542 
0 5.0940304708 -43.068152855 0 6.3464144543 -44.145974675 0 7.6629213233 -45.306056453 
0 8.672441742 -46.171249667 0 11.08183569 -48.222788649 0 13.100085143 -49.948929464 
0 15.293253026 -51.809193003 0 17.91636091 -54.072525177 0 20.815100778 -56.733132824 
0 23.532537182 -58.977452974 0 25.858060317 -60.940046827 0 5.8853248379 -43.498596872 
0 29.904525175 -62.998410033 0 32.23830477 -64.997895067 0 35.183437198 -67.519593043 
0 36.328374676 -68.800958095 0 37.674171825 -69.638728053 0 41.997350987 -73.315374618 
0 43.073431283 -74.533982125 0 43.994379108 -75.034055171 0 44.861207851 -76.083222532 
0 46.175296969 -77.193039109 0 46.76161225 -77.384774362 0 47.418518425 -78.243203682 
0 47.86875414 -78.343057788 0 48.648726889 -79.025240418 0 49.087992532 -79.377834718 
0 48.741007593 -79.093596 0 47.308981031 -77.860894976 0 46.825519001 -77.740133299 
0 45.982536411 -76.724770759 0 45.424424821 -76.549550909 0 44.357827725 -75.348296741 
0 42.893509694 -74.098987992 0 40.754682683 -72.262238856 0 39.641478153 -71.758662954 
0 38.338415522 -70.347720341 0 33.441139171 -66.022675289 0 32.131954494 -65.209267072 
0 30.75579428 -63.735078942 0 27.141335846 -60.925725756 0 25.640923573 -59.358901904 
0 24.146759071 -58.383421447 0 22.677413311 -56.826388214 0 21.2506696 -55.904524212 
0 19.808307226 -54.375178375 0 17.978739627 -52.829425158 0 14.830248766 -50.122298623 
0 12.67532918 -48.266814369 0 10.914709523 -47.196532344 0 9.0551372669 -45.210073751 
0 7.892138971 -44.544349291 0 7.5457422494 -43.932079031 0 6.3146598952 -42.839921266 
0 5.5496180909 -42.169287831 0 4.8687401556 -41.604329838 0 4.6497516417 -41.438420031 
0 5.2728407202 -41.952190857 0 6.2058989656 -43.059788525 0 7.4777471119 -44.140407274 
0 8.4130554299 -44.643683168 0 8.8193239757 -45.290674446 0 10.136511024 -46.117912279 
0 10.623629935 -46.832275194 0 13.707817392 -49.168647681 0 16.648847073 -51.672365745 
0 17.683034938 -52.837366213 0 19.286449313 -53.911376788 0 20.311178722 -55.120121459 
0 24.125970485 -58.048330084 0 25.406375419 -59.446905635 0 7.7861706885 -84.820879931 
0 14.799867088 -77.794651715 0 16.42372657 -79.179966944 0 9.3700455121 -86.173636826 
0 11.399667081 -87.899724213 0 17.291806758 -79.914004273 0 12.91276234 -89.199402843 
0 20.004611008 -82.243211619 0 20.813794917 -82.934319967 0 14.854799964 -90.858059668 
0 16.350300204 -92.135337538 0 23.328247502 -85.078576705 0 24.81316958 -86.348514203 
0 17.821186375 -93.391593007 0 19.670872615 -94.960342089 0 25.607680071 -87.01605806 
0 21.00437931 -96.11029661 0 28.003440349 -89.070906684 0 28.709927863 -89.666473782 
0 22.692399141 -97.544171503 0 23.943598148 -98.620626651 0 30.829775367 -91.485486766 
0 32.029127067 -92.509829888 0 25.152078672 -99.652766525 0 26.63152915 -100.90184238 
0 32.667277962 -93.040368021 0 34.501690106 -94.62668092 0 27.65271149 -101.78850872 
0 35.375782265 -95.374849461 0 28.613061845 -102.6138081 0 29.795327884 -103.61847599 
0 36.543063428 -96.365095749 0 37.340138603 -97.045862261 0 30.618642827 -104.32165339 
0 31.575310995 -105.12313563 0 37.755101723 -97.384684685 0 38.846350802 -98.343021772 
0 32.182946989 -105.65769536 0 39.30957728 -98.73865456 0 32.716416619 -106.12405423 
0 39.478768113 -98.872424419 0 33.311522019 -106.62158949 0 39.888250645 -99.222155541 
0 40.206909762 -99.494352912 0 33.6660372 -106.92437406 0 33.994100635 -107.20181128 
0 40.348056716 -99.612148374 0 40.600923881 -99.830835986 0 34.135268304 -107.32513528 
0 40.622189536 -99.848998572 0 34.191743835 -107.37336994 0 40.619861956 -99.847010631 
0 34.135268304 -107.32513528 0 40.516126112 -99.7592918 0 40.423494662 -99.675435844 
0 33.930179406 -107.14523159 0 33.6660372 -106.92437406 0 39.982158833 -99.302360711 
0 39.591029634 -98.968304816 0 33.311522019 -106.62158949 0 32.717596207 -106.12267926 
0 39.310756868 -98.737279591 0 32.182946989 -105.65769536 0 38.336883303 -97.935707095 
0 38.1137615 -97.482426778 0 31.485760461 -104.79952551 0 30.618642827 -104.32165339 
0 36.759259579 -96.549744706 0 35.888239989 -95.806963692 0 29.795327884 -103.61847599 
0 28.61452188 -102.6121263 0 35.37747187 -95.372880415 0 27.65271149 -101.78850872 
0 33.641684544 -93.906865885 0 32.78447165 -92.909062932 0 26.615265858 -100.92222824 
0 25.152078672 -99.652766525 0 31.146483504 -91.755981068 0 29.899495561 -90.691359893 
0 23.943598148 -98.620626651 0 22.289264325 -97.21187119 0 29.183742792 -90.084228383 
0 26.86806683 -88.119671907 0 21.00437931 -96.11029661 0 25.593112047 -87.033205752 
0 19.656680301 -94.977056801 0 17.821186375 -93.391593007 0 23.713568761 -85.40767215 
0 22.22052691 -84.132493943 0 16.350300204 -92.135337538 0 14.40221701 -90.453064625 
0 21.383936469 -83.399525523 0 18.712912066 -81.147372321 0 12.91276234 -89.199402843 
0 17.283401111 -79.924022285 0 11.390817001 -87.910203193 0 9.3700455121 -86.173636826 
0 15.214991629 -78.149201568 0 13.628710531 -76.794389521 0 7.7861706885 -84.820879931 
0 5.783040628 -83.110045236 0 11.625580471 -75.083554825 0 10.003293182 -73.696398795 
0 4.1991658044 -81.757288341 0 2.1768266527 -80.022674339 0 9.1424954104 -72.953834852 
0 0.65644897613 -78.731522323 0 6.4176635957 -70.638707284 0 5.6084796862 -69.947598935 
0 -1.2855886477 -77.072865498 0 -2.7810888871 -75.795587629 0 3.0972000567 -67.799629835 
0 1.6106046053 -66.531651605 0 -4.2519750584 -74.539332159 0 -6.0900857884 -72.957026052 
0 0.82766962344 -65.850550724 0 -7.4351679929 -71.820628556 0 -1.5821980792 -63.812365858 
0 -2.2809517543 -63.207743598 0 -9.1154539861 -70.377698502 0 -10.374386832 -69.310298516 
0 -4.404327808 -61.392719775 0 -5.6036795082 -60.368376652 0 -11.582867355 -68.278158641 
0 -13.050037144 -67.013104689 0 -6.2295497135 -59.821860425 0 -8.0812626674 -58.257403426 
0 -14.083500174 -66.14241645 0 -8.9569581515 -57.511112137 0 -15.048870648 -65.322994869 
0 -16.226116567 -64.312449172 0 -10.117615869 -56.513110791 0 -10.914691044 -55.832344279 
0 -17.04943151 -63.609271781 0 -17.99070205 -62.789761231 0 -11.314256536 -55.475493548 
0 -12.431503869 -54.547596505 0 -18.613735673 -62.273229809 0 -12.894730347 -54.151963718 
0 -19.157805928 -61.819282676 0 -13.053320555 -54.005782121 0 -19.742312221 -61.309334378 
0 -13.462804605 -53.656049702 0 -13.781498525 -53.383896155 0 -20.096827403 -61.006549808 
0 -20.422167817 -60.725927419 0 -13.919923978 -53.262914224 0 -14.175476322 -53.047370554 
0 -20.566056988 -60.605789883 0 -20.622532518 -60.557555223 0 -14.196741978 -53.029207968 
0 -14.194414397 -53.03119591 0 -20.566056988 -60.605789883 0 -14.09154767 -53.119932345 
0 -13.994233369 -53.198305387 0 -20.356285239 -60.780210659 0 -20.096825884 -61.006551105 
0 -13.556711275 -53.57584583 0 -13.165582076 -53.909901724 0 -19.742310702 -61.309335675 
0 -19.156632416 -61.817902519 0 -12.893556834 -54.15058356 0 -18.613735673 -62.273229809 
0 -11.949505635 -54.98707356 0 -11.466902012 -55.1365397 0 -17.657067324 -62.827585475 
0 -17.04943151 -63.609271781 0 -10.33381202 -56.328461834 0 -9.4639183896 -57.072561177 
0 -16.226116567 -64.312449172 0 -15.047437952 -65.321289719 0 -8.95527766 -57.509135308 
0 -14.083500174 -66.14241645 0 -7.2357752397 -58.994217013 0 -6.1161592572 -59.684785422 
0 -13.065592796 -67.031573282 0 -11.582867355 -68.278158641 0 -4.7210359449 -61.122225472 
0 -3.4744501308 -62.18731748 0 -10.374386832 -69.310298516 0 -8.7241806621 -70.723886838 
0 -2.7628250162 -62.799281851 0 -0.4602039601 -64.779123658 0 -7.4351679929 -71.820628556 
0 0.81233286363 -65.86842088 0 -6.1050536724 -72.97445739 0 -4.2519750584 -74.539332159 
0 2.7118787973 -67.47053439 0 4.2049206485 -68.745712598 0 -2.7810888871 -75.795587629 
0 -0.81478019337 -77.456521223 0 5.0597365893 -69.4573417 0 7.7020023214 -71.743166979 
0 0.65644897613 -78.731522323 0 9.1339156698 -72.963704173 0 2.1678611439 -80.033054732 
0 4.1991658044 -81.757288341 0 11.21045593 -74.729004973 0 12.796737027 -76.08381702 
0 5.783040628 -83.110045236 0 11.625580471 -75.083554825 0 10.00367895 -73.695887723 
0 6.4305840746 -70.62815606 0 3.0972000567 -67.799629835 0 1.6102357295 -66.532090423 
0 -1.5783586181 -63.810504583 0 -4.404327808 -61.392719775 0 -5.4747334006 -60.212833056 
0 -8.0798299715 -58.255698275 0 -10.117615869 -56.513110791 0 -10.786707401 -55.678936344 
0 -12.430330357 -54.546216348 0 -13.053320555 -54.005782121 0 -13.462803086 -53.656051 
0 -13.779236902 -53.381049766 0 -14.175476322 -53.047370554 0 -14.194414397 -53.03119591 
0 -14.089896648 -53.117707075 0 -13.556712794 -53.575844533 0 -13.165582076 -53.909901724 
0 -11.923080195 -54.955509021 0 -10.33381202 -56.328461834 0 -9.4641661852 -57.072832856 
0 -7.2202195885 -58.975748419 0 -4.7210359449 -61.122225472 0 -3.4692593652 -62.18351343 
0 -0.44523607609 -64.76169232 0 2.7118787973 -67.47053439 0 4.2049206485 -68.745712598 
0 7.7109678302 -71.732786585 0 11.21045593 -74.729004973 0 12.796737027 -76.08381702 
0 14.799867088 -77.794651715 0 16.424171002 -79.179505976 0 20.013088984 -82.228711163 
0 23.328247502 -85.078576705 0 24.81279387 -86.348947184 0 27.999678523 -89.072534819 
0 30.829775367 -91.485486766 0 32.162584048 -92.358138942 0 34.503150141 -94.624999118 
0 36.543063428 -96.365095749 0 37.471636779 -96.89545602 0 38.84753039 -98.341646803 
0 39.478768113 -98.872424419 0 39.888250645 -99.222155541 0 40.209367311 -99.49167386 
0 40.600923881 -99.830835986 0 40.619861956 -99.847010631 0 40.518065709 -99.757312997 
0 39.982158833 -99.302360711 0 39.591029634 -98.968304816 0 38.363925382 -97.904669213 
0 36.759259579 -96.549744706 0 35.888010419 -95.807250937 0 33.657947837 -93.886480027 
0 31.146483504 -91.755981068 0 29.902440762 -90.685637949 0 26.882259144 -88.102957196 
0 23.713568761 -85.40767215 0 22.22052691 -84.132493943 0 18.721762145 -81.136893341 
0 15.214991629 -78.149201568 0 13.628710531 -76.794389521 0 -6.7996683505 -85.37988737 
0 -5.63812697 -86.371937429 0 -4.4885674553 -87.353754007 0 -3.355713741 -88.321302484 
0 -2.244220988 -89.270606976 0 -1.1586560762 -90.197767 0 -0.10348032801 -91.098972226 
0 0.91697004634 -91.970519182 0 1.8985023644 -92.808826977 0 2.8370834192 -93.610450927 
0 3.7288558062 -94.372096499 0 4.5701553897 -95.090634224 0 5.357525352 -95.763111701 
0 6.0877294831 -96.386764946 0 6.7577673685 -96.959031362 0 7.3648861602 -97.477559796 
0 7.9065912083 -97.940219615 0 8.3806559335 -98.34510914 0 8.7851324585 -98.690564728 
0 9.1183584428 -98.975166605 0 9.3789654363 -99.197746005 0 9.5658819164 -99.35738776 
0 9.678339364 -99.453435494 0 9.7158768195 -99.48549551 0 9.678339364 -99.453435494 
0 9.5658819164 -99.35738776 0 9.3789654363 -99.197746005 0 9.1183584428 -98.975166605 
0 8.7851324585 -98.690564728 0 8.3806559335 -98.34510914 0 7.9065912083 -97.940219615 
0 7.3648861602 -97.477559796 0 6.7577673685 -96.959031362 0 6.0877294831 -96.386764946 
0 5.357525352 -95.763111701 0 4.5701553897 -95.090634224 0 3.7288558062 -94.372096499 
0 2.8370834192 -93.610450927 0 1.8985023644 -92.808826977 0 0.91697004634 -91.970519182 
0 -0.10348032801 -91.098972226 0 -1.1586560762 -90.197767 0 -2.244220988 -89.270606976 
0 -3.355713741 -88.321302484 0 -4.4885674553 -87.353754007 0 -5.63812697 -86.371937429 
0 -6.7996683505 -85.37988737 0 -7.9684186331 -84.381680328 0 -9.1395751896 -83.381418133 
0 -10.308325472 -82.383211091 0 -11.469866853 -81.391161032 0 -12.619426367 -80.409344454 
0 -13.752280082 -79.441795977 0 -14.863772835 -78.492491485 0 -15.949337746 -77.565331461 
0 -17.004513495 -76.664126234 0 -18.024963869 -75.792579279 0 -19.006496187 -74.954271484 
0 -19.945077242 -74.152647533 0 -20.836849629 -73.391001962 0 -21.678149212 -72.672464237 
0 -22.465519175 -71.99998676 0 -23.195723306 -71.376333515 0 -23.865761191 -70.804067099 
0 -24.472879983 -70.285538665 0 -25.014585031 -69.822878846 0 -25.488649756 -69.417989321 
0 -25.893126281 -69.072533733 0 -26.226352265 -68.787931856 0 -26.486959259 -68.565352456 
0 -26.673875739 -68.405710701 0 -26.786333187 -68.309662967 0 -26.823870642 -68.277602951 
0 -26.786333187 -68.309662967 0 -26.673875739 -68.405710701 0 -25.893126281 -69.072533733 
0 -25.488649756 -69.417989321 0 -25.014585031 -69.822878846 0 -24.472879983 -70.285538665 
0 -23.865761191 -70.804067099 0 -23.195723306 -71.376333515 0 -22.465519175 -71.99998676 
0 -21.678149212 -72.672464237 0 -20.836849629 -73.391001962 0 -19.945077242 -74.152647533 
0 -19.006496187 -74.954271484 0 -18.024963869 -75.792579279 0 -17.004513495 -76.664126234 
0 -15.949337746 -77.565331461 0 -14.863772835 -78.492491485 0 -13.752280082 -79.441795977 
0 -12.619426367 -80.409344454 0 -11.469866853 -81.391161032 0 -10.308325472 -82.383211091 
0 -9.1395751896 -83.381418133 0 -7.9684186331 -84.381680328 
