# vtk DataFile Version 4.2
Generated by LIGGGHTS
ASCII
DATASET POLYDATA
POINTS 17232 float
-5.88785 -2.33709 18.1103 5.88488 -2.15545 18.1539 5.86119 -1.79288 18.241 
5.86119 -1.79288 18.241 5.81389 -1.43251 18.3275 -5.88785 -2.33709 18.1103 
5.81389 -1.43251 18.3275 5.74318 -1.07578 18.4131 -5.88785 -2.33709 18.1103 
5.74318 -1.07578 18.4131 5.64935 -0.724129 18.4975 -5.88785 -2.33709 18.1103 
5.64935 -0.724129 18.4975 5.53277 -0.378972 18.5804 -5.88785 -2.33709 18.1103 
5.53277 -0.378972 18.5804 5.39391 -0.0417005 18.6614 -5.88785 -2.33709 18.1103 
5.39391 -0.0417005 18.6614 5.23333 0.286328 18.7401 -5.88785 -2.33709 18.1103 
5.23333 0.286328 18.7401 5.05167 0.603794 18.8163 -5.88785 -2.33709 18.1103 
5.05167 0.603794 18.8163 4.84968 0.909417 18.8897 -5.88785 -2.33709 18.1103 
4.84968 0.909417 18.8897 4.62816 1.20197 18.96 -5.88785 -2.33709 18.1103 
4.62816 1.20197 18.96 4.388 1.48027 19.0268 -5.88785 -2.33709 18.1103 
4.388 1.48027 19.0268 4.13018 1.7432 19.0899 -5.88785 -2.33709 18.1103 
4.13018 1.7432 19.0899 3.85572 1.9897 19.1491 -5.88785 -2.33709 18.1103 
3.85572 1.9897 19.1491 3.56574 2.21877 19.2041 -5.88785 -2.33709 18.1103 
3.56574 2.21877 19.2041 3.2614 2.42951 19.2547 -5.88785 -2.33709 18.1103 
3.2614 2.42951 19.2547 2.94392 2.62104 19.3006 -5.88785 -2.33709 18.1103 
2.94392 2.62104 19.3006 2.6146 2.79262 19.3418 -5.88785 -2.33709 18.1103 
2.6146 2.79262 19.3418 2.27474 2.94354 19.3781 -5.88785 -2.33709 18.1103 
2.27474 2.94354 19.3781 1.92573 3.07319 19.4092 -5.88785 -2.33709 18.1103 
1.92573 3.07319 19.4092 1.56896 3.18106 19.4351 -5.88785 -2.33709 18.1103 
1.56896 3.18106 19.4351 1.20587 3.26671 19.4557 -5.88785 -2.33709 18.1103 
1.20587 3.26671 19.4557 0.837928 3.3298 19.4708 -5.88785 -2.33709 18.1103 
0.837928 3.3298 19.4708 0.466612 3.37006 19.4805 -5.88785 -2.33709 18.1103 
0.466612 3.37006 19.4805 0.0934164 3.38735 19.4846 -5.88785 -2.33709 18.1103 
0.0934164 3.38735 19.4846 -0.280155 3.38159 19.4832 -5.88785 -2.33709 18.1103 
-0.280155 3.38159 19.4832 -0.652598 3.3528 19.4763 -5.88785 -2.33709 18.1103 
-0.652598 3.3528 19.4763 -1.02241 3.30109 19.4639 -5.88785 -2.33709 18.1103 
-1.02241 3.30109 19.4639 -1.38811 3.22669 19.446 -5.88785 -2.33709 18.1103 
-1.38811 3.22669 19.446 -1.74822 3.12988 19.4228 -5.88785 -2.33709 18.1103 
-1.74822 3.12988 19.4228 -2.10129 3.01106 19.3943 -5.88785 -2.33709 18.1103 
-2.10129 3.01106 19.3943 -2.4459 2.8707 19.3606 -5.88785 -2.33709 18.1103 
-2.4459 2.8707 19.3606 -2.78066 2.70937 19.3218 -5.88785 -2.33709 18.1103 
-2.78066 2.70937 19.3218 -3.10422 2.52772 19.2782 -5.88785 -2.33709 18.1103 
-3.10422 2.52772 19.2782 -3.41529 2.32649 19.2299 -5.88785 -2.33709 18.1103 
-3.41529 2.32649 19.2299 -3.7126 2.10647 19.1771 -5.88785 -2.33709 18.1103 
-3.7126 2.10647 19.1771 -3.99496 1.86856 19.12 -5.88785 -2.33709 18.1103 
-3.99496 1.86856 19.12 -4.26124 1.61372 19.0588 -5.88785 -2.33709 18.1103 
-4.26124 1.61372 19.0588 -4.51035 1.34297 18.9938 -5.88785 -2.33709 18.1103 
-4.51035 1.34297 18.9938 -4.74131 1.0574 18.9252 -5.88785 -2.33709 18.1103 
-4.74131 1.0574 18.9252 -4.95317 0.758164 18.8534 -5.88785 -2.33709 18.1103 
-4.95317 0.758164 18.8534 -5.14509 0.446462 18.7786 -5.88785 -2.33709 18.1103 
-5.14509 0.446462 18.7786 -5.31629 0.123553 18.701 -5.88785 -2.33709 18.1103 
-5.31629 0.123553 18.701 -5.46609 -0.209265 18.6211 -5.88785 -2.33709 18.1103 
-5.46609 -0.209265 18.6211 -5.59387 -0.550651 18.5392 -5.88785 -2.33709 18.1103 
-5.59387 -0.550651 18.5392 -5.69913 -0.89923 18.4555 -5.88785 -2.33709 18.1103 
-5.69913 -0.89923 18.4555 -5.78145 -1.2536 18.3704 -5.88785 -2.33709 18.1103 
-5.78145 -1.2536 18.3704 -5.84048 -1.61233 18.2843 -5.88785 -2.33709 18.1103 
-5.84048 -1.61233 18.2843 -5.87599 -1.97398 18.1975 -5.88785 -2.33709 18.1103 
-5.87599 -2.70021 18.0231 -5.84048 -3.06186 17.9363 -5.88785 -2.33709 18.1103 
-5.84048 -3.06186 17.9363 -5.78145 -3.42059 17.8502 -5.88785 -2.33709 18.1103 
-5.78145 -3.42059 17.8502 -5.69913 -3.77496 17.7651 -5.88785 -2.33709 18.1103 
-5.69913 -3.77496 17.7651 -5.59387 -4.12354 17.6814 -5.88785 -2.33709 18.1103 
-5.59387 -4.12354 17.6814 -5.46609 -4.46492 17.5995 -5.88785 -2.33709 18.1103 
-5.46609 -4.46492 17.5995 -5.31629 -4.79774 17.5195 -5.88785 -2.33709 18.1103 
-5.31629 -4.79774 17.5195 -5.14509 -5.12065 17.442 -5.88785 -2.33709 18.1103 
-5.14509 -5.12065 17.442 -4.95317 -5.43235 17.3672 -5.88785 -2.33709 18.1103 
-4.95317 -5.43235 17.3672 -4.74131 -5.73159 17.2954 -5.88785 -2.33709 18.1103 
-4.74131 -5.73159 17.2954 -4.51035 -6.01716 17.2268 -5.88785 -2.33709 18.1103 
-4.51035 -6.01716 17.2268 -4.26124 -6.28791 17.1618 -5.88785 -2.33709 18.1103 
-4.26124 -6.28791 17.1618 -3.99496 -6.54275 17.1006 -5.88785 -2.33709 18.1103 
-3.99496 -6.54275 17.1006 -3.7126 -6.78066 17.0435 -5.88785 -2.33709 18.1103 
-3.7126 -6.78066 17.0435 -3.41529 -7.00068 16.9907 -5.88785 -2.33709 18.1103 
-3.41529 -7.00068 16.9907 -3.10422 -7.20191 16.9424 -5.88785 -2.33709 18.1103 
-3.10422 -7.20191 16.9424 -2.78066 -7.38356 16.8987 -5.88785 -2.33709 18.1103 
-2.78066 -7.38356 16.8987 -2.4459 -7.54489 16.86 -5.88785 -2.33709 18.1103 
-2.4459 -7.54489 16.86 -2.10129 -7.68524 16.8263 -5.88785 -2.33709 18.1103 
-2.10129 -7.68524 16.8263 -1.74822 -7.80407 16.7978 -5.88785 -2.33709 18.1103 
-1.74822 -7.80407 16.7978 -1.38811 -7.90088 16.7746 -5.88785 -2.33709 18.1103 
-1.38811 -7.90088 16.7746 -1.02241 -7.97528 16.7567 -5.88785 -2.33709 18.1103 
-1.02241 -7.97528 16.7567 -0.652598 -8.02698 16.7443 -5.88785 -2.33709 18.1103 
-0.652598 -8.02698 16.7443 -0.280155 -8.05577 16.7374 -5.88785 -2.33709 18.1103 
-0.280155 -8.05577 16.7374 0.0934164 -8.06154 16.736 -5.88785 -2.33709 18.1103 
0.0934164 -8.06154 16.736 0.466612 -8.04425 16.7401 -5.88785 -2.33709 18.1103 
0.466612 -8.04425 16.7401 0.837928 -8.00399 16.7498 -5.88785 -2.33709 18.1103 
0.837928 -8.00399 16.7498 1.20587 -7.9409 16.7649 -5.88785 -2.33709 18.1103 
1.20587 -7.9409 16.7649 1.56896 -7.85525 16.7855 -5.88785 -2.33709 18.1103 
1.56896 -7.85525 16.7855 1.92573 -7.74738 16.8114 -5.88785 -2.33709 18.1103 
1.92573 -7.74738 16.8114 2.27474 -7.61772 16.8425 -5.88785 -2.33709 18.1103 
2.27474 -7.61772 16.8425 2.6146 -7.46681 16.8788 -5.88785 -2.33709 18.1103 
2.6146 -7.46681 16.8788 2.94392 -7.29523 16.92 -5.88785 -2.33709 18.1103 
2.94392 -7.29523 16.92 3.2614 -7.10369 16.9659 -5.88785 -2.33709 18.1103 
3.2614 -7.10369 16.9659 3.56574 -6.89296 17.0165 -5.88785 -2.33709 18.1103 
3.56574 -6.89296 17.0165 3.85572 -6.66389 17.0715 -5.88785 -2.33709 18.1103 
3.85572 -6.66389 17.0715 4.13018 -6.41739 17.1307 -5.88785 -2.33709 18.1103 
4.13018 -6.41739 17.1307 4.388 -6.15446 17.1938 -5.88785 -2.33709 18.1103 
4.388 -6.15446 17.1938 4.62816 -5.87616 17.2606 -5.88785 -2.33709 18.1103 
4.62816 -5.87616 17.2606 4.84968 -5.58361 17.3309 -5.88785 -2.33709 18.1103 
4.84968 -5.58361 17.3309 5.05167 -5.27798 17.4043 -5.88785 -2.33709 18.1103 
5.05167 -5.27798 17.4043 5.23333 -4.96052 17.4805 -5.88785 -2.33709 18.1103 
5.23333 -4.96052 17.4805 5.39391 -4.63249 17.5592 -5.88785 -2.33709 18.1103 
5.39391 -4.63249 17.5592 5.53277 -4.29522 17.6402 -5.88785 -2.33709 18.1103 
5.53277 -4.29522 17.6402 5.64935 -3.95006 17.7231 -5.88785 -2.33709 18.1103 
5.64935 -3.95006 17.7231 5.74318 -3.59841 17.8075 -5.88785 -2.33709 18.1103 
5.74318 -3.59841 17.8075 5.81389 -3.24168 17.8931 -5.88785 -2.33709 18.1103 
5.81389 -3.24168 17.8931 5.86119 -2.88131 17.9796 -5.88785 -2.33709 18.1103 
5.86119 -2.88131 17.9796 5.88488 -2.51874 18.0667 -5.88785 -2.33709 18.1103 
5.88488 -2.51874 18.0667 5.88785 -2.33709 18.1103 -5.88785 -2.33709 18.1103 
5.88785 -2.33709 18.1103 5.88488 -2.15545 18.1539 -5.88785 -2.33709 18.1103 
-5.88785 -2.33709 18.1103 -5.87599 -1.97398 18.1975 -5.88192 -0.924238 13.3569 
-5.87599 -1.97398 18.1975 -5.87599 -0.817984 13.3824 -5.88192 -0.924238 13.3569 
-5.84048 -1.61233 18.2843 -5.84048 -0.456334 13.4692 -5.86414 -0.667897 13.4184 
-5.86414 -0.667897 13.4184 -5.87599 -1.97398 18.1975 -5.84048 -1.61233 18.2843 
-5.84048 -1.61233 18.2843 -5.78145 -1.2536 18.3704 -5.78884 -0.133049 13.5508 
-5.78884 -0.133049 13.5508 -5.83456 -0.412589 13.4797 -5.84048 -1.61233 18.2843 
-5.78145 -1.2536 18.3704 -5.69913 -0.89923 18.4555 -5.74023 0.0928723 13.6011 
-5.69913 -0.89923 18.4555 -5.68561 0.308968 13.6552 -5.74023 0.0928723 13.6011 
-5.69913 -0.89923 18.4555 -5.59737 0.596181 13.7197 -5.68561 0.308968 13.6552 
-5.59737 0.596181 13.7197 -5.69913 -0.89923 18.4555 -5.59387 -0.550651 18.5392 
-5.59387 -0.550651 18.5392 -5.46609 -0.209265 18.6211 -5.51241 0.830582 13.7782 
-5.46609 -0.209265 18.6211 -5.46609 0.946732 13.8061 -5.51241 0.830582 13.7782 
-5.31629 0.123553 18.701 -5.31011 1.31472 13.7977 -5.41404 1.06904 13.8354 
-5.41404 1.06904 13.8354 -5.46609 -0.209265 18.6211 -5.31629 0.123553 18.701 
-5.31629 0.123553 18.701 -5.14509 0.446462 18.7786 -5.16928 1.55973 13.9599 
-5.16928 1.55973 13.9599 -5.31011 1.31472 13.7977 -5.31629 0.123553 18.701 
-4.95317 0.758164 18.8534 -4.93126 1.94882 14.0443 -5.05441 1.75534 14.0002 
-5.05441 1.75534 14.0002 -5.14509 0.446462 18.7786 -4.95317 0.758164 18.8534 
-4.74131 1.0574 18.9252 -4.76337 2.18407 14.1031 -4.93126 1.94882 14.0443 
-4.93126 1.94882 14.0443 -4.95317 0.758164 18.8534 -4.74131 1.0574 18.9252 
-4.74131 1.0574 18.9252 -4.74131 2.2134 14.1102 -4.76337 2.18407 14.1031 
-4.74131 1.0574 18.9252 -4.51035 1.34297 18.9938 -4.6033 2.38849 14.1522 
-4.51035 1.34297 18.9938 -4.51035 2.49897 14.1787 -4.6033 2.38849 14.1522 
-4.26124 1.61372 19.0588 -4.25814 2.79548 14.1502 -4.43397 2.58571 14.1996 
-4.43397 2.58571 14.1996 -4.51035 1.34297 18.9938 -4.26124 1.61372 19.0588 
-4.26124 1.61372 19.0588 -3.99496 1.86856 19.12 -4.06887 2.95702 14.2887 
-4.06887 2.95702 14.2887 -4.25814 2.79548 14.1502 -4.26124 1.61372 19.0588 
-3.99496 1.86856 19.12 -3.99496 3.02456 14.3049 -4.06887 2.95702 14.2887 
-3.7126 2.10647 19.1771 -3.68989 3.28159 14.3641 -3.87384 3.13036 14.3303 
-3.87384 3.13036 14.3303 -3.99496 1.86856 19.12 -3.7126 2.10647 19.1771 
-3.7126 2.10647 19.1771 -3.41529 2.32649 19.2299 -3.44125 3.46475 14.4122 
-3.44125 3.46475 14.4122 -3.68989 3.28159 14.3641 -3.7126 2.10647 19.1771 
-3.41529 2.32649 19.2299 -3.10422 2.52772 19.2782 -3.2436 3.59697 14.4423 
-3.10422 2.52772 19.2782 -3.10422 3.68372 14.4632 -3.2436 3.59697 14.4423 
-3.10422 2.52772 19.2782 -2.78606 3.86317 14.5041 -3.01987 3.73366 14.4752 
-2.78606 3.86317 14.5041 -3.10422 2.52772 19.2782 -2.78066 2.70937 19.3218 
-3.01987 3.73366 14.4752 -3.10422 3.68372 14.4632 -3.10422 2.52772 19.2782 
-2.78066 2.70937 19.3218 -2.4459 2.8707 19.3606 -2.55464 3.9771 14.5336 
-2.4459 2.8707 19.3606 -2.4459 4.0267 14.5455 -2.55464 3.9771 14.5336 
-2.10129 3.01106 19.3943 -2.08415 4.17362 14.5815 -2.31407 4.08335 14.5591 
-2.31407 4.08335 14.5591 -2.4459 2.8707 19.3606 -2.10129 3.01106 19.3943 
-2.10129 3.01106 19.3943 -1.74822 3.12988 19.4228 -1.78965 4.27286 14.6092 
-1.78965 4.27286 14.6092 -2.08415 4.17362 14.5815 -2.10129 3.01106 19.3943 
-1.74822 3.12988 19.4228 -1.38811 3.22669 19.446 -1.56638 4.33775 14.6202 
-1.38811 3.22669 19.446 -1.34266 4.39328 14.6364 -1.56638 4.33775 14.6202 
-1.02241 3.30109 19.4639 -1.03773 4.45469 14.6486 -1.34266 4.39328 14.6364 
-1.34266 4.39328 14.6364 -1.38811 3.22669 19.446 -1.02241 3.30109 19.4639 
-1.02241 3.30109 19.4639 -0.652598 3.3528 19.4763 -0.790345 4.49225 14.6573 
-0.652598 3.3528 19.4763 -0.652598 4.50879 14.6612 -0.790345 4.49225 14.6573 
-0.280155 3.38159 19.4832 -0.271477 4.56199 14.5682 -0.527782 4.52102 14.6642 
-0.527782 4.52102 14.6642 -0.652598 3.3528 19.4763 -0.280155 3.38159 19.4832 
-0.280155 3.38159 19.4832 0.0934164 3.38735 19.4846 -2.66454e-10 4.54407 14.6697 
-2.66454e-10 4.54407 14.6697 -0.271477 4.56199 14.5682 -0.280155 3.38159 19.4832 
0.0934164 3.38735 19.4846 0.0934164 4.54335 14.6695 -2.66454e-10 4.54407 14.6697 
0.466612 3.37006 19.4805 0.501291 4.52423 14.6635 0.264157 4.5383 14.6683 
0.264157 4.5383 14.6683 0.0934164 3.38735 19.4846 0.466612 3.37006 19.4805 
0.837928 3.3298 19.4708 0.811957 4.49014 14.6556 0.501291 4.52423 14.6635 
0.501291 4.52423 14.6635 0.466612 3.37006 19.4805 0.837928 3.3298 19.4708 
0.837928 3.3298 19.4708 1.20587 3.26671 19.4557 1.05132 4.45206 14.6476 
1.20587 3.26671 19.4557 1.20587 4.42271 14.6406 1.05132 4.45206 14.6476 
1.20587 3.26671 19.4557 1.56767 4.3374 14.6201 1.31017 4.40053 14.6353 
1.56767 4.3374 14.6201 1.20587 3.26671 19.4557 1.56896 3.18106 19.4351 
1.31017 4.40053 14.6353 1.20587 4.42271 14.6406 1.20587 3.26671 19.4557 
1.56896 3.18106 19.4351 1.92573 3.07319 19.4092 1.81944 4.26386 14.6024 
1.92573 3.07319 19.4092 1.92573 4.22919 14.5941 1.81944 4.26386 14.6024 
2.27474 2.94354 19.3781 2.27474 4.09953 14.563 2.06884 4.179 14.5821 
2.06884 4.179 14.5821 1.92573 3.07319 19.4092 2.27474 2.94354 19.3781 
2.27474 2.94354 19.3781 2.6146 2.79262 19.3418 2.58085 3.96449 14.5349 
2.58085 3.96449 14.5349 2.31407 4.08335 14.5591 2.27474 2.94354 19.3781 
2.6146 2.79262 19.3418 2.94392 2.62104 19.3006 2.79007 3.86046 14.5056 
2.94392 2.62104 19.3006 2.99072 3.75182 14.4775 2.79007 3.86046 14.5056 
2.94392 2.62104 19.3006 3.2525 3.59124 14.441 2.99072 3.75182 14.4775 
3.2525 3.59124 14.441 2.94392 2.62104 19.3006 3.2614 2.42951 19.2547 
3.2614 2.42951 19.2547 3.56574 2.21877 19.2041 3.46079 3.45066 14.4072 
3.56574 2.21877 19.2041 3.56574 3.37477 14.389 3.46079 3.45066 14.4072 
3.85572 1.9897 19.1491 3.86585 3.16036 14.2367 3.67101 3.29502 14.3698 
3.67101 3.29502 14.3698 3.56574 2.21877 19.2041 3.85572 1.9897 19.1491 
3.85572 1.9897 19.1491 4.13018 1.7432 19.0899 4.09436 2.93262 14.2897 
4.09436 2.93262 14.2897 3.86585 3.16036 14.2367 3.85572 1.9897 19.1491 
4.388 1.48027 19.0268 4.41491 2.60758 14.2059 4.25571 2.77535 14.2451 
4.25571 2.77535 14.2451 4.13018 1.7432 19.0899 4.388 1.48027 19.0268 
4.62816 1.20197 18.96 4.61515 2.37451 14.1496 4.41491 2.60758 14.2059 
4.41491 2.60758 14.2059 4.388 1.48027 19.0268 4.62816 1.20197 18.96 
4.62816 1.20197 18.96 4.84968 0.909417 18.8897 4.76337 2.18407 14.1031 
4.84968 0.909417 18.8897 4.84968 2.06541 14.0746 4.76337 2.18407 14.1031 
5.05167 0.603794 18.8163 5.05311 1.75758 14.0007 4.91384 1.97288 14.0524 
4.91384 1.97288 14.0524 4.84968 0.909417 18.8897 5.05167 0.603794 18.8163 
5.05167 0.603794 18.8163 5.23333 0.286328 18.7401 5.18481 1.53188 13.9466 
5.18481 1.53188 13.9466 5.05311 1.75758 14.0007 5.05167 0.603794 18.8163 
5.23333 0.286328 18.7401 5.23333 1.44233 13.9251 5.18481 1.53188 13.9466 
5.39391 -0.0417005 18.6614 5.40553 1.08986 13.8393 5.30477 1.30296 13.8916 
5.30477 1.30296 13.8916 5.23333 0.286328 18.7401 5.39391 -0.0417005 18.6614 
5.39391 -0.0417005 18.6614 5.53277 -0.378972 18.5804 5.51241 0.830582 13.7782 
5.51241 0.830582 13.7782 5.40553 1.08986 13.8393 5.39391 -0.0417005 18.6614 
5.53277 -0.378972 18.5804 5.53277 0.777025 13.7653 5.51241 0.830582 13.7782 
5.53277 -0.378972 18.5804 5.64935 -0.724129 18.4975 5.59968 0.588077 13.72 
5.64935 -0.724129 18.4975 5.64935 0.431869 13.6825 5.59968 0.588077 13.72 
5.64935 -0.724129 18.4975 5.7417 0.0865448 13.5996 5.67567 0.342008 13.6609 
5.7417 0.0865448 13.5996 5.64935 -0.724129 18.4975 5.74318 -1.07578 18.4131 
5.67567 0.342008 13.6609 5.64935 0.431869 13.6825 5.64935 -0.724129 18.4975 
5.74318 -1.07578 18.4131 5.81389 -1.43251 18.3275 5.79323 -0.158829 13.5406 
5.81389 -1.43251 18.3275 5.81389 -0.276513 13.5124 5.79323 -0.158829 13.5406 
5.86119 -1.79288 18.241 5.86322 -0.632236 13.3293 5.83456 -0.412589 13.4797 
5.83456 -0.412589 13.4797 5.81389 -1.43251 18.3275 5.86119 -1.79288 18.241 
5.86119 -1.79288 18.241 5.88488 -2.15545 18.1539 5.88411 -0.957999 13.3515 
5.88411 -0.957999 13.3515 5.86322 -0.632236 13.3293 5.86119 -1.79288 18.241 
5.88488 -2.51874 18.0667 5.884 -1.40562 13.2377 5.88785 -1.1811 13.2952 
5.88411 -0.957999 13.3515 5.88488 -2.15545 18.1539 5.88785 -2.33709 18.1103 
5.88785 -2.33709 18.1103 5.88785 -1.1811 13.2952 5.88411 -0.957999 13.3515 
5.86119 -2.88131 17.9796 5.86267 -1.7098 13.1683 5.884 -1.40562 13.2377 
5.884 -1.40562 13.2377 5.88488 -2.51874 18.0667 5.86119 -2.88131 17.9796 
5.86119 -2.88131 17.9796 5.81389 -3.24168 17.8931 5.83456 -1.9496 13.1107 
5.81389 -3.24168 17.8931 5.81389 -2.08568 13.0781 5.83456 -1.9496 13.1107 
5.74318 -3.59841 17.8075 5.7417 -2.44874 12.9909 5.79323 -2.20336 13.0498 
5.79323 -2.20336 13.0498 5.81389 -3.24168 17.8931 5.74318 -3.59841 17.8075 
5.74318 -3.59841 17.8075 5.64935 -3.95006 17.7231 5.66654 -2.73721 12.9151 
5.66654 -2.73721 12.9151 5.7417 -2.44874 12.9909 5.74318 -3.59841 17.8075 
5.53277 -4.29522 17.6402 5.53277 -3.13922 12.8251 5.59968 -2.95027 12.8705 
5.59968 -2.95027 12.8705 5.64935 -3.95006 17.7231 5.53277 -4.29522 17.6402 
5.39391 -4.63249 17.5592 5.40553 -3.45152 12.7489 5.51241 -3.19278 12.8123 
5.51241 -3.19278 12.8123 5.53277 -4.29522 17.6402 5.39391 -4.63249 17.5592 
5.39391 -4.63249 17.5592 5.23333 -4.96052 17.4805 5.30477 -3.66515 12.6989 
5.23333 -4.96052 17.4805 5.23333 -3.80452 12.6654 5.30477 -3.66515 12.6989 
5.23333 -4.96052 17.4805 5.0533 -4.11916 12.5885 5.18481 -3.89407 12.6439 
5.0533 -4.11916 12.5885 5.23333 -4.96052 17.4805 5.05167 -5.27798 17.4043 
5.18481 -3.89407 12.6439 5.23333 -3.80452 12.6654 5.23333 -4.96052 17.4805 
5.05167 -5.27798 17.4043 4.84968 -5.58361 17.3309 4.91384 -4.33507 12.538 
4.84968 -5.58361 17.3309 4.84968 -4.42761 12.5158 4.91384 -4.33507 12.538 
4.62816 -5.87616 17.2606 4.61515 -4.73712 12.4426 4.76337 -4.54626 12.4873 
4.76337 -4.54626 12.4873 4.84968 -5.58361 17.3309 4.62816 -5.87616 17.2606 
4.62816 -5.87616 17.2606 4.388 -6.15446 17.1938 4.41491 -4.97002 12.3856 
4.41491 -4.97002 12.3856 4.61515 -4.73712 12.4426 4.62816 -5.87616 17.2606 
4.388 -6.15446 17.1938 4.13018 -6.41739 17.1307 4.25571 -5.13754 12.3454 
4.13018 -6.41739 17.1307 4.09375 -5.29656 12.3053 4.25571 -5.13754 12.3454 
4.13018 -6.41739 17.1307 3.87384 -5.49256 12.2601 4.09375 -5.29656 12.3053 
3.85572 -6.66389 17.0715 3.85572 -5.50789 12.2565 3.87384 -5.49256 12.2601 
3.87384 -5.49256 12.2601 4.13018 -6.41739 17.1307 3.85572 -6.66389 17.0715 
3.85572 -6.66389 17.0715 3.56574 -6.89296 17.0165 3.67101 -5.65721 12.2206 
3.56574 -6.89296 17.0165 3.56574 -5.73696 12.2015 3.67101 -5.65721 12.2206 
3.2614 -7.10369 16.9659 3.25197 -5.93077 12.0537 3.46079 -5.81285 12.1832 
3.46079 -5.81285 12.1832 3.56574 -6.89296 17.0165 3.2614 -7.10369 16.9659 
3.2614 -7.10369 16.9659 2.94392 -7.29523 16.92 3.01987 -6.09586 12.1153 
3.01987 -6.09586 12.1153 3.25197 -5.93077 12.0537 3.2614 -7.10369 16.9659 
2.94392 -7.29523 16.92 2.94392 -6.13924 12.1049 3.01987 -6.09586 12.1153 
2.6146 -7.46681 16.8788 2.58081 -6.32726 12.0579 2.79007 -6.22265 12.0849 
2.79007 -6.22265 12.0849 2.94392 -7.29523 16.92 2.6146 -7.46681 16.8788 
2.27474 -7.61772 16.8425 2.31407 -6.44555 12.0313 2.58081 -6.32726 12.0579 
2.58081 -6.32726 12.0579 2.6146 -7.46681 16.8788 2.27474 -7.61772 16.8425 
2.27474 -7.61772 16.8425 2.27474 -6.46173 12.0275 2.31407 -6.44555 12.0313 
2.27474 -7.61772 16.8425 1.92573 -7.74738 16.8114 2.06884 -6.5412 12.0084 
1.92573 -7.74738 16.8114 1.92573 -6.59138 11.9963 2.06884 -6.5412 12.0084 
1.56896 -7.85525 16.7855 1.56767 -6.6996 11.9703 1.81944 -6.62605 11.988 
1.81944 -6.62605 11.988 1.92573 -7.74738 16.8114 1.56896 -7.85525 16.7855 
1.56896 -7.85525 16.7855 1.20587 -7.9409 16.7649 1.31017 -6.76272 11.9552 
1.31017 -6.76272 11.9552 1.56767 -6.6996 11.9703 1.56896 -7.85525 16.7855 
1.20587 -7.9409 16.7649 1.20587 -6.7849 11.9499 1.31017 -6.76272 11.9552 
0.837928 -8.00399 16.7498 0.811959 -6.85182 11.9327 1.05132 -6.81426 11.9428 
1.05132 -6.81426 11.9428 1.20587 -7.9409 16.7649 0.837928 -8.00399 16.7498 
0.837928 -8.00399 16.7498 0.466612 -8.04425 16.7401 0.501267 -6.88695 11.9292 
0.501267 -6.88695 11.9292 0.811959 -6.85182 11.9327 0.837928 -8.00399 16.7498 
0.466612 -8.04425 16.7401 0.0934164 -8.06154 16.736 0.264157 -6.9005 11.9221 
0.0934164 -8.06154 16.736 0.0346292 -6.90623 11.9176 0.264157 -6.9005 11.9221 
0.0934164 -8.06154 16.736 -0.272156 -6.90014 11.9222 0.0346292 -6.90623 11.9176 
-0.272156 -6.90014 11.9222 0.0934164 -8.06154 16.736 -0.280155 -8.05577 16.7374 
-0.280155 -8.05577 16.7374 -0.652598 -8.02698 16.7443 -0.527782 -6.88321 11.9263 
-0.652598 -8.02698 16.7443 -0.652598 -6.87099 11.9292 -0.527782 -6.88321 11.9263 
-1.02241 -7.97528 16.7567 -1.03772 -6.81706 11.9426 -0.790345 -6.85445 11.9332 
-0.790345 -6.85445 11.9332 -0.652598 -8.02698 16.7443 -1.02241 -7.97528 16.7567 
-1.02241 -7.97528 16.7567 -1.38811 -7.90088 16.7746 -1.34268 -6.75678 11.9595 
-1.34268 -6.75678 11.9595 -1.03772 -6.81706 11.9426 -1.02241 -7.97528 16.7567 
-1.74822 -7.80407 16.7978 -1.78967 -6.63626 11.9863 -1.56638 -6.69994 11.9703 
-1.56638 -6.69994 11.9703 -1.38811 -7.90088 16.7746 -1.74822 -7.80407 16.7978 
-2.10129 -7.68524 16.8263 -2.08414 -6.5361 12.0101 -1.78967 -6.63626 11.9863 
-1.78967 -6.63626 11.9863 -1.74822 -7.80407 16.7978 -2.10129 -7.68524 16.8263 
-2.10129 -7.68524 16.8263 -2.4459 -7.54489 16.86 -2.31407 -6.44555 12.0313 
-2.4459 -7.54489 16.86 -2.4459 -6.38889 12.0449 -2.31407 -6.44555 12.0313 
-2.78066 -7.38356 16.8987 -2.78551 -6.22517 12.0843 -2.55464 -6.33929 12.0568 
-2.55464 -6.33929 12.0568 -2.4459 -7.54489 16.86 -2.78066 -7.38356 16.8987 
-2.78066 -7.38356 16.8987 -3.10422 -7.20191 16.9424 -3.05236 -6.07787 12.1204 
-3.05236 -6.07787 12.1204 -2.78551 -6.22517 12.0843 -2.78066 -7.38356 16.8987 
-3.41529 -7.00068 16.9907 -3.44211 -5.80522 12.0905 -3.2436 -5.95917 12.1481 
-3.2436 -5.95917 12.1481 -3.10422 -7.20191 16.9424 -3.41529 -7.00068 16.9907 
-3.7126 -6.78066 17.0435 -3.68998 -5.64388 12.2271 -3.44211 -5.80522 12.0905 
-3.44211 -5.80522 12.0905 -3.41529 -7.00068 16.9907 -3.7126 -6.78066 17.0435 
-3.7126 -6.78066 17.0435 -3.99496 -6.54275 17.1006 -3.87384 -5.49256 12.2601 
-3.99496 -6.54275 17.1006 -3.99496 -5.38676 12.2855 -3.87384 -5.49256 12.2601 
-3.99496 -6.54275 17.1006 -4.25847 -5.13473 12.346 -4.06887 -5.31922 12.3017 
-4.25847 -5.13473 12.346 -3.99496 -6.54275 17.1006 -4.26124 -6.28791 17.1618 
-4.06887 -5.31922 12.3017 -3.99496 -5.38676 12.2855 -3.99496 -6.54275 17.1006 
-4.26124 -6.28791 17.1618 -4.51035 -6.01716 17.2268 -4.43397 -4.9479 12.3909 
-4.51035 -6.01716 17.2268 -4.51035 -4.86116 12.4117 -4.43397 -4.9479 12.3909 
-4.74131 -5.73159 17.2954 -4.74131 -4.57559 12.4803 -4.6033 -4.75068 12.4382 
-4.6033 -4.75068 12.4382 -4.51035 -6.01716 17.2268 -4.74131 -5.73159 17.2954 
-4.74131 -5.73159 17.2954 -4.95317 -5.43235 17.3672 -4.93127 -4.31055 12.5442 
-4.93127 -4.31055 12.5442 -4.76337 -4.54626 12.4873 -4.74131 -5.73159 17.2954 
-4.95317 -5.43235 17.3672 -5.14509 -5.12065 17.442 -5.05441 -4.11753 12.5902 
-5.14509 -5.12065 17.442 -5.16959 -3.92188 12.6328 -5.05441 -4.11753 12.5902 
-5.31629 -4.79774 17.5195 -5.31053 -3.65345 12.7017 -5.16959 -3.92188 12.6328 
-5.16959 -3.92188 12.6328 -5.14509 -5.12065 17.442 -5.31629 -4.79774 17.5195 
-5.31629 -4.79774 17.5195 -5.46609 -4.46492 17.5995 -5.41404 -3.43123 12.755 
-5.46609 -4.46492 17.5995 -5.46609 -3.30893 12.7844 -5.41404 -3.43123 12.755 
-5.59387 -4.12354 17.6814 -5.59709 -2.95869 12.8686 -5.51241 -3.19278 12.8123 
-5.51241 -3.19278 12.8123 -5.46609 -4.46492 17.5995 -5.59387 -4.12354 17.6814 
-5.59387 -4.12354 17.6814 -5.69913 -3.77496 17.7651 -5.68585 -2.67096 12.9389 
-5.68585 -2.67096 12.9389 -5.59709 -2.95869 12.8686 -5.59387 -4.12354 17.6814 
-5.78145 -3.42059 17.8502 -5.78884 -2.22974 13.0422 -5.74023 -2.45507 12.9894 
-5.74023 -2.45507 12.9894 -5.69913 -3.77496 17.7651 -5.78145 -3.42059 17.8502 
-5.84048 -3.06186 17.9363 -5.83456 -1.9496 13.1107 -5.78884 -2.22974 13.0422 
-5.78884 -2.22974 13.0422 -5.78145 -3.42059 17.8502 -5.84048 -3.06186 17.9363 
-5.84048 -3.06186 17.9363 -5.84048 -1.90586 13.1212 -5.83456 -1.9496 13.1107 
-5.84048 -3.06186 17.9363 -5.87599 -2.70021 18.0231 -5.86414 -1.6943 13.172 
-5.87599 -2.70021 18.0231 -5.87599 -1.54421 13.208 -5.86414 -1.6943 13.172 
-5.88785 -2.33709 18.1103 -5.88785 -1.1811 13.2952 -5.88192 -1.43796 13.2336 
-5.88192 -1.43796 13.2336 -5.87599 -2.70021 18.0231 -5.88785 -2.33709 18.1103 
-5.88192 -1.43796 13.2336 -5.87599 -1.54421 13.208 -5.87599 -2.70021 18.0231 
-5.86414 -1.6943 13.172 -5.84048 -1.90586 13.1212 -5.84048 -3.06186 17.9363 
-5.74023 -2.45507 12.9894 -5.68585 -2.67096 12.9389 -5.69913 -3.77496 17.7651 
-5.51241 -3.19278 12.8123 -5.46609 -3.30893 12.7844 -5.46609 -4.46492 17.5995 
-5.41404 -3.43123 12.755 -5.31053 -3.65345 12.7017 -5.31629 -4.79774 17.5195 
-5.05441 -4.11753 12.5902 -4.93127 -4.31055 12.5442 -4.95317 -5.43235 17.3672 
-4.76337 -4.54626 12.4873 -4.74131 -4.57559 12.4803 -4.74131 -5.73159 17.2954 
-4.6033 -4.75068 12.4382 -4.51035 -4.86116 12.4117 -4.51035 -6.01716 17.2268 
-4.43397 -4.9479 12.3909 -4.25847 -5.13473 12.346 -4.26124 -6.28791 17.1618 
-3.87384 -5.49256 12.2601 -3.68998 -5.64388 12.2271 -3.7126 -6.78066 17.0435 
-3.2436 -5.95917 12.1481 -3.05236 -6.07787 12.1204 -3.10422 -7.20191 16.9424 
-2.55464 -6.33929 12.0568 -2.4459 -6.38889 12.0449 -2.4459 -7.54489 16.86 
-2.31407 -6.44555 12.0313 -2.08414 -6.5361 12.0101 -2.10129 -7.68524 16.8263 
-1.56638 -6.69994 11.9703 -1.34268 -6.75678 11.9595 -1.38811 -7.90088 16.7746 
-0.790345 -6.85445 11.9332 -0.652598 -6.87099 11.9292 -0.652598 -8.02698 16.7443 
-0.527782 -6.88321 11.9263 -0.272156 -6.90014 11.9222 -0.280155 -8.05577 16.7374 
0.264157 -6.9005 11.9221 0.501267 -6.88695 11.9292 0.466612 -8.04425 16.7401 
1.05132 -6.81426 11.9428 1.20587 -6.7849 11.9499 1.20587 -7.9409 16.7649 
1.81944 -6.62605 11.988 1.92573 -6.59138 11.9963 1.92573 -7.74738 16.8114 
2.06884 -6.5412 12.0084 2.27474 -6.46173 12.0275 2.27474 -7.61772 16.8425 
2.79007 -6.22265 12.0849 2.94392 -6.13924 12.1049 2.94392 -7.29523 16.92 
3.46079 -5.81285 12.1832 3.56574 -5.73696 12.2015 3.56574 -6.89296 17.0165 
3.67101 -5.65721 12.2206 3.85572 -5.50789 12.2565 3.85572 -6.66389 17.0715 
4.25571 -5.13754 12.3454 4.41491 -4.97002 12.3856 4.388 -6.15446 17.1938 
4.76337 -4.54626 12.4873 4.84968 -4.42761 12.5158 4.84968 -5.58361 17.3309 
4.91384 -4.33507 12.538 5.0533 -4.11916 12.5885 5.05167 -5.27798 17.4043 
5.30477 -3.66515 12.6989 5.40553 -3.45152 12.7489 5.39391 -4.63249 17.5592 
5.51241 -3.19278 12.8123 5.53277 -3.13922 12.8251 5.53277 -4.29522 17.6402 
5.59968 -2.95027 12.8705 5.66654 -2.73721 12.9151 5.64935 -3.95006 17.7231 
5.79323 -2.20336 13.0498 5.81389 -2.08568 13.0781 5.81389 -3.24168 17.8931 
5.83456 -1.9496 13.1107 5.86267 -1.7098 13.1683 5.86119 -2.88131 17.9796 
5.88785 -1.1811 13.2952 5.88785 -2.33709 18.1103 5.88488 -2.51874 18.0667 
5.83456 -0.412589 13.4797 5.81389 -0.276513 13.5124 5.81389 -1.43251 18.3275 
5.79323 -0.158829 13.5406 5.7417 0.0865448 13.5996 5.74318 -1.07578 18.4131 
5.59968 0.588077 13.72 5.53277 0.777025 13.7653 5.53277 -0.378972 18.5804 
5.30477 1.30296 13.8916 5.23333 1.44233 13.9251 5.23333 0.286328 18.7401 
4.91384 1.97288 14.0524 4.84968 2.06541 14.0746 4.84968 0.909417 18.8897 
4.76337 2.18407 14.1031 4.61515 2.37451 14.1496 4.62816 1.20197 18.96 
4.25571 2.77535 14.2451 4.09436 2.93262 14.2897 4.13018 1.7432 19.0899 
3.67101 3.29502 14.3698 3.56574 3.37477 14.389 3.56574 2.21877 19.2041 
3.46079 3.45066 14.4072 3.2525 3.59124 14.441 3.2614 2.42951 19.2547 
2.79007 3.86046 14.5056 2.58085 3.96449 14.5349 2.6146 2.79262 19.3418 
2.31407 4.08335 14.5591 2.27474 4.09953 14.563 2.27474 2.94354 19.3781 
2.06884 4.179 14.5821 1.92573 4.22919 14.5941 1.92573 3.07319 19.4092 
1.81944 4.26386 14.6024 1.56767 4.3374 14.6201 1.56896 3.18106 19.4351 
1.05132 4.45206 14.6476 0.811957 4.49014 14.6556 0.837928 3.3298 19.4708 
0.264157 4.5383 14.6683 0.0934164 4.54335 14.6695 0.0934164 3.38735 19.4846 
-0.527782 4.52102 14.6642 -0.652598 4.50879 14.6612 -0.652598 3.3528 19.4763 
-0.790345 4.49225 14.6573 -1.03773 4.45469 14.6486 -1.02241 3.30109 19.4639 
-1.56638 4.33775 14.6202 -1.78965 4.27286 14.6092 -1.74822 3.12988 19.4228 
-2.31407 4.08335 14.5591 -2.4459 4.0267 14.5455 -2.4459 2.8707 19.3606 
-2.55464 3.9771 14.5336 -2.78606 3.86317 14.5041 -2.78066 2.70937 19.3218 
-3.2436 3.59697 14.4423 -3.44125 3.46475 14.4122 -3.41529 2.32649 19.2299 
-3.87384 3.13036 14.3303 -3.99496 3.02456 14.3049 -3.99496 1.86856 19.12 
-4.43397 2.58571 14.1996 -4.51035 2.49897 14.1787 -4.51035 1.34297 18.9938 
-4.6033 2.38849 14.1522 -4.74131 2.2134 14.1102 -4.74131 1.0574 18.9252 
-5.05441 1.75534 14.0002 -5.16928 1.55973 13.9599 -5.14509 0.446462 18.7786 
-5.41404 1.06904 13.8354 -5.46609 0.946732 13.8061 -5.46609 -0.209265 18.6211 
-5.51241 0.830582 13.7782 -5.59737 0.596181 13.7197 -5.59387 -0.550651 18.5392 
-5.74023 0.0928723 13.6011 -5.78884 -0.133049 13.5508 -5.78145 -1.2536 18.3704 
-5.83456 -0.412589 13.4797 -5.84048 -0.456334 13.4692 -5.84048 -1.61233 18.2843 
-5.86414 -0.667897 13.4184 -5.87599 -0.817984 13.3824 -5.87599 -1.97398 18.1975 
-5.88192 -0.924238 13.3569 -5.88785 -1.1811 13.2952 -5.88785 -2.33709 18.1103 
-5.87596 -1.03516 13.0859 -5.88785 -1.1811 13.2952 -5.88192 -0.924238 13.3569 
-5.84901 -0.53028 13.2418 -5.87596 -1.03516 13.0859 -5.87599 -0.817984 13.3824 
-5.87596 -1.03516 13.0859 -5.88192 -0.924238 13.3569 -5.87599 -0.817984 13.3824 
-5.84901 -0.53028 13.2418 -5.86414 -0.667897 13.4184 -5.84048 -0.456334 13.4692 
-5.84901 -0.53028 13.2418 -5.83456 -0.412589 13.4797 -5.78884 -0.133049 13.5508 
-5.75417 0.036082 13.3419 -5.74023 0.0928723 13.6011 -5.68561 0.308968 13.6552 
-5.68561 0.308968 13.6552 -5.63943 0.480917 13.4505 -5.75417 0.036082 13.3419 
-5.63943 0.480917 13.4505 -5.68561 0.308968 13.6552 -5.59737 0.596181 13.7197 
-5.47411 0.95698 13.5778 -5.63943 0.480917 13.4505 -5.59737 0.596181 13.7197 
-5.47411 0.95698 13.5778 -5.51241 0.830582 13.7782 -5.46609 0.946732 13.8061 
-5.47411 0.95698 13.5778 -5.41404 1.06904 13.8354 -5.31011 1.31472 13.7977 
-5.12041 1.67893 13.7451 -5.05441 1.75534 14.0002 -4.93126 1.94882 14.0443 
-4.93126 1.94882 14.0443 -4.8554 2.09309 13.862 -5.12041 1.67893 13.7451 
-4.8554 2.09309 13.862 -4.93126 1.94882 14.0443 -4.76337 2.18407 14.1031 
-4.51379 2.53337 13.958 -4.8554 2.09309 13.862 -4.74131 2.2134 14.1102 
-4.8554 2.09309 13.862 -4.76337 2.18407 14.1031 -4.74131 2.2134 14.1102 
-4.51379 2.53337 13.958 -4.6033 2.38849 14.1522 -4.51035 2.49897 14.1787 
-4.51379 2.53337 13.958 -4.43397 2.58571 14.1996 -4.25814 2.79548 14.1502 
-3.98861 3.07909 13.9651 -4.06887 2.95702 14.2887 -3.99496 3.02456 14.3049 
-3.98861 3.07909 13.9651 -3.87384 3.13036 14.3303 -3.68989 3.28159 14.3641 
-3.68989 3.28159 14.3641 -3.66589 3.34686 14.0455 -3.98861 3.07909 13.9651 
-3.66589 3.34686 14.0455 -3.68989 3.28159 14.3641 -3.44125 3.46475 14.4122 
-3.35872 3.57271 14.1052 -3.2436 3.59697 14.4423 -3.10422 3.68372 14.4632 
-3.10422 3.68372 14.4632 -2.93448 3.82556 14.2498 -3.35872 3.57271 14.1052 
-2.93448 3.82556 14.2498 -3.01987 3.73366 14.4752 -2.78606 3.86317 14.5041 
-2.45199 4.06931 14.3169 -2.93448 3.82556 14.2498 -2.78606 3.86317 14.5041 
-2.45199 4.06931 14.3169 -2.55464 3.9771 14.5336 -2.4459 4.0267 14.5455 
-2.45199 4.06931 14.3169 -2.31407 4.08335 14.5591 -2.08415 4.17362 14.5815 
-2.08415 4.17362 14.5815 -1.94885 4.2764 14.2616 -2.45199 4.06931 14.3169 
-1.94885 4.2764 14.2616 -2.08415 4.17362 14.5815 -1.78965 4.27286 14.6092 
-1.56227 4.39395 14.2757 -1.94885 4.2764 14.2616 -1.78965 4.27286 14.6092 
-1.56227 4.39395 14.2757 -1.56638 4.33775 14.6202 -1.34266 4.39328 14.6364 
-1.34266 4.39328 14.6364 -1.21855 4.47653 14.3026 -1.56227 4.39395 14.2757 
-1.21855 4.47653 14.3026 -1.34266 4.39328 14.6364 -1.03773 4.45469 14.6486 
-0.707878 4.54756 14.4345 -1.21855 4.47653 14.3026 -1.03773 4.45469 14.6486 
-0.707878 4.54756 14.4345 -0.790345 4.49225 14.6573 -0.652598 4.50879 14.6612 
-0.707878 4.54756 14.4345 -0.527782 4.52102 14.6642 -0.271477 4.56199 14.5682 
0.116053 4.58679 14.444 -2.66454e-10 4.54407 14.6697 0.0934164 4.54335 14.6695 
0.116053 4.58679 14.444 0.264157 4.5383 14.6683 0.501291 4.52423 14.6635 
0.501291 4.52423 14.6635 0.529736 4.56299 14.4377 0.116053 4.58679 14.444 
0.529736 4.56299 14.4377 0.501291 4.52423 14.6635 0.811957 4.49014 14.6556 
0.910234 4.53251 14.3175 1.05132 4.45206 14.6476 1.20587 4.42271 14.6406 
1.20587 4.42271 14.6406 1.39703 4.42443 14.3986 0.910234 4.53251 14.3175 
1.39703 4.42443 14.3986 1.31017 4.40053 14.6353 1.56767 4.3374 14.6201 
1.90943 4.28106 14.357 1.39703 4.42443 14.3986 1.56767 4.3374 14.6201 
1.90943 4.28106 14.357 1.81944 4.26386 14.6024 1.92573 4.22919 14.5941 
1.90943 4.28106 14.357 2.06884 4.179 14.5821 2.27474 4.09953 14.563 
2.27474 4.09953 14.563 2.31178 4.11375 14.4096 1.90943 4.28106 14.357 
2.31178 4.11375 14.4096 2.31407 4.08335 14.5591 2.58085 3.96449 14.5349 
2.66123 3.96776 14.2963 2.79007 3.86046 14.5056 2.99072 3.75182 14.4775 
2.99072 3.75182 14.4775 3.09713 3.72836 14.2569 2.66123 3.96776 14.2963 
3.09713 3.72836 14.2569 2.99072 3.75182 14.4775 3.2525 3.59124 14.441 
3.55895 3.42053 14.1675 3.09713 3.72836 14.2569 3.2525 3.59124 14.441 
3.55895 3.42053 14.1675 3.46079 3.45066 14.4072 3.56574 3.37477 14.389 
3.55895 3.42053 14.1675 3.67101 3.29502 14.3698 3.86585 3.16036 14.2367 
4.15765 2.91314 14.0409 4.25571 2.77535 14.2451 4.41491 2.60758 14.2059 
4.41491 2.60758 14.2059 4.48552 2.56595 13.9514 4.15765 2.91314 14.0409 
4.48552 2.56595 13.9514 4.41491 2.60758 14.2059 4.61515 2.37451 14.1496 
4.815 2.15293 13.8583 4.48552 2.56595 13.9514 4.61515 2.37451 14.1496 
4.815 2.15293 13.8583 4.76337 2.18407 14.1031 4.84968 2.06541 14.0746 
4.815 2.15293 13.8583 4.91384 1.97288 14.0524 5.05311 1.75758 14.0007 
5.05311 1.75758 14.0007 5.09177 1.72746 13.7489 4.815 2.15293 13.8583 
5.09177 1.72746 13.7489 5.05311 1.75758 14.0007 5.18481 1.53188 13.9466 
5.28072 1.37894 13.6728 5.09177 1.72746 13.7489 5.23333 1.44233 13.9251 
5.09177 1.72746 13.7489 5.18481 1.53188 13.9466 5.23333 1.44233 13.9251 
5.28072 1.37894 13.6728 5.30477 1.30296 13.8916 5.40553 1.08986 13.8393 
5.40553 1.08986 13.8393 5.45171 1.00862 13.5666 5.28072 1.37894 13.6728 
5.45171 1.00862 13.5666 5.40553 1.08986 13.8393 5.51241 0.830582 13.7782 
5.53185 0.793669 13.4375 5.45171 1.00862 13.5666 5.53277 0.777025 13.7653 
5.45171 1.00862 13.5666 5.51241 0.830582 13.7782 5.53277 0.777025 13.7653 
5.53185 0.793669 13.4375 5.59968 0.588077 13.72 5.64935 0.431869 13.6825 
5.64935 0.431869 13.6825 5.69548 0.282924 13.3919 5.53185 0.793669 13.4375 
5.69548 0.282924 13.3919 5.67567 0.342008 13.6609 5.7417 0.0865448 13.5996 
5.80055 -0.196554 13.3154 5.69548 0.282924 13.3919 5.7417 0.0865448 13.5996 
5.80055 -0.196554 13.3154 5.79323 -0.158829 13.5406 5.81389 -0.276513 13.5124 
5.80055 -0.196554 13.3154 5.83456 -0.412589 13.4797 5.86322 -0.632236 13.3293 
5.87572 -0.963551 13.1133 5.88785 -1.1811 13.2952 5.884 -1.40562 13.2377 
5.884 -1.40562 13.2377 5.85653 -1.5016 12.9055 5.87572 -0.963551 13.1133 
5.85653 -1.5016 12.9055 5.884 -1.40562 13.2377 5.86267 -1.7098 13.1683 
5.80558 -2.02254 12.8601 5.85653 -1.5016 12.9055 5.86267 -1.7098 13.1683 
5.80558 -2.02254 12.8601 5.83456 -1.9496 13.1107 5.81389 -2.08568 13.0781 
5.80558 -2.02254 12.8601 5.79323 -2.20336 13.0498 5.7417 -2.44874 12.9909 
5.7417 -2.44874 12.9909 5.72914 -2.34176 12.7084 5.80558 -2.02254 12.8601 
5.72914 -2.34176 12.7084 5.7417 -2.44874 12.9909 5.66654 -2.73721 12.9151 
5.63484 -2.75651 12.6863 5.59968 -2.95027 12.8705 5.53277 -3.13922 12.8251 
5.53277 -3.13922 12.8251 5.50028 -3.13773 12.5889 5.63484 -2.75651 12.6863 
5.50028 -3.13773 12.5889 5.51241 -3.19278 12.8123 5.40553 -3.45152 12.7489 
5.36743 -3.41592 12.434 5.30477 -3.66515 12.6989 5.23333 -3.80452 12.6654 
5.23333 -3.80452 12.6654 5.13086 -3.9119 12.3967 5.36743 -3.41592 12.434 
5.13086 -3.9119 12.3967 5.18481 -3.89407 12.6439 5.0533 -4.11916 12.5885 
4.92809 -4.23899 12.3233 5.13086 -3.9119 12.3967 5.0533 -4.11916 12.5885 
4.68334 -4.59029 12.2629 4.92809 -4.23899 12.3233 4.84968 -4.42761 12.5158 
4.92809 -4.23899 12.3233 4.91384 -4.33507 12.538 4.84968 -4.42761 12.5158 
4.68334 -4.59029 12.2629 4.76337 -4.54626 12.4873 4.61515 -4.73712 12.4426 
4.68334 -4.59029 12.2629 4.61515 -4.73712 12.4426 4.41491 -4.97002 12.3856 
4.3433 -4.97797 12.1487 4.25571 -5.13754 12.3454 4.09375 -5.29656 12.3053 
4.09375 -5.29656 12.3053 3.99401 -5.32733 12.0811 4.3433 -4.97797 12.1487 
3.99401 -5.32733 12.0811 4.09375 -5.29656 12.3053 3.87384 -5.49256 12.2601 
3.56214 -5.6748 11.9839 3.99401 -5.32733 12.0811 3.85572 -5.50789 12.2565 
3.99401 -5.32733 12.0811 3.87384 -5.49256 12.2601 3.85572 -5.50789 12.2565 
3.56214 -5.6748 11.9839 3.67101 -5.65721 12.2206 3.56574 -5.73696 12.2015 
3.56214 -5.6748 11.9839 3.46079 -5.81285 12.1832 3.25197 -5.93077 12.0537 
2.91496 -6.09048 11.8802 3.01987 -6.09586 12.1153 2.94392 -6.13924 12.1049 
2.91496 -6.09048 11.8802 2.79007 -6.22265 12.0849 2.58081 -6.32726 12.0579 
2.58081 -6.32726 12.0579 2.46141 -6.324 11.8422 2.91496 -6.09048 11.8802 
2.46141 -6.324 11.8422 2.58081 -6.32726 12.0579 2.31407 -6.44555 12.0313 
1.92496 -6.5277 11.7744 2.46141 -6.324 11.8422 2.27474 -6.46173 12.0275 
2.46141 -6.324 11.8422 2.31407 -6.44555 12.0313 2.27474 -6.46173 12.0275 
1.92496 -6.5277 11.7744 2.06884 -6.5412 12.0084 1.92573 -6.59138 11.9963 
1.92496 -6.5277 11.7744 1.81944 -6.62605 11.988 1.56767 -6.6996 11.9703 
1.56767 -6.6996 11.9703 1.4737 -6.65735 11.7361 1.92496 -6.5277 11.7744 
1.4737 -6.65735 11.7361 1.56767 -6.6996 11.9703 1.31017 -6.76272 11.9552 
0.963209 -6.77724 11.7482 1.4737 -6.65735 11.7361 1.20587 -6.7849 11.9499 
1.4737 -6.65735 11.7361 1.31017 -6.76272 11.9552 1.20587 -6.7849 11.9499 
0.963209 -6.77724 11.7482 1.05132 -6.81426 11.9428 0.811959 -6.85182 11.9327 
0.963209 -6.77724 11.7482 0.811959 -6.85182 11.9327 0.501267 -6.88695 11.9292 
0.401376 -6.82832 11.7013 0.264157 -6.9005 11.9221 0.0346292 -6.90623 11.9176 
0.0346292 -6.90623 11.9176 -0.0708477 -6.84829 11.7164 0.401376 -6.82832 11.7013 
-0.0708477 -6.84829 11.7164 0.0346292 -6.90623 11.9176 -0.272156 -6.90014 11.9222 
-0.638131 -6.80759 11.7019 -0.0708477 -6.84829 11.7164 -0.272156 -6.90014 11.9222 
-0.638131 -6.80759 11.7019 -0.527782 -6.88321 11.9263 -0.652598 -6.87099 11.9292 
-0.638131 -6.80759 11.7019 -0.790345 -6.85445 11.9332 -1.03772 -6.81706 11.9426 
-1.03772 -6.81706 11.9426 -1.08546 -6.74169 11.7192 -0.638131 -6.80759 11.7019 
-1.08546 -6.74169 11.7192 -1.03772 -6.81706 11.9426 -1.34268 -6.75678 11.9595 
-1.47502 -6.62855 11.6595 -1.56638 -6.69994 11.9703 -1.78967 -6.63626 11.9863 
-1.78967 -6.63626 11.9863 -1.90292 -6.53225 11.7672 -1.47502 -6.62855 11.6595 
-1.90292 -6.53225 11.7672 -1.78967 -6.63626 11.9863 -2.08414 -6.5361 12.0101 
-2.38926 -6.34988 11.816 -1.90292 -6.53225 11.7672 -2.08414 -6.5361 12.0101 
-2.38926 -6.34988 11.816 -2.31407 -6.44555 12.0313 -2.4459 -6.38889 12.0449 
-2.38926 -6.34988 11.816 -2.55464 -6.33929 12.0568 -2.78551 -6.22517 12.0843 
-2.78551 -6.22517 12.0843 -2.78558 -6.12422 11.7743 -2.38926 -6.34988 11.816 
-2.78558 -6.12422 11.7743 -2.78551 -6.22517 12.0843 -3.05236 -6.07787 12.1204 
-3.11383 -5.93107 11.8007 -3.2436 -5.95917 12.1481 -3.44211 -5.80522 12.0905 
-3.75968 -5.52013 12.0178 -3.87384 -5.49256 12.2601 -3.99496 -5.38676 12.2855 
-3.99496 -5.38676 12.2855 -4.15512 -5.1357 12.0177 -3.75968 -5.52013 12.0178 
-4.15512 -5.1357 12.0177 -4.06887 -5.31922 12.3017 -4.25847 -5.13473 12.346 
-4.46715 -4.85085 12.195 -4.43397 -4.9479 12.3909 -4.51035 -4.86116 12.4117 
-4.46715 -4.85085 12.195 -4.6033 -4.75068 12.4382 -4.74131 -4.57559 12.4803 
-4.74131 -4.57559 12.4803 -4.81968 -4.39673 12.2784 -4.46715 -4.85085 12.195 
-4.81968 -4.39673 12.2784 -4.76337 -4.54626 12.4873 -4.93127 -4.31055 12.5442 
-5.11452 -3.94845 12.4046 -4.81968 -4.39673 12.2784 -4.93127 -4.31055 12.5442 
-5.11452 -3.94845 12.4046 -5.05441 -4.11753 12.5902 -5.16959 -3.92188 12.6328 
-5.11452 -3.94845 12.4046 -5.16959 -3.92188 12.6328 -5.31053 -3.65345 12.7017 
-5.45306 -3.25826 12.5532 -5.29569 -3.59605 12.4607 -5.31053 -3.65345 12.7017 
-5.45306 -3.25826 12.5532 -5.41404 -3.43123 12.755 -5.46609 -3.30893 12.7844 
-5.45306 -3.25826 12.5532 -5.51241 -3.19278 12.8123 -5.59709 -2.95869 12.8686 
-5.59709 -2.95869 12.8686 -5.59948 -2.85862 12.6517 -5.45306 -3.25826 12.5532 
-5.59948 -2.85862 12.6517 -5.59709 -2.95869 12.8686 -5.68585 -2.67096 12.9389 
-5.70083 -2.51577 12.7355 -5.74023 -2.45507 12.9894 -5.78884 -2.22974 13.0422 
-5.78884 -2.22974 13.0422 -5.80299 -2.05346 12.868 -5.70083 -2.51577 12.7355 
-5.80299 -2.05346 12.868 -5.78884 -2.22974 13.0422 -5.83456 -1.9496 13.1107 
-5.86589 -1.49439 12.9827 -5.80299 -2.05346 12.868 -5.84048 -1.90586 13.1212 
-5.80299 -2.05346 12.868 -5.83456 -1.9496 13.1107 -5.84048 -1.90586 13.1212 
-5.86589 -1.49439 12.9827 -5.86414 -1.6943 13.172 -5.87599 -1.54421 13.208 
-5.86589 -1.49439 12.9827 -5.88192 -1.43796 13.2336 -5.88785 -1.1811 13.2952 
-5.8 -0.328211 13.1099 -5.84901 -0.53028 13.2418 -5.75417 0.036082 13.3419 
-5.233 1.44027 13.4127 -5.31011 1.31472 13.7977 -5.12041 1.67893 13.7451 
-4.59479 2.43091 13.702 -4.8554 2.09309 13.862 -4.51379 2.53337 13.958 
-4.25353 2.81573 13.8535 -4.25814 2.79548 14.1502 -3.98861 3.07909 13.9651 
-0.159803 4.60032 14.2375 -0.271477 4.56199 14.5682 0.116053 4.58679 14.444 
2.42853 4.08776 14.1394 2.31178 4.11375 14.4096 2.66123 3.96776 14.2963 
3.40411 3.54037 13.9862 3.09713 3.72836 14.2569 3.55895 3.42053 14.1675 
3.9178 3.13662 13.9034 3.86585 3.16036 14.2367 4.15765 2.91314 14.0409 
5.80135 -0.466263 12.9656 5.86322 -0.632236 13.3293 5.87572 -0.963551 13.1133 
4.49337 -4.72573 12.0223 4.68334 -4.59029 12.2629 4.3433 -4.97797 12.1487 
3.85065 -5.37875 11.8974 3.99401 -5.32733 12.0811 3.56214 -5.6748 11.9839 
3.13867 -5.88487 11.746 3.25197 -5.93077 12.0537 2.91496 -6.09048 11.8802 
2.30004 -6.32601 11.67 2.46141 -6.324 11.8422 1.92496 -6.5277 11.7744 
0.698706 -6.73942 11.5579 0.963209 -6.77724 11.7482 0.401376 -6.82832 11.7013 
-0.15458 -6.76612 11.5244 -0.0708477 -6.84829 11.7164 -0.638131 -6.80759 11.7019 
-3.5325 -5.62135 11.8141 -3.44211 -5.80522 12.0905 -3.75968 -5.52013 12.0178 
-5.80011 -1.85614 12.7431 -5.80299 -2.05346 12.868 -5.86589 -1.49439 12.9827 
-5.79664 -0.704641 12.805 -5.87596 -1.03516 13.0859 -5.84901 -0.53028 13.2418 
-5.79664 -0.704641 12.805 -5.84901 -0.53028 13.2418 -5.8 -0.328211 13.1099 
-5.71507 0.0722375 13.1166 -5.75417 0.036082 13.3419 -5.63943 0.480917 13.4505 
-5.50511 0.810063 13.3 -5.63943 0.480917 13.4505 -5.47411 0.95698 13.5778 
-5.28031 1.30082 13.2794 -5.47411 0.95698 13.5778 -5.233 1.44027 13.4127 
-4.94196 1.94526 13.5786 -5.12041 1.67893 13.7451 -4.8554 2.09309 13.862 
-4.94196 1.94526 13.5786 -4.8554 2.09309 13.862 -4.59479 2.43091 13.702 
-4.59479 2.43091 13.702 -4.51379 2.53337 13.958 -4.25353 2.81573 13.8535 
-2.86322 3.87229 13.9933 -2.93448 3.82556 14.2498 -2.45199 4.06931 14.3169 
-2.42953 4.08563 13.9815 -2.45199 4.06931 14.3169 -1.94885 4.2764 14.2616 
-0.675848 4.56218 14.2004 -0.707878 4.54756 14.4345 -0.159803 4.60032 14.2375 
0.393396 4.58781 14.213 0.116053 4.58679 14.444 0.529736 4.56299 14.4377 
0.393396 4.58781 14.213 0.529736 4.56299 14.4377 0.910234 4.53251 14.3175 
1.41487 4.43166 14.1874 1.39703 4.42443 14.3986 1.90943 4.28106 14.357 
1.89147 4.29424 14.145 1.90943 4.28106 14.357 2.42853 4.08776 14.1394 
2.88128 3.86104 14.0385 2.66123 3.96776 14.2963 3.09713 3.72836 14.2569 
2.88128 3.86104 14.0385 3.09713 3.72836 14.2569 3.40411 3.54037 13.9862 
3.40411 3.54037 13.9862 3.55895 3.42053 14.1675 3.9178 3.13662 13.9034 
4.2862 2.77561 13.7614 4.15765 2.91314 14.0409 4.48552 2.56595 13.9514 
4.56249 2.46281 13.7032 4.48552 2.56595 13.9514 4.815 2.15293 13.8583 
4.79848 2.15661 13.6293 4.815 2.15293 13.8583 5.09177 1.72746 13.7489 
5.06335 1.7536 13.5469 5.09177 1.72746 13.7489 5.28072 1.37894 13.6728 
5.30406 1.28116 13.3628 5.28072 1.37894 13.6728 5.45171 1.00862 13.5666 
5.71431 0.0512252 13.083 5.69548 0.282924 13.3919 5.80055 -0.196554 13.3154 
5.8109 -1.08548 12.7329 5.87572 -0.963551 13.1133 5.85653 -1.5016 12.9055 
5.72753 -1.99655 12.5155 5.80558 -2.02254 12.8601 5.72914 -2.34176 12.7084 
5.49219 -2.90193 12.3061 5.63484 -2.75651 12.6863 5.50028 -3.13773 12.5889 
5.49219 -2.90193 12.3061 5.50028 -3.13773 12.5889 5.36743 -3.41592 12.434 
5.12347 -3.80599 12.2087 5.36743 -3.41592 12.434 5.13086 -3.9119 12.3967 
5.12347 -3.80599 12.2087 5.13086 -3.9119 12.3967 4.92809 -4.23899 12.3233 
4.79837 -4.29798 12.0663 4.92809 -4.23899 12.3233 4.68334 -4.59029 12.2629 
4.79837 -4.29798 12.0663 4.68334 -4.59029 12.2629 4.49337 -4.72573 12.0223 
4.12687 -5.08892 11.8898 4.3433 -4.97797 12.1487 3.99401 -5.32733 12.0811 
4.12687 -5.08892 11.8898 3.99401 -5.32733 12.0811 3.85065 -5.37875 11.8974 
3.56018 -5.56348 11.7586 3.56214 -5.6748 11.9839 3.13867 -5.88487 11.746 
2.64928 -6.13251 11.6393 2.91496 -6.09048 11.8802 2.46141 -6.324 11.8422 
2.64928 -6.13251 11.6393 2.46141 -6.324 11.8422 2.30004 -6.32601 11.67 
1.85699 -6.38875 11.4326 1.92496 -6.5277 11.7744 1.4737 -6.65735 11.7361 
1.17322 -6.62936 11.5081 1.4737 -6.65735 11.7361 0.963209 -6.77724 11.7482 
1.17322 -6.62936 11.5081 0.963209 -6.77724 11.7482 0.698706 -6.73942 11.5579 
0.261815 -6.74382 11.4929 0.401376 -6.82832 11.7013 -0.0708477 -6.84829 11.7164 
-0.661928 -6.71504 11.5005 -0.638131 -6.80759 11.7019 -1.08546 -6.74169 11.7192 
-1.0503 -6.62643 11.4523 -1.08546 -6.74169 11.7192 -1.47502 -6.62855 11.6595 
-1.92156 -6.43553 11.5651 -1.90292 -6.53225 11.7672 -2.38926 -6.34988 11.816 
-2.41464 -6.24239 11.6129 -2.38926 -6.34988 11.816 -2.78558 -6.12422 11.7743 
-3.93863 -5.26393 11.8478 -3.75968 -5.52013 12.0178 -4.15512 -5.1357 12.0177 
-4.47669 -4.71807 11.9796 -4.46715 -4.85085 12.195 -4.81968 -4.39673 12.2784 
-4.94276 -4.09411 12.1287 -4.81968 -4.39673 12.2784 -5.11452 -3.94845 12.4046 
-5.15489 -3.67276 12.1282 -5.11452 -3.94845 12.4046 -5.29569 -3.59605 12.4607 
-5.15489 -3.67276 12.1282 -5.29569 -3.59605 12.4607 -5.45306 -3.25826 12.5532 
-5.41772 -3.18741 12.3463 -5.45306 -3.25826 12.5532 -5.59948 -2.85862 12.6517 
-5.59037 -2.71062 12.4627 -5.59948 -2.85862 12.6517 -5.70083 -2.51577 12.7355 
-5.71855 -2.21283 12.5803 -5.70083 -2.51577 12.7355 -5.80299 -2.05346 12.868 
-5.71855 -2.21283 12.5803 -5.80299 -2.05346 12.868 -5.80011 -1.85614 12.7431 
-5.82386 -1.45611 12.762 -5.86589 -1.49439 12.9827 -5.87596 -1.03516 13.0859 
-5.72023 -0.269692 12.8214 -5.8 -0.328211 13.1099 -5.71507 0.0722375 13.1166 
-5.65323 0.109969 12.9057 -5.71507 0.0722375 13.1166 -5.59803 0.42687 13.0581 
-5.44438 0.837067 13.0748 -5.50511 0.810063 13.3 -5.28031 1.30082 13.2794 
-4.89286 1.96464 13.3735 -4.94196 1.94526 13.5786 -4.59479 2.43091 13.702 
-4.25032 2.77304 13.5395 -4.59479 2.43091 13.702 -4.25353 2.81573 13.8535 
-4.25032 2.77304 13.5395 -4.25353 2.81573 13.8535 -3.98861 3.07909 13.9651 
-3.9088 3.10866 13.6315 -3.98861 3.07909 13.9651 -3.66589 3.34686 14.0455 
-3.59857 3.36506 13.694 -3.66589 3.34686 14.0455 -3.35872 3.57271 14.1052 
-3.18819 3.6549 13.7354 -3.35872 3.57271 14.1052 -2.86322 3.87229 13.9933 
-1.87157 4.2893 13.9279 -1.94885 4.2764 14.2616 -1.56227 4.39395 14.2757 
-1.46822 4.3984 13.8753 -1.56227 4.39395 14.2757 -1.21855 4.47653 14.3026 
-1.03001 4.49913 13.9663 -1.21855 4.47653 14.3026 -0.675848 4.56218 14.2004 
-0.662069 4.55519 13.9861 -0.675848 4.56218 14.2004 -0.159803 4.60032 14.2375 
-0.105026 4.59339 14.0094 -0.159803 4.60032 14.2375 0.393396 4.58781 14.213 
0.561419 4.56581 13.969 0.393396 4.58781 14.213 0.910234 4.53251 14.3175 
1.20468 4.46778 13.9655 0.910234 4.53251 14.3175 1.41487 4.43166 14.1874 
1.66648 4.3511 13.9239 1.41487 4.43166 14.1874 1.89147 4.29424 14.145 
2.1428 4.1896 13.8827 1.89147 4.29424 14.145 2.42853 4.08776 14.1394 
2.61884 3.97832 13.8407 2.42853 4.08776 14.1394 2.88128 3.86104 14.0385 
2.96138 3.7943 13.7971 2.88128 3.86104 14.0385 3.40411 3.54037 13.9862 
3.40751 3.51663 13.745 3.40411 3.54037 13.9862 3.9178 3.13662 13.9034 
3.89594 3.11968 13.6315 3.9178 3.13662 13.9034 4.2862 2.77561 13.7614 
4.23973 2.78903 13.5576 4.2862 2.77561 13.7614 4.56249 2.46281 13.7032 
4.59147 2.37809 13.4565 4.56249 2.46281 13.7032 4.79848 2.15661 13.6293 
4.89359 1.95346 13.3418 4.79848 2.15661 13.6293 5.06335 1.7536 13.5469 
5.11585 1.5341 13.1655 5.06335 1.7536 13.5469 5.30406 1.28116 13.3628 
5.4561 0.823968 13.0954 5.53185 0.793669 13.4375 5.60888 0.446778 13.1431 
5.74441 -1.59573 12.4997 5.8109 -1.08548 12.7329 5.85653 -1.5016 12.9055 
5.74441 -1.59573 12.4997 5.85653 -1.5016 12.9055 5.72753 -1.99655 12.5155 
5.72753 -1.99655 12.5155 5.72914 -2.34176 12.7084 5.6163 -2.55709 12.4378 
5.25675 -3.34475 12.0803 5.36743 -3.41592 12.434 5.12347 -3.80599 12.2087 
4.88955 -4.01171 11.925 5.12347 -3.80599 12.2087 4.79837 -4.29798 12.0663 
4.58702 -4.43168 11.819 4.79837 -4.29798 12.0663 4.49337 -4.72573 12.0223 
4.26429 -4.79701 11.7186 4.49337 -4.72573 12.0223 4.12687 -5.08892 11.8898 
3.98868 -5.08147 11.6662 4.12687 -5.08892 11.8898 3.85065 -5.37875 11.8974 
3.70027 -5.33265 11.6031 3.85065 -5.37875 11.8974 3.56018 -5.56348 11.7586 
3.28436 -5.63439 11.5202 3.56018 -5.56348 11.7586 3.13867 -5.88487 11.746 
2.85539 -5.89345 11.4554 3.13867 -5.88487 11.746 2.64928 -6.13251 11.6393 
2.38397 -6.13401 11.4055 2.64928 -6.13251 11.6393 2.30004 -6.32601 11.67 
2.38397 -6.13401 11.4055 2.30004 -6.32601 11.67 1.85699 -6.38875 11.4326 
1.13729 -6.52648 11.3149 1.17322 -6.62936 11.5081 0.698706 -6.73942 11.5579 
0.652971 -6.60744 11.3063 0.698706 -6.73942 11.5579 0.261815 -6.74382 11.4929 
0.0730592 -6.64509 11.3049 0.261815 -6.74382 11.4929 -0.15458 -6.76612 11.5244 
-0.400177 -6.63025 11.3049 -0.15458 -6.76612 11.5244 -0.661928 -6.71504 11.5005 
-0.919874 -6.52443 11.2467 -0.661928 -6.71504 11.5005 -1.0503 -6.62643 11.4523 
-1.39156 -6.47296 11.3316 -1.47502 -6.62855 11.6595 -1.92156 -6.43553 11.5651 
-1.90429 -6.3262 11.3674 -1.92156 -6.43553 11.5651 -2.41464 -6.24239 11.6129 
-2.39075 -6.13565 11.4139 -2.41464 -6.24239 11.6129 -2.78558 -6.12422 11.7743 
-2.73609 -5.96639 11.4537 -2.78558 -6.12422 11.7743 -3.11383 -5.93107 11.8007 
-3.08533 -5.77309 11.5053 -3.11383 -5.93107 11.8007 -3.5325 -5.62135 11.8141 
-3.51016 -5.49023 11.5789 -3.5325 -5.62135 11.8141 -3.93863 -5.26393 11.8478 
-3.90581 -5.16299 11.6508 -3.93863 -5.26393 11.8478 -4.15512 -5.1357 12.0177 
-4.24585 -4.82431 11.7205 -4.15512 -5.1357 12.0177 -4.47669 -4.71807 11.9796 
-5.44551 -2.87472 12.182 -5.41772 -3.18741 12.3463 -5.59037 -2.71062 12.4627 
-5.56474 -2.51647 12.282 -5.59037 -2.71062 12.4627 -5.71855 -2.21283 12.5803 
-5.66134 -2.14033 12.3765 -5.71855 -2.21283 12.5803 -5.80011 -1.85614 12.7431 
-5.73582 -1.66586 12.4832 -5.80011 -1.85614 12.7431 -5.82386 -1.45611 12.762 
-4.97371 1.73077 13.1232 -5.233 1.44027 13.4127 -4.89286 1.96464 13.3735 
-2.64529 3.9335 13.6688 -2.86322 3.87229 13.9933 -2.42953 4.08563 13.9815 
-2.22512 4.1296 13.7377 -2.42953 4.08563 13.9815 -1.87157 4.2893 13.9279 
5.26726 1.17152 13.0275 5.30406 1.28116 13.3628 5.4561 0.823968 13.0954 
5.67468 -0.134381 12.78 5.71431 0.0512252 13.083 5.80135 -0.466263 12.9656 
5.70511 -0.644419 12.5823 5.80135 -0.466263 12.9656 5.81672 -0.796324 12.8604 
5.70511 -0.644419 12.5823 5.81672 -0.796324 12.8604 5.8109 -1.08548 12.7329 
5.57077 -2.37328 12.2425 5.72753 -1.99655 12.5155 5.6163 -2.55709 12.4378 
5.57077 -2.37328 12.2425 5.6163 -2.55709 12.4378 5.49219 -2.90193 12.3061 
-0.919874 -6.52443 11.2467 -1.0503 -6.62643 11.4523 -1.39156 -6.47296 11.3316 
-5.67427 -0.840104 12.4517 -5.79872 -1.10724 12.6909 -5.79664 -0.704641 12.805 
-5.61924 -0.328123 12.5277 -5.79664 -0.704641 12.805 -5.72023 -0.269692 12.8214 
-5.61924 -0.328123 12.5277 -5.72023 -0.269692 12.8214 -5.65323 0.109969 12.9057 
-5.5298 0.150022 12.6236 -5.65323 0.109969 12.9057 -5.59803 0.42687 13.0581 
-5.47702 0.495114 12.7883 -5.59803 0.42687 13.0581 -5.44438 0.837067 13.0748 
-5.31959 0.882121 12.803 -5.44438 0.837067 13.0748 -5.20935 1.28474 13.0297 
-5.20935 1.28474 13.0297 -5.28031 1.30082 13.2794 -4.97371 1.73077 13.1232 
-4.5961 2.22261 13.103 -4.89286 1.96464 13.3735 -4.59125 2.38308 13.4619 
-4.40379 2.48552 13.2014 -4.59125 2.38308 13.4619 -4.25032 2.77304 13.5395 
-4.05611 2.8639 13.2744 -4.25032 2.77304 13.5395 -3.9088 3.10866 13.6315 
-3.63238 3.27034 13.4403 -3.9088 3.10866 13.6315 -3.59857 3.36506 13.694 
-3.63238 3.27034 13.4403 -3.59857 3.36506 13.694 -3.18819 3.6549 13.7354 
-3.1739 3.61026 13.529 -3.18819 3.6549 13.7354 -2.64529 3.9335 13.6688 
-2.64529 3.9335 13.6688 -2.42953 4.08563 13.9815 -2.22512 4.1296 13.7377 
-1.79591 4.24166 13.5856 -1.87157 4.2893 13.9279 -1.46822 4.3984 13.8753 
-1.03244 4.44834 13.6761 -1.46822 4.3984 13.8753 -1.03001 4.49913 13.9663 
-1.03244 4.44834 13.6761 -1.03001 4.49913 13.9663 -0.662069 4.55519 13.9861 
0.131403 4.53534 13.6893 -0.105026 4.59339 14.0094 0.561419 4.56581 13.969 
0.798733 4.48828 13.6975 0.561419 4.56581 13.969 1.20468 4.46778 13.9655 
1.27794 4.39761 13.6761 1.20468 4.46778 13.9655 1.66648 4.3511 13.9239 
1.75997 4.26114 13.6086 1.66648 4.3511 13.9239 2.1428 4.1896 13.8827 
2.35427 4.05123 13.6278 2.1428 4.1896 13.8827 2.61884 3.97832 13.8407 
2.82963 3.80836 13.545 2.61884 3.97832 13.8407 2.96138 3.7943 13.7971 
2.82963 3.80836 13.545 2.96138 3.7943 13.7971 3.40751 3.51663 13.745 
3.54253 3.34477 13.4725 3.40751 3.51663 13.745 3.89594 3.11968 13.6315 
3.92192 2.9921 13.2983 3.89594 3.11968 13.6315 4.23973 2.78903 13.5576 
4.36232 2.56056 13.2699 4.23973 2.78903 13.5576 4.59147 2.37809 13.4565 
4.72706 2.08756 13.1519 4.59147 2.37809 13.4565 4.89359 1.95346 13.3418 
4.72706 2.08756 13.1519 4.89359 1.95346 13.3418 5.11585 1.5341 13.1655 
5.34253 0.782121 12.7487 5.4561 0.823968 13.0954 5.55874 0.384302 12.8814 
5.53723 0.139143 12.6332 5.55874 0.384302 12.8814 5.67468 -0.134381 12.78 
5.60386 -0.322364 12.5036 5.67468 -0.134381 12.78 5.70511 -0.644419 12.5823 
5.67427 -1.10199 12.3889 5.8109 -1.08548 12.7329 5.74441 -1.59573 12.4997 
5.47571 -2.28437 12.0401 5.57077 -2.37328 12.2425 5.40149 -2.77963 12.0493 
5.40149 -2.77963 12.0493 5.49219 -2.90193 12.3061 5.25675 -3.34475 12.0803 
5.13105 -3.24348 11.8066 5.25675 -3.34475 12.0803 5.08296 -3.68436 12.0016 
4.92026 -3.66786 11.7207 5.08296 -3.68436 12.0016 4.88955 -4.01171 11.925 
4.63413 -4.10147 11.6116 4.88955 -4.01171 11.925 4.58702 -4.43168 11.819 
4.25782 -4.59487 11.5175 4.58702 -4.43168 11.819 4.26429 -4.79701 11.7186 
4.25782 -4.59487 11.5175 4.26429 -4.79701 11.7186 3.98868 -5.08147 11.6662 
3.91269 -4.9369 11.4313 3.98868 -5.08147 11.6662 3.70027 -5.33265 11.6031 
3.63238 -5.21323 11.4036 3.70027 -5.33265 11.6031 3.28436 -5.63439 11.5202 
3.22939 -5.51718 11.336 3.28436 -5.63439 11.5202 2.85539 -5.89345 11.4554 
2.69949 -5.81395 11.2384 2.85539 -5.89345 11.4554 2.38397 -6.13401 11.4055 
2.1063 -6.09599 11.1899 2.38397 -6.13401 11.4055 1.85699 -6.38875 11.4326 
1.59734 -6.25286 11.1295 1.85699 -6.38875 11.4326 1.55302 -6.47414 11.4075 
1.59734 -6.25286 11.1295 1.55302 -6.47414 11.4075 1.13729 -6.52648 11.3149 
1.11597 -6.35202 11.0832 1.13729 -6.52648 11.3149 0.652971 -6.60744 11.3063 
-0.150259 -6.45177 11.0503 0.0730592 -6.64509 11.3049 -0.400177 -6.63025 11.3049 
-0.740927 -6.41326 11.066 -0.400177 -6.63025 11.3049 -0.919874 -6.52443 11.2467 
-1.39703 -6.28297 11.0906 -1.39156 -6.47296 11.3316 -1.90429 -6.3262 11.3674 
-1.90191 -6.10917 11.0969 -1.90429 -6.3262 11.3674 -2.39075 -6.13565 11.4139 
-2.3518 -5.95609 11.1708 -2.39075 -6.13565 11.4139 -2.73609 -5.96639 11.4537 
-2.75859 -5.73585 11.1966 -2.73609 -5.96639 11.4537 -3.08533 -5.77309 11.5053 
-3.22362 -5.47478 11.2875 -3.08533 -5.77309 11.5053 -3.51016 -5.49023 11.5789 
-3.51934 -5.26052 11.3407 -3.51016 -5.49023 11.5789 -3.90581 -5.16299 11.6508 
-3.94001 -4.94011 11.4616 -3.90581 -5.16299 11.6508 -4.24585 -4.82431 11.7205 
-4.36232 -4.50346 11.574 -4.24585 -4.82431 11.7205 -4.64185 -4.41865 11.8908 
-4.63013 -4.09363 11.6002 -4.64185 -4.41865 11.8908 -4.81804 -4.11551 11.8981 
-4.63013 -4.09363 11.6002 -4.81804 -4.11551 11.8981 -4.95031 -3.71881 11.7995 
-5.33991 -2.75562 11.9368 -5.44551 -2.87472 12.182 -5.56474 -2.51647 12.282 
-5.4526 -2.399 12.023 -5.56474 -2.51647 12.282 -5.66134 -2.14033 12.3765 
-5.542 -2.06108 12.1149 -5.66134 -2.14033 12.3765 -5.73582 -1.66586 12.4832 
-5.54923 -0.88325 12.2115 -5.67427 -0.840104 12.4517 -5.61924 -0.328123 12.5277 
-5.27724 0.619293 12.5082 -5.47702 0.495114 12.7883 -5.31959 0.882121 12.803 
-5.06842 1.3273 12.7859 -5.20935 1.28474 13.0297 -4.97371 1.73077 13.1232 
-4.83574 1.76774 12.8895 -4.97371 1.73077 13.1232 -4.5961 2.22261 13.103 
-3.56187 3.23697 13.2387 -3.63238 3.27034 13.4403 -3.1739 3.61026 13.529 
-2.72932 3.82797 13.4624 -3.1739 3.61026 13.529 -2.64529 3.9335 13.6688 
-2.31856 4.02432 13.497 -2.64529 3.9335 13.6688 -2.22512 4.1296 13.7377 
-2.31856 4.02432 13.497 -2.22512 4.1296 13.7377 -1.79591 4.24166 13.5856 
-1.79591 4.24166 13.5856 -1.46822 4.3984 13.8753 -1.03244 4.44834 13.6761 
-0.643026 4.41069 13.4128 -1.03244 4.44834 13.6761 -0.314371 4.53539 13.7136 
2.30693 4.00257 13.422 2.35427 4.05123 13.6278 2.82963 3.80836 13.545 
3.53434 3.25484 13.2369 3.54253 3.34477 13.4725 3.92192 2.9921 13.2983 
4.28279 2.53597 13.0704 4.36232 2.56056 13.2699 4.72706 2.08756 13.1519 
4.90969 1.70785 12.9534 4.72706 2.08756 13.1519 5.11585 1.5341 13.1655 
5.10869 1.31128 12.8457 5.11585 1.5341 13.1655 5.26726 1.17152 13.0275 
5.10869 1.31128 12.8457 5.26726 1.17152 13.0275 5.34253 0.782121 12.7487 
5.34253 0.782121 12.7487 5.55874 0.384302 12.8814 5.53723 0.139143 12.6332 
5.57498 -0.916254 12.2423 5.70511 -0.644419 12.5823 5.67427 -1.10199 12.3889 
5.57498 -0.916254 12.2423 5.67427 -1.10199 12.3889 5.63214 -1.47115 12.2599 
5.2957 -2.74615 11.8699 5.40149 -2.77963 12.0493 5.13105 -3.24348 11.8066 
3.56866 -5.0749 11.2313 3.63238 -5.21323 11.4036 3.22939 -5.51718 11.336 
3.15071 -5.34278 11.122 3.22939 -5.51718 11.336 2.69949 -5.81395 11.2384 
2.58615 -5.74705 11.1019 2.69949 -5.81395 11.2384 2.1063 -6.09599 11.1899 
1.86643 -5.97067 10.9577 2.1063 -6.09599 11.1899 1.59734 -6.25286 11.1295 
-0.740927 -6.41326 11.066 -0.919874 -6.52443 11.2467 -1.39703 -6.28297 11.0906 
-3.89787 -4.81966 11.3226 -3.94001 -4.94011 11.4616 -4.36232 -4.50346 11.574 
-4.27933 -4.38748 11.4016 -4.36232 -4.50346 11.574 -4.63013 -4.09363 11.6002 
-4.85621 -3.57618 11.5988 -4.95031 -3.71881 11.7995 -5.20368 -3.3635 11.9849 
-5.091 -3.16333 11.7218 -5.20368 -3.3635 11.9849 -5.33991 -2.75562 11.9368 
-5.45245 -0.263484 12.2823 -5.61924 -0.328123 12.5277 -5.5298 0.150022 12.6236 
-5.3649 0.192198 12.3762 -5.5298 0.150022 12.6236 -5.27724 0.619293 12.5082 
-5.08408 1.07039 12.5755 -5.31959 0.882121 12.803 -5.06842 1.3273 12.7859 
-4.1951 2.53157 12.9373 -4.40379 2.48552 13.2014 -4.05611 2.8639 13.2744 
-3.82094 2.92305 13.0301 -4.05611 2.8639 13.2744 -3.56187 3.23697 13.2387 
-2.60458 3.79731 13.2463 -2.72932 3.82797 13.4624 -2.31856 4.02432 13.497 
-1.9516 4.09379 13.3283 -2.31856 4.02432 13.497 -1.79591 4.24166 13.5856 
-1.22216 4.29875 13.3598 -1.79591 4.24166 13.5856 -1.03244 4.44834 13.6761 
-1.22216 4.29875 13.3598 -1.03244 4.44834 13.6761 -0.643026 4.41069 13.4128 
-0.104961 4.43117 13.3944 -0.314371 4.53539 13.7136 0.131403 4.53534 13.6893 
1.10435 4.32614 13.3697 0.798733 4.48828 13.6975 1.27794 4.39761 13.6761 
1.10435 4.32614 13.3697 1.27794 4.39761 13.6761 1.75997 4.26114 13.6086 
1.69437 4.15774 13.2928 1.75997 4.26114 13.6086 2.30693 4.00257 13.422 
2.91986 3.6111 13.1949 2.82963 3.80836 13.545 3.24173 3.52672 13.4047 
4.03703 2.69632 12.9671 3.92192 2.9921 13.2983 4.28279 2.53597 13.0704 
4.82555 1.6435 12.7319 4.90969 1.70785 12.9534 5.10869 1.31128 12.8457 
5.13784 0.962442 12.5557 5.10869 1.31128 12.8457 5.34253 0.782121 12.7487 
5.36662 0.246621 12.4044 5.34253 0.782121 12.7487 5.53723 0.139143 12.6332 
5.36662 0.246621 12.4044 5.53723 0.139143 12.6332 5.60386 -0.322364 12.5036 
5.45208 -0.294846 12.2661 5.60386 -0.322364 12.5036 5.57498 -0.916254 12.2423 
5.49248 -1.51698 12.0347 5.63214 -1.47115 12.2599 5.59089 -1.89907 12.1829 
5.3516 -2.10245 11.837 5.59089 -1.89907 12.1829 5.47571 -2.28437 12.0401 
5.3516 -2.10245 11.837 5.47571 -2.28437 12.0401 5.2957 -2.74615 11.8699 
5.15875 -2.69312 11.6814 5.2957 -2.74615 11.8699 5.13105 -3.24348 11.8066 
4.97515 -3.12891 11.5765 5.13105 -3.24348 11.8066 4.92026 -3.66786 11.7207 
4.70421 -3.65794 11.4647 4.92026 -3.66786 11.7207 4.63413 -4.10147 11.6116 
4.35983 -4.13549 11.3413 4.63413 -4.10147 11.6116 4.25782 -4.59487 11.5175 
4.06935 -4.53687 11.2979 4.25782 -4.59487 11.5175 3.91269 -4.9369 11.4313 
3.80033 -4.73557 11.1932 3.91269 -4.9369 11.4313 3.56866 -5.0749 11.2313 
1.34259 -6.06881 10.8757 1.59734 -6.25286 11.1295 1.11597 -6.35202 11.0832 
0.703234 -6.20349 10.8598 1.11597 -6.35202 11.0832 0.742671 -6.41442 11.0731 
0.703234 -6.20349 10.8598 0.742671 -6.41442 11.0731 0.324856 -6.47072 11.0806 
0.107494 -6.24155 10.8471 0.324856 -6.47072 11.0806 -0.150259 -6.45177 11.0503 
-0.506187 -6.22052 10.8518 -0.150259 -6.45177 11.0503 -0.740927 -6.41326 11.066 
-0.972136 -6.15448 10.8651 -0.740927 -6.41326 11.066 -1.39703 -6.28297 11.0906 
-1.34879 -6.06872 10.879 -1.39703 -6.28297 11.0906 -1.90191 -6.10917 11.0969 
-2.41686 -5.68398 10.9665 -2.3518 -5.95609 11.1708 -2.75859 -5.73585 11.1966 
-2.97069 -5.34907 11.0177 -2.75859 -5.73585 11.1966 -3.22362 -5.47478 11.2875 
-3.43899 -5.05226 11.1186 -3.22362 -5.47478 11.2875 -3.51934 -5.26052 11.3407 
-3.43899 -5.05226 11.1186 -3.51934 -5.26052 11.3407 -3.89787 -4.81966 11.3226 
-4.63285 -3.72535 11.4246 -4.63013 -4.09363 11.6002 -4.85621 -3.57618 11.5988 
-5.17825 -2.65824 11.6979 -5.33991 -2.75562 11.9368 -5.4526 -2.399 12.023 
-5.33846 -2.08487 11.8198 -5.4526 -2.399 12.023 -5.542 -2.06108 12.1149 
-5.33846 -2.08487 11.8198 -5.542 -2.06108 12.1149 -5.60303 -1.687 12.1998 
-5.49226 -1.51398 12.0326 -5.60303 -1.687 12.1998 -5.65778 -1.28296 12.322 
-5.39383 -0.540105 12.1038 -5.54923 -0.88325 12.2115 -5.45245 -0.263484 12.2823 
-4.78508 1.62206 12.6603 -5.06842 1.3273 12.7859 -4.83574 1.76774 12.8895 
-4.47447 2.13363 12.8011 -4.83574 1.76774 12.8895 -4.5961 2.22261 13.103 
-4.47447 2.13363 12.8011 -4.5961 2.22261 13.103 -4.1951 2.53157 12.9373 
-3.21834 3.37368 13.0743 -3.56187 3.23697 13.2387 -3.15812 3.53533 13.3088 
-3.21834 3.37368 13.0743 -3.15812 3.53533 13.3088 -2.60458 3.79731 13.2463 
2.37361 3.86512 13.1918 2.30693 4.00257 13.422 2.63933 3.83906 13.3798 
2.37361 3.86512 13.1918 2.63933 3.83906 13.3798 2.91986 3.6111 13.1949 
3.29438 3.31867 13.0706 3.24173 3.52672 13.4047 3.53434 3.25484 13.2369 
3.677 3.01885 13.0118 3.53434 3.25484 13.2369 3.92192 2.9921 13.2983 
3.677 3.01885 13.0118 3.92192 2.9921 13.2983 4.03703 2.69632 12.9671 
4.37125 2.19027 12.7315 4.28279 2.53597 13.0704 4.58666 2.14948 12.9789 
4.37125 2.19027 12.7315 4.58666 2.14948 12.9789 4.82555 1.6435 12.7319 
5.43924 -0.888952 12.0606 5.57498 -0.916254 12.2423 5.49248 -1.51698 12.0347 
5.35113 -1.48814 11.8572 5.49248 -1.51698 12.0347 5.3516 -2.10245 11.837 
3.96514 -4.41528 11.1527 4.06935 -4.53687 11.2979 3.80033 -4.73557 11.1932 
3.4261 -4.92045 11.0377 3.56866 -5.0749 11.2313 3.15071 -5.34278 11.122 
2.75022 -5.45053 10.9691 3.15071 -5.34278 11.122 2.58615 -5.74705 11.1019 
2.24572 -5.69768 10.906 2.58615 -5.74705 11.1019 1.86643 -5.97067 10.9577 
-1.87711 -5.8666 10.884 -1.90191 -6.10917 11.0969 -2.41686 -5.68398 10.9665 
-2.41686 -5.68398 10.9665 -2.75859 -5.73585 11.1966 -2.97069 -5.34907 11.0177 
-3.93305 -4.53785 11.1858 -3.89787 -4.81966 11.3226 -4.27933 -4.38748 11.4016 
-4.33531 -4.09133 11.3035 -4.27933 -4.38748 11.4016 -4.63013 -4.09363 11.6002 
-4.33531 -4.09133 11.3035 -4.63013 -4.09363 11.6002 -4.63285 -3.72535 11.4246 
-4.86261 -3.14423 11.464 -4.85621 -3.57618 11.5988 -5.091 -3.16333 11.7218 
-4.86261 -3.14423 11.464 -5.091 -3.16333 11.7218 -5.17825 -2.65824 11.6979 
-5.35602 -1.44167 11.8667 -5.49226 -1.51398 12.0326 -5.54923 -0.88325 12.2115 
-5.23268 -0.120301 12.0745 -5.45245 -0.263484 12.2823 -5.3649 0.192198 12.3762 
-5.14295 0.328373 12.1764 -5.3649 0.192198 12.3762 -5.27724 0.619293 12.5082 
-4.98178 0.859128 12.3048 -5.27724 0.619293 12.5082 -5.08408 1.07039 12.5755 
-4.76898 1.3635 12.424 -5.08408 1.07039 12.5755 -4.78508 1.62206 12.6603 
-4.47445 1.88032 12.5473 -4.78508 1.62206 12.6603 -4.47447 2.13363 12.8011 
-4.20987 2.26557 12.6498 -4.47447 2.13363 12.8011 -4.1951 2.53157 12.9373 
-3.86834 2.65499 12.7361 -4.1951 2.53157 12.9373 -3.82094 2.92305 13.0301 
-3.55105 2.96221 12.8154 -3.82094 2.92305 13.0301 -3.21834 3.37368 13.0743 
-2.70924 3.56158 12.9484 -3.21834 3.37368 13.0743 -2.60458 3.79731 13.2463 
-2.18248 3.84023 13.0287 -2.60458 3.79731 13.2463 -1.9516 4.09379 13.3283 
-1.58913 4.06317 13.0819 -1.9516 4.09379 13.3283 -1.22216 4.29875 13.3598 
-0.940558 4.19882 13.0925 -1.22216 4.29875 13.3598 -0.643026 4.41069 13.4128 
-0.364724 4.28236 13.132 -0.643026 4.41069 13.4128 -0.104961 4.43117 13.3944 
0.138879 4.2958 13.1376 -0.104961 4.43117 13.3944 0.518785 4.42645 13.422 
0.618792 4.25159 13.1147 0.518785 4.42645 13.422 1.10435 4.32614 13.3697 
1.19689 4.16096 13.1017 1.10435 4.32614 13.3697 1.69437 4.15774 13.2928 
1.86217 3.94338 13.0212 1.69437 4.15774 13.2928 2.37361 3.86512 13.1918 
2.50345 3.67858 12.9794 2.37361 3.86512 13.1918 2.91986 3.6111 13.1949 
2.99708 3.38538 12.9135 2.91986 3.6111 13.1949 3.29438 3.31867 13.0706 
3.38593 3.09418 12.839 3.29438 3.31867 13.0706 3.677 3.01885 13.0118 
3.82955 2.68795 12.7364 3.677 3.01885 13.0118 4.03703 2.69632 12.9671 
3.82955 2.68795 12.7364 4.03703 2.69632 12.9671 4.37125 2.19027 12.7315 
4.85396 1.18819 12.3846 4.82555 1.6435 12.7319 5.13784 0.962442 12.5557 
5.06618 0.626301 12.2537 5.13784 0.962442 12.5557 5.36662 0.246621 12.4044 
5.17229 0.176271 12.1378 5.36662 0.246621 12.4044 5.45208 -0.294846 12.2661 
5.25145 -0.298266 12.0259 5.45208 -0.294846 12.2661 5.43924 -0.888952 12.0606 
5.27881 -0.870912 11.8848 5.43924 -0.888952 12.0606 5.35113 -1.48814 11.8572 
5.06872 -2.32315 11.5494 5.3516 -2.10245 11.837 5.15875 -2.69312 11.6814 
4.90621 -2.76278 11.441 5.15875 -2.69312 11.6814 4.97515 -3.12891 11.5765 
4.70623 -3.19994 11.3395 4.97515 -3.12891 11.5765 4.70421 -3.65794 11.4647 
4.47973 -3.59135 11.2492 4.70421 -3.65794 11.4647 4.35983 -4.13549 11.3413 
4.19176 -3.9853 11.149 4.35983 -4.13549 11.3413 3.96514 -4.41528 11.1527 
3.50821 -4.6655 10.9664 3.80033 -4.73557 11.1932 3.4261 -4.92045 11.0377 
3.01229 -5.06878 10.8857 3.15071 -5.34278 11.122 2.75022 -5.45053 10.9691 
2.51547 -5.34529 10.8013 2.75022 -5.45053 10.9691 2.24572 -5.69768 10.906 
1.85859 -5.6563 10.7403 2.24572 -5.69768 10.906 1.86643 -5.97067 10.9577 
1.85859 -5.6563 10.7403 1.86643 -5.97067 10.9577 1.34259 -6.06881 10.8757 
1.29565 -5.81536 10.6961 1.34259 -6.06881 10.8757 0.848537 -5.95608 10.7016 
0.360513 -5.98549 10.6759 0.703234 -6.20349 10.8598 0.107494 -6.24155 10.8471 
-0.12626 -6.0441 10.705 0.107494 -6.24155 10.8471 -0.506187 -6.22052 10.8518 
-0.60269 -5.95847 10.6775 -0.506187 -6.22052 10.8518 -0.972136 -6.15448 10.8651 
-1.0737 -5.87929 10.6912 -0.972136 -6.15448 10.8651 -1.34879 -6.06872 10.879 
-1.63436 -5.73998 10.7279 -1.34879 -6.06872 10.879 -1.87711 -5.8666 10.884 
-2.20355 -5.51138 10.7736 -1.87711 -5.8666 10.884 -2.41686 -5.68398 10.9665 
-2.66714 -5.24832 10.817 -2.41686 -5.68398 10.9665 -2.97069 -5.34907 11.0177 
-3.63538 -4.57234 10.9999 -3.43899 -5.05226 11.1186 -3.93305 -4.53785 11.1858 
-4.04898 -4.1432 11.1037 -3.93305 -4.53785 11.1858 -4.33531 -4.09133 11.3035 
-4.42828 -3.6527 11.2224 -4.33531 -4.09133 11.3035 -4.63285 -3.72535 11.4246 
-4.42828 -3.6527 11.2224 -4.63285 -3.72535 11.4246 -4.86261 -3.14423 11.464 
-4.99486 -2.53741 11.4967 -5.17825 -2.65824 11.6979 -5.33846 -2.08487 11.8198 
-5.15448 -1.98738 11.6229 -5.33846 -2.08487 11.8198 -5.35602 -1.44167 11.8667 
-5.22048 -0.68118 11.8806 -5.39129 -0.972294 11.9865 -5.39383 -0.540105 12.1038 
-5.22048 -0.68118 11.8806 -5.39383 -0.540105 12.1038 -5.23268 -0.120301 12.0745 
4.23098 2.1285 12.5443 4.37125 2.19027 12.7315 4.60827 1.67593 12.5076 
5.18806 -1.42995 11.7034 5.35113 -1.48814 11.8572 5.17667 -1.89163 11.6503 
3.7314 -4.24233 10.946 3.96514 -4.41528 11.1527 3.50821 -4.6655 10.9664 
3.50821 -4.6655 10.9664 3.4261 -4.92045 11.0377 3.01229 -5.06878 10.8857 
-0.380146 -5.78708 10.5704 -0.12626 -6.0441 10.705 -0.60269 -5.95847 10.6775 
-2.66714 -5.24832 10.817 -2.97069 -5.34907 11.0177 -3.21835 -4.92508 10.9211 
-4.72393 -3.08096 11.334 -4.86261 -3.14423 11.464 -4.99486 -2.53741 11.4967 
-5.20091 -1.32063 11.7283 -5.35602 -1.44167 11.8667 -5.39129 -0.972294 11.9865 
-5.07011 -0.456337 11.8167 -5.22048 -0.68118 11.8806 -5.23268 -0.120301 12.0745 
-5.00644 -0.0123368 11.9169 -5.23268 -0.120301 12.0745 -5.14295 0.328373 12.1764 
-4.90754 0.475091 12.0397 -5.14295 0.328373 12.1764 -4.98178 0.859128 12.3048 
-4.75859 0.921516 12.1469 -4.98178 0.859128 12.3048 -4.76898 1.3635 12.424 
-4.56993 1.36294 12.2543 -4.76898 1.3635 12.424 -4.47445 1.88032 12.5473 
-4.2912 1.84517 12.3713 -4.47445 1.88032 12.5473 -4.20987 2.26557 12.6498 
-4.03289 2.20728 12.4592 -4.20987 2.26557 12.6498 -3.86834 2.65499 12.7361 
-3.37643 2.89338 12.6247 -3.86834 2.65499 12.7361 -3.55105 2.96221 12.8154 
-3.37643 2.89338 12.6247 -3.55105 2.96221 12.8154 -3.19726 3.23773 12.872 
-2.99251 3.18499 12.6904 -3.19726 3.23773 12.872 -2.70924 3.56158 12.9484 
-2.58313 3.45656 12.7594 -2.70924 3.56158 12.9484 -2.18248 3.84023 13.0287 
-2.07712 3.70612 12.8181 -2.18248 3.84023 13.0287 -1.58913 4.06317 13.0819 
-1.11133 4.00925 12.8812 -1.58913 4.06317 13.0819 -0.940558 4.19882 13.0925 
-0.464176 4.1194 12.917 -0.940558 4.19882 13.0925 -0.364724 4.28236 13.132 
-0.464176 4.1194 12.917 -0.364724 4.28236 13.132 0.138879 4.2958 13.1376 
0.109471 4.14084 12.9263 0.138879 4.2958 13.1376 0.618792 4.25159 13.1147 
0.676179 4.09748 12.9127 0.618792 4.25159 13.1147 1.19689 4.16096 13.1017 
1.25959 3.98305 12.8831 1.19689 4.16096 13.1017 1.86217 3.94338 13.0212 
2.19707 3.64241 12.7939 1.86217 3.94338 13.0212 2.50345 3.67858 12.9794 
2.66658 3.39319 12.7357 2.50345 3.67858 12.9794 2.99708 3.38538 12.9135 
2.98466 3.1904 12.6916 2.99708 3.38538 12.9135 3.38593 3.09418 12.839 
3.27718 2.97336 12.6421 3.38593 3.09418 12.839 3.82955 2.68795 12.7364 
3.90776 2.33996 12.4816 3.82955 2.68795 12.7364 4.23098 2.1285 12.5443 
4.2344 1.93538 12.3946 4.23098 2.1285 12.5443 4.60827 1.67593 12.5076 
4.52382 1.41809 12.2549 4.60827 1.67593 12.5076 4.85396 1.18819 12.3846 
4.75521 0.930045 12.1489 4.85396 1.18819 12.3846 5.06618 0.626301 12.2537 
4.90705 0.471497 12.037 5.06618 0.626301 12.2537 5.17229 0.176271 12.1378 
5.01926 -0.0554745 11.9106 5.17229 0.176271 12.1378 5.25145 -0.298266 12.0259 
5.07815 -0.592444 11.7836 5.25145 -0.298266 12.0259 5.27881 -0.870912 11.8848 
5.06311 -1.1226 11.6505 5.27881 -0.870912 11.8848 5.18806 -1.42995 11.7034 
5.01032 -1.56179 11.5436 5.18806 -1.42995 11.7034 5.17667 -1.89163 11.6503 
4.95198 -1.90486 11.4684 5.17667 -1.89163 11.6503 5.06872 -2.32315 11.5494 
4.8113 -2.37638 11.3489 5.06872 -2.32315 11.5494 4.90621 -2.76278 11.441 
4.56699 -2.99316 11.2126 4.90621 -2.76278 11.441 4.70623 -3.19994 11.3395 
4.56699 -2.99316 11.2126 4.70623 -3.19994 11.3395 4.47973 -3.59135 11.2492 
4.3071 -3.4407 11.1052 4.47973 -3.59135 11.2492 4.19176 -3.9853 11.149 
3.99799 -3.85096 10.998 4.19176 -3.9853 11.149 3.7314 -4.24233 10.946 
3.33206 -4.55042 10.839 3.50821 -4.6655 10.9664 3.01229 -5.06878 10.8857 
2.89046 -4.87238 10.7577 3.01229 -5.06878 10.8857 2.51547 -5.34529 10.8013 
1.98794 -5.36238 10.643 2.51547 -5.34529 10.8013 1.85859 -5.6563 10.7403 
1.47545 -5.52343 10.5938 1.85859 -5.6563 10.7403 1.29565 -5.81536 10.6961 
1.07158 -5.62871 10.5706 1.29565 -5.81536 10.6961 0.848537 -5.95608 10.7016 
0.683954 -5.69987 10.5572 0.848537 -5.95608 10.7016 0.360513 -5.98549 10.6759 
-0.801506 -5.67852 10.5593 -0.60269 -5.95847 10.6775 -1.0737 -5.87929 10.6912 
-1.23366 -5.59957 10.5813 -1.0737 -5.87929 10.6912 -1.63436 -5.73998 10.7279 
-1.70456 -5.46221 10.6153 -1.63436 -5.73998 10.7279 -2.20355 -5.51138 10.7736 
-2.21625 -5.2391 10.6588 -2.20355 -5.51138 10.7736 -2.66714 -5.24832 10.817 
-2.72802 -4.97401 10.7318 -2.66714 -5.24832 10.817 -3.21835 -4.92508 10.9211 
-3.10336 -4.72019 10.7931 -3.21835 -4.92508 10.9211 -3.63538 -4.57234 10.9999 
-3.53525 -4.36969 10.8828 -3.63538 -4.57234 10.9999 -4.04898 -4.1432 11.1037 
-3.90401 -3.98311 10.976 -4.04898 -4.1432 11.1037 -4.42828 -3.6527 11.2224 
-4.2465 -3.52919 11.0801 -4.42828 -3.6527 11.2224 -4.72393 -3.08096 11.334 
-4.78335 -2.48385 11.33 -4.72393 -3.08096 11.334 -4.99486 -2.53741 11.4967 
-4.78335 -2.48385 11.33 -4.99486 -2.53741 11.4967 -5.15448 -1.98738 11.6229 
-4.96602 -1.86635 11.4785 -5.15448 -1.98738 11.6229 -5.20091 -1.32063 11.7283 
-5.0821 -0.892418 11.7129 -5.20091 -1.32063 11.7283 -5.22048 -0.68118 11.8806 
-5.20091 -1.32063 11.7283 -5.0821 -0.892418 11.7129 -5.04388 -1.33092 11.6002 
-5.20091 -1.32063 11.7283 -5.04388 -1.33092 11.6002 -4.96602 -1.86635 11.4785 
-5.15448 -1.98738 11.6229 -4.96602 -1.86635 11.4785 -4.78335 -2.48385 11.33 
-4.72393 -3.08096 11.334 -4.78335 -2.48385 11.33 -4.52524 -3.06016 11.1931 
-4.72393 -3.08096 11.334 -4.52524 -3.06016 11.1931 -4.2465 -3.52919 11.0801 
-4.42828 -3.6527 11.2224 -4.2465 -3.52919 11.0801 -3.90401 -3.98311 10.976 
-4.04898 -4.1432 11.1037 -3.90401 -3.98311 10.976 -3.53525 -4.36969 10.8828 
-3.63538 -4.57234 10.9999 -3.53525 -4.36969 10.8828 -3.10336 -4.72019 10.7931 
-3.21835 -4.92508 10.9211 -3.10336 -4.72019 10.7931 -2.72802 -4.97401 10.7318 
-2.66714 -5.24832 10.817 -2.72802 -4.97401 10.7318 -2.21625 -5.2391 10.6588 
-2.20355 -5.51138 10.7736 -2.21625 -5.2391 10.6588 -1.70456 -5.46221 10.6153 
-1.63436 -5.73998 10.7279 -1.70456 -5.46221 10.6153 -1.23366 -5.59957 10.5813 
-1.0737 -5.87929 10.6912 -1.23366 -5.59957 10.5813 -0.801506 -5.67852 10.5593 
-0.60269 -5.95847 10.6775 -0.801506 -5.67852 10.5593 -0.380146 -5.78708 10.5704 
0.360513 -5.98549 10.6759 0.171139 -5.77609 10.5586 0.683954 -5.69987 10.5572 
0.848537 -5.95608 10.7016 0.683954 -5.69987 10.5572 1.07158 -5.62871 10.5706 
1.29565 -5.81536 10.6961 1.07158 -5.62871 10.5706 1.47545 -5.52343 10.5938 
1.85859 -5.6563 10.7403 1.47545 -5.52343 10.5938 1.98794 -5.36238 10.643 
2.51547 -5.34529 10.8013 1.98794 -5.36238 10.643 2.48846 -5.10514 10.6949 
2.51547 -5.34529 10.8013 2.48846 -5.10514 10.6949 2.89046 -4.87238 10.7577 
3.01229 -5.06878 10.8857 2.89046 -4.87238 10.7577 3.33206 -4.55042 10.839 
3.50821 -4.6655 10.9664 3.33206 -4.55042 10.839 3.7314 -4.24233 10.946 
4.19176 -3.9853 11.149 3.99799 -3.85096 10.998 4.3071 -3.4407 11.1052 
4.47973 -3.59135 11.2492 4.3071 -3.4407 11.1052 4.56699 -2.99316 11.2126 
4.90621 -2.76278 11.441 4.56699 -2.99316 11.2126 4.8113 -2.37638 11.3489 
5.06872 -2.32315 11.5494 4.8113 -2.37638 11.3489 4.95198 -1.90486 11.4684 
5.17667 -1.89163 11.6503 4.95198 -1.90486 11.4684 5.01032 -1.56179 11.5436 
5.18806 -1.42995 11.7034 5.01032 -1.56179 11.5436 5.06311 -1.1226 11.6505 
5.27881 -0.870912 11.8848 5.06311 -1.1226 11.6505 5.07815 -0.592444 11.7836 
5.25145 -0.298266 12.0259 5.07815 -0.592444 11.7836 5.01926 -0.0554745 11.9106 
5.17229 0.176271 12.1378 5.01926 -0.0554745 11.9106 4.90705 0.471497 12.037 
5.06618 0.626301 12.2537 4.90705 0.471497 12.037 4.75521 0.930045 12.1489 
4.85396 1.18819 12.3846 4.75521 0.930045 12.1489 4.52382 1.41809 12.2549 
4.60827 1.67593 12.5076 4.52382 1.41809 12.2549 4.2344 1.93538 12.3946 
4.23098 2.1285 12.5443 4.2344 1.93538 12.3946 3.90776 2.33996 12.4816 
3.82955 2.68795 12.7364 3.90776 2.33996 12.4816 3.6082 2.67537 12.5688 
3.82955 2.68795 12.7364 3.6082 2.67537 12.5688 3.27718 2.97336 12.6421 
3.38593 3.09418 12.839 3.27718 2.97336 12.6421 2.98466 3.1904 12.6916 
2.99708 3.38538 12.9135 2.98466 3.1904 12.6916 2.66658 3.39319 12.7357 
2.50345 3.67858 12.9794 2.66658 3.39319 12.7357 2.19707 3.64241 12.7939 
1.86217 3.94338 13.0212 2.19707 3.64241 12.7939 1.69894 3.84272 12.8424 
1.86217 3.94338 13.0212 1.69894 3.84272 12.8424 1.25959 3.98305 12.8831 
1.19689 4.16096 13.1017 1.25959 3.98305 12.8831 0.676179 4.09748 12.9127 
0.618792 4.25159 13.1147 0.676179 4.09748 12.9127 0.109471 4.14084 12.9263 
0.138879 4.2958 13.1376 0.109471 4.14084 12.9263 -0.464176 4.1194 12.917 
-0.940558 4.19882 13.0925 -0.464176 4.1194 12.917 -1.11133 4.00925 12.8812 
-1.58913 4.06317 13.0819 -1.11133 4.00925 12.8812 -1.68421 3.85822 12.8541 
-1.58913 4.06317 13.0819 -1.68421 3.85822 12.8541 -2.07712 3.70612 12.8181 
-2.18248 3.84023 13.0287 -2.07712 3.70612 12.8181 -2.58313 3.45656 12.7594 
-2.70924 3.56158 12.9484 -2.58313 3.45656 12.7594 -2.99251 3.18499 12.6904 
-3.19726 3.23773 12.872 -2.99251 3.18499 12.6904 -3.37643 2.89338 12.6247 
-3.86834 2.65499 12.7361 -3.37643 2.89338 12.6247 -3.7286 2.53937 12.5295 
-3.86834 2.65499 12.7361 -3.7286 2.53937 12.5295 -4.03289 2.20728 12.4592 
-4.20987 2.26557 12.6498 -4.03289 2.20728 12.4592 -4.2912 1.84517 12.3713 
-4.47445 1.88032 12.5473 -4.2912 1.84517 12.3713 -4.56993 1.36294 12.2543 
-4.76898 1.3635 12.424 -4.56993 1.36294 12.2543 -4.75859 0.921516 12.1469 
-4.98178 0.859128 12.3048 -4.75859 0.921516 12.1469 -4.90754 0.475091 12.0397 
-5.14295 0.328373 12.1764 -4.90754 0.475091 12.0397 -5.00644 -0.0123368 11.9169 
-5.23268 -0.120301 12.0745 -5.00644 -0.0123368 11.9169 -5.07011 -0.456337 11.8167 
-5.22048 -0.68118 11.8806 -5.07011 -0.456337 11.8167 -5.0821 -0.892418 11.7129 
-5.39129 -0.972294 11.9865 -5.22048 -0.68118 11.8806 -5.20091 -1.32063 11.7283 
-5.35602 -1.44167 11.8667 -5.20091 -1.32063 11.7283 -5.15448 -1.98738 11.6229 
-0.12626 -6.0441 10.705 -0.380146 -5.78708 10.5704 0.171139 -5.77609 10.5586 
-0.12626 -6.0441 10.705 0.171139 -5.77609 10.5586 0.360513 -5.98549 10.6759 
3.96514 -4.41528 11.1527 3.7314 -4.24233 10.946 4.19176 -3.9853 11.149 
5.35113 -1.48814 11.8572 5.18806 -1.42995 11.7034 5.27881 -0.870912 11.8848 
4.37125 2.19027 12.7315 4.23098 2.1285 12.5443 3.82955 2.68795 12.7364 
1.69437 4.15774 13.2928 1.86217 3.94338 13.0212 1.19689 4.16096 13.1017 
-5.33846 -2.08487 11.8198 -5.15448 -1.98738 11.6229 -4.99486 -2.53741 11.4967 
-5.17825 -2.65824 11.6979 -4.99486 -2.53741 11.4967 -4.86261 -3.14423 11.464 
-4.86261 -3.14423 11.464 -4.72393 -3.08096 11.334 -4.42828 -3.6527 11.2224 
-4.33531 -4.09133 11.3035 -4.42828 -3.6527 11.2224 -4.04898 -4.1432 11.1037 
-3.93305 -4.53785 11.1858 -4.04898 -4.1432 11.1037 -3.63538 -4.57234 10.9999 
-3.43899 -5.05226 11.1186 -3.63538 -4.57234 10.9999 -3.21835 -4.92508 10.9211 
-3.43899 -5.05226 11.1186 -3.21835 -4.92508 10.9211 -2.97069 -5.34907 11.0177 
-2.41686 -5.68398 10.9665 -2.66714 -5.24832 10.817 -2.20355 -5.51138 10.7736 
-1.87711 -5.8666 10.884 -2.20355 -5.51138 10.7736 -1.63436 -5.73998 10.7279 
-1.34879 -6.06872 10.879 -1.63436 -5.73998 10.7279 -1.0737 -5.87929 10.6912 
-0.972136 -6.15448 10.8651 -1.0737 -5.87929 10.6912 -0.60269 -5.95847 10.6775 
-0.506187 -6.22052 10.8518 -0.60269 -5.95847 10.6775 -0.12626 -6.0441 10.705 
0.107494 -6.24155 10.8471 -0.12626 -6.0441 10.705 0.360513 -5.98549 10.6759 
0.703234 -6.20349 10.8598 0.360513 -5.98549 10.6759 0.848537 -5.95608 10.7016 
1.34259 -6.06881 10.8757 1.29565 -5.81536 10.6961 1.85859 -5.6563 10.7403 
2.24572 -5.69768 10.906 1.85859 -5.6563 10.7403 2.51547 -5.34529 10.8013 
2.75022 -5.45053 10.9691 2.51547 -5.34529 10.8013 3.01229 -5.06878 10.8857 
3.15071 -5.34278 11.122 3.01229 -5.06878 10.8857 3.4261 -4.92045 11.0377 
3.80033 -4.73557 11.1932 3.50821 -4.6655 10.9664 3.96514 -4.41528 11.1527 
4.35983 -4.13549 11.3413 4.19176 -3.9853 11.149 4.47973 -3.59135 11.2492 
4.70421 -3.65794 11.4647 4.47973 -3.59135 11.2492 4.70623 -3.19994 11.3395 
4.97515 -3.12891 11.5765 4.70623 -3.19994 11.3395 4.90621 -2.76278 11.441 
5.15875 -2.69312 11.6814 4.90621 -2.76278 11.441 5.06872 -2.32315 11.5494 
5.3516 -2.10245 11.837 5.06872 -2.32315 11.5494 5.17667 -1.89163 11.6503 
5.3516 -2.10245 11.837 5.17667 -1.89163 11.6503 5.35113 -1.48814 11.8572 
5.43924 -0.888952 12.0606 5.27881 -0.870912 11.8848 5.25145 -0.298266 12.0259 
5.45208 -0.294846 12.2661 5.25145 -0.298266 12.0259 5.17229 0.176271 12.1378 
5.36662 0.246621 12.4044 5.17229 0.176271 12.1378 5.06618 0.626301 12.2537 
5.13784 0.962442 12.5557 5.06618 0.626301 12.2537 4.85396 1.18819 12.3846 
4.82555 1.6435 12.7319 4.85396 1.18819 12.3846 4.60827 1.67593 12.5076 
4.82555 1.6435 12.7319 4.60827 1.67593 12.5076 4.37125 2.19027 12.7315 
3.677 3.01885 13.0118 3.82955 2.68795 12.7364 3.38593 3.09418 12.839 
3.29438 3.31867 13.0706 3.38593 3.09418 12.839 2.99708 3.38538 12.9135 
2.91986 3.6111 13.1949 2.99708 3.38538 12.9135 2.50345 3.67858 12.9794 
2.37361 3.86512 13.1918 2.50345 3.67858 12.9794 1.86217 3.94338 13.0212 
1.10435 4.32614 13.3697 1.19689 4.16096 13.1017 0.618792 4.25159 13.1147 
0.518785 4.42645 13.422 0.618792 4.25159 13.1147 0.138879 4.2958 13.1376 
-0.104961 4.43117 13.3944 0.138879 4.2958 13.1376 -0.364724 4.28236 13.132 
-0.643026 4.41069 13.4128 -0.364724 4.28236 13.132 -0.940558 4.19882 13.0925 
-1.22216 4.29875 13.3598 -0.940558 4.19882 13.0925 -1.58913 4.06317 13.0819 
-1.9516 4.09379 13.3283 -1.58913 4.06317 13.0819 -2.18248 3.84023 13.0287 
-2.60458 3.79731 13.2463 -2.18248 3.84023 13.0287 -2.70924 3.56158 12.9484 
-3.21834 3.37368 13.0743 -2.70924 3.56158 12.9484 -3.19726 3.23773 12.872 
-3.21834 3.37368 13.0743 -3.19726 3.23773 12.872 -3.55105 2.96221 12.8154 
-3.82094 2.92305 13.0301 -3.55105 2.96221 12.8154 -3.86834 2.65499 12.7361 
-4.1951 2.53157 12.9373 -3.86834 2.65499 12.7361 -4.20987 2.26557 12.6498 
-4.47447 2.13363 12.8011 -4.20987 2.26557 12.6498 -4.47445 1.88032 12.5473 
-4.78508 1.62206 12.6603 -4.47445 1.88032 12.5473 -4.76898 1.3635 12.424 
-5.08408 1.07039 12.5755 -4.76898 1.3635 12.424 -4.98178 0.859128 12.3048 
-5.27724 0.619293 12.5082 -4.98178 0.859128 12.3048 -5.14295 0.328373 12.1764 
-5.3649 0.192198 12.3762 -5.14295 0.328373 12.1764 -5.23268 -0.120301 12.0745 
-5.45245 -0.263484 12.2823 -5.23268 -0.120301 12.0745 -5.39383 -0.540105 12.1038 
-5.54923 -0.88325 12.2115 -5.39129 -0.972294 11.9865 -5.35602 -1.44167 11.8667 
-5.49226 -1.51398 12.0326 -5.35602 -1.44167 11.8667 -5.33846 -2.08487 11.8198 
-4.85621 -3.57618 11.5988 -4.86261 -3.14423 11.464 -4.63285 -3.72535 11.4246 
-4.27933 -4.38748 11.4016 -4.33531 -4.09133 11.3035 -3.93305 -4.53785 11.1858 
-3.89787 -4.81966 11.3226 -3.93305 -4.53785 11.1858 -3.43899 -5.05226 11.1186 
0.703234 -6.20349 10.8598 0.848537 -5.95608 10.7016 1.34259 -6.06881 10.8757 
2.58615 -5.74705 11.1019 2.24572 -5.69768 10.906 2.75022 -5.45053 10.9691 
3.56866 -5.0749 11.2313 3.4261 -4.92045 11.0377 3.80033 -4.73557 11.1932 
4.06935 -4.53687 11.2979 3.96514 -4.41528 11.1527 4.35983 -4.13549 11.3413 
5.49248 -1.51698 12.0347 5.35113 -1.48814 11.8572 5.43924 -0.888952 12.0606 
5.57498 -0.916254 12.2423 5.43924 -0.888952 12.0606 5.45208 -0.294846 12.2661 
4.28279 2.53597 13.0704 4.37125 2.19027 12.7315 4.03703 2.69632 12.9671 
3.53434 3.25484 13.2369 3.677 3.01885 13.0118 3.29438 3.31867 13.0706 
3.24173 3.52672 13.4047 3.29438 3.31867 13.0706 2.91986 3.6111 13.1949 
2.30693 4.00257 13.422 2.37361 3.86512 13.1918 1.69437 4.15774 13.2928 
-3.56187 3.23697 13.2387 -3.21834 3.37368 13.0743 -3.82094 2.92305 13.0301 
-4.83574 1.76774 12.8895 -4.47447 2.13363 12.8011 -4.78508 1.62206 12.6603 
-5.06842 1.3273 12.7859 -4.78508 1.62206 12.6603 -5.08408 1.07039 12.5755 
-5.54923 -0.88325 12.2115 -5.39383 -0.540105 12.1038 -5.39129 -0.972294 11.9865 
-5.65778 -1.28296 12.322 -5.54923 -0.88325 12.2115 -5.49226 -1.51398 12.0326 
-5.60303 -1.687 12.1998 -5.49226 -1.51398 12.0326 -5.33846 -2.08487 11.8198 
-5.4526 -2.399 12.023 -5.33846 -2.08487 11.8198 -5.17825 -2.65824 11.6979 
-5.33991 -2.75562 11.9368 -5.17825 -2.65824 11.6979 -5.091 -3.16333 11.7218 
-3.22362 -5.47478 11.2875 -3.43899 -5.05226 11.1186 -2.97069 -5.34907 11.0177 
-2.3518 -5.95609 11.1708 -2.41686 -5.68398 10.9665 -1.90191 -6.10917 11.0969 
-1.90191 -6.10917 11.0969 -1.87711 -5.8666 10.884 -1.34879 -6.06872 10.879 
-1.39703 -6.28297 11.0906 -1.34879 -6.06872 10.879 -0.972136 -6.15448 10.8651 
-0.740927 -6.41326 11.066 -0.972136 -6.15448 10.8651 -0.506187 -6.22052 10.8518 
-0.150259 -6.45177 11.0503 -0.506187 -6.22052 10.8518 0.107494 -6.24155 10.8471 
0.324856 -6.47072 11.0806 0.107494 -6.24155 10.8471 0.703234 -6.20349 10.8598 
1.11597 -6.35202 11.0832 0.703234 -6.20349 10.8598 1.34259 -6.06881 10.8757 
1.59734 -6.25286 11.1295 1.34259 -6.06881 10.8757 1.86643 -5.97067 10.9577 
3.91269 -4.9369 11.4313 3.80033 -4.73557 11.1932 4.06935 -4.53687 11.2979 
4.25782 -4.59487 11.5175 4.06935 -4.53687 11.2979 4.35983 -4.13549 11.3413 
4.63413 -4.10147 11.6116 4.35983 -4.13549 11.3413 4.70421 -3.65794 11.4647 
4.92026 -3.66786 11.7207 4.70421 -3.65794 11.4647 4.97515 -3.12891 11.5765 
5.13105 -3.24348 11.8066 4.97515 -3.12891 11.5765 5.15875 -2.69312 11.6814 
5.2957 -2.74615 11.8699 5.15875 -2.69312 11.6814 5.3516 -2.10245 11.837 
5.59089 -1.89907 12.1829 5.3516 -2.10245 11.837 5.49248 -1.51698 12.0347 
5.63214 -1.47115 12.2599 5.49248 -1.51698 12.0347 5.57498 -0.916254 12.2423 
5.60386 -0.322364 12.5036 5.45208 -0.294846 12.2661 5.36662 0.246621 12.4044 
5.34253 0.782121 12.7487 5.36662 0.246621 12.4044 5.13784 0.962442 12.5557 
5.10869 1.31128 12.8457 5.13784 0.962442 12.5557 4.82555 1.6435 12.7319 
4.90969 1.70785 12.9534 4.82555 1.6435 12.7319 4.58666 2.14948 12.9789 
2.82963 3.80836 13.545 2.91986 3.6111 13.1949 2.63933 3.83906 13.3798 
1.75997 4.26114 13.6086 1.69437 4.15774 13.2928 1.10435 4.32614 13.3697 
0.798733 4.48828 13.6975 1.10435 4.32614 13.3697 0.518785 4.42645 13.422 
0.131403 4.53534 13.6893 0.518785 4.42645 13.422 -0.104961 4.43117 13.3944 
-0.314371 4.53539 13.7136 -0.104961 4.43117 13.3944 -0.643026 4.41069 13.4128 
-1.79591 4.24166 13.5856 -1.22216 4.29875 13.3598 -1.9516 4.09379 13.3283 
-2.31856 4.02432 13.497 -1.9516 4.09379 13.3283 -2.60458 3.79731 13.2463 
-2.72932 3.82797 13.4624 -2.60458 3.79731 13.2463 -3.15812 3.53533 13.3088 
-4.05611 2.8639 13.2744 -3.82094 2.92305 13.0301 -4.1951 2.53157 12.9373 
-4.40379 2.48552 13.2014 -4.1951 2.53157 12.9373 -4.5961 2.22261 13.103 
-5.31959 0.882121 12.803 -5.08408 1.07039 12.5755 -5.27724 0.619293 12.5082 
-5.5298 0.150022 12.6236 -5.3649 0.192198 12.3762 -5.45245 -0.263484 12.2823 
-5.61924 -0.328123 12.5277 -5.45245 -0.263484 12.2823 -5.54923 -0.88325 12.2115 
-5.67427 -0.840104 12.4517 -5.54923 -0.88325 12.2115 -5.65778 -1.28296 12.322 
-5.20368 -3.3635 11.9849 -5.091 -3.16333 11.7218 -4.85621 -3.57618 11.5988 
-4.95031 -3.71881 11.7995 -4.85621 -3.57618 11.5988 -4.63013 -4.09363 11.6002 
-4.36232 -4.50346 11.574 -4.27933 -4.38748 11.4016 -3.89787 -4.81966 11.3226 
-3.94001 -4.94011 11.4616 -3.89787 -4.81966 11.3226 -3.51934 -5.26052 11.3407 
2.1063 -6.09599 11.1899 1.86643 -5.97067 10.9577 2.58615 -5.74705 11.1019 
2.69949 -5.81395 11.2384 2.58615 -5.74705 11.1019 3.15071 -5.34278 11.122 
3.22939 -5.51718 11.336 3.15071 -5.34278 11.122 3.56866 -5.0749 11.2313 
3.63238 -5.21323 11.4036 3.56866 -5.0749 11.2313 3.91269 -4.9369 11.4313 
5.40149 -2.77963 12.0493 5.2957 -2.74615 11.8699 5.47571 -2.28437 12.0401 
5.70511 -0.644419 12.5823 5.57498 -0.916254 12.2423 5.60386 -0.322364 12.5036 
5.11585 1.5341 13.1655 5.10869 1.31128 12.8457 4.90969 1.70785 12.9534 
4.72706 2.08756 13.1519 4.90969 1.70785 12.9534 4.58666 2.14948 12.9789 
4.72706 2.08756 13.1519 4.58666 2.14948 12.9789 4.28279 2.53597 13.0704 
4.36232 2.56056 13.2699 4.28279 2.53597 13.0704 3.92192 2.9921 13.2983 
3.54253 3.34477 13.4725 3.53434 3.25484 13.2369 3.24173 3.52672 13.4047 
2.82963 3.80836 13.545 2.63933 3.83906 13.3798 2.30693 4.00257 13.422 
2.35427 4.05123 13.6278 2.30693 4.00257 13.422 1.75997 4.26114 13.6086 
0.798733 4.48828 13.6975 0.518785 4.42645 13.422 0.131403 4.53534 13.6893 
-2.64529 3.9335 13.6688 -2.31856 4.02432 13.497 -2.72932 3.82797 13.4624 
-3.1739 3.61026 13.529 -2.72932 3.82797 13.4624 -3.15812 3.53533 13.3088 
-3.1739 3.61026 13.529 -3.15812 3.53533 13.3088 -3.56187 3.23697 13.2387 
-3.63238 3.27034 13.4403 -3.56187 3.23697 13.2387 -4.05611 2.8639 13.2744 
-4.97371 1.73077 13.1232 -4.83574 1.76774 12.8895 -5.06842 1.3273 12.7859 
-5.20935 1.28474 13.0297 -5.06842 1.3273 12.7859 -5.31959 0.882121 12.803 
-5.47702 0.495114 12.7883 -5.27724 0.619293 12.5082 -5.5298 0.150022 12.6236 
-5.79872 -1.10724 12.6909 -5.67427 -0.840104 12.4517 -5.65778 -1.28296 12.322 
-5.73582 -1.66586 12.4832 -5.65778 -1.28296 12.322 -5.60303 -1.687 12.1998 
-5.73582 -1.66586 12.4832 -5.60303 -1.687 12.1998 -5.542 -2.06108 12.1149 
-5.66134 -2.14033 12.3765 -5.542 -2.06108 12.1149 -5.4526 -2.399 12.023 
-5.56474 -2.51647 12.282 -5.4526 -2.399 12.023 -5.33991 -2.75562 11.9368 
-5.44551 -2.87472 12.182 -5.33991 -2.75562 11.9368 -5.20368 -3.3635 11.9849 
-4.64185 -4.41865 11.8908 -4.63013 -4.09363 11.6002 -4.36232 -4.50346 11.574 
-4.24585 -4.82431 11.7205 -4.36232 -4.50346 11.574 -3.94001 -4.94011 11.4616 
-3.90581 -5.16299 11.6508 -3.94001 -4.94011 11.4616 -3.51934 -5.26052 11.3407 
-3.51016 -5.49023 11.5789 -3.51934 -5.26052 11.3407 -3.22362 -5.47478 11.2875 
-3.08533 -5.77309 11.5053 -3.22362 -5.47478 11.2875 -2.75859 -5.73585 11.1966 
-2.73609 -5.96639 11.4537 -2.75859 -5.73585 11.1966 -2.3518 -5.95609 11.1708 
-2.39075 -6.13565 11.4139 -2.3518 -5.95609 11.1708 -1.90191 -6.10917 11.0969 
-1.90429 -6.3262 11.3674 -1.90191 -6.10917 11.0969 -1.39703 -6.28297 11.0906 
-1.39156 -6.47296 11.3316 -1.39703 -6.28297 11.0906 -0.919874 -6.52443 11.2467 
-0.400177 -6.63025 11.3049 -0.740927 -6.41326 11.066 -0.150259 -6.45177 11.0503 
0.0730592 -6.64509 11.3049 -0.150259 -6.45177 11.0503 0.324856 -6.47072 11.0806 
0.652971 -6.60744 11.3063 0.324856 -6.47072 11.0806 0.742671 -6.41442 11.0731 
0.652971 -6.60744 11.3063 0.742671 -6.41442 11.0731 1.11597 -6.35202 11.0832 
1.13729 -6.52648 11.3149 1.11597 -6.35202 11.0832 1.59734 -6.25286 11.1295 
1.85699 -6.38875 11.4326 1.59734 -6.25286 11.1295 2.1063 -6.09599 11.1899 
2.38397 -6.13401 11.4055 2.1063 -6.09599 11.1899 2.69949 -5.81395 11.2384 
2.85539 -5.89345 11.4554 2.69949 -5.81395 11.2384 3.22939 -5.51718 11.336 
3.28436 -5.63439 11.5202 3.22939 -5.51718 11.336 3.63238 -5.21323 11.4036 
3.70027 -5.33265 11.6031 3.63238 -5.21323 11.4036 3.91269 -4.9369 11.4313 
3.98868 -5.08147 11.6662 3.91269 -4.9369 11.4313 4.25782 -4.59487 11.5175 
4.58702 -4.43168 11.819 4.25782 -4.59487 11.5175 4.63413 -4.10147 11.6116 
4.88955 -4.01171 11.925 4.63413 -4.10147 11.6116 4.92026 -3.66786 11.7207 
5.08296 -3.68436 12.0016 4.92026 -3.66786 11.7207 5.13105 -3.24348 11.8066 
5.25675 -3.34475 12.0803 5.13105 -3.24348 11.8066 5.40149 -2.77963 12.0493 
5.57077 -2.37328 12.2425 5.47571 -2.28437 12.0401 5.59089 -1.89907 12.1829 
5.74441 -1.59573 12.4997 5.59089 -1.89907 12.1829 5.63214 -1.47115 12.2599 
5.74441 -1.59573 12.4997 5.63214 -1.47115 12.2599 5.67427 -1.10199 12.3889 
5.8109 -1.08548 12.7329 5.67427 -1.10199 12.3889 5.70511 -0.644419 12.5823 
5.67468 -0.134381 12.78 5.60386 -0.322364 12.5036 5.53723 0.139143 12.6332 
5.4561 0.823968 13.0954 5.34253 0.782121 12.7487 5.26726 1.17152 13.0275 
4.59147 2.37809 13.4565 4.72706 2.08756 13.1519 4.36232 2.56056 13.2699 
4.23973 2.78903 13.5576 4.36232 2.56056 13.2699 3.92192 2.9921 13.2983 
3.89594 3.11968 13.6315 3.92192 2.9921 13.2983 3.54253 3.34477 13.4725 
3.40751 3.51663 13.745 3.54253 3.34477 13.4725 3.24173 3.52672 13.4047 
3.40751 3.51663 13.745 3.24173 3.52672 13.4047 2.82963 3.80836 13.545 
2.61884 3.97832 13.8407 2.82963 3.80836 13.545 2.35427 4.05123 13.6278 
2.1428 4.1896 13.8827 2.35427 4.05123 13.6278 1.75997 4.26114 13.6086 
1.66648 4.3511 13.9239 1.75997 4.26114 13.6086 1.27794 4.39761 13.6761 
1.20468 4.46778 13.9655 1.27794 4.39761 13.6761 0.798733 4.48828 13.6975 
0.561419 4.56581 13.969 0.798733 4.48828 13.6975 0.131403 4.53534 13.6893 
-0.105026 4.59339 14.0094 0.131403 4.53534 13.6893 -0.314371 4.53539 13.7136 
-0.662069 4.55519 13.9861 -0.314371 4.53539 13.7136 -1.03244 4.44834 13.6761 
-1.87157 4.2893 13.9279 -1.79591 4.24166 13.5856 -2.22512 4.1296 13.7377 
-3.18819 3.6549 13.7354 -3.1739 3.61026 13.529 -3.63238 3.27034 13.4403 
-3.9088 3.10866 13.6315 -3.63238 3.27034 13.4403 -4.05611 2.8639 13.2744 
-4.25032 2.77304 13.5395 -4.05611 2.8639 13.2744 -4.40379 2.48552 13.2014 
-4.59125 2.38308 13.4619 -4.40379 2.48552 13.2014 -4.5961 2.22261 13.103 
-4.89286 1.96464 13.3735 -4.5961 2.22261 13.103 -4.97371 1.73077 13.1232 
-5.44438 0.837067 13.0748 -5.31959 0.882121 12.803 -5.47702 0.495114 12.7883 
-5.59803 0.42687 13.0581 -5.47702 0.495114 12.7883 -5.5298 0.150022 12.6236 
-5.65323 0.109969 12.9057 -5.5298 0.150022 12.6236 -5.61924 -0.328123 12.5277 
-5.79664 -0.704641 12.805 -5.61924 -0.328123 12.5277 -5.67427 -0.840104 12.4517 
-5.79872 -1.10724 12.6909 -5.65778 -1.28296 12.322 -5.73582 -1.66586 12.4832 
-5.15489 -3.67276 12.1282 -5.20368 -3.3635 11.9849 -4.95031 -3.71881 11.7995 
-5.15489 -3.67276 12.1282 -4.95031 -3.71881 11.7995 -4.81804 -4.11551 11.8981 
0.0730592 -6.64509 11.3049 0.324856 -6.47072 11.0806 0.652971 -6.60744 11.3063 
5.49219 -2.90193 12.3061 5.40149 -2.77963 12.0493 5.57077 -2.37328 12.2425 
5.72753 -1.99655 12.5155 5.57077 -2.37328 12.2425 5.59089 -1.89907 12.1829 
5.72753 -1.99655 12.5155 5.59089 -1.89907 12.1829 5.74441 -1.59573 12.4997 
5.80135 -0.466263 12.9656 5.70511 -0.644419 12.5823 5.67468 -0.134381 12.78 
5.71431 0.0512252 13.083 5.67468 -0.134381 12.78 5.55874 0.384302 12.8814 
5.60888 0.446778 13.1431 5.55874 0.384302 12.8814 5.4561 0.823968 13.0954 
5.30406 1.28116 13.3628 5.26726 1.17152 13.0275 5.11585 1.5341 13.1655 
-0.105026 4.59339 14.0094 -0.314371 4.53539 13.7136 -0.662069 4.55519 13.9861 
-2.86322 3.87229 13.9933 -2.64529 3.9335 13.6688 -3.18819 3.6549 13.7354 
-5.233 1.44027 13.4127 -4.97371 1.73077 13.1232 -5.28031 1.30082 13.2794 
-5.28031 1.30082 13.2794 -5.20935 1.28474 13.0297 -5.44438 0.837067 13.0748 
-5.82386 -1.45611 12.762 -5.79872 -1.10724 12.6909 -5.73582 -1.66586 12.4832 
-5.80011 -1.85614 12.7431 -5.73582 -1.66586 12.4832 -5.66134 -2.14033 12.3765 
-5.71855 -2.21283 12.5803 -5.66134 -2.14033 12.3765 -5.56474 -2.51647 12.282 
-5.59037 -2.71062 12.4627 -5.56474 -2.51647 12.282 -5.44551 -2.87472 12.182 
-5.41772 -3.18741 12.3463 -5.44551 -2.87472 12.182 -5.20368 -3.3635 11.9849 
-5.41772 -3.18741 12.3463 -5.20368 -3.3635 11.9849 -5.15489 -3.67276 12.1282 
-4.94276 -4.09411 12.1287 -5.15489 -3.67276 12.1282 -4.81804 -4.11551 11.8981 
-4.94276 -4.09411 12.1287 -4.81804 -4.11551 11.8981 -4.64185 -4.41865 11.8908 
-4.47669 -4.71807 11.9796 -4.64185 -4.41865 11.8908 -4.24585 -4.82431 11.7205 
-4.15512 -5.1357 12.0177 -4.24585 -4.82431 11.7205 -3.90581 -5.16299 11.6508 
-3.93863 -5.26393 11.8478 -3.90581 -5.16299 11.6508 -3.51016 -5.49023 11.5789 
-3.5325 -5.62135 11.8141 -3.51016 -5.49023 11.5789 -3.08533 -5.77309 11.5053 
-3.11383 -5.93107 11.8007 -3.08533 -5.77309 11.5053 -2.73609 -5.96639 11.4537 
-2.78558 -6.12422 11.7743 -2.73609 -5.96639 11.4537 -2.39075 -6.13565 11.4139 
-2.41464 -6.24239 11.6129 -2.39075 -6.13565 11.4139 -1.90429 -6.3262 11.3674 
-1.92156 -6.43553 11.5651 -1.90429 -6.3262 11.3674 -1.39156 -6.47296 11.3316 
-1.47502 -6.62855 11.6595 -1.39156 -6.47296 11.3316 -1.0503 -6.62643 11.4523 
-0.661928 -6.71504 11.5005 -0.919874 -6.52443 11.2467 -0.400177 -6.63025 11.3049 
-0.15458 -6.76612 11.5244 -0.400177 -6.63025 11.3049 0.0730592 -6.64509 11.3049 
0.261815 -6.74382 11.4929 0.0730592 -6.64509 11.3049 0.652971 -6.60744 11.3063 
0.698706 -6.73942 11.5579 0.652971 -6.60744 11.3063 1.13729 -6.52648 11.3149 
1.17322 -6.62936 11.5081 1.13729 -6.52648 11.3149 1.55302 -6.47414 11.4075 
2.64928 -6.13251 11.6393 2.38397 -6.13401 11.4055 2.85539 -5.89345 11.4554 
3.13867 -5.88487 11.746 2.85539 -5.89345 11.4554 3.28436 -5.63439 11.5202 
3.56018 -5.56348 11.7586 3.28436 -5.63439 11.5202 3.70027 -5.33265 11.6031 
3.85065 -5.37875 11.8974 3.70027 -5.33265 11.6031 3.98868 -5.08147 11.6662 
4.12687 -5.08892 11.8898 3.98868 -5.08147 11.6662 4.26429 -4.79701 11.7186 
4.49337 -4.72573 12.0223 4.26429 -4.79701 11.7186 4.58702 -4.43168 11.819 
4.79837 -4.29798 12.0663 4.58702 -4.43168 11.819 4.88955 -4.01171 11.925 
5.12347 -3.80599 12.2087 4.88955 -4.01171 11.925 5.08296 -3.68436 12.0016 
5.12347 -3.80599 12.2087 5.08296 -3.68436 12.0016 5.25675 -3.34475 12.0803 
5.36743 -3.41592 12.434 5.25675 -3.34475 12.0803 5.49219 -2.90193 12.3061 
5.71431 0.0512252 13.083 5.55874 0.384302 12.8814 5.60888 0.446778 13.1431 
5.53185 0.793669 13.4375 5.4561 0.823968 13.0954 5.30406 1.28116 13.3628 
5.06335 1.7536 13.5469 5.11585 1.5341 13.1655 4.89359 1.95346 13.3418 
4.79848 2.15661 13.6293 4.89359 1.95346 13.3418 4.59147 2.37809 13.4565 
4.56249 2.46281 13.7032 4.59147 2.37809 13.4565 4.23973 2.78903 13.5576 
4.2862 2.77561 13.7614 4.23973 2.78903 13.5576 3.89594 3.11968 13.6315 
3.9178 3.13662 13.9034 3.89594 3.11968 13.6315 3.40751 3.51663 13.745 
3.40411 3.54037 13.9862 3.40751 3.51663 13.745 2.96138 3.7943 13.7971 
2.88128 3.86104 14.0385 2.96138 3.7943 13.7971 2.61884 3.97832 13.8407 
2.42853 4.08776 14.1394 2.61884 3.97832 13.8407 2.1428 4.1896 13.8827 
1.89147 4.29424 14.145 2.1428 4.1896 13.8827 1.66648 4.3511 13.9239 
1.41487 4.43166 14.1874 1.66648 4.3511 13.9239 1.20468 4.46778 13.9655 
0.910234 4.53251 14.3175 1.20468 4.46778 13.9655 0.561419 4.56581 13.969 
0.393396 4.58781 14.213 0.561419 4.56581 13.969 -0.105026 4.59339 14.0094 
-0.159803 4.60032 14.2375 -0.105026 4.59339 14.0094 -0.662069 4.55519 13.9861 
-0.675848 4.56218 14.2004 -0.662069 4.55519 13.9861 -1.03001 4.49913 13.9663 
-1.21855 4.47653 14.3026 -1.03001 4.49913 13.9663 -1.46822 4.3984 13.8753 
-1.56227 4.39395 14.2757 -1.46822 4.3984 13.8753 -1.87157 4.2893 13.9279 
-1.94885 4.2764 14.2616 -1.87157 4.2893 13.9279 -2.42953 4.08563 13.9815 
-3.35872 3.57271 14.1052 -3.18819 3.6549 13.7354 -3.59857 3.36506 13.694 
-3.66589 3.34686 14.0455 -3.59857 3.36506 13.694 -3.9088 3.10866 13.6315 
-3.98861 3.07909 13.9651 -3.9088 3.10866 13.6315 -4.25032 2.77304 13.5395 
-4.59479 2.43091 13.702 -4.25032 2.77304 13.5395 -4.59125 2.38308 13.4619 
-4.59479 2.43091 13.702 -4.59125 2.38308 13.4619 -4.89286 1.96464 13.3735 
-4.94196 1.94526 13.5786 -4.89286 1.96464 13.3735 -5.233 1.44027 13.4127 
-5.50511 0.810063 13.3 -5.44438 0.837067 13.0748 -5.59803 0.42687 13.0581 
-5.71507 0.0722375 13.1166 -5.65323 0.109969 12.9057 -5.72023 -0.269692 12.8214 
-5.8 -0.328211 13.1099 -5.72023 -0.269692 12.8214 -5.79664 -0.704641 12.805 
-5.87596 -1.03516 13.0859 -5.79872 -1.10724 12.6909 -5.82386 -1.45611 12.762 
-5.86589 -1.49439 12.9827 -5.82386 -1.45611 12.762 -5.80011 -1.85614 12.7431 
-5.70083 -2.51577 12.7355 -5.71855 -2.21283 12.5803 -5.59037 -2.71062 12.4627 
-5.59948 -2.85862 12.6517 -5.59037 -2.71062 12.4627 -5.41772 -3.18741 12.3463 
-5.45306 -3.25826 12.5532 -5.41772 -3.18741 12.3463 -5.15489 -3.67276 12.1282 
-5.11452 -3.94845 12.4046 -5.15489 -3.67276 12.1282 -4.94276 -4.09411 12.1287 
-4.81968 -4.39673 12.2784 -4.94276 -4.09411 12.1287 -4.64185 -4.41865 11.8908 
-4.81968 -4.39673 12.2784 -4.64185 -4.41865 11.8908 -4.47669 -4.71807 11.9796 
-4.46715 -4.85085 12.195 -4.47669 -4.71807 11.9796 -4.15512 -5.1357 12.0177 
-3.75968 -5.52013 12.0178 -3.93863 -5.26393 11.8478 -3.5325 -5.62135 11.8141 
-2.38926 -6.34988 11.816 -2.41464 -6.24239 11.6129 -1.92156 -6.43553 11.5651 
-1.90292 -6.53225 11.7672 -1.92156 -6.43553 11.5651 -1.47502 -6.62855 11.6595 
-1.08546 -6.74169 11.7192 -1.0503 -6.62643 11.4523 -0.661928 -6.71504 11.5005 
-0.638131 -6.80759 11.7019 -0.661928 -6.71504 11.5005 -0.15458 -6.76612 11.5244 
-0.0708477 -6.84829 11.7164 -0.15458 -6.76612 11.5244 0.261815 -6.74382 11.4929 
0.401376 -6.82832 11.7013 0.261815 -6.74382 11.4929 0.698706 -6.73942 11.5579 
1.4737 -6.65735 11.7361 1.17322 -6.62936 11.5081 1.55302 -6.47414 11.4075 
1.4737 -6.65735 11.7361 1.55302 -6.47414 11.4075 1.85699 -6.38875 11.4326 
1.92496 -6.5277 11.7744 1.85699 -6.38875 11.4326 2.30004 -6.32601 11.67 
2.91496 -6.09048 11.8802 2.64928 -6.13251 11.6393 3.13867 -5.88487 11.746 
3.56214 -5.6748 11.9839 3.56018 -5.56348 11.7586 3.85065 -5.37875 11.8974 
4.3433 -4.97797 12.1487 4.12687 -5.08892 11.8898 4.49337 -4.72573 12.0223 
4.92809 -4.23899 12.3233 4.79837 -4.29798 12.0663 5.12347 -3.80599 12.2087 
5.63484 -2.75651 12.6863 5.49219 -2.90193 12.3061 5.6163 -2.55709 12.4378 
5.63484 -2.75651 12.6863 5.6163 -2.55709 12.4378 5.72914 -2.34176 12.7084 
5.80558 -2.02254 12.8601 5.72753 -1.99655 12.5155 5.85653 -1.5016 12.9055 
5.87572 -0.963551 13.1133 5.8109 -1.08548 12.7329 5.81672 -0.796324 12.8604 
5.87572 -0.963551 13.1133 5.81672 -0.796324 12.8604 5.80135 -0.466263 12.9656 
5.80055 -0.196554 13.3154 5.80135 -0.466263 12.9656 5.71431 0.0512252 13.083 
5.69548 0.282924 13.3919 5.71431 0.0512252 13.083 5.60888 0.446778 13.1431 
5.69548 0.282924 13.3919 5.60888 0.446778 13.1431 5.53185 0.793669 13.4375 
5.45171 1.00862 13.5666 5.53185 0.793669 13.4375 5.30406 1.28116 13.3628 
5.28072 1.37894 13.6728 5.30406 1.28116 13.3628 5.06335 1.7536 13.5469 
5.09177 1.72746 13.7489 5.06335 1.7536 13.5469 4.79848 2.15661 13.6293 
4.815 2.15293 13.8583 4.79848 2.15661 13.6293 4.56249 2.46281 13.7032 
4.48552 2.56595 13.9514 4.56249 2.46281 13.7032 4.2862 2.77561 13.7614 
4.15765 2.91314 14.0409 4.2862 2.77561 13.7614 3.9178 3.13662 13.9034 
2.66123 3.96776 14.2963 2.88128 3.86104 14.0385 2.42853 4.08776 14.1394 
1.90943 4.28106 14.357 1.89147 4.29424 14.145 1.41487 4.43166 14.1874 
1.39703 4.42443 14.3986 1.41487 4.43166 14.1874 0.910234 4.53251 14.3175 
0.116053 4.58679 14.444 0.393396 4.58781 14.213 -0.159803 4.60032 14.2375 
-0.707878 4.54756 14.4345 -0.675848 4.56218 14.2004 -1.21855 4.47653 14.3026 
-2.45199 4.06931 14.3169 -2.42953 4.08563 13.9815 -2.86322 3.87229 13.9933 
-2.93448 3.82556 14.2498 -2.86322 3.87229 13.9933 -3.35872 3.57271 14.1052 
-5.12041 1.67893 13.7451 -4.94196 1.94526 13.5786 -5.233 1.44027 13.4127 
-5.47411 0.95698 13.5778 -5.28031 1.30082 13.2794 -5.50511 0.810063 13.3 
-5.63943 0.480917 13.4505 -5.50511 0.810063 13.3 -5.59803 0.42687 13.0581 
-5.63943 0.480917 13.4505 -5.59803 0.42687 13.0581 -5.71507 0.0722375 13.1166 
-5.75417 0.036082 13.3419 -5.71507 0.0722375 13.1166 -5.8 -0.328211 13.1099 
-5.87596 -1.03516 13.0859 -5.79664 -0.704641 12.805 -5.79872 -1.10724 12.6909 
-3.44211 -5.80522 12.0905 -3.5325 -5.62135 11.8141 -3.11383 -5.93107 11.8007 
3.25197 -5.93077 12.0537 3.13867 -5.88487 11.746 3.56214 -5.6748 11.9839 
5.86322 -0.632236 13.3293 5.80135 -0.466263 12.9656 5.80055 -0.196554 13.3154 
3.86585 3.16036 14.2367 3.9178 3.13662 13.9034 3.55895 3.42053 14.1675 
2.31178 4.11375 14.4096 2.42853 4.08776 14.1394 1.90943 4.28106 14.357 
-0.271477 4.56199 14.5682 -0.159803 4.60032 14.2375 -0.707878 4.54756 14.4345 
-4.25814 2.79548 14.1502 -4.25353 2.81573 13.8535 -4.51379 2.53337 13.958 
-5.31011 1.31472 13.7977 -5.233 1.44027 13.4127 -5.47411 0.95698 13.5778 
-5.88785 -1.1811 13.2952 -5.87596 -1.03516 13.0859 -5.86589 -1.49439 12.9827 
-5.87599 -1.54421 13.208 -5.88192 -1.43796 13.2336 -5.86589 -1.49439 12.9827 
-5.84048 -1.90586 13.1212 -5.86414 -1.6943 13.172 -5.86589 -1.49439 12.9827 
-5.68585 -2.67096 12.9389 -5.74023 -2.45507 12.9894 -5.70083 -2.51577 12.7355 
-5.68585 -2.67096 12.9389 -5.70083 -2.51577 12.7355 -5.59948 -2.85862 12.6517 
-5.46609 -3.30893 12.7844 -5.51241 -3.19278 12.8123 -5.45306 -3.25826 12.5532 
-5.31053 -3.65345 12.7017 -5.41404 -3.43123 12.755 -5.45306 -3.25826 12.5532 
-5.31053 -3.65345 12.7017 -5.29569 -3.59605 12.4607 -5.11452 -3.94845 12.4046 
-4.93127 -4.31055 12.5442 -5.05441 -4.11753 12.5902 -5.11452 -3.94845 12.4046 
-4.74131 -4.57559 12.4803 -4.76337 -4.54626 12.4873 -4.81968 -4.39673 12.2784 
-4.51035 -4.86116 12.4117 -4.6033 -4.75068 12.4382 -4.46715 -4.85085 12.195 
-4.25847 -5.13473 12.346 -4.43397 -4.9479 12.3909 -4.46715 -4.85085 12.195 
-4.25847 -5.13473 12.346 -4.46715 -4.85085 12.195 -4.15512 -5.1357 12.0177 
-3.99496 -5.38676 12.2855 -4.06887 -5.31922 12.3017 -4.15512 -5.1357 12.0177 
-3.68998 -5.64388 12.2271 -3.87384 -5.49256 12.2601 -3.75968 -5.52013 12.0178 
-3.68998 -5.64388 12.2271 -3.75968 -5.52013 12.0178 -3.44211 -5.80522 12.0905 
-3.05236 -6.07787 12.1204 -3.2436 -5.95917 12.1481 -3.11383 -5.93107 11.8007 
-3.05236 -6.07787 12.1204 -3.11383 -5.93107 11.8007 -2.78558 -6.12422 11.7743 
-2.4459 -6.38889 12.0449 -2.55464 -6.33929 12.0568 -2.38926 -6.34988 11.816 
-2.08414 -6.5361 12.0101 -2.31407 -6.44555 12.0313 -2.38926 -6.34988 11.816 
-1.34268 -6.75678 11.9595 -1.56638 -6.69994 11.9703 -1.47502 -6.62855 11.6595 
-1.34268 -6.75678 11.9595 -1.47502 -6.62855 11.6595 -1.08546 -6.74169 11.7192 
-0.652598 -6.87099 11.9292 -0.790345 -6.85445 11.9332 -0.638131 -6.80759 11.7019 
-0.272156 -6.90014 11.9222 -0.527782 -6.88321 11.9263 -0.638131 -6.80759 11.7019 
0.501267 -6.88695 11.9292 0.264157 -6.9005 11.9221 0.401376 -6.82832 11.7013 
0.501267 -6.88695 11.9292 0.401376 -6.82832 11.7013 0.963209 -6.77724 11.7482 
1.20587 -6.7849 11.9499 1.05132 -6.81426 11.9428 0.963209 -6.77724 11.7482 
1.92573 -6.59138 11.9963 1.81944 -6.62605 11.988 1.92496 -6.5277 11.7744 
2.27474 -6.46173 12.0275 2.06884 -6.5412 12.0084 1.92496 -6.5277 11.7744 
2.94392 -6.13924 12.1049 2.79007 -6.22265 12.0849 2.91496 -6.09048 11.8802 
3.01987 -6.09586 12.1153 2.91496 -6.09048 11.8802 3.25197 -5.93077 12.0537 
3.56574 -5.73696 12.2015 3.46079 -5.81285 12.1832 3.56214 -5.6748 11.9839 
3.85572 -5.50789 12.2565 3.67101 -5.65721 12.2206 3.56214 -5.6748 11.9839 
4.41491 -4.97002 12.3856 4.25571 -5.13754 12.3454 4.3433 -4.97797 12.1487 
4.41491 -4.97002 12.3856 4.3433 -4.97797 12.1487 4.68334 -4.59029 12.2629 
4.84968 -4.42761 12.5158 4.76337 -4.54626 12.4873 4.68334 -4.59029 12.2629 
5.0533 -4.11916 12.5885 4.91384 -4.33507 12.538 4.92809 -4.23899 12.3233 
5.23333 -3.80452 12.6654 5.18481 -3.89407 12.6439 5.13086 -3.9119 12.3967 
5.40553 -3.45152 12.7489 5.30477 -3.66515 12.6989 5.36743 -3.41592 12.434 
5.40553 -3.45152 12.7489 5.36743 -3.41592 12.434 5.50028 -3.13773 12.5889 
5.53277 -3.13922 12.8251 5.51241 -3.19278 12.8123 5.50028 -3.13773 12.5889 
5.66654 -2.73721 12.9151 5.59968 -2.95027 12.8705 5.63484 -2.75651 12.6863 
5.66654 -2.73721 12.9151 5.63484 -2.75651 12.6863 5.72914 -2.34176 12.7084 
5.81389 -2.08568 13.0781 5.79323 -2.20336 13.0498 5.80558 -2.02254 12.8601 
5.86267 -1.7098 13.1683 5.83456 -1.9496 13.1107 5.80558 -2.02254 12.8601 
5.88411 -0.957999 13.3515 5.88785 -1.1811 13.2952 5.87572 -0.963551 13.1133 
5.88411 -0.957999 13.3515 5.87572 -0.963551 13.1133 5.86322 -0.632236 13.3293 
5.81389 -0.276513 13.5124 5.83456 -0.412589 13.4797 5.80055 -0.196554 13.3154 
5.7417 0.0865448 13.5996 5.79323 -0.158829 13.5406 5.80055 -0.196554 13.3154 
5.64935 0.431869 13.6825 5.67567 0.342008 13.6609 5.69548 0.282924 13.3919 
5.53277 0.777025 13.7653 5.59968 0.588077 13.72 5.53185 0.793669 13.4375 
5.23333 1.44233 13.9251 5.30477 1.30296 13.8916 5.28072 1.37894 13.6728 
4.84968 2.06541 14.0746 4.91384 1.97288 14.0524 4.815 2.15293 13.8583 
4.61515 2.37451 14.1496 4.76337 2.18407 14.1031 4.815 2.15293 13.8583 
4.09436 2.93262 14.2897 4.25571 2.77535 14.2451 4.15765 2.91314 14.0409 
4.09436 2.93262 14.2897 4.15765 2.91314 14.0409 3.86585 3.16036 14.2367 
3.56574 3.37477 14.389 3.67101 3.29502 14.3698 3.55895 3.42053 14.1675 
3.2525 3.59124 14.441 3.46079 3.45066 14.4072 3.55895 3.42053 14.1675 
2.58085 3.96449 14.5349 2.79007 3.86046 14.5056 2.66123 3.96776 14.2963 
2.58085 3.96449 14.5349 2.66123 3.96776 14.2963 2.31178 4.11375 14.4096 
2.27474 4.09953 14.563 2.31407 4.08335 14.5591 2.31178 4.11375 14.4096 
1.92573 4.22919 14.5941 2.06884 4.179 14.5821 1.90943 4.28106 14.357 
1.56767 4.3374 14.6201 1.81944 4.26386 14.6024 1.90943 4.28106 14.357 
1.20587 4.42271 14.6406 1.31017 4.40053 14.6353 1.39703 4.42443 14.3986 
0.811957 4.49014 14.6556 1.05132 4.45206 14.6476 0.910234 4.53251 14.3175 
0.811957 4.49014 14.6556 0.910234 4.53251 14.3175 0.529736 4.56299 14.4377 
0.0934164 4.54335 14.6695 0.264157 4.5383 14.6683 0.116053 4.58679 14.444 
-2.66454e-10 4.54407 14.6697 0.116053 4.58679 14.444 -0.271477 4.56199 14.5682 
-0.652598 4.50879 14.6612 -0.527782 4.52102 14.6642 -0.707878 4.54756 14.4345 
-1.03773 4.45469 14.6486 -0.790345 4.49225 14.6573 -0.707878 4.54756 14.4345 
-1.78965 4.27286 14.6092 -1.56638 4.33775 14.6202 -1.56227 4.39395 14.2757 
-2.4459 4.0267 14.5455 -2.31407 4.08335 14.5591 -2.45199 4.06931 14.3169 
-2.78606 3.86317 14.5041 -2.55464 3.9771 14.5336 -2.45199 4.06931 14.3169 
-3.10422 3.68372 14.4632 -3.01987 3.73366 14.4752 -2.93448 3.82556 14.2498 
-3.44125 3.46475 14.4122 -3.2436 3.59697 14.4423 -3.35872 3.57271 14.1052 
-3.44125 3.46475 14.4122 -3.35872 3.57271 14.1052 -3.66589 3.34686 14.0455 
-3.99496 3.02456 14.3049 -3.87384 3.13036 14.3303 -3.98861 3.07909 13.9651 
-4.06887 2.95702 14.2887 -3.98861 3.07909 13.9651 -4.25814 2.79548 14.1502 
-4.51035 2.49897 14.1787 -4.43397 2.58571 14.1996 -4.51379 2.53337 13.958 
-4.74131 2.2134 14.1102 -4.6033 2.38849 14.1522 -4.51379 2.53337 13.958 
-5.16928 1.55973 13.9599 -5.05441 1.75534 14.0002 -5.12041 1.67893 13.7451 
-5.16928 1.55973 13.9599 -5.12041 1.67893 13.7451 -5.31011 1.31472 13.7977 
-5.46609 0.946732 13.8061 -5.41404 1.06904 13.8354 -5.47411 0.95698 13.5778 
-5.59737 0.596181 13.7197 -5.51241 0.830582 13.7782 -5.47411 0.95698 13.5778 
-5.78884 -0.133049 13.5508 -5.74023 0.0928723 13.6011 -5.75417 0.036082 13.3419 
-5.78884 -0.133049 13.5508 -5.75417 0.036082 13.3419 -5.84901 -0.53028 13.2418 
-5.84048 -0.456334 13.4692 -5.83456 -0.412589 13.4797 -5.84901 -0.53028 13.2418 
-5.87599 -0.817984 13.3824 -5.86414 -0.667897 13.4184 -5.84901 -0.53028 13.2418 
0.450188 1.15867 3.49319 0.448935 1.19976 3.51864 0.458681 1.1186 3.87093 
0.448935 1.19976 3.51864 0.444512 1.23355 3.54977 0.458681 1.1186 3.87093 
0.444512 1.23355 3.54977 0.434324 1.28035 3.54937 0.458681 1.1186 3.87093 
0.434324 1.28035 3.54937 0.423936 1.30999 3.56623 0.408232 1.29244 3.90031 
0.411846 1.34501 3.55127 0.394232 1.37493 3.58195 0.408232 1.29244 3.90031 
0.394232 1.37493 3.58195 0.369665 1.42347 3.54669 0.408232 1.29244 3.90031 
0.369665 1.42347 3.54669 0.348775 1.44095 3.59217 0.309442 1.41138 3.94706 
0.327087 1.46666 3.59109 0.30432 1.48676 3.60281 0.309442 1.41138 3.94706 
0.272103 1.52425 3.56345 0.228648 1.53804 3.63175 0.207917 1.47983 3.95202 
0.228648 1.53804 3.63175 0.186867 1.56577 3.60799 0.207917 1.47983 3.95202 
0.186867 1.56577 3.60799 0.155624 1.57485 3.62459 0.0964883 1.51715 3.97818 
0.0964883 1.51715 3.97818 0.155624 1.57485 3.62459 0.124493 1.5873 3.61701 
0.124493 1.5873 3.61701 0.0850226 1.58885 3.65243 0.0964883 1.51715 3.97818 
0.0850226 1.58885 3.65243 0.0391996 1.60534 3.60983 0.0964883 1.51715 3.97818 
0.0391996 1.60534 3.60983 0.00461801 1.60156 3.63243 -0.0281912 1.5261 3.97083 
-0.0282704 1.6035 3.62089 -0.0683429 1.59509 3.63867 -0.0281912 1.5261 3.97083 
-0.0683429 1.59509 3.63867 -0.156045 1.50696 3.94891 -0.0281912 1.5261 3.97083 
-0.0683429 1.59509 3.63867 -0.113422 1.59019 3.618 -0.156045 1.50696 3.94891 
-0.113422 1.59019 3.618 -0.150125 1.57226 3.64538 -0.156045 1.50696 3.94891 
-0.150125 1.57226 3.64538 -0.18603 1.56271 3.62167 -0.156045 1.50696 3.94891 
-0.18603 1.56271 3.62167 -0.213624 1.54396 3.643 -0.156045 1.50696 3.94891 
-0.213624 1.54396 3.643 -0.252882 1.52855 3.60388 -0.301733 1.37663 4.17755 
-0.252882 1.52855 3.60388 -0.28538 1.4996 3.62226 -0.301733 1.37663 4.17755 
-0.28538 1.4996 3.62226 -0.374568 1.34605 3.90089 -0.301733 1.37663 4.17755 
-0.28538 1.4996 3.62226 -0.319585 1.47544 3.58792 -0.374568 1.34605 3.90089 
-0.319585 1.47544 3.58792 -0.342795 1.44739 3.59591 -0.374568 1.34605 3.90089 
-0.363218 1.42583 3.57543 -0.385806 1.38994 3.58194 -0.374568 1.34605 3.90089 
-0.385806 1.38994 3.58194 -0.407292 1.35282 3.56183 -0.374568 1.34605 3.90089 
-0.407292 1.35282 3.56183 -0.420749 1.31712 3.57397 -0.437801 1.21245 3.88801 
-0.431333 1.29168 3.54648 -0.4414 1.25122 3.5477 -0.437801 1.21245 3.88801 
-0.4414 1.25122 3.5477 -0.457593 1.09392 3.86285 -0.437801 1.21245 3.88801 
-0.4414 1.25122 3.5477 -0.447975 1.20978 3.52523 -0.457593 1.09392 3.86285 
-0.447975 1.20978 3.52523 -0.450435 1.16462 3.54137 -0.457593 1.09392 3.86285 
-0.450435 1.16462 3.54137 -0.448091 1.12191 3.51825 -0.457593 1.09392 3.86285 
-0.448091 1.12191 3.51825 -0.443477 1.09005 3.5082 -0.432701 0.939995 3.78797 
-0.432701 0.939995 3.78797 -0.443477 1.09005 3.5082 -0.436864 1.06106 3.49129 
-0.436864 1.06106 3.49129 -0.425595 1.01672 3.50861 -0.432701 0.939995 3.78797 
-0.425595 1.01672 3.50861 -0.407939 0.98146 3.4723 -0.432701 0.939995 3.78797 
-0.407939 0.98146 3.4723 -0.392055 0.949043 3.47577 -0.432701 0.939995 3.78797 
-0.332979 0.783552 3.76351 -0.432701 0.939995 3.78797 -0.392055 0.949043 3.47577 
-0.374915 0.925191 3.45492 -0.351738 0.894259 3.4458 -0.332979 0.783552 3.76351 
-0.351738 0.894259 3.4458 -0.320872 0.860969 3.43701 -0.332979 0.783552 3.76351 
-0.320872 0.860969 3.43701 -0.295412 0.832021 3.45544 -0.332979 0.783552 3.76351 
-0.269796 0.809241 3.46148 -0.243707 0.796439 3.43771 -0.225185 0.697318 3.76477 
-0.243707 0.796439 3.43771 -0.206917 0.802946 3.31797 -0.225185 0.697318 3.76477 
-0.206917 0.802946 3.31797 -0.159167 0.753061 3.43376 -0.0859126 0.640868 3.77105 
-0.159167 0.753061 3.43376 -0.114739 0.743529 3.41399 -0.0859126 0.640868 3.77105 
-0.114739 0.743529 3.41399 -0.0811423 0.733403 3.4245 -0.0859126 0.640868 3.77105 
-0.0486067 0.731241 3.41288 -0.00844419 0.72407 3.43046 -0.0859126 0.640868 3.77105 
-0.00844419 0.72407 3.43046 0.0782662 0.652332 3.72321 -0.0859126 0.640868 3.77105 
-0.00844419 0.72407 3.43046 0.0376113 0.733276 3.39978 0.0782662 0.652332 3.72321 
0.0376113 0.733276 3.39978 0.0719892 0.728226 3.43917 0.0782662 0.652332 3.72321 
0.104252 0.741045 3.41323 0.143095 0.747133 3.43416 0.0782662 0.652332 3.72321 
0.143095 0.747133 3.43416 0.203563 0.684411 3.77187 0.0782662 0.652332 3.72321 
0.143095 0.747133 3.43416 0.185843 0.768061 3.42018 0.203563 0.684411 3.77187 
0.185843 0.768061 3.42018 0.221852 0.784856 3.42712 0.203563 0.684411 3.77187 
0.221852 0.784856 3.42712 0.261238 0.8107 3.42846 0.299871 0.745894 3.78476 
0.261238 0.8107 3.42846 0.287853 0.827947 3.44527 0.299871 0.745894 3.78476 
0.299871 0.745894 3.78476 0.287853 0.827947 3.44527 0.312379 0.851181 3.44187 
0.312379 0.851181 3.44187 0.340562 0.870223 3.48795 0.299871 0.745894 3.78476 
0.340562 0.870223 3.48795 0.391337 0.854615 3.79056 0.299871 0.745894 3.78476 
0.340562 0.870223 3.48795 0.36878 0.915678 3.45577 0.391337 0.854615 3.79056 
0.36878 0.915678 3.45577 0.387438 0.941267 3.4739 0.391337 0.854615 3.79056 
0.403173 0.972442 3.46777 0.419453 1.00205 3.49914 0.391337 0.854615 3.79056 
0.419453 1.00205 3.49914 0.443771 0.976727 3.83308 0.391337 0.854615 3.79056 
0.419453 1.00205 3.49914 0.433861 1.05025 3.48702 0.443771 0.976727 3.83308 
0.433861 1.05025 3.48702 0.441773 1.07706 3.52074 0.443771 0.976727 3.83308 
0.44692 1.11146 3.51676 0.450188 1.15867 3.49319 0.458681 1.1186 3.87093 
0.458681 1.1186 3.87093 0.408232 1.29244 3.90031 0.487509 1.03209 4.41353 
0.408232 1.29244 3.90031 0.309442 1.41138 3.94706 0.415963 1.21255 4.41934 
0.309442 1.41138 3.94706 0.207917 1.47983 3.95202 0.31933 1.32098 4.45943 
0.207917 1.47983 3.95202 0.0964883 1.51715 3.97818 0.217973 1.38297 4.49669 
0.0964883 1.51715 3.97818 -0.0281912 1.5261 3.97083 0.0250206 1.43371 4.52607 
-0.0281912 1.5261 3.97083 -0.156045 1.50696 3.94891 0.0250206 1.43371 4.52607 
-0.374568 1.34605 3.90089 -0.437801 1.21245 3.88801 -0.417497 1.22828 4.24705 
-0.437801 1.21245 3.88801 -0.457593 1.09392 3.86285 -0.476987 1.05547 4.37288 
-0.457593 1.09392 3.86285 -0.432701 0.939995 3.78797 -0.485013 0.937421 4.33603 
-0.432701 0.939995 3.78797 -0.332979 0.783552 3.76351 -0.38033 0.69742 4.19667 
-0.332979 0.783552 3.76351 -0.225185 0.697318 3.76477 -0.243622 0.53797 4.30826 
-0.225185 0.697318 3.76477 -0.0859126 0.640868 3.77105 -0.0860385 0.483283 4.28187 
-0.0859126 0.640868 3.77105 0.0782662 0.652332 3.72321 -0.0860385 0.483283 4.28187 
0.0782662 0.652332 3.72321 0.203563 0.684411 3.77187 0.24378 0.554758 4.25385 
0.203563 0.684411 3.77187 0.299871 0.745894 3.78476 0.24378 0.554758 4.25385 
0.299871 0.745894 3.78476 0.391337 0.854615 3.79056 0.353442 0.639203 4.28332 
0.391337 0.854615 3.79056 0.443771 0.976727 3.83308 0.422185 0.793477 4.13193 
0.443771 0.976727 3.83308 0.458681 1.1186 3.87093 0.47708 0.869961 4.33662 
-0.165442 1.41405 4.44203 -0.301733 1.37663 4.17755 -0.272712 1.31197 4.85324 
-0.301733 1.37663 4.17755 -0.417497 1.22828 4.24705 -0.383017 1.22887 4.77962 
-0.417497 1.22828 4.24705 -0.476987 1.05547 4.37288 -0.472552 1.10678 4.77937 
-0.485013 0.937421 4.33603 -0.453901 0.87162 4.15872 -0.503965 0.729629 4.69182 
-0.453901 0.87162 4.15872 -0.38033 0.69742 4.19667 -0.455745 0.622456 4.65554 
0.353442 0.639203 4.28332 0.422185 0.793477 4.13193 0.475046 0.630509 4.70919 
0.487509 1.03209 4.41353 0.415963 1.21255 4.41934 0.509545 1.04767 5.03387 
0.415963 1.21255 4.41934 0.31933 1.32098 4.45943 0.433964 1.16036 5.09694 
0.31933 1.32098 4.45943 0.217973 1.38297 4.49669 0.341043 1.24486 5.14346 
0.217973 1.38297 4.49669 0.0250206 1.43371 4.52607 0.175023 1.33794 5.09953 
0.0250206 1.43371 4.52607 -0.165442 1.41405 4.44203 -0.139864 1.35853 4.98938 
-0.165442 1.41405 4.44203 -0.272712 1.31197 4.85324 -0.139864 1.35853 4.98938 
-0.472552 1.10678 4.77937 -0.476987 1.05547 4.37288 -0.540249 0.896214 4.8013 
-0.476987 1.05547 4.37288 -0.485013 0.937421 4.33603 -0.540249 0.896214 4.8013 
-0.38033 0.69742 4.19667 -0.243622 0.53797 4.30826 -0.350515 0.441349 4.74246 
-0.243622 0.53797 4.30826 -0.0860385 0.483283 4.28187 -0.173773 0.344593 4.72192 
-0.0860385 0.483283 4.28187 0.102498 0.507797 4.2251 -0.012359 0.31849 4.71814 
0.102498 0.507797 4.2251 0.24378 0.554758 4.25385 0.30154 0.354558 4.86247 
0.24378 0.554758 4.25385 0.353442 0.639203 4.28332 0.399908 0.482304 4.76637 
0.353442 0.639203 4.28332 0.475046 0.630509 4.70919 0.399908 0.482304 4.76637 
0.475046 0.630509 4.70919 0.47708 0.869961 4.33662 0.534463 0.734207 4.83522 
0.47708 0.869961 4.33662 0.487509 1.03209 4.41353 0.544091 0.898227 4.85802 
0.544091 0.898227 4.85802 0.509545 1.04767 5.03387 0.599627 0.911174 5.39636 
0.0190862 1.36115 5.11849 -0.139864 1.35853 4.98938 -0.114835 1.32672 5.50341 
-0.139864 1.35853 4.98938 -0.272712 1.31197 4.85324 -0.244959 1.28873 5.46666 
-0.272712 1.31197 4.85324 -0.383017 1.22887 4.77962 -0.364201 1.22411 5.44251 
-0.383017 1.22887 4.77962 -0.472552 1.10678 4.77937 -0.469538 1.12599 5.25435 
-0.472552 1.10678 4.77937 -0.540249 0.896214 4.8013 -0.558115 0.977465 5.22382 
-0.540249 0.896214 4.8013 -0.503965 0.729629 4.69182 -0.582466 0.622856 5.15016 
-0.503965 0.729629 4.69182 -0.455745 0.622456 4.65554 -0.582466 0.622856 5.15016 
-0.455745 0.622456 4.65554 -0.350515 0.441349 4.74246 -0.490402 0.431913 5.10527 
-0.350515 0.441349 4.74246 -0.173773 0.344593 4.72192 -0.351057 0.293042 5.06581 
-0.173773 0.344593 4.72192 -0.012359 0.31849 4.71814 -0.0224644 0.113711 5.20933 
-0.012359 0.31849 4.71814 0.137208 0.333339 4.72536 0.125063 0.113264 5.23883 
0.137208 0.333339 4.72536 0.30154 0.354558 4.86247 0.277912 0.169916 5.23746 
0.399908 0.482304 4.76637 0.475046 0.630509 4.70919 0.502934 0.383849 5.22172 
0.475046 0.630509 4.70919 0.534463 0.734207 4.83522 0.583651 0.536812 5.25714 
0.534463 0.734207 4.83522 0.544091 0.898227 4.85802 0.600646 0.738523 5.18552 
0.600646 0.738523 5.18552 0.599627 0.911174 5.39636 0.708732 0.655466 5.7123 
0.509545 1.04767 5.03387 0.433964 1.16036 5.09694 0.578532 1.02283 5.73983 
0.433964 1.16036 5.09694 0.341043 1.24486 5.14346 0.493094 1.12559 5.76926 
0.341043 1.24486 5.14346 0.175023 1.33794 5.09953 0.394459 1.20823 5.83022 
0.175023 1.33794 5.09953 0.0190862 1.36115 5.11849 0.0230119 1.33112 5.66843 
-0.364201 1.22411 5.44251 -0.469538 1.12599 5.25435 -0.467865 1.15889 5.86217 
-0.469538 1.12599 5.25435 -0.558115 0.977465 5.22382 -0.620094 0.963494 5.71743 
-0.558115 0.977465 5.22382 -0.595126 0.813112 5.18819 -0.693165 0.732416 5.69339 
-0.595126 0.813112 5.18819 -0.582466 0.622856 5.15016 -0.690286 0.552292 5.65023 
-0.582466 0.622856 5.15016 -0.490402 0.431913 5.10527 -0.637889 0.378188 5.60164 
-0.490402 0.431913 5.10527 -0.351057 0.293042 5.06581 -0.520861 0.205993 5.55065 
-0.351057 0.293042 5.06581 -0.172699 0.142176 5.2027 -0.336734 0.0159909 5.59437 
0.277912 0.169916 5.23746 0.30154 0.354558 4.86247 0.4617 0.13367 5.55692 
0.30154 0.354558 4.86247 0.502934 0.383849 5.22172 0.4617 0.13367 5.55692 
0.583651 0.536812 5.25714 0.600646 0.738523 5.18552 0.705883 0.430215 5.76397 
0.708732 0.655466 5.7123 0.599627 0.911174 5.39636 0.747127 0.808589 6.08721 
0.394459 1.20823 5.83022 0.192405 1.3066 5.62485 0.265326 1.28583 6.17015 
0.192405 1.3066 5.62485 0.0230119 1.33112 5.66843 0.0771368 1.32352 6.15818 
0.0230119 1.33112 5.66843 -0.114835 1.32672 5.50341 -0.083308 1.32242 6.12862 
-0.114835 1.32672 5.50341 -0.244959 1.28873 5.46666 -0.282085 1.27463 5.98566 
-0.244959 1.28873 5.46666 -0.364201 1.22411 5.44251 -0.282085 1.27463 5.98566 
-0.172699 0.142176 5.2027 -0.0224644 0.113711 5.20933 -0.132792 -0.0928262 5.65705 
-0.0224644 0.113711 5.20933 0.125063 0.113264 5.23883 0.125173 -0.0835398 5.62934 
0.125063 0.113264 5.23883 0.277912 0.169916 5.23746 0.125173 -0.0835398 5.62934 
0.277912 0.169916 5.23746 0.4617 0.13367 5.55692 0.364909 -0.12004 5.87644 
0.4617 0.13367 5.55692 0.502934 0.383849 5.22172 0.632253 0.227109 5.75728 
0.502934 0.383849 5.22172 0.583651 0.536812 5.25714 0.632253 0.227109 5.75728 
0.708732 0.655466 5.7123 0.747127 0.808589 6.08721 0.826592 0.580086 6.16927 
0.747127 0.808589 6.08721 0.578532 1.02283 5.73983 0.686795 0.974474 6.23887 
0.578532 1.02283 5.73983 0.493094 1.12559 5.76926 0.555316 1.12624 6.2941 
0.493094 1.12559 5.76926 0.394459 1.20823 5.83022 0.555316 1.12624 6.2941 
0.394459 1.20823 5.83022 0.265326 1.28583 6.17015 0.420073 1.22197 6.31981 
-0.083308 1.32242 6.12862 -0.282085 1.27463 5.98566 -0.257075 1.29602 6.32936 
-0.282085 1.27463 5.98566 -0.467865 1.15889 5.86217 -0.42877 1.21662 6.31253 
-0.467865 1.15889 5.86217 -0.620094 0.963494 5.71743 -0.590969 1.09339 6.28397 
-0.620094 0.963494 5.71743 -0.693165 0.732416 5.69339 -0.818493 0.626453 6.16228 
-0.693165 0.732416 5.69339 -0.690286 0.552292 5.65023 -0.818493 0.626453 6.16228 
-0.690286 0.552292 5.65023 -0.637889 0.378188 5.60164 -0.811325 0.39132 6.12018 
-0.637889 0.378188 5.60164 -0.520861 0.205993 5.55065 -0.731708 0.0232267 6.2184 
-0.520861 0.205993 5.55065 -0.336734 0.0159909 5.59437 -0.571574 -0.112659 6.11152 
-0.336734 0.0159909 5.59437 -0.132792 -0.0928262 5.65705 -0.238795 -0.303958 6.09506 
-0.132792 -0.0928262 5.65705 0.125173 -0.0835398 5.62934 -0.005185 -0.36226 6.12968 
0.364909 -0.12004 5.87644 0.4617 0.13367 5.55692 0.568017 -0.170455 6.19621 
0.4617 0.13367 5.55692 0.632253 0.227109 5.75728 0.700307 -0.00587713 6.19526 
0.632253 0.227109 5.75728 0.705883 0.430215 5.76397 0.805032 0.140296 6.26529 
0.705883 0.430215 5.76397 0.708732 0.655466 5.7123 0.835844 0.315934 6.22714 
0.826592 0.580086 6.16927 0.747127 0.808589 6.08721 0.940192 0.638672 6.65884 
0.747127 0.808589 6.08721 0.686795 0.974474 6.23887 0.863738 0.86057 6.74883 
0.686795 0.974474 6.23887 0.555316 1.12624 6.2941 0.750428 1.02715 6.7973 
0.555316 1.12624 6.2941 0.420073 1.22197 6.31981 0.491717 1.24519 6.89421 
0.420073 1.22197 6.31981 0.265326 1.28583 6.17015 0.272608 1.31646 6.69048 
0.265326 1.28583 6.17015 0.0771368 1.32352 6.15818 0.272608 1.31646 6.69048 
0.0771368 1.32352 6.15818 -0.083308 1.32242 6.12862 0.0555328 1.35086 6.68561 
-0.083308 1.32242 6.12862 -0.257075 1.29602 6.32936 -0.122363 1.34517 6.67312 
-0.257075 1.29602 6.32936 -0.42877 1.21662 6.31253 -0.496297 1.23426 6.82248 
-0.42877 1.21662 6.31253 -0.590969 1.09339 6.28397 -0.63794 1.10488 6.61848 
-0.590969 1.09339 6.28397 -0.728078 0.901643 6.20312 -0.811581 0.895512 6.5914 
-0.728078 0.901643 6.20312 -0.818493 0.626453 6.16228 -0.924445 0.643135 6.60083 
-0.818493 0.626453 6.16228 -0.811325 0.39132 6.12018 -0.92358 0.429882 6.46919 
-0.811325 0.39132 6.12018 -0.798141 0.184632 6.21222 -0.958244 0.159805 6.62337 
-0.571574 -0.112659 6.11152 -0.390259 -0.257392 6.12408 -0.613962 -0.349499 6.49803 
-0.238795 -0.303958 6.09506 -0.005185 -0.36226 6.12968 -0.207582 -0.522443 6.42629 
0.364909 -0.12004 5.87644 0.568017 -0.170455 6.19621 0.499064 -0.360417 6.38516 
0.835844 0.315934 6.22714 0.826592 0.580086 6.16927 1.00239 0.394951 6.70827 
0.491717 1.24519 6.89421 0.272608 1.31646 6.69048 0.347121 1.33732 7.11829 
0.272608 1.31646 6.69048 0.0555328 1.35086 6.68561 0.0836088 1.40559 7.24274 
0.0555328 1.35086 6.68561 -0.122363 1.34517 6.67312 0.0836088 1.40559 7.24274 
-0.496297 1.23426 6.82248 -0.63794 1.10488 6.61848 -0.758 1.10512 7.12193 
-0.63794 1.10488 6.61848 -0.811581 0.895512 6.5914 -0.906571 0.936261 7.10581 
-0.924445 0.643135 6.60083 -0.92358 0.429882 6.46919 -1.0702 0.496123 6.95823 
-0.92358 0.429882 6.46919 -0.958244 0.159805 6.62337 -1.08083 0.262991 6.9092 
-0.958244 0.159805 6.62337 -0.798141 0.184632 6.21222 -0.93605 -0.0421014 6.68724 
-0.798141 0.184632 6.21222 -0.731708 0.0232267 6.2184 -0.93605 -0.0421014 6.68724 
-0.731708 0.0232267 6.2184 -0.571574 -0.112659 6.11152 -0.792167 -0.250339 6.61818 
-0.613962 -0.349499 6.49803 -0.390259 -0.257392 6.12408 -0.496527 -0.606621 6.72763 
-0.390259 -0.257392 6.12408 -0.238795 -0.303958 6.09506 -0.496527 -0.606621 6.72763 
-0.207582 -0.522443 6.42629 -0.005185 -0.36226 6.12968 -0.102179 -0.712202 6.69494 
-0.005185 -0.36226 6.12968 0.142716 -0.334196 6.10652 0.237537 -0.705007 6.71922 
0.142716 -0.334196 6.10652 0.291959 -0.317473 6.14769 0.387035 -0.646839 6.71136 
0.499064 -0.360417 6.38516 0.568017 -0.170455 6.19621 0.713387 -0.44987 6.7474 
0.568017 -0.170455 6.19621 0.700307 -0.00587713 6.19526 0.855409 -0.344958 6.82119 
0.700307 -0.00587713 6.19526 0.805032 0.140296 6.26529 0.911604 -0.0411919 6.62991 
0.805032 0.140296 6.26529 0.835844 0.315934 6.22714 1.02016 0.178266 6.76136 
0.835844 0.315934 6.22714 1.00239 0.394951 6.70827 1.02016 0.178266 6.76136 
1.00239 0.394951 6.70827 0.940192 0.638672 6.65884 1.21432 0.436485 7.3257 
0.940192 0.638672 6.65884 0.863738 0.86057 6.74883 1.14654 0.657277 7.35071 
0.863738 0.86057 6.74883 0.750428 1.02715 6.7973 0.901642 1.00031 7.25637 
0.750428 1.02715 6.7973 0.621043 1.15219 6.82341 0.773687 1.1341 7.2963 
0.621043 1.15219 6.82341 0.491717 1.24519 6.89421 0.593947 1.26307 7.31555 
0.491717 1.24519 6.89421 0.347121 1.33732 7.11829 0.447733 1.36637 7.52061 
-0.150415 1.3941 7.21671 -0.30336 1.32415 6.90232 -0.346337 1.40492 7.55079 
-0.30336 1.32415 6.90232 -0.496297 1.23426 6.82248 -0.488975 1.34535 7.49415 
-0.980624 0.808167 7.0651 -0.924445 0.643135 6.60083 -1.15488 0.634117 7.34335 
-1.08083 0.262991 6.9092 -0.958244 0.159805 6.62337 -1.17211 -0.022755 7.17641 
-0.958244 0.159805 6.62337 -0.93605 -0.0421014 6.68724 -1.11457 -0.224527 7.15547 
-0.93605 -0.0421014 6.68724 -0.792167 -0.250339 6.61818 -1.01502 -0.427586 7.14071 
-0.792167 -0.250339 6.61818 -0.613962 -0.349499 6.49803 -0.758889 -0.6652 7.04986 
-0.496527 -0.606621 6.72763 -0.207582 -0.522443 6.42629 -0.31252 -0.770827 6.84021 
0.387035 -0.646839 6.71136 0.499064 -0.360417 6.38516 0.592266 -0.640447 6.84974 
0.911604 -0.0411919 6.62991 1.02016 0.178266 6.76136 1.18383 -0.0177354 7.19832 
1.02016 0.178266 6.76136 1.00239 0.394951 6.70827 1.15103 0.220867 7.0846 
1.15103 0.220867 7.0846 1.21432 0.436485 7.3257 1.35546 0.121696 7.54947 
1.08298 0.810844 7.39601 0.901642 1.00031 7.25637 1.10395 1.02994 7.91031 
0.901642 1.00031 7.25637 0.773687 1.1341 7.2963 0.909408 1.16412 7.78462 
0.773687 1.1341 7.2963 0.593947 1.26307 7.31555 0.708125 1.32494 7.85701 
0.447733 1.36637 7.52061 0.347121 1.33732 7.11829 0.275413 1.48705 7.88733 
0.347121 1.33732 7.11829 0.0836088 1.40559 7.24274 0.275413 1.48705 7.88733 
0.0836088 1.40559 7.24274 -0.150415 1.3941 7.21671 -0.196624 1.49972 7.8949 
-0.150415 1.3941 7.21671 -0.346337 1.40492 7.55079 -0.196624 1.49972 7.8949 
-0.488975 1.34535 7.49415 -0.616572 1.25126 7.32401 -0.735641 1.30454 7.84726 
-0.616572 1.25126 7.32401 -0.758 1.10512 7.12193 -0.951462 1.14199 7.81497 
-0.758 1.10512 7.12193 -0.906571 0.936261 7.10581 -1.1192 0.9427 7.76102 
-0.906571 0.936261 7.10581 -0.980624 0.808167 7.0651 -1.20848 0.780045 7.69775 
-1.15488 0.634117 7.34335 -1.0702 0.496123 6.95823 -1.26567 0.447551 7.46387 
-1.0702 0.496123 6.95823 -1.08083 0.262991 6.9092 -1.28106 0.179841 7.38617 
-0.758889 -0.6652 7.04986 -0.496527 -0.606621 6.72763 -0.678406 -0.943583 7.29094 
-0.496527 -0.606621 6.72763 -0.31252 -0.770827 6.84021 -0.496466 -1.03116 7.27401 
-0.31252 -0.770827 6.84021 -0.102179 -0.712202 6.69494 -0.28494 -1.06064 7.21659 
-0.102179 -0.712202 6.69494 0.0758263 -0.729234 6.7168 0.128556 -1.01105 7.10993 
0.0758263 -0.729234 6.7168 0.237537 -0.705007 6.71922 0.128556 -1.01105 7.10993 
0.237537 -0.705007 6.71922 0.387035 -0.646839 6.71136 0.457348 -0.936614 7.12442 
0.387035 -0.646839 6.71136 0.592266 -0.640447 6.84974 0.457348 -0.936614 7.12442 
0.592266 -0.640447 6.84974 0.713387 -0.44987 6.7474 0.770263 -0.745829 7.14458 
0.713387 -0.44987 6.7474 0.855409 -0.344958 6.82119 1.03019 -0.660275 7.36441 
0.855409 -0.344958 6.82119 1.08709 -0.22187 7.10075 1.17429 -0.48505 7.42657 
1.18383 -0.0177354 7.19832 1.15103 0.220867 7.0846 1.35546 0.121696 7.54947 
1.35546 0.121696 7.54947 1.21432 0.436485 7.3257 1.41396 0.307279 7.74029 
1.21432 0.436485 7.3257 1.14654 0.657277 7.35071 1.37923 0.498443 7.78553 
1.14654 0.657277 7.35071 1.08298 0.810844 7.39601 1.36383 0.702239 7.97066 
1.08298 0.810844 7.39601 1.10395 1.02994 7.91031 1.26486 0.905851 8.05314 
0.708125 1.32494 7.85701 0.447733 1.36637 7.52061 0.506719 1.45546 8.02285 
0.447733 1.36637 7.52061 0.275413 1.48705 7.88733 0.506719 1.45546 8.02285 
-0.196624 1.49972 7.8949 -0.346337 1.40492 7.55079 -0.461292 1.51145 8.20006 
-0.346337 1.40492 7.55079 -0.488975 1.34535 7.49415 -0.582966 1.42423 8.01609 
-1.20848 0.780045 7.69775 -1.15488 0.634117 7.34335 -1.365 0.551659 7.79494 
-1.15488 0.634117 7.34335 -1.26567 0.447551 7.46387 -1.365 0.551659 7.79494 
-1.26567 0.447551 7.46387 -1.28106 0.179841 7.38617 -1.47648 0.294372 7.87708 
-1.28106 0.179841 7.38617 -1.17211 -0.022755 7.17641 -1.39021 -0.100756 7.62877 
-1.17211 -0.022755 7.17641 -1.11457 -0.224527 7.15547 -1.34102 -0.30388 7.59827 
-1.11457 -0.224527 7.15547 -1.01502 -0.427586 7.14071 -1.30509 -0.546404 7.6604 
-1.01502 -0.427586 7.14071 -0.899895 -0.564844 7.10598 -1.17314 -0.749673 7.61855 
-0.899895 -0.564844 7.10598 -0.758889 -0.6652 7.04986 -0.997177 -0.981398 7.61302 
-0.0967045 -1.00129 7.09648 0.128556 -1.01105 7.10993 0.109423 -1.34055 7.52506 
0.128556 -1.01105 7.10993 0.457348 -0.936614 7.12442 0.313957 -1.31215 7.53269 
0.457348 -0.936614 7.12442 0.770263 -0.745829 7.14458 0.712596 -1.03815 7.422 
0.770263 -0.745829 7.14458 1.03019 -0.660275 7.36441 0.918172 -0.891493 7.44479 
1.08709 -0.22187 7.10075 1.18383 -0.0177354 7.19832 1.48339 -0.193141 7.82319 
1.35546 0.121696 7.54947 1.41396 0.307279 7.74029 1.57196 0.0632728 7.98847 
1.41396 0.307279 7.74029 1.37923 0.498443 7.78553 1.63739 0.290922 8.21179 
1.10395 1.02994 7.91031 0.909408 1.16412 7.78462 1.05816 1.22304 8.27528 
0.909408 1.16412 7.78462 0.708125 1.32494 7.85701 0.883011 1.41696 8.48883 
0.708125 1.32494 7.85701 0.506719 1.45546 8.02285 0.628273 1.53803 8.49587 
0.506719 1.45546 8.02285 0.275413 1.48705 7.88733 0.383155 1.5747 8.36139 
0.275413 1.48705 7.88733 0.0183677 1.51765 7.91762 0.139297 1.61772 8.37757 
0.0183677 1.51765 7.91762 -0.196624 1.49972 7.8949 -0.202379 1.60638 8.34918 
-0.196624 1.49972 7.8949 -0.461292 1.51145 8.20006 -0.202379 1.60638 8.34918 
-0.582966 1.42423 8.01609 -0.735641 1.30454 7.84726 -0.732712 1.48353 8.46276 
-0.735641 1.30454 7.84726 -0.951462 1.14199 7.81497 -0.979843 1.34527 8.45309 
-0.951462 1.14199 7.81497 -1.1192 0.9427 7.76102 -1.16703 1.12078 8.24976 
-1.1192 0.9427 7.76102 -1.20848 0.780045 7.69775 -1.3997 0.913556 8.36865 
-1.20848 0.780045 7.69775 -1.365 0.551659 7.79494 -1.51814 0.70641 8.32452 
-1.49081 0.100591 7.84003 -1.39021 -0.100756 7.62877 -1.63963 -0.186299 8.10046 
-1.39021 -0.100756 7.62877 -1.34102 -0.30388 7.59827 -1.56808 -0.462545 8.02834 
-0.997177 -0.981398 7.61302 -0.678406 -0.943583 7.29094 -0.842351 -1.20477 7.69347 
-0.678406 -0.943583 7.29094 -0.496466 -1.03116 7.27401 -0.63745 -1.31014 7.66688 
-0.496466 -1.03116 7.27401 -0.28494 -1.06064 7.21659 -0.368475 -1.42046 7.66624 
0.535952 -1.25 7.54865 0.712596 -1.03815 7.422 0.764091 -1.37806 7.81544 
0.712596 -1.03815 7.422 0.918172 -0.891493 7.44479 0.970535 -1.23782 7.82879 
0.918172 -0.891493 7.44479 1.03019 -0.660275 7.36441 1.1977 -1.05748 7.88553 
1.03019 -0.660275 7.36441 1.17429 -0.48505 7.42657 1.36972 -0.840865 7.93289 
1.17429 -0.48505 7.42657 1.39409 -0.369432 7.71755 1.49937 -0.639411 7.9942 
1.36383 0.702239 7.97066 1.26486 0.905851 8.05314 1.51792 0.849322 8.50188 
1.26486 0.905851 8.05314 1.10395 1.02994 7.91031 1.32472 1.1183 8.56203 
1.10395 1.02994 7.91031 1.05816 1.22304 8.27528 1.32472 1.1183 8.56203 
1.05816 1.22304 8.27528 0.883011 1.41696 8.48883 1.08936 1.33275 8.60491 
0.628273 1.53803 8.49587 0.383155 1.5747 8.36139 0.4535 1.70156 8.85939 
0.383155 1.5747 8.36139 0.139297 1.61772 8.37757 0.201234 1.74513 8.86336 
0.139297 1.61772 8.37757 -0.202379 1.60638 8.34918 -0.031127 1.75512 8.86884 
-0.202379 1.60638 8.34918 -0.461292 1.51145 8.20006 -0.558909 1.67711 8.86199 
-0.979843 1.34527 8.45309 -1.16703 1.12078 8.24976 -1.27882 1.16357 8.56467 
-1.62775 0.463423 8.30764 -1.47648 0.294372 7.87708 -1.72536 0.21487 8.34234 
-1.47648 0.294372 7.87708 -1.49081 0.100591 7.84003 -1.73665 -0.0230057 8.28429 
-1.49081 0.100591 7.84003 -1.63963 -0.186299 8.10046 -1.73665 -0.0230057 8.28429 
-1.30509 -0.546404 7.6604 -1.17314 -0.749673 7.61855 -1.41698 -1.0818 8.14364 
-1.17314 -0.749673 7.61855 -0.997177 -0.981398 7.61302 -1.26191 -1.28596 8.1311 
-0.997177 -0.981398 7.61302 -0.842351 -1.20477 7.69347 -1.09852 -1.44241 8.11727 
-0.842351 -1.20477 7.69347 -0.63745 -1.31014 7.66688 -0.763252 -1.64032 8.0712 
-0.63745 -1.31014 7.66688 -0.368475 -1.42046 7.66624 -0.483545 -1.73473 8.04058 
-0.368475 -1.42046 7.66624 -0.0792005 -1.33277 7.51383 -0.200012 -1.7624 8.00694 
-0.0792005 -1.33277 7.51383 0.109423 -1.34055 7.52506 0.0331969 -1.75584 7.98419 
0.109423 -1.34055 7.52506 0.313957 -1.31215 7.53269 0.322822 -1.72724 7.98925 
0.313957 -1.31215 7.53269 0.535952 -1.25 7.54865 0.612192 -1.69194 8.04878 
1.49937 -0.639411 7.9942 1.39409 -0.369432 7.71755 1.73349 -0.566682 8.31391 
1.39409 -0.369432 7.71755 1.48339 -0.193141 7.82319 1.80218 -0.367291 8.38248 
1.48339 -0.193141 7.82319 1.57196 0.0632728 7.98847 1.83476 -0.0539052 8.4493 
1.83476 -0.0539052 8.4493 1.63739 0.290922 8.21179 1.878 0.280433 8.65474 
1.63739 0.290922 8.21179 1.5818 0.574907 8.30668 1.878 0.280433 8.65474 
1.5818 0.574907 8.30668 1.51792 0.849322 8.50188 1.68613 0.821937 8.7893 
1.51792 0.849322 8.50188 1.32472 1.1183 8.56203 1.55789 1.09584 8.94855 
1.32472 1.1183 8.56203 1.08936 1.33275 8.60491 1.29885 1.38596 9.05765 
1.08936 1.33275 8.60491 0.883011 1.41696 8.48883 1.03071 1.59427 9.15456 
0.883011 1.41696 8.48883 0.628273 1.53803 8.49587 0.774525 1.71505 9.17233 
-0.558909 1.67711 8.86199 -0.732712 1.48353 8.46276 -0.85965 1.61005 8.98351 
-0.732712 1.48353 8.46276 -0.979843 1.34527 8.45309 -1.10504 1.46832 8.95003 
-0.979843 1.34527 8.45309 -1.27882 1.16357 8.56467 -1.34212 1.34566 9.05145 
-1.27882 1.16357 8.56467 -1.3997 0.913556 8.36865 -1.56009 1.12904 9.00827 
-1.3997 0.913556 8.36865 -1.51814 0.70641 8.32452 -1.74377 0.85491 8.94021 
-1.51814 0.70641 8.32452 -1.62775 0.463423 8.30764 -1.93555 0.430973 8.86115 
-1.62775 0.463423 8.30764 -1.72536 0.21487 8.34234 -1.97877 0.209098 8.80111 
-1.72536 0.21487 8.34234 -1.73665 -0.0230057 8.28429 -1.98292 0.00405709 8.7232 
-1.73665 -0.0230057 8.28429 -1.63963 -0.186299 8.10046 -1.89515 -0.222436 8.52833 
-1.63963 -0.186299 8.10046 -1.56808 -0.462545 8.02834 -1.85497 -0.500101 8.47889 
-1.56808 -0.462545 8.02834 -1.51357 -0.808828 8.09564 -1.7575 -0.773501 8.40369 
-1.51357 -0.808828 8.09564 -1.41698 -1.0818 8.14364 -1.70853 -1.13097 8.50078 
0.612192 -1.69194 8.04878 0.764091 -1.37806 7.81544 0.898587 -1.86173 8.34373 
0.764091 -1.37806 7.81544 0.970535 -1.23782 7.82879 0.898587 -1.86173 8.34373 
0.970535 -1.23782 7.82879 1.1977 -1.05748 7.88553 1.33949 -1.36467 8.25531 
1.1977 -1.05748 7.88553 1.36972 -0.840865 7.93289 1.54919 -1.13744 8.32248 
1.36972 -0.840865 7.93289 1.49937 -0.639411 7.9942 1.70586 -0.865734 8.37057 
1.83476 -0.0539052 8.4493 1.878 0.280433 8.65474 2.1572 0.18517 9.07726 
1.878 0.280433 8.65474 1.79711 0.584322 8.7383 2.05255 0.605324 9.19252 
1.79711 0.584322 8.7383 1.68613 0.821937 8.7893 2.05255 0.605324 9.19252 
1.68613 0.821937 8.7893 1.55789 1.09584 8.94855 1.80458 1.07643 9.32624 
0.774525 1.71505 9.17233 0.4535 1.70156 8.85939 0.536601 1.89689 9.46212 
0.4535 1.70156 8.85939 0.201234 1.74513 8.86336 0.225644 1.9525 9.4762 
0.201234 1.74513 8.86336 -0.031127 1.75512 8.86884 -0.0389473 1.92019 9.36073 
-0.031127 1.75512 8.86884 -0.244881 1.73849 8.85916 -0.284737 1.89817 9.34359 
-0.244881 1.73849 8.85916 -0.558909 1.67711 8.86199 -0.593607 1.83617 9.33305 
-0.558909 1.67711 8.86199 -0.85965 1.61005 8.98351 -0.901498 1.7652 9.41921 
-0.85965 1.61005 8.98351 -1.10504 1.46832 8.95003 -1.25844 1.60001 9.436 
-1.89515 -0.222436 8.52833 -1.85497 -0.500101 8.47889 -2.08467 -0.421571 8.80862 
-1.85497 -0.500101 8.47889 -1.7575 -0.773501 8.40369 -2.07186 -0.809478 8.83378 
-1.70853 -1.13097 8.50078 -1.41698 -1.0818 8.14364 -1.65881 -1.49702 8.64612 
-1.41698 -1.0818 8.14364 -1.26191 -1.28596 8.1311 -1.65881 -1.49702 8.64612 
-1.26191 -1.28596 8.1311 -1.09852 -1.44241 8.11727 -1.44301 -1.72692 8.60488 
-1.09852 -1.44241 8.11727 -0.956129 -1.54353 8.09804 -1.07674 -1.98394 8.54567 
-0.956129 -1.54353 8.09804 -0.763252 -1.64032 8.0712 -1.07674 -1.98394 8.54567 
-0.763252 -1.64032 8.0712 -0.483545 -1.73473 8.04058 -0.646272 -2.15935 8.49695 
-0.483545 -1.73473 8.04058 -0.200012 -1.7624 8.00694 -0.373201 -2.11534 8.37869 
-0.200012 -1.7624 8.00694 0.0331969 -1.75584 7.98419 -0.126189 -2.1513 8.37965 
0.0331969 -1.75584 7.98419 0.322822 -1.72724 7.98925 0.123141 -2.1495 8.37673 
0.322822 -1.72724 7.98925 0.612192 -1.69194 8.04878 0.664635 -2.04947 8.40341 
1.13013 -1.65424 8.31388 1.33949 -1.36467 8.25531 1.38751 -1.77712 8.59525 
1.33949 -1.36467 8.25531 1.54919 -1.13744 8.32248 1.80495 -1.36484 8.71714 
1.54919 -1.13744 8.32248 1.70586 -0.865734 8.37057 1.80495 -1.36484 8.71714 
1.70586 -0.865734 8.37057 1.73349 -0.566682 8.31391 2.07465 -0.799556 8.83911 
1.73349 -0.566682 8.31391 1.80218 -0.367291 8.38248 2.11855 -0.598038 8.87038 
1.80218 -0.367291 8.38248 1.83476 -0.0539052 8.4493 2.14894 -0.398488 8.91267 
1.80458 1.07643 9.32624 1.55789 1.09584 8.94855 1.70325 1.31315 9.51469 
1.55789 1.09584 8.94855 1.29885 1.38596 9.05765 1.70325 1.31315 9.51469 
1.29885 1.38596 9.05765 1.03071 1.59427 9.15456 1.23908 1.6875 9.59482 
1.03071 1.59427 9.15456 0.774525 1.71505 9.17233 1.01047 1.81213 9.62066 
0.225644 1.9525 9.4762 -0.0389473 1.92019 9.36073 -0.0410984 2.10109 9.82903 
-0.0389473 1.92019 9.36073 -0.284737 1.89817 9.34359 -0.256604 2.08623 9.82295 
-0.284737 1.89817 9.34359 -0.593607 1.83617 9.33305 -0.50892 1.98735 9.66726 
-1.25844 1.60001 9.436 -1.34212 1.34566 9.05145 -1.60398 1.41332 9.53884 
-1.34212 1.34566 9.05145 -1.56009 1.12904 9.00827 -1.60398 1.41332 9.53884 
-1.56009 1.12904 9.00827 -1.74377 0.85491 8.94021 -1.96947 0.95087 9.41797 
-1.74377 0.85491 8.94021 -1.86731 0.64832 8.92936 -2.08826 0.725133 9.3597 
-1.86731 0.64832 8.92936 -1.93555 0.430973 8.86115 -2.19837 0.426502 9.28322 
-1.93555 0.430973 8.86115 -1.97877 0.209098 8.80111 -2.26575 0.140197 9.22344 
-1.97877 0.209098 8.80111 -1.98292 0.00405709 8.7232 -2.283 -0.132268 9.14602 
-1.98292 0.00405709 8.7232 -2.08467 -0.421571 8.80862 -2.37001 -0.437415 9.21731 
-1.98631 -1.06626 8.79865 -1.70853 -1.13097 8.50078 -1.94941 -1.35225 8.86293 
-0.646272 -2.15935 8.49695 -0.373201 -2.11534 8.37869 -0.417705 -2.5127 8.7373 
-0.373201 -2.11534 8.37869 -0.126189 -2.1513 8.37965 -0.140436 -2.54677 8.73368 
-0.126189 -2.1513 8.37965 0.123141 -2.1495 8.37673 0.137264 -2.5582 8.74173 
0.123141 -2.1495 8.37673 0.414171 -2.10995 8.38215 0.375284 -2.51182 8.73223 
0.414171 -2.10995 8.38215 0.664635 -2.04947 8.40341 0.613211 -2.45024 8.73123 
0.664635 -2.04947 8.40341 0.898587 -1.86173 8.34373 0.868301 -2.36985 8.7536 
0.898587 -1.86173 8.34373 1.13013 -1.65424 8.31388 1.29704 -2.17563 8.81873 
2.15778 -0.150127 8.96002 2.1572 0.18517 9.07726 2.54704 0.0212323 9.57816 
2.1572 0.18517 9.07726 2.05255 0.605324 9.19252 2.40514 0.368631 9.55206 
2.05255 0.605324 9.19252 1.91463 0.889447 9.26502 2.17066 0.937556 9.69541 
1.91463 0.889447 9.26502 1.80458 1.07643 9.32624 2.11053 1.15923 9.86391 
1.80458 1.07643 9.32624 1.70325 1.31315 9.51469 1.96204 1.35958 9.92751 
1.70325 1.31315 9.51469 1.4537 1.53142 9.5487 1.79986 1.53394 9.97573 
1.4537 1.53142 9.5487 1.23908 1.6875 9.59482 1.54768 1.73347 10.0106 
1.23908 1.6875 9.59482 1.01047 1.81213 9.62066 1.2982 1.90346 10.0691 
1.01047 1.81213 9.62066 0.760824 1.99605 9.83496 1.05245 2.03387 10.1119 
0.536601 1.89689 9.46212 0.225644 1.9525 9.4762 0.542256 2.17625 10.1161 
-0.256604 2.08623 9.82295 -0.50892 1.98735 9.66726 -0.541318 2.19201 10.1464 
-0.7372 2.0009 9.83053 -0.901498 1.7652 9.41921 -1.03174 1.95623 9.93866 
-0.901498 1.7652 9.41921 -1.25844 1.60001 9.436 -1.29822 1.81747 9.90666 
-1.25844 1.60001 9.436 -1.60398 1.41332 9.53884 -1.82226 1.52462 9.98702 
-1.60398 1.41332 9.53884 -1.81483 1.16718 9.46122 -1.85617 1.36611 9.79809 
-1.81483 1.16718 9.46122 -1.96947 0.95087 9.41797 -2.12395 1.12162 9.8342 
-1.96947 0.95087 9.41797 -2.08826 0.725133 9.3597 -2.33224 0.821242 9.80463 
-2.08826 0.725133 9.3597 -2.19837 0.426502 9.28322 -2.46596 0.497009 9.72682 
-2.19837 0.426502 9.28322 -2.26575 0.140197 9.22344 -2.5656 0.08179 9.62283 
-2.26575 0.140197 9.22344 -2.283 -0.132268 9.14602 -2.5656 0.08179 9.62283 
-2.33277 -0.660559 9.15883 -2.07186 -0.809478 8.83378 -2.38912 -0.933971 9.24679 
-2.07186 -0.809478 8.83378 -1.98631 -1.06626 8.79865 -2.26908 -1.22485 9.16465 
-1.98631 -1.06626 8.79865 -1.94941 -1.35225 8.86293 -2.14034 -1.48478 9.11242 
-1.94941 -1.35225 8.86293 -1.65881 -1.49702 8.64612 -1.92367 -1.78174 9.03514 
-1.65881 -1.49702 8.64612 -1.44301 -1.72692 8.60488 -1.64267 -2.06708 8.97103 
-1.44301 -1.72692 8.60488 -1.2769 -1.89085 8.59991 -1.40201 -2.25183 8.93126 
-1.2769 -1.89085 8.59991 -1.07674 -1.98394 8.54567 -1.40201 -2.25183 8.93126 
-1.07674 -1.98394 8.54567 -0.844905 -2.10344 8.52652 -1.13347 -2.39719 8.88652 
-0.844905 -2.10344 8.52652 -0.646272 -2.15935 8.49695 -0.762579 -2.53934 8.84266 
-0.646272 -2.15935 8.49695 -0.417705 -2.5127 8.7373 -0.762579 -2.53934 8.84266 
1.29704 -2.17563 8.81873 1.38751 -1.77712 8.59525 1.65768 -2.22899 9.08192 
1.38751 -1.77712 8.59525 1.59668 -1.60986 8.65852 1.86586 -1.8711 9.03328 
1.59668 -1.60986 8.65852 1.80495 -1.36484 8.71714 1.86586 -1.8711 9.03328 
1.80495 -1.36484 8.71714 2.00231 -1.05074 8.81131 2.28605 -1.24367 9.18433 
2.00231 -1.05074 8.81131 2.07465 -0.799556 8.83911 2.28605 -1.24367 9.18433 
2.07465 -0.799556 8.83911 2.11855 -0.598038 8.87038 2.40144 -0.88811 9.25711 
2.11855 -0.598038 8.87038 2.14894 -0.398488 8.91267 2.45297 -0.606873 9.31158 
2.14894 -0.398488 8.91267 2.15778 -0.150127 8.96002 2.48504 -0.267458 9.39615 
2.54704 0.0212323 9.57816 2.40514 0.368631 9.55206 2.60822 0.345144 9.81481 
2.40514 0.368631 9.55206 2.29039 0.69341 9.62997 2.60135 0.719322 10.0689 
2.29039 0.69341 9.62997 2.17066 0.937556 9.69541 2.45893 1.00497 10.1422 
1.05245 2.03387 10.1119 0.760824 1.99605 9.83496 0.914913 2.24914 10.4388 
0.243869 2.22954 10.1477 -0.0410984 2.10109 9.82903 0.0190684 2.31815 10.3064 
-0.0410984 2.10109 9.82903 -0.256604 2.08623 9.82295 -0.296806 2.2998 10.2988 
-0.541318 2.19201 10.1464 -0.7372 2.0009 9.83053 -0.947421 2.22519 10.4084 
-0.7372 2.0009 9.83053 -1.03174 1.95623 9.93866 -0.947421 2.22519 10.4084 
-1.03174 1.95623 9.93866 -1.29822 1.81747 9.90666 -1.2923 2.07708 10.3693 
-1.29822 1.81747 9.90666 -1.60079 1.69619 10.0071 -1.57154 1.91887 10.3388 
-1.85617 1.36611 9.79809 -2.12395 1.12162 9.8342 -2.23201 1.33669 10.2205 
-2.60126 -0.280172 9.55293 -2.37001 -0.437415 9.21731 -2.79626 -0.597583 9.73795 
-2.37001 -0.437415 9.21731 -2.33277 -0.660559 9.15883 -2.7262 -0.935495 9.63961 
-2.33277 -0.660559 9.15883 -2.38912 -0.933971 9.24679 -2.7262 -0.935495 9.63961 
-2.38912 -0.933971 9.24679 -2.26908 -1.22485 9.16465 -2.64042 -1.24341 9.57177 
-2.26908 -1.22485 9.16465 -2.14034 -1.48478 9.11242 -2.43419 -1.7565 9.48833 
-2.14034 -1.48478 9.11242 -1.92367 -1.78174 9.03514 -2.2206 -2.01666 9.39753 
-1.92367 -1.78174 9.03514 -1.64267 -2.06708 8.97103 -1.99036 -2.24277 9.32416 
-1.64267 -2.06708 8.97103 -1.40201 -2.25183 8.93126 -1.59048 -2.61532 9.27277 
-1.40201 -2.25183 8.93126 -1.13347 -2.39719 8.88652 -1.30514 -2.78256 9.23238 
-1.13347 -2.39719 8.88652 -0.762579 -2.53934 8.84266 -0.888208 -2.79846 9.07749 
-0.762579 -2.53934 8.84266 -0.417705 -2.5127 8.7373 -0.560116 -3.00907 9.15158 
-0.417705 -2.5127 8.7373 -0.140436 -2.54677 8.73368 -0.270653 -3.05072 9.14204 
-0.140436 -2.54677 8.73368 0.137264 -2.5582 8.74173 0.0422456 -3.06688 9.13919 
0.137264 -2.5582 8.74173 0.375284 -2.51182 8.73223 0.42093 -3.0138 9.12934 
0.375284 -2.51182 8.73223 0.613211 -2.45024 8.73123 0.68265 -2.83654 9.04712 
0.613211 -2.45024 8.73123 0.868301 -2.36985 8.7536 1.03431 -2.87832 9.18823 
0.868301 -2.36985 8.7536 1.09168 -2.28594 8.78641 1.23708 -2.64762 9.11101 
1.09168 -2.28594 8.78641 1.29704 -2.17563 8.81873 1.52339 -2.63958 9.2524 
1.65768 -2.22899 9.08192 1.86586 -1.8711 9.03328 1.96847 -2.11039 9.24 
1.86586 -1.8711 9.03328 2.18668 -1.60381 9.20384 2.1401 -1.91569 9.28672 
2.28605 -1.24367 9.18433 2.40144 -0.88811 9.25711 2.67384 -1.20264 9.60069 
2.40144 -0.88811 9.25711 2.45297 -0.606873 9.31158 2.63723 -0.881131 9.53512 
2.45297 -0.606873 9.31158 2.48504 -0.267458 9.39615 2.69079 -0.586904 9.60893 
2.54704 0.0212323 9.57816 2.60822 0.345144 9.81481 2.85611 0.173798 10.0418 
2.45893 1.00497 10.1422 2.11053 1.15923 9.86391 2.3457 1.32557 10.3311 
2.11053 1.15923 9.86391 1.96204 1.35958 9.92751 2.3457 1.32557 10.3311 
1.96204 1.35958 9.92751 1.79986 1.53394 9.97573 2.05615 1.64194 10.4019 
1.79986 1.53394 9.97573 1.54768 1.73347 10.0106 1.87149 1.90336 10.5854 
1.54768 1.73347 10.0106 1.2982 1.90346 10.0691 1.57796 2.11544 10.6485 
1.2982 1.90346 10.0691 1.05245 2.03387 10.1119 1.21112 2.21651 10.55 
0.914913 2.24914 10.4388 0.542256 2.17625 10.1161 0.638381 2.47565 10.7278 
0.542256 2.17625 10.1161 0.243869 2.22954 10.1477 0.227364 2.54341 10.7588 
0.243869 2.22954 10.1477 0.0190684 2.31815 10.3064 0.227364 2.54341 10.7588 
0.0190684 2.31815 10.3064 -0.296806 2.2998 10.2988 -0.186581 2.55154 10.7723 
-0.296806 2.2998 10.2988 -0.541318 2.19201 10.1464 -0.476989 2.5056 10.7418 
-0.541318 2.19201 10.1464 -0.947421 2.22519 10.4084 -0.803268 2.3549 10.5713 
-1.57154 1.91887 10.3388 -1.60079 1.69619 10.0071 -1.95348 1.87624 10.6201 
-1.60079 1.69619 10.0071 -1.82226 1.52462 9.98702 -2.07988 1.62388 10.4053 
-2.23201 1.33669 10.2205 -2.12395 1.12162 9.8342 -2.53634 1.03923 10.2611 
-2.12395 1.12162 9.8342 -2.33224 0.821242 9.80463 -2.53634 1.03923 10.2611 
-2.33224 0.821242 9.80463 -2.46596 0.497009 9.72682 -2.79837 0.721684 10.3139 
-2.46596 0.497009 9.72682 -2.5656 0.08179 9.62283 -2.82667 0.34443 10.0935 
-2.5656 0.08179 9.62283 -2.60126 -0.280172 9.55293 -2.92233 -0.373536 9.92573 
-1.30514 -2.78256 9.23238 -0.888208 -2.79846 9.07749 -0.983732 -3.19646 9.38043 
1.03431 -2.87832 9.18823 1.23708 -2.64762 9.11101 1.39067 -3.04462 9.43251 
1.52339 -2.63958 9.2524 1.65768 -2.22899 9.08192 1.92827 -2.67984 9.50187 
1.65768 -2.22899 9.08192 1.96847 -2.11039 9.24 2.14987 -2.46902 9.54449 
1.96847 -2.11039 9.24 2.1401 -1.91569 9.28672 2.36753 -2.24388 9.6048 
2.1401 -1.91569 9.28672 2.18668 -1.60381 9.20384 2.55145 -1.96147 9.65548 
2.67384 -1.20264 9.60069 2.63723 -0.881131 9.53512 2.97851 -1.04156 9.914 
2.63723 -0.881131 9.53512 2.69079 -0.586904 9.60893 3.03569 -0.759195 9.9903 
2.69079 -0.586904 9.60893 2.77915 -0.250445 9.7826 3.05912 -0.405437 10.0754 
2.77915 -0.250445 9.7826 2.85611 0.173798 10.0418 3.25708 -0.0755 10.4006 
2.85611 0.173798 10.0418 2.79812 0.446195 10.1232 3.18126 0.304934 10.4844 
2.79812 0.446195 10.1232 2.60135 0.719322 10.0689 3.05238 0.656202 10.5548 
2.60135 0.719322 10.0689 2.45893 1.00497 10.1422 2.88085 1.00555 10.6251 
2.45893 1.00497 10.1422 2.3457 1.32557 10.3311 2.71922 1.27792 10.6951 
2.3457 1.32557 10.3311 2.05615 1.64194 10.4019 2.23273 1.72273 10.6771 
1.57796 2.11544 10.6485 1.21112 2.21651 10.55 1.35714 2.44999 11.0177 
1.21112 2.21651 10.55 0.914913 2.24914 10.4388 1.05005 2.56026 11.0338 
-0.476989 2.5056 10.7418 -0.803268 2.3549 10.5713 -0.849513 2.51996 10.8788 
-0.803268 2.3549 10.5713 -0.947421 2.22519 10.4084 -1.28832 2.46859 11.0069 
-0.947421 2.22519 10.4084 -1.2923 2.07708 10.3693 -1.45131 2.28745 10.8205 
-1.2923 2.07708 10.3693 -1.57154 1.91887 10.3388 -1.77312 2.10473 10.784 
-1.95348 1.87624 10.6201 -2.07988 1.62388 10.4053 -2.33425 1.77696 10.8427 
-2.07988 1.62388 10.4053 -2.23201 1.33669 10.2205 -2.46385 1.60036 10.7665 
-2.23201 1.33669 10.2205 -2.53634 1.03923 10.2611 -2.59223 1.30654 10.5834 
-2.79837 0.721684 10.3139 -2.82667 0.34443 10.0935 -3.04713 0.356731 10.3589 
-2.98672 -0.0583854 10.1008 -2.92233 -0.373536 9.92573 -3.15495 -0.508073 10.1562 
-2.92233 -0.373536 9.92573 -2.79626 -0.597583 9.73795 -3.15495 -0.508073 10.1562 
-2.79626 -0.597583 9.73795 -2.7262 -0.935495 9.63961 -3.11811 -0.87896 10.0652 
-2.7262 -0.935495 9.63961 -2.64042 -1.24341 9.57177 -2.97606 -1.45051 9.93112 
-2.64042 -1.24341 9.57177 -2.54979 -1.50627 9.52853 -2.81969 -1.79634 9.84035 
-2.54979 -1.50627 9.52853 -2.43419 -1.7565 9.48833 -2.81969 -1.79634 9.84035 
-2.43419 -1.7565 9.48833 -2.2206 -2.01666 9.39753 -2.62793 -2.12358 9.7664 
-2.2206 -2.01666 9.39753 -1.99036 -2.24277 9.32416 -2.2415 -2.58824 9.65537 
-1.99036 -2.24277 9.32416 -1.80169 -2.45435 9.30588 -1.95375 -2.83337 9.59155 
-1.80169 -2.45435 9.30588 -1.59048 -2.61532 9.27277 -1.95375 -2.83337 9.59155 
-1.59048 -2.61532 9.27277 -1.30514 -2.78256 9.23238 -1.6408 -3.04821 9.54442 
-0.983732 -3.19646 9.38043 -0.560116 -3.00907 9.15158 -0.676332 -3.5755 9.55006 
-0.560116 -3.00907 9.15158 -0.270653 -3.05072 9.14204 -0.357767 -3.62551 9.53892 
-0.270653 -3.05072 9.14204 0.0422456 -3.06688 9.13919 -0.115102 -3.49405 9.43807 
0.0422456 -3.06688 9.13919 0.42093 -3.0138 9.12934 0.204883 -3.48669 9.43612 
0.844256 -3.22278 9.36069 1.03431 -2.87832 9.18823 1.20972 -3.41939 9.5892 
1.39067 -3.04462 9.43251 1.52339 -2.63958 9.2524 1.77582 -3.12104 9.64893 
2.55145 -1.96147 9.65548 2.53907 -1.50165 9.51603 2.85788 -1.73585 9.86236 
2.53907 -1.50165 9.51603 2.67384 -1.20264 9.60069 2.99563 -1.39474 9.94451 
2.23273 1.72273 10.6771 1.87149 1.90336 10.5854 2.17988 2.14839 11.1571 
1.87149 1.90336 10.5854 1.57796 2.11544 10.6485 1.77174 2.31993 11.0801 
1.05005 2.56026 11.0338 0.638381 2.47565 10.7278 0.711496 2.8279 11.3304 
0.638381 2.47565 10.7278 0.227364 2.54341 10.7588 0.302272 2.85945 11.3061 
0.227364 2.54341 10.7588 -0.186581 2.55154 10.7723 -0.0343354 2.87464 11.3148 
-0.186581 2.55154 10.7723 -0.476989 2.5056 10.7418 -0.393158 2.84457 11.2927 
-0.476989 2.5056 10.7418 -0.849513 2.51996 10.8788 -0.698049 2.73693 11.1859 
-0.849513 2.51996 10.8788 -1.28832 2.46859 11.0069 -1.11878 2.72525 11.3114 
-1.45131 2.28745 10.8205 -1.77312 2.10473 10.784 -1.94385 2.31471 11.1962 
-1.77312 2.10473 10.784 -1.95348 1.87624 10.6201 -2.12269 2.07115 11.0132 
-2.46385 1.60036 10.7665 -2.59223 1.30654 10.5834 -2.78195 1.37741 10.8446 
-2.59223 1.30654 10.5834 -2.78793 1.00277 10.5194 -3.11625 1.07079 10.9181 
-2.78793 1.00277 10.5194 -2.79837 0.721684 10.3139 -3.2816 0.709172 10.8249 
-2.79837 0.721684 10.3139 -3.04713 0.356731 10.3589 -3.2816 0.709172 10.8249 
-3.04713 0.356731 10.3589 -2.98672 -0.0583854 10.1008 -3.36128 -0.0815046 10.5041 
-2.98672 -0.0583854 10.1008 -3.15495 -0.508073 10.1562 -3.3887 -0.408675 10.4314 
-3.15495 -0.508073 10.1562 -3.11811 -0.87896 10.0652 -3.47931 -0.79524 10.4406 
-3.11811 -0.87896 10.0652 -3.06103 -1.17245 9.99719 -3.41973 -1.27811 10.3403 
-3.06103 -1.17245 9.99719 -2.97606 -1.45051 9.93112 -3.30583 -1.66452 10.2528 
-2.97606 -1.45051 9.93112 -2.81969 -1.79634 9.84035 -3.16326 -2.05944 10.1815 
-2.81969 -1.79634 9.84035 -2.62793 -2.12358 9.7664 -2.92977 -2.40937 10.0797 
-2.62793 -2.12358 9.7664 -2.44837 -2.36581 9.71068 -2.65137 -2.74181 9.9844 
-2.44837 -2.36581 9.71068 -2.2415 -2.58824 9.65537 -2.65137 -2.74181 9.9844 
-2.2415 -2.58824 9.65537 -1.95375 -2.83337 9.59155 -2.24157 -2.9579 9.81523 
-1.95375 -2.83337 9.59155 -1.6408 -3.04821 9.54442 -1.85606 -3.22717 9.73762 
-1.6408 -3.04821 9.54442 -1.37272 -3.19348 9.51198 -1.493 -3.45011 9.70156 
-1.37272 -3.19348 9.51198 -0.983732 -3.19646 9.38043 -1.0989 -3.59957 9.65606 
-0.357767 -3.62551 9.53892 -0.115102 -3.49405 9.43807 0.028769 -3.93345 9.70824 
-0.115102 -3.49405 9.43807 0.204883 -3.48669 9.43612 0.028769 -3.93345 9.70824 
0.204883 -3.48669 9.43612 0.573846 -3.44797 9.45088 0.4535 -3.7554 9.62624 
0.573846 -3.44797 9.45088 0.844256 -3.22278 9.36069 0.861201 -3.77279 9.70204 
1.20972 -3.41939 9.5892 1.39067 -3.04462 9.43251 1.55123 -3.41975 9.70782 
1.77582 -3.12104 9.64893 1.92827 -2.67984 9.50187 2.15576 -3.0243 9.79457 
1.92827 -2.67984 9.50187 2.14987 -2.46902 9.54449 2.47102 -2.74653 9.86923 
2.14987 -2.46902 9.54449 2.36753 -2.24388 9.6048 2.47102 -2.74653 9.86923 
2.36753 -2.24388 9.6048 2.55145 -1.96147 9.65548 2.91328 -2.16644 10.0026 
2.55145 -1.96147 9.65548 2.85788 -1.73585 9.86236 2.91328 -2.16644 10.0026 
2.85788 -1.73585 9.86236 2.99563 -1.39474 9.94451 3.14161 -1.72531 10.1121 
2.99563 -1.39474 9.94451 2.97851 -1.04156 9.914 3.26944 -1.36005 10.2023 
2.97851 -1.04156 9.914 3.03569 -0.759195 9.9903 3.34109 -1.04672 10.2775 
3.03569 -0.759195 9.9903 3.05912 -0.405437 10.0754 3.37594 -0.717823 10.35 
3.38897 -0.407207 10.4311 3.25708 -0.0755 10.4006 3.748 -0.210383 10.8481 
3.25708 -0.0755 10.4006 3.18126 0.304934 10.4844 3.55723 0.1754 10.8102 
3.18126 0.304934 10.4844 3.05238 0.656202 10.5548 3.45525 0.557874 10.9069 
3.05238 0.656202 10.5548 2.88085 1.00555 10.6251 3.31932 0.884877 10.978 
2.88085 1.00555 10.6251 2.71922 1.27792 10.6951 3.10389 1.29756 11.0815 
2.71922 1.27792 10.6951 2.52578 1.54335 10.7611 2.80463 1.70032 11.1745 
2.17988 2.14839 11.1571 1.77174 2.31993 11.0801 2.20795 2.42301 11.5037 
1.77174 2.31993 11.0801 1.35714 2.44999 11.0177 1.72062 2.57039 11.3873 
1.35714 2.44999 11.0177 1.05005 2.56026 11.0338 1.33908 2.74326 11.4315 
1.05005 2.56026 11.0338 0.711496 2.8279 11.3304 1.03478 2.96462 11.6277 
-0.393158 2.84457 11.2927 -0.698049 2.73693 11.1859 -0.7667 3.00962 11.6155 
-1.11878 2.72525 11.3114 -1.28832 2.46859 11.0069 -1.55544 2.75925 11.5584 
-2.12269 2.07115 11.0132 -2.33425 1.77696 10.8427 -2.74924 1.97035 11.3992 
-2.33425 1.77696 10.8427 -2.46385 1.60036 10.7665 -2.83754 1.6584 11.1634 
-2.46385 1.60036 10.7665 -2.78195 1.37741 10.8446 -2.83754 1.6584 11.1634 
-3.2816 0.709172 10.8249 -3.29029 0.304836 10.602 -3.6807 0.309402 10.9952 
-3.29029 0.304836 10.602 -3.36128 -0.0815046 10.5041 -3.7487 -0.124718 10.8742 
-3.36128 -0.0815046 10.5041 -3.3887 -0.408675 10.4314 -3.7807 -0.582097 10.7703 
-3.3887 -0.408675 10.4314 -3.47931 -0.79524 10.4406 -3.7807 -0.582097 10.7703 
-2.65137 -2.74181 9.9844 -2.24157 -2.9579 9.81523 -2.54521 -3.25493 10.105 
-2.24157 -2.9579 9.81523 -1.85606 -3.22717 9.73762 -2.20835 -3.54698 10.0494 
-1.85606 -3.22717 9.73762 -1.493 -3.45011 9.70156 -1.79636 -3.78674 9.9854 
-1.493 -3.45011 9.70156 -1.0989 -3.59957 9.65606 -1.48279 -3.94986 9.95747 
-1.0989 -3.59957 9.65606 -0.676332 -3.5755 9.55006 -0.747366 -4.00651 9.81135 
-0.676332 -3.5755 9.55006 -0.357767 -3.62551 9.53892 -0.396417 -4.05901 9.79844 
0.028769 -3.93345 9.70824 0.4535 -3.7554 9.62624 0.500987 -4.27357 9.92449 
0.861201 -3.77279 9.70204 1.20972 -3.41939 9.5892 1.15153 -3.89782 9.83654 
1.20972 -3.41939 9.5892 1.55123 -3.41975 9.70782 1.63121 -3.82272 9.94267 
1.55123 -3.41975 9.70782 1.77582 -3.12104 9.64893 1.96365 -3.69942 10.0115 
1.77582 -3.12104 9.64893 2.15576 -3.0243 9.79457 2.18286 -3.54911 10.0399 
2.15576 -3.0243 9.79457 2.47102 -2.74653 9.86923 2.45109 -3.16028 10.0151 
2.78602 -2.60855 10.0361 2.91328 -2.16644 10.0026 3.11051 -2.36398 10.1979 
2.91328 -2.16644 10.0026 3.14161 -1.72531 10.1121 3.39977 -2.13103 10.3802 
3.14161 -1.72531 10.1121 3.26944 -1.36005 10.2023 3.53386 -1.41674 10.4387 
3.26944 -1.36005 10.2023 3.34109 -1.04672 10.2775 3.53386 -1.41674 10.4387 
3.34109 -1.04672 10.2775 3.37594 -0.717823 10.35 3.59868 -0.987734 10.5274 
3.37594 -0.717823 10.35 3.38897 -0.407207 10.4311 3.72759 -0.565655 10.7243 
3.748 -0.210383 10.8481 3.55723 0.1754 10.8102 3.81129 0.149609 11.0394 
3.55723 0.1754 10.8102 3.45525 0.557874 10.9069 3.69948 0.581102 11.1496 
3.45525 0.557874 10.9069 3.31932 0.884877 10.978 3.56315 0.927066 11.2315 
3.31932 0.884877 10.978 3.10389 1.29756 11.0815 3.45806 1.38017 11.4576 
3.10389 1.29756 11.0815 2.80463 1.70032 11.1745 3.08105 1.71609 11.4221 
2.80463 1.70032 11.1745 2.43674 1.95429 11.1341 2.79429 2.04499 11.5043 
2.43674 1.95429 11.1341 2.17988 2.14839 11.1571 2.48861 2.30999 11.5635 
2.20795 2.42301 11.5037 1.72062 2.57039 11.3873 1.86314 2.72166 11.6564 
1.72062 2.57039 11.3873 1.33908 2.74326 11.4315 1.43438 2.92126 11.7115 
1.03478 2.96462 11.6277 0.711496 2.8279 11.3304 0.70656 3.1247 11.7603 
0.711496 2.8279 11.3304 0.302272 2.85945 11.3061 0.335258 3.1745 11.7724 
0.302272 2.85945 11.3061 -0.0343354 2.87464 11.3148 -0.048007 3.18727 11.7753 
-0.0343354 2.87464 11.3148 -0.393158 2.84457 11.2927 -0.427265 3.1653 11.7694 
-0.7667 3.00962 11.6155 -1.11878 2.72525 11.3114 -1.2308 2.99841 11.7332 
-1.55544 2.75925 11.5584 -1.69294 2.49076 11.2689 -1.86442 2.72523 11.6644 
-1.69294 2.49076 11.2689 -1.94385 2.31471 11.1962 -2.18908 2.53293 11.6174 
-3.20376 1.37275 11.2389 -3.11625 1.07079 10.9181 -3.55367 1.20588 11.415 
-3.11625 1.07079 10.9181 -3.2816 0.709172 10.8249 -3.67194 0.875086 11.2984 
-3.7807 -0.582097 10.7703 -3.47931 -0.79524 10.4406 -3.86197 -1.05377 10.7523 
-3.47931 -0.79524 10.4406 -3.41973 -1.27811 10.3403 -3.86197 -1.05377 10.7523 
-3.41973 -1.27811 10.3403 -3.30583 -1.66452 10.2528 -3.62147 -1.95543 10.5277 
-3.30583 -1.66452 10.2528 -3.16326 -2.05944 10.1815 -3.62147 -1.95543 10.5277 
-3.16326 -2.05944 10.1815 -2.92977 -2.40937 10.0797 -3.40034 -2.45914 10.4261 
-2.92977 -2.40937 10.0797 -2.65137 -2.74181 9.9844 -3.13575 -2.83721 10.3271 
-1.13226 -4.09549 9.93692 -0.747366 -4.00651 9.81135 -0.850486 -4.51012 10.0883 
-0.747366 -4.00651 9.81135 -0.396417 -4.05901 9.79844 -0.425208 -4.36096 9.96316 
-0.396417 -4.05901 9.79844 0.028769 -3.93345 9.70824 0.0388086 -4.38061 9.95445 
0.500987 -4.27357 9.92449 0.861201 -3.77279 9.70204 0.981464 -4.25706 9.98296 
0.861201 -3.77279 9.70204 1.15153 -3.89782 9.83654 0.981464 -4.25706 9.98296 
1.15153 -3.89782 9.83654 1.63121 -3.82272 9.94267 1.43522 -4.11402 10.0205 
2.18286 -3.54911 10.0399 2.45109 -3.16028 10.0151 2.71294 -3.5331 10.2872 
2.8087 -3.0245 10.1784 2.78602 -2.60855 10.0361 3.24859 -2.92808 10.4198 
2.78602 -2.60855 10.0361 3.11051 -2.36398 10.1979 3.24859 -2.92808 10.4198 
3.51988 -1.88461 10.4472 3.53386 -1.41674 10.4387 3.85743 -1.75374 10.7107 
3.53386 -1.41674 10.4387 3.59868 -0.987734 10.5274 3.8862 -1.00029 10.7801 
3.59868 -0.987734 10.5274 3.72759 -0.565655 10.7243 3.8862 -1.00029 10.7801 
3.72759 -0.565655 10.7243 3.748 -0.210383 10.8481 4.12921 -0.219377 11.18 
3.748 -0.210383 10.8481 3.81129 0.149609 11.0394 4.12921 -0.219377 11.18 
3.81129 0.149609 11.0394 3.69948 0.581102 11.1496 4.06419 0.669225 11.5094 
3.69948 0.581102 11.1496 3.56315 0.927066 11.2315 4.06419 0.669225 11.5094 
3.45806 1.38017 11.4576 3.08105 1.71609 11.4221 3.42142 1.87961 11.8202 
3.08105 1.71609 11.4221 2.79429 2.04499 11.5043 3.02486 2.11876 11.7425 
2.79429 2.04499 11.5043 2.48861 2.30999 11.5635 2.81954 2.45359 11.9264 
2.48861 2.30999 11.5635 2.20795 2.42301 11.5037 2.32126 2.69301 11.8701 
2.20795 2.42301 11.5037 1.86314 2.72166 11.6564 2.32126 2.69301 11.8701 
1.86314 2.72166 11.6564 1.43438 2.92126 11.7115 1.84548 3.07323 12.0684 
1.43438 2.92126 11.7115 1.03478 2.96462 11.6277 1.39168 3.25986 12.1208 
1.03478 2.96462 11.6277 0.70656 3.1247 11.7603 0.773 3.42087 12.1629 
0.70656 3.1247 11.7603 0.335258 3.1745 11.7724 0.378858 3.37218 12.0433 
0.335258 3.1745 11.7724 -0.048007 3.18727 11.7753 -0.114668 3.39059 12.0493 
-0.048007 3.18727 11.7753 -0.427265 3.1653 11.7694 -0.114668 3.39059 12.0493 
-0.427265 3.1653 11.7694 -0.7667 3.00962 11.6155 -0.854736 3.30266 12.0273 
-0.7667 3.00962 11.6155 -1.2308 2.99841 11.7332 -1.27316 3.28998 12.1204 
-1.2308 2.99841 11.7332 -1.55544 2.75925 11.5584 -1.66248 3.16156 12.0998 
-1.55544 2.75925 11.5584 -1.86442 2.72523 11.6644 -1.95001 3.03476 12.0733 
-1.86442 2.72523 11.6644 -2.18908 2.53293 11.6174 -2.2186 2.88305 12.0305 
-2.18908 2.53293 11.6174 -2.41603 2.24777 11.4458 -2.75509 2.52736 11.9594 
-2.41603 2.24777 11.4458 -2.74924 1.97035 11.3992 -3.04449 2.25714 11.8848 
-2.74924 1.97035 11.3992 -3.1388 1.64151 11.4042 -3.31399 1.95336 11.8052 
-3.1388 1.64151 11.4042 -3.20376 1.37275 11.2389 -3.57451 1.6244 11.7337 
-3.66722 0.666285 11.1682 -3.6807 0.309402 10.9952 -4.0799 0.543766 11.4613 
-3.6807 0.309402 10.9952 -3.7487 -0.124718 10.8742 -4.11338 -0.0727342 11.2187 
-3.7487 -0.124718 10.8742 -3.7807 -0.582097 10.7703 -4.14793 -0.453528 11.1255 
-3.7807 -0.582097 10.7703 -3.86197 -1.05377 10.7523 -4.14639 -0.849422 11.0285 
-3.86197 -1.05377 10.7523 -3.77563 -1.51106 10.6454 -4.08793 -1.34457 10.9077 
-3.77563 -1.51106 10.6454 -3.62147 -1.95543 10.5277 -4.10044 -1.86409 10.8926 
-3.62147 -1.95543 10.5277 -3.40034 -2.45914 10.4261 -3.79125 -2.61798 10.7168 
-3.40034 -2.45914 10.4261 -3.13575 -2.83721 10.3271 -3.58005 -2.96609 10.6326 
-3.13575 -2.83721 10.3271 -2.89911 -3.12465 10.26 -3.32287 -3.28167 10.546 
-2.89911 -3.12465 10.26 -2.54521 -3.25493 10.105 -2.86124 -3.54777 10.3652 
-2.54521 -3.25493 10.105 -2.20835 -3.54698 10.0494 -2.55436 -3.98749 10.3696 
-2.20835 -3.54698 10.0494 -1.79636 -3.78674 9.9854 -2.1636 -4.09619 10.2504 
-1.79636 -3.78674 9.9854 -1.48279 -3.94986 9.95747 -1.80723 -4.28456 10.2058 
-1.48279 -3.94986 9.95747 -1.13226 -4.09549 9.93692 -1.27824 -4.64624 10.2264 
-0.850486 -4.51012 10.0883 -0.425208 -4.36096 9.96316 -0.384228 -4.67787 10.1154 
-0.425208 -4.36096 9.96316 0.0388086 -4.38061 9.95445 -0.384228 -4.67787 10.1154 
0.0388086 -4.38061 9.95445 0.500987 -4.27357 9.92449 0.361577 -4.81355 10.1809 
0.500987 -4.27357 9.92449 0.981464 -4.25706 9.98296 0.756832 -4.61849 10.124 
0.981464 -4.25706 9.98296 1.43522 -4.11402 10.0205 1.25575 -4.49435 10.1515 
1.43522 -4.11402 10.0205 1.63121 -3.82272 9.94267 1.7179 -4.3253 10.196 
1.63121 -3.82272 9.94267 1.96365 -3.69942 10.0115 2.08107 -4.13439 10.2355 
1.96365 -3.69942 10.0115 2.18286 -3.54911 10.0399 2.41734 -3.93236 10.2904 
2.71294 -3.5331 10.2872 2.8087 -3.0245 10.1784 3.19773 -3.45994 10.521 
3.51762 -2.54355 10.5238 3.39977 -2.13103 10.3802 3.88691 -2.44569 10.7642 
3.39977 -2.13103 10.3802 3.51988 -1.88461 10.4472 4.00784 -2.1648 10.8294 
3.93654 -1.47685 10.7799 3.8862 -1.00029 10.7801 4.24663 -1.28049 11.0438 
3.8862 -1.00029 10.7801 3.72759 -0.565655 10.7243 4.15248 -0.649113 11.0794 
4.15248 -0.649113 11.0794 4.12921 -0.219377 11.18 4.56251 -0.397185 11.4747 
3.89871 1.09903 11.626 3.45806 1.38017 11.4576 3.99396 1.41472 11.8973 
3.42142 1.87961 11.8202 3.02486 2.11876 11.7425 3.31146 2.33509 12.1242 
2.81954 2.45359 11.9264 2.32126 2.69301 11.8701 2.73711 2.83551 12.2492 
0.773 3.42087 12.1629 0.378858 3.37218 12.0433 0.485109 3.69648 12.4571 
0.378858 3.37218 12.0433 -0.114668 3.39059 12.0493 0.157338 3.70821 12.4492 
-0.572171 3.4653 12.1876 -0.854736 3.30266 12.0273 -0.933128 3.65407 12.4676 
-3.57451 1.6244 11.7337 -3.55367 1.20588 11.415 -3.9102 1.31485 11.7686 
-3.55367 1.20588 11.415 -3.67194 0.875086 11.2984 -4.09308 0.939086 11.6788 
-4.19978 0.234142 11.4161 -4.11338 -0.0727342 11.2187 -4.53524 -0.0620921 11.5629 
-4.11338 -0.0727342 11.2187 -4.14793 -0.453528 11.1255 -4.56821 -0.484393 11.4545 
-4.14793 -0.453528 11.1255 -4.14639 -0.849422 11.0285 -4.58828 -0.879162 11.3694 
-4.14639 -0.849422 11.0285 -4.08793 -1.34457 10.9077 -4.54062 -1.36673 11.252 
-3.32287 -3.28167 10.546 -2.86124 -3.54777 10.3652 -3.31514 -3.77945 10.6583 
-2.55436 -3.98749 10.3696 -2.1636 -4.09619 10.2504 -2.36426 -4.54336 10.4845 
-2.1636 -4.09619 10.2504 -1.80723 -4.28456 10.2058 -1.98588 -4.73229 10.4333 
-1.27824 -4.64624 10.2264 -0.850486 -4.51012 10.0883 -1.03001 -5.05099 10.3527 
-0.850486 -4.51012 10.0883 -0.384228 -4.67787 10.1154 -0.714109 -5.10553 10.3356 
0.361577 -4.81355 10.1809 0.756832 -4.61849 10.124 0.791655 -4.93335 10.2698 
0.756832 -4.61849 10.124 1.25575 -4.49435 10.1515 1.3258 -4.7946 10.2938 
1.25575 -4.49435 10.1515 1.7179 -4.3253 10.196 1.90115 -4.7982 10.4338 
1.7179 -4.3253 10.196 2.08107 -4.13439 10.2355 2.29359 -4.58888 10.4768 
2.08107 -4.13439 10.2355 2.41734 -3.93236 10.2904 2.6644 -4.34446 10.5284 
2.41734 -3.93236 10.2904 2.71294 -3.5331 10.2872 2.96945 -3.87615 10.5137 
3.19773 -3.45994 10.521 3.24859 -2.92808 10.4198 3.60813 -3.43704 10.7347 
3.24859 -2.92808 10.4198 3.51762 -2.54355 10.5238 3.97473 -2.8792 10.8624 
4.00784 -2.1648 10.8294 3.85743 -1.75374 10.7107 4.38214 -1.98908 11.0901 
3.85743 -1.75374 10.7107 3.93654 -1.47685 10.7799 4.44335 -1.68257 11.1497 
4.28006 -0.977829 11.1149 4.15248 -0.649113 11.0794 4.61201 -0.730269 11.4222 
4.5276 -0.0620833 11.5582 4.16458 0.217854 11.3798 4.58712 0.244602 11.717 
4.16458 0.217854 11.3798 4.06419 0.669225 11.5094 4.47449 0.66744 11.8225 
4.06419 0.669225 11.5094 3.89871 1.09903 11.626 4.30682 1.08621 11.9209 
3.84553 1.66353 11.9608 3.42142 1.87961 11.8202 3.65649 2.11851 12.1618 
3.42142 1.87961 11.8202 3.31146 2.33509 12.1242 3.65649 2.11851 12.1618 
3.31146 2.33509 12.1242 2.81954 2.45359 11.9264 3.10159 2.69504 12.3108 
2.44593 3.0053 12.2698 1.84548 3.07323 12.0684 2.04008 3.36023 12.4534 
1.84548 3.07323 12.0684 1.39168 3.25986 12.1208 1.52284 3.57736 12.5176 
1.39168 3.25986 12.1208 1.08919 3.36575 12.1634 1.18837 3.67459 12.5415 
1.08919 3.36575 12.1634 0.773 3.42087 12.1629 0.859948 3.753 12.5653 
-0.267426 3.72217 12.4686 -0.572171 3.4653 12.1876 -0.627434 3.78222 12.5673 
-0.933128 3.65407 12.4676 -1.27316 3.28998 12.1204 -1.39489 3.6279 12.5384 
-1.27316 3.28998 12.1204 -1.66248 3.16156 12.0998 -1.83479 3.46597 12.4947 
-1.66248 3.16156 12.0998 -1.95001 3.03476 12.0733 -2.30949 3.23859 12.4376 
-1.95001 3.03476 12.0733 -2.2186 2.88305 12.0305 -2.30949 3.23859 12.4376 
-2.2186 2.88305 12.0305 -2.49914 2.72291 12.009 -2.73377 2.97015 12.3724 
-2.49914 2.72291 12.009 -2.75509 2.52736 11.9594 -3.00166 2.76884 12.3222 
-2.75509 2.52736 11.9594 -3.04449 2.25714 11.8848 -3.34547 2.47538 12.2592 
-3.04449 2.25714 11.8848 -3.31399 1.95336 11.8052 -3.64356 2.13716 12.1703 
-3.31399 1.95336 11.8052 -3.57451 1.6244 11.7337 -3.90287 1.80756 12.0962 
-3.57451 1.6244 11.7337 -3.9102 1.31485 11.7686 -4.09719 1.49053 12.0172 
-3.9102 1.31485 11.7686 -4.09308 0.939086 11.6788 -4.2994 1.08238 11.9118 
-4.09308 0.939086 11.6788 -4.0799 0.543766 11.4613 -4.49664 0.576337 11.7956 
-4.0799 0.543766 11.4613 -4.19978 0.234142 11.4161 -4.58594 0.247948 11.7188 
-4.4703 -1.71024 11.1665 -4.10044 -1.86409 10.8926 -4.50928 -2.05992 11.1704 
-4.10044 -1.86409 10.8926 -3.96413 -2.25173 10.8018 -4.34903 -2.48317 11.0643 
-3.96413 -2.25173 10.8018 -3.79125 -2.61798 10.7168 -4.1556 -2.88407 10.9679 
-3.79125 -2.61798 10.7168 -3.58005 -2.96609 10.6326 -3.93723 -3.25358 10.8829 
-3.58005 -2.96609 10.6326 -3.32287 -3.28167 10.546 -3.65664 -3.62533 10.7927 
-3.0841 -4.00794 10.6062 -2.55436 -3.98749 10.3696 -2.78374 -4.4374 10.5982 
-2.55436 -3.98749 10.3696 -2.36426 -4.54336 10.4845 -2.78374 -4.4374 10.5982 
-1.98588 -4.73229 10.4333 -1.58577 -4.56069 10.2608 -1.55184 -5.06265 10.444 
-1.58577 -4.56069 10.2608 -1.27824 -4.64624 10.2264 -1.55184 -5.06265 10.444 
-0.319697 -5.1635 10.3308 0.0476027 -4.84391 10.1853 -0.025338 -5.29843 10.3765 
0.0476027 -4.84391 10.1853 0.361577 -4.81355 10.1809 0.498283 -5.27456 10.3819 
0.361577 -4.81355 10.1809 0.791655 -4.93335 10.2698 0.498283 -5.27456 10.3819 
0.791655 -4.93335 10.2698 1.3258 -4.7946 10.2938 1.06523 -5.1905 10.4095 
2.6644 -4.34446 10.5284 2.96945 -3.87615 10.5137 3.15729 -4.13569 10.6671 
2.96945 -3.87615 10.5137 3.19773 -3.45994 10.521 3.4992 -3.79405 10.7484 
3.97473 -2.8792 10.8624 3.88691 -2.44569 10.7642 4.25411 -2.68453 11.0148 
3.88691 -2.44569 10.7642 4.00784 -2.1648 10.8294 4.3878 -2.38001 11.087 
4.44335 -1.68257 11.1497 4.24663 -1.28049 11.0438 4.69508 -1.23302 11.3776 
4.24663 -1.28049 11.0438 4.28006 -0.977829 11.1149 4.69508 -1.23302 11.3776 
4.61201 -0.730269 11.4222 4.56251 -0.397185 11.4747 5.07815 -0.592444 11.7836 
4.56251 -0.397185 11.4747 4.5276 -0.0620833 11.5582 5.01926 -0.0554745 11.9106 
4.5276 -0.0620833 11.5582 4.58712 0.244602 11.717 5.01926 -0.0554745 11.9106 
4.90705 0.471497 12.037 5.01926 -0.0554745 11.9106 4.58712 0.244602 11.717 
4.47449 0.66744 11.8225 4.75521 0.930045 12.1489 4.90705 0.471497 12.037 
4.75521 0.930045 12.1489 4.47449 0.66744 11.8225 4.30682 1.08621 11.9209 
3.84553 1.66353 11.9608 4.2344 1.93538 12.3946 4.52382 1.41809 12.2549 
3.84553 1.66353 11.9608 3.65649 2.11851 12.1618 4.2344 1.93538 12.3946 
3.65649 2.11851 12.1618 3.31146 2.33509 12.1242 3.6082 2.67537 12.5688 
3.27718 2.97336 12.6421 3.6082 2.67537 12.5688 3.10159 2.69504 12.3108 
3.27718 2.97336 12.6421 3.10159 2.69504 12.3108 2.73711 2.83551 12.2492 
2.73711 2.83551 12.2492 2.98466 3.1904 12.6916 3.27718 2.97336 12.6421 
2.44593 3.0053 12.2698 2.66658 3.39319 12.7357 2.98466 3.1904 12.6916 
2.04008 3.36023 12.4534 2.19707 3.64241 12.7939 2.66658 3.39319 12.7357 
2.04008 3.36023 12.4534 1.52284 3.57736 12.5176 1.69894 3.84272 12.8424 
1.52284 3.57736 12.5176 1.18837 3.67459 12.5415 1.25959 3.98305 12.8831 
1.18837 3.67459 12.5415 0.859948 3.753 12.5653 1.25959 3.98305 12.8831 
0.676179 4.09748 12.9127 1.25959 3.98305 12.8831 0.859948 3.753 12.5653 
0.676179 4.09748 12.9127 0.859948 3.753 12.5653 0.485109 3.69648 12.4571 
0.676179 4.09748 12.9127 0.485109 3.69648 12.4571 0.157338 3.70821 12.4492 
-0.267426 3.72217 12.4686 -0.464176 4.1194 12.917 0.109471 4.14084 12.9263 
-0.627434 3.78222 12.5673 -0.933128 3.65407 12.4676 -1.11133 4.00925 12.8812 
-0.933128 3.65407 12.4676 -1.39489 3.6279 12.5384 -1.11133 4.00925 12.8812 
-2.07712 3.70612 12.8181 -1.68421 3.85822 12.8541 -1.83479 3.46597 12.4947 
-2.07712 3.70612 12.8181 -1.83479 3.46597 12.4947 -2.30949 3.23859 12.4376 
-2.30949 3.23859 12.4376 -2.58313 3.45656 12.7594 -2.07712 3.70612 12.8181 
-2.73377 2.97015 12.3724 -2.99251 3.18499 12.6904 -2.58313 3.45656 12.7594 
-3.00166 2.76884 12.3222 -3.37643 2.89338 12.6247 -2.99251 3.18499 12.6904 
-3.00166 2.76884 12.3222 -3.34547 2.47538 12.2592 -3.37643 2.89338 12.6247 
-3.34547 2.47538 12.2592 -3.64356 2.13716 12.1703 -3.7286 2.53937 12.5295 
-4.2912 1.84517 12.3713 -4.03289 2.20728 12.4592 -3.90287 1.80756 12.0962 
-4.2912 1.84517 12.3713 -3.90287 1.80756 12.0962 -4.09719 1.49053 12.0172 
-4.09719 1.49053 12.0172 -4.56993 1.36294 12.2543 -4.2912 1.84517 12.3713 
-4.56993 1.36294 12.2543 -4.09719 1.49053 12.0172 -4.2994 1.08238 11.9118 
-4.2994 1.08238 11.9118 -4.75859 0.921516 12.1469 -4.56993 1.36294 12.2543 
-4.49664 0.576337 11.7956 -4.90754 0.475091 12.0397 -4.75859 0.921516 12.1469 
-4.49664 0.576337 11.7956 -4.58594 0.247948 11.7188 -4.90754 0.475091 12.0397 
-4.58594 0.247948 11.7188 -4.53524 -0.0620921 11.5629 -5.00644 -0.0123368 11.9169 
-4.53524 -0.0620921 11.5629 -4.56821 -0.484393 11.4545 -5.07011 -0.456337 11.8167 
-5.0821 -0.892418 11.7129 -5.07011 -0.456337 11.8167 -4.58828 -0.879162 11.3694 
-4.58828 -0.879162 11.3694 -5.04388 -1.33092 11.6002 -5.0821 -0.892418 11.7129 
-4.54062 -1.36673 11.252 -4.96602 -1.86635 11.4785 -5.04388 -1.33092 11.6002 
-4.50928 -2.05992 11.1704 -4.34903 -2.48317 11.0643 -4.78335 -2.48385 11.33 
-4.34903 -2.48317 11.0643 -4.1556 -2.88407 10.9679 -4.52524 -3.06016 11.1931 
-4.2465 -3.52919 11.0801 -4.52524 -3.06016 11.1931 -4.1556 -2.88407 10.9679 
-4.2465 -3.52919 11.0801 -3.93723 -3.25358 10.8829 -3.65664 -3.62533 10.7927 
-3.31514 -3.77945 10.6583 -3.53525 -4.36969 10.8828 -3.90401 -3.98311 10.976 
-3.0841 -4.00794 10.6062 -2.78374 -4.4374 10.5982 -3.10336 -4.72019 10.7931 
-2.78374 -4.4374 10.5982 -2.36426 -4.54336 10.4845 -2.72802 -4.97401 10.7318 
-2.21625 -5.2391 10.6588 -2.72802 -4.97401 10.7318 -2.36426 -4.54336 10.4845 
-2.21625 -5.2391 10.6588 -1.98588 -4.73229 10.4333 -1.55184 -5.06265 10.444 
-1.55184 -5.06265 10.444 -1.70456 -5.46221 10.6153 -2.21625 -5.2391 10.6588 
-1.55184 -5.06265 10.444 -1.23366 -5.59957 10.5813 -1.70456 -5.46221 10.6153 
-0.714109 -5.10553 10.3356 -0.801506 -5.67852 10.5593 -1.23366 -5.59957 10.5813 
-0.714109 -5.10553 10.3356 -0.319697 -5.1635 10.3308 -0.380146 -5.78708 10.5704 
-0.319697 -5.1635 10.3308 -0.025338 -5.29843 10.3765 -0.380146 -5.78708 10.5704 
-0.025338 -5.29843 10.3765 0.498283 -5.27456 10.3819 0.171139 -5.77609 10.5586 
0.683954 -5.69987 10.5572 0.171139 -5.77609 10.5586 0.498283 -5.27456 10.3819 
0.498283 -5.27456 10.3819 1.07158 -5.62871 10.5706 0.683954 -5.69987 10.5572 
1.07158 -5.62871 10.5706 0.498283 -5.27456 10.3819 1.06523 -5.1905 10.4095 
1.06523 -5.1905 10.4095 1.47545 -5.52343 10.5938 1.07158 -5.62871 10.5706 
1.50995 -5.06884 10.4395 1.98794 -5.36238 10.643 1.47545 -5.52343 10.5938 
1.90115 -4.7982 10.4338 2.29359 -4.58888 10.4768 2.48846 -5.10514 10.6949 
2.29359 -4.58888 10.4768 2.6644 -4.34446 10.5284 2.89046 -4.87238 10.7577 
3.33206 -4.55042 10.839 2.89046 -4.87238 10.7577 2.6644 -4.34446 10.5284 
3.4992 -3.79405 10.7484 3.99799 -3.85096 10.998 3.7314 -4.24233 10.946 
3.80542 -3.14715 10.7979 4.3071 -3.4407 11.1052 3.99799 -3.85096 10.998 
3.80542 -3.14715 10.7979 3.97473 -2.8792 10.8624 4.3071 -3.4407 11.1052 
3.97473 -2.8792 10.8624 4.25411 -2.68453 11.0148 4.56699 -2.99316 11.2126 
4.25411 -2.68453 11.0148 4.3878 -2.38001 11.087 4.56699 -2.99316 11.2126 
4.8113 -2.37638 11.3489 4.56699 -2.99316 11.2126 4.3878 -2.38001 11.087 
4.8113 -2.37638 11.3489 4.38214 -1.98908 11.0901 4.44335 -1.68257 11.1497 
4.44335 -1.68257 11.1497 4.95198 -1.90486 11.4684 4.8113 -2.37638 11.3489 
4.69508 -1.23302 11.3776 5.06311 -1.1226 11.6505 5.01032 -1.56179 11.5436 
4.61201 -0.730269 11.4222 5.07815 -0.592444 11.7836 5.06311 -1.1226 11.6505 
5.06311 -1.1226 11.6505 4.69508 -1.23302 11.3776 4.61201 -0.730269 11.4222 
5.01032 -1.56179 11.5436 4.44335 -1.68257 11.1497 4.69508 -1.23302 11.3776 
4.44335 -1.68257 11.1497 5.01032 -1.56179 11.5436 4.95198 -1.90486 11.4684 
4.3878 -2.38001 11.087 4.38214 -1.98908 11.0901 4.8113 -2.37638 11.3489 
4.56699 -2.99316 11.2126 4.3071 -3.4407 11.1052 3.97473 -2.8792 10.8624 
3.99799 -3.85096 10.998 3.60813 -3.43704 10.7347 3.80542 -3.14715 10.7979 
3.99799 -3.85096 10.998 3.4992 -3.79405 10.7484 3.60813 -3.43704 10.7347 
3.7314 -4.24233 10.946 3.15729 -4.13569 10.6671 3.4992 -3.79405 10.7484 
3.15729 -4.13569 10.6671 3.7314 -4.24233 10.946 3.33206 -4.55042 10.839 
2.6644 -4.34446 10.5284 3.15729 -4.13569 10.6671 3.33206 -4.55042 10.839 
2.89046 -4.87238 10.7577 2.48846 -5.10514 10.6949 2.29359 -4.58888 10.4768 
2.48846 -5.10514 10.6949 1.98794 -5.36238 10.643 1.90115 -4.7982 10.4338 
1.98794 -5.36238 10.643 1.50995 -5.06884 10.4395 1.90115 -4.7982 10.4338 
1.47545 -5.52343 10.5938 1.06523 -5.1905 10.4095 1.50995 -5.06884 10.4395 
0.171139 -5.77609 10.5586 -0.380146 -5.78708 10.5704 -0.025338 -5.29843 10.3765 
-0.380146 -5.78708 10.5704 -0.801506 -5.67852 10.5593 -0.714109 -5.10553 10.3356 
-1.23366 -5.59957 10.5813 -1.03001 -5.05099 10.3527 -0.714109 -5.10553 10.3356 
-1.23366 -5.59957 10.5813 -1.55184 -5.06265 10.444 -1.03001 -5.05099 10.3527 
-2.36426 -4.54336 10.4845 -1.98588 -4.73229 10.4333 -2.21625 -5.2391 10.6588 
-2.72802 -4.97401 10.7318 -3.10336 -4.72019 10.7931 -2.78374 -4.4374 10.5982 
-3.10336 -4.72019 10.7931 -3.53525 -4.36969 10.8828 -3.0841 -4.00794 10.6062 
-3.53525 -4.36969 10.8828 -3.31514 -3.77945 10.6583 -3.0841 -4.00794 10.6062 
-3.90401 -3.98311 10.976 -3.65664 -3.62533 10.7927 -3.31514 -3.77945 10.6583 
-3.65664 -3.62533 10.7927 -3.90401 -3.98311 10.976 -4.2465 -3.52919 11.0801 
-4.1556 -2.88407 10.9679 -3.93723 -3.25358 10.8829 -4.2465 -3.52919 11.0801 
-4.52524 -3.06016 11.1931 -4.78335 -2.48385 11.33 -4.34903 -2.48317 11.0643 
-4.78335 -2.48385 11.33 -4.96602 -1.86635 11.4785 -4.50928 -2.05992 11.1704 
-4.96602 -1.86635 11.4785 -4.4703 -1.71024 11.1665 -4.50928 -2.05992 11.1704 
-4.96602 -1.86635 11.4785 -4.54062 -1.36673 11.252 -4.4703 -1.71024 11.1665 
-5.04388 -1.33092 11.6002 -4.58828 -0.879162 11.3694 -4.54062 -1.36673 11.252 
-4.56821 -0.484393 11.4545 -4.58828 -0.879162 11.3694 -5.07011 -0.456337 11.8167 
-5.07011 -0.456337 11.8167 -5.00644 -0.0123368 11.9169 -4.53524 -0.0620921 11.5629 
-5.00644 -0.0123368 11.9169 -4.90754 0.475091 12.0397 -4.58594 0.247948 11.7188 
-4.75859 0.921516 12.1469 -4.2994 1.08238 11.9118 -4.49664 0.576337 11.7956 
-3.64356 2.13716 12.1703 -3.90287 1.80756 12.0962 -4.03289 2.20728 12.4592 
-4.03289 2.20728 12.4592 -3.7286 2.53937 12.5295 -3.64356 2.13716 12.1703 
-3.7286 2.53937 12.5295 -3.37643 2.89338 12.6247 -3.34547 2.47538 12.2592 
-2.99251 3.18499 12.6904 -2.73377 2.97015 12.3724 -3.00166 2.76884 12.3222 
-2.58313 3.45656 12.7594 -2.30949 3.23859 12.4376 -2.73377 2.97015 12.3724 
-1.39489 3.6279 12.5384 -1.83479 3.46597 12.4947 -1.68421 3.85822 12.8541 
-1.68421 3.85822 12.8541 -1.11133 4.00925 12.8812 -1.39489 3.6279 12.5384 
-1.11133 4.00925 12.8812 -0.464176 4.1194 12.917 -0.627434 3.78222 12.5673 
-0.464176 4.1194 12.917 -0.267426 3.72217 12.4686 -0.627434 3.78222 12.5673 
0.109471 4.14084 12.9263 0.157338 3.70821 12.4492 -0.267426 3.72217 12.4686 
0.157338 3.70821 12.4492 0.109471 4.14084 12.9263 0.676179 4.09748 12.9127 
1.25959 3.98305 12.8831 1.69894 3.84272 12.8424 1.52284 3.57736 12.5176 
1.69894 3.84272 12.8424 2.19707 3.64241 12.7939 2.04008 3.36023 12.4534 
2.66658 3.39319 12.7357 2.44593 3.0053 12.2698 2.04008 3.36023 12.4534 
2.98466 3.1904 12.6916 2.73711 2.83551 12.2492 2.44593 3.0053 12.2698 
3.31146 2.33509 12.1242 3.10159 2.69504 12.3108 3.6082 2.67537 12.5688 
3.6082 2.67537 12.5688 3.90776 2.33996 12.4816 3.65649 2.11851 12.1618 
3.90776 2.33996 12.4816 4.2344 1.93538 12.3946 3.65649 2.11851 12.1618 
4.52382 1.41809 12.2549 3.99396 1.41472 11.8973 3.84553 1.66353 11.9608 
4.52382 1.41809 12.2549 4.30682 1.08621 11.9209 3.99396 1.41472 11.8973 
4.30682 1.08621 11.9209 4.52382 1.41809 12.2549 4.75521 0.930045 12.1489 
4.58712 0.244602 11.717 4.47449 0.66744 11.8225 4.90705 0.471497 12.037 
5.01926 -0.0554745 11.9106 5.07815 -0.592444 11.7836 4.56251 -0.397185 11.4747 
4.61201 -0.730269 11.4222 4.69508 -1.23302 11.3776 4.28006 -0.977829 11.1149 
4.38214 -1.98908 11.0901 4.3878 -2.38001 11.087 4.00784 -2.1648 10.8294 
4.3878 -2.38001 11.087 4.25411 -2.68453 11.0148 3.88691 -2.44569 10.7642 
3.60813 -3.43704 10.7347 3.4992 -3.79405 10.7484 3.19773 -3.45994 10.521 
3.4992 -3.79405 10.7484 3.15729 -4.13569 10.6671 2.96945 -3.87615 10.5137 
1.90115 -4.7982 10.4338 1.50995 -5.06884 10.4395 1.3258 -4.7946 10.2938 
1.50995 -5.06884 10.4395 1.06523 -5.1905 10.4095 1.3258 -4.7946 10.2938 
1.06523 -5.1905 10.4095 0.498283 -5.27456 10.3819 0.791655 -4.93335 10.2698 
0.498283 -5.27456 10.3819 -0.025338 -5.29843 10.3765 0.0476027 -4.84391 10.1853 
-1.03001 -5.05099 10.3527 -1.55184 -5.06265 10.444 -1.27824 -4.64624 10.2264 
-3.31514 -3.77945 10.6583 -3.65664 -3.62533 10.7927 -3.32287 -3.28167 10.546 
-3.65664 -3.62533 10.7927 -3.93723 -3.25358 10.8829 -3.58005 -2.96609 10.6326 
-3.93723 -3.25358 10.8829 -4.1556 -2.88407 10.9679 -3.79125 -2.61798 10.7168 
-4.1556 -2.88407 10.9679 -4.34903 -2.48317 11.0643 -3.96413 -2.25173 10.8018 
-4.34903 -2.48317 11.0643 -4.50928 -2.05992 11.1704 -4.10044 -1.86409 10.8926 
-4.53524 -0.0620921 11.5629 -4.58594 0.247948 11.7188 -4.19978 0.234142 11.4161 
-4.58594 0.247948 11.7188 -4.49664 0.576337 11.7956 -4.0799 0.543766 11.4613 
-4.49664 0.576337 11.7956 -4.2994 1.08238 11.9118 -4.09308 0.939086 11.6788 
-4.2994 1.08238 11.9118 -4.09719 1.49053 12.0172 -3.9102 1.31485 11.7686 
-4.09719 1.49053 12.0172 -3.90287 1.80756 12.0962 -3.57451 1.6244 11.7337 
-3.90287 1.80756 12.0962 -3.64356 2.13716 12.1703 -3.31399 1.95336 11.8052 
-3.64356 2.13716 12.1703 -3.34547 2.47538 12.2592 -3.04449 2.25714 11.8848 
-3.34547 2.47538 12.2592 -3.00166 2.76884 12.3222 -2.75509 2.52736 11.9594 
-3.00166 2.76884 12.3222 -2.73377 2.97015 12.3724 -2.49914 2.72291 12.009 
-2.73377 2.97015 12.3724 -2.30949 3.23859 12.4376 -2.2186 2.88305 12.0305 
-2.30949 3.23859 12.4376 -1.83479 3.46597 12.4947 -1.66248 3.16156 12.0998 
-1.83479 3.46597 12.4947 -1.39489 3.6279 12.5384 -1.27316 3.28998 12.1204 
-0.933128 3.65407 12.4676 -0.627434 3.78222 12.5673 -0.572171 3.4653 12.1876 
0.485109 3.69648 12.4571 0.859948 3.753 12.5653 0.773 3.42087 12.1629 
0.859948 3.753 12.5653 1.18837 3.67459 12.5415 1.08919 3.36575 12.1634 
1.18837 3.67459 12.5415 1.52284 3.57736 12.5176 1.39168 3.25986 12.1208 
1.52284 3.57736 12.5176 2.04008 3.36023 12.4534 1.84548 3.07323 12.0684 
2.73711 2.83551 12.2492 3.10159 2.69504 12.3108 2.81954 2.45359 11.9264 
3.99396 1.41472 11.8973 4.30682 1.08621 11.9209 3.89871 1.09903 11.626 
4.30682 1.08621 11.9209 4.47449 0.66744 11.8225 4.06419 0.669225 11.5094 
4.47449 0.66744 11.8225 4.58712 0.244602 11.717 4.16458 0.217854 11.3798 
4.24663 -1.28049 11.0438 4.44335 -1.68257 11.1497 3.93654 -1.47685 10.7799 
4.44335 -1.68257 11.1497 4.38214 -1.98908 11.0901 3.85743 -1.75374 10.7107 
3.88691 -2.44569 10.7642 3.97473 -2.8792 10.8624 3.51762 -2.54355 10.5238 
3.97473 -2.8792 10.8624 3.80542 -3.14715 10.7979 3.24859 -2.92808 10.4198 
3.80542 -3.14715 10.7979 3.60813 -3.43704 10.7347 3.24859 -2.92808 10.4198 
3.19773 -3.45994 10.521 2.96945 -3.87615 10.5137 2.71294 -3.5331 10.2872 
2.96945 -3.87615 10.5137 2.6644 -4.34446 10.5284 2.41734 -3.93236 10.2904 
2.6644 -4.34446 10.5284 2.29359 -4.58888 10.4768 2.08107 -4.13439 10.2355 
2.29359 -4.58888 10.4768 1.90115 -4.7982 10.4338 1.7179 -4.3253 10.196 
1.90115 -4.7982 10.4338 1.3258 -4.7946 10.2938 1.25575 -4.49435 10.1515 
1.3258 -4.7946 10.2938 0.791655 -4.93335 10.2698 0.756832 -4.61849 10.124 
0.0476027 -4.84391 10.1853 -0.319697 -5.1635 10.3308 -0.384228 -4.67787 10.1154 
-0.319697 -5.1635 10.3308 -0.714109 -5.10553 10.3356 -0.384228 -4.67787 10.1154 
-0.714109 -5.10553 10.3356 -1.03001 -5.05099 10.3527 -0.850486 -4.51012 10.0883 
-1.58577 -4.56069 10.2608 -1.98588 -4.73229 10.4333 -1.80723 -4.28456 10.2058 
-1.98588 -4.73229 10.4333 -2.36426 -4.54336 10.4845 -2.1636 -4.09619 10.2504 
-2.55436 -3.98749 10.3696 -3.0841 -4.00794 10.6062 -2.86124 -3.54777 10.3652 
-3.0841 -4.00794 10.6062 -3.31514 -3.77945 10.6583 -2.86124 -3.54777 10.3652 
-4.10044 -1.86409 10.8926 -4.4703 -1.71024 11.1665 -4.08793 -1.34457 10.9077 
-4.4703 -1.71024 11.1665 -4.54062 -1.36673 11.252 -4.08793 -1.34457 10.9077 
-4.54062 -1.36673 11.252 -4.58828 -0.879162 11.3694 -4.14639 -0.849422 11.0285 
-4.58828 -0.879162 11.3694 -4.56821 -0.484393 11.4545 -4.14793 -0.453528 11.1255 
-4.56821 -0.484393 11.4545 -4.53524 -0.0620921 11.5629 -4.11338 -0.0727342 11.2187 
-4.0799 0.543766 11.4613 -4.09308 0.939086 11.6788 -3.67194 0.875086 11.2984 
-4.09308 0.939086 11.6788 -3.9102 1.31485 11.7686 -3.55367 1.20588 11.415 
-1.27316 3.28998 12.1204 -0.933128 3.65407 12.4676 -0.854736 3.30266 12.0273 
-0.572171 3.4653 12.1876 -0.267426 3.72217 12.4686 -0.114668 3.39059 12.0493 
-0.267426 3.72217 12.4686 0.157338 3.70821 12.4492 -0.114668 3.39059 12.0493 
0.157338 3.70821 12.4492 0.485109 3.69648 12.4571 0.378858 3.37218 12.0433 
1.84548 3.07323 12.0684 2.44593 3.0053 12.2698 2.32126 2.69301 11.8701 
2.44593 3.0053 12.2698 2.73711 2.83551 12.2492 2.32126 2.69301 11.8701 
2.81954 2.45359 11.9264 3.31146 2.33509 12.1242 3.02486 2.11876 11.7425 
3.42142 1.87961 11.8202 3.84553 1.66353 11.9608 3.45806 1.38017 11.4576 
3.84553 1.66353 11.9608 3.99396 1.41472 11.8973 3.45806 1.38017 11.4576 
4.16458 0.217854 11.3798 4.5276 -0.0620833 11.5582 4.12921 -0.219377 11.18 
4.5276 -0.0620833 11.5582 4.56251 -0.397185 11.4747 4.12921 -0.219377 11.18 
4.56251 -0.397185 11.4747 4.61201 -0.730269 11.4222 4.15248 -0.649113 11.0794 
4.15248 -0.649113 11.0794 4.28006 -0.977829 11.1149 3.8862 -1.00029 10.7801 
4.28006 -0.977829 11.1149 4.24663 -1.28049 11.0438 3.8862 -1.00029 10.7801 
3.85743 -1.75374 10.7107 4.00784 -2.1648 10.8294 3.51988 -1.88461 10.4472 
4.00784 -2.1648 10.8294 3.88691 -2.44569 10.7642 3.39977 -2.13103 10.3802 
3.24859 -2.92808 10.4198 3.19773 -3.45994 10.521 2.8087 -3.0245 10.1784 
2.71294 -3.5331 10.2872 2.41734 -3.93236 10.2904 2.18286 -3.54911 10.0399 
2.41734 -3.93236 10.2904 2.08107 -4.13439 10.2355 1.96365 -3.69942 10.0115 
2.08107 -4.13439 10.2355 1.7179 -4.3253 10.196 1.63121 -3.82272 9.94267 
1.7179 -4.3253 10.196 1.25575 -4.49435 10.1515 1.43522 -4.11402 10.0205 
1.25575 -4.49435 10.1515 0.756832 -4.61849 10.124 0.981464 -4.25706 9.98296 
0.756832 -4.61849 10.124 0.361577 -4.81355 10.1809 0.500987 -4.27357 9.92449 
0.361577 -4.81355 10.1809 0.0476027 -4.84391 10.1853 0.0388086 -4.38061 9.95445 
0.0476027 -4.84391 10.1853 -0.384228 -4.67787 10.1154 0.0388086 -4.38061 9.95445 
-0.850486 -4.51012 10.0883 -1.27824 -4.64624 10.2264 -1.13226 -4.09549 9.93692 
-1.27824 -4.64624 10.2264 -1.58577 -4.56069 10.2608 -1.48279 -3.94986 9.95747 
-1.58577 -4.56069 10.2608 -1.80723 -4.28456 10.2058 -1.48279 -3.94986 9.95747 
-1.80723 -4.28456 10.2058 -2.1636 -4.09619 10.2504 -1.79636 -3.78674 9.9854 
-2.1636 -4.09619 10.2504 -2.55436 -3.98749 10.3696 -2.20835 -3.54698 10.0494 
-2.55436 -3.98749 10.3696 -2.86124 -3.54777 10.3652 -2.54521 -3.25493 10.105 
-2.86124 -3.54777 10.3652 -3.32287 -3.28167 10.546 -2.89911 -3.12465 10.26 
-3.32287 -3.28167 10.546 -3.58005 -2.96609 10.6326 -3.13575 -2.83721 10.3271 
-3.58005 -2.96609 10.6326 -3.79125 -2.61798 10.7168 -3.40034 -2.45914 10.4261 
-3.79125 -2.61798 10.7168 -3.96413 -2.25173 10.8018 -3.62147 -1.95543 10.5277 
-3.96413 -2.25173 10.8018 -4.10044 -1.86409 10.8926 -3.62147 -1.95543 10.5277 
-4.10044 -1.86409 10.8926 -4.08793 -1.34457 10.9077 -3.77563 -1.51106 10.6454 
-4.08793 -1.34457 10.9077 -4.14639 -0.849422 11.0285 -3.86197 -1.05377 10.7523 
-4.14639 -0.849422 11.0285 -4.14793 -0.453528 11.1255 -3.7807 -0.582097 10.7703 
-4.14793 -0.453528 11.1255 -4.11338 -0.0727342 11.2187 -3.7487 -0.124718 10.8742 
-4.11338 -0.0727342 11.2187 -4.19978 0.234142 11.4161 -3.6807 0.309402 10.9952 
-4.19978 0.234142 11.4161 -4.0799 0.543766 11.4613 -3.6807 0.309402 10.9952 
-4.0799 0.543766 11.4613 -3.67194 0.875086 11.2984 -3.66722 0.666285 11.1682 
-3.55367 1.20588 11.415 -3.57451 1.6244 11.7337 -3.20376 1.37275 11.2389 
-3.57451 1.6244 11.7337 -3.31399 1.95336 11.8052 -3.1388 1.64151 11.4042 
-3.31399 1.95336 11.8052 -3.04449 2.25714 11.8848 -2.74924 1.97035 11.3992 
-3.04449 2.25714 11.8848 -2.75509 2.52736 11.9594 -2.41603 2.24777 11.4458 
-2.75509 2.52736 11.9594 -2.49914 2.72291 12.009 -2.18908 2.53293 11.6174 
-2.49914 2.72291 12.009 -2.2186 2.88305 12.0305 -2.18908 2.53293 11.6174 
-2.2186 2.88305 12.0305 -1.95001 3.03476 12.0733 -1.86442 2.72523 11.6644 
-1.95001 3.03476 12.0733 -1.66248 3.16156 12.0998 -1.55544 2.75925 11.5584 
-1.66248 3.16156 12.0998 -1.27316 3.28998 12.1204 -1.2308 2.99841 11.7332 
-1.27316 3.28998 12.1204 -0.854736 3.30266 12.0273 -0.7667 3.00962 11.6155 
-0.854736 3.30266 12.0273 -0.572171 3.4653 12.1876 -0.427265 3.1653 11.7694 
-0.572171 3.4653 12.1876 -0.114668 3.39059 12.0493 -0.427265 3.1653 11.7694 
-0.114668 3.39059 12.0493 0.378858 3.37218 12.0433 0.335258 3.1745 11.7724 
0.378858 3.37218 12.0433 0.773 3.42087 12.1629 0.70656 3.1247 11.7603 
0.773 3.42087 12.1629 1.08919 3.36575 12.1634 1.03478 2.96462 11.6277 
1.08919 3.36575 12.1634 1.39168 3.25986 12.1208 1.03478 2.96462 11.6277 
1.39168 3.25986 12.1208 1.84548 3.07323 12.0684 1.43438 2.92126 11.7115 
1.84548 3.07323 12.0684 2.32126 2.69301 11.8701 1.86314 2.72166 11.6564 
2.32126 2.69301 11.8701 2.81954 2.45359 11.9264 2.48861 2.30999 11.5635 
2.81954 2.45359 11.9264 3.02486 2.11876 11.7425 2.79429 2.04499 11.5043 
3.02486 2.11876 11.7425 3.42142 1.87961 11.8202 3.08105 1.71609 11.4221 
3.45806 1.38017 11.4576 3.89871 1.09903 11.626 3.56315 0.927066 11.2315 
3.89871 1.09903 11.626 4.06419 0.669225 11.5094 3.56315 0.927066 11.2315 
4.06419 0.669225 11.5094 4.16458 0.217854 11.3798 3.81129 0.149609 11.0394 
4.16458 0.217854 11.3798 4.12921 -0.219377 11.18 3.81129 0.149609 11.0394 
4.12921 -0.219377 11.18 4.15248 -0.649113 11.0794 3.72759 -0.565655 10.7243 
3.8862 -1.00029 10.7801 3.93654 -1.47685 10.7799 3.53386 -1.41674 10.4387 
3.93654 -1.47685 10.7799 3.85743 -1.75374 10.7107 3.53386 -1.41674 10.4387 
3.39977 -2.13103 10.3802 3.51762 -2.54355 10.5238 3.11051 -2.36398 10.1979 
3.51762 -2.54355 10.5238 3.24859 -2.92808 10.4198 3.11051 -2.36398 10.1979 
2.8087 -3.0245 10.1784 2.71294 -3.5331 10.2872 2.45109 -3.16028 10.0151 
1.43522 -4.11402 10.0205 0.981464 -4.25706 9.98296 1.15153 -3.89782 9.83654 
0.500987 -4.27357 9.92449 0.0388086 -4.38061 9.95445 0.028769 -3.93345 9.70824 
0.0388086 -4.38061 9.95445 -0.425208 -4.36096 9.96316 -0.396417 -4.05901 9.79844 
-0.425208 -4.36096 9.96316 -0.850486 -4.51012 10.0883 -0.747366 -4.00651 9.81135 
-2.54521 -3.25493 10.105 -2.89911 -3.12465 10.26 -2.65137 -2.74181 9.9844 
-2.89911 -3.12465 10.26 -3.13575 -2.83721 10.3271 -2.65137 -2.74181 9.9844 
-3.13575 -2.83721 10.3271 -3.40034 -2.45914 10.4261 -2.92977 -2.40937 10.0797 
-3.40034 -2.45914 10.4261 -3.62147 -1.95543 10.5277 -3.16326 -2.05944 10.1815 
-3.62147 -1.95543 10.5277 -3.77563 -1.51106 10.6454 -3.41973 -1.27811 10.3403 
-3.77563 -1.51106 10.6454 -3.86197 -1.05377 10.7523 -3.41973 -1.27811 10.3403 
-3.6807 0.309402 10.9952 -3.66722 0.666285 11.1682 -3.2816 0.709172 10.8249 
-3.66722 0.666285 11.1682 -3.67194 0.875086 11.2984 -3.2816 0.709172 10.8249 
-3.67194 0.875086 11.2984 -3.55367 1.20588 11.415 -3.11625 1.07079 10.9181 
-3.20376 1.37275 11.2389 -3.1388 1.64151 11.4042 -2.83754 1.6584 11.1634 
-3.1388 1.64151 11.4042 -2.74924 1.97035 11.3992 -2.83754 1.6584 11.1634 
-2.41603 2.24777 11.4458 -2.18908 2.53293 11.6174 -1.94385 2.31471 11.1962 
-2.18908 2.53293 11.6174 -1.86442 2.72523 11.6644 -1.69294 2.49076 11.2689 
-1.55544 2.75925 11.5584 -1.2308 2.99841 11.7332 -1.11878 2.72525 11.3114 
-0.7667 3.00962 11.6155 -0.427265 3.1653 11.7694 -0.393158 2.84457 11.2927 
-0.427265 3.1653 11.7694 -0.048007 3.18727 11.7753 -0.0343354 2.87464 11.3148 
-0.048007 3.18727 11.7753 0.335258 3.1745 11.7724 0.302272 2.85945 11.3061 
0.335258 3.1745 11.7724 0.70656 3.1247 11.7603 0.711496 2.8279 11.3304 
1.03478 2.96462 11.6277 1.43438 2.92126 11.7115 1.33908 2.74326 11.4315 
1.43438 2.92126 11.7115 1.86314 2.72166 11.6564 1.72062 2.57039 11.3873 
2.20795 2.42301 11.5037 2.48861 2.30999 11.5635 2.17988 2.14839 11.1571 
2.48861 2.30999 11.5635 2.79429 2.04499 11.5043 2.43674 1.95429 11.1341 
2.79429 2.04499 11.5043 3.08105 1.71609 11.4221 2.80463 1.70032 11.1745 
3.08105 1.71609 11.4221 3.45806 1.38017 11.4576 3.10389 1.29756 11.0815 
3.45806 1.38017 11.4576 3.56315 0.927066 11.2315 3.31932 0.884877 10.978 
3.56315 0.927066 11.2315 3.69948 0.581102 11.1496 3.45525 0.557874 10.9069 
3.69948 0.581102 11.1496 3.81129 0.149609 11.0394 3.55723 0.1754 10.8102 
3.72759 -0.565655 10.7243 3.59868 -0.987734 10.5274 3.37594 -0.717823 10.35 
3.59868 -0.987734 10.5274 3.53386 -1.41674 10.4387 3.34109 -1.04672 10.2775 
3.53386 -1.41674 10.4387 3.51988 -1.88461 10.4472 3.14161 -1.72531 10.1121 
3.51988 -1.88461 10.4472 3.39977 -2.13103 10.3802 3.14161 -1.72531 10.1121 
3.39977 -2.13103 10.3802 3.11051 -2.36398 10.1979 2.91328 -2.16644 10.0026 
2.78602 -2.60855 10.0361 2.8087 -3.0245 10.1784 2.47102 -2.74653 9.86923 
2.8087 -3.0245 10.1784 2.45109 -3.16028 10.0151 2.47102 -2.74653 9.86923 
2.45109 -3.16028 10.0151 2.18286 -3.54911 10.0399 2.15576 -3.0243 9.79457 
2.18286 -3.54911 10.0399 1.96365 -3.69942 10.0115 1.77582 -3.12104 9.64893 
1.96365 -3.69942 10.0115 1.63121 -3.82272 9.94267 1.55123 -3.41975 9.70782 
1.63121 -3.82272 9.94267 1.15153 -3.89782 9.83654 1.20972 -3.41939 9.5892 
0.861201 -3.77279 9.70204 0.500987 -4.27357 9.92449 0.4535 -3.7554 9.62624 
0.028769 -3.93345 9.70824 -0.396417 -4.05901 9.79844 -0.357767 -3.62551 9.53892 
-0.396417 -4.05901 9.79844 -0.747366 -4.00651 9.81135 -0.676332 -3.5755 9.55006 
-0.747366 -4.00651 9.81135 -1.13226 -4.09549 9.93692 -1.0989 -3.59957 9.65606 
-1.13226 -4.09549 9.93692 -1.48279 -3.94986 9.95747 -1.0989 -3.59957 9.65606 
-1.48279 -3.94986 9.95747 -1.79636 -3.78674 9.9854 -1.493 -3.45011 9.70156 
-1.79636 -3.78674 9.9854 -2.20835 -3.54698 10.0494 -1.85606 -3.22717 9.73762 
-2.20835 -3.54698 10.0494 -2.54521 -3.25493 10.105 -2.24157 -2.9579 9.81523 
-3.7807 -0.582097 10.7703 -3.7487 -0.124718 10.8742 -3.36128 -0.0815046 10.5041 
-3.7487 -0.124718 10.8742 -3.6807 0.309402 10.9952 -3.29029 0.304836 10.602 
-3.11625 1.07079 10.9181 -3.20376 1.37275 11.2389 -2.78195 1.37741 10.8446 
-3.20376 1.37275 11.2389 -2.83754 1.6584 11.1634 -2.78195 1.37741 10.8446 
-2.83754 1.6584 11.1634 -2.74924 1.97035 11.3992 -2.33425 1.77696 10.8427 
-2.74924 1.97035 11.3992 -2.41603 2.24777 11.4458 -2.12269 2.07115 11.0132 
-2.41603 2.24777 11.4458 -1.94385 2.31471 11.1962 -2.12269 2.07115 11.0132 
-1.69294 2.49076 11.2689 -1.55544 2.75925 11.5584 -1.28832 2.46859 11.0069 
-1.11878 2.72525 11.3114 -0.7667 3.00962 11.6155 -0.698049 2.73693 11.1859 
1.03478 2.96462 11.6277 1.33908 2.74326 11.4315 1.05005 2.56026 11.0338 
1.33908 2.74326 11.4315 1.72062 2.57039 11.3873 1.35714 2.44999 11.0177 
1.72062 2.57039 11.3873 2.20795 2.42301 11.5037 1.77174 2.31993 11.0801 
2.43674 1.95429 11.1341 2.80463 1.70032 11.1745 2.52578 1.54335 10.7611 
2.80463 1.70032 11.1745 3.10389 1.29756 11.0815 2.71922 1.27792 10.6951 
3.10389 1.29756 11.0815 3.31932 0.884877 10.978 2.88085 1.00555 10.6251 
3.31932 0.884877 10.978 3.45525 0.557874 10.9069 3.05238 0.656202 10.5548 
3.45525 0.557874 10.9069 3.55723 0.1754 10.8102 3.18126 0.304934 10.4844 
3.55723 0.1754 10.8102 3.748 -0.210383 10.8481 3.25708 -0.0755 10.4006 
3.748 -0.210383 10.8481 3.72759 -0.565655 10.7243 3.38897 -0.407207 10.4311 
3.38897 -0.407207 10.4311 3.37594 -0.717823 10.35 3.05912 -0.405437 10.0754 
3.37594 -0.717823 10.35 3.34109 -1.04672 10.2775 3.03569 -0.759195 9.9903 
3.34109 -1.04672 10.2775 3.26944 -1.36005 10.2023 2.97851 -1.04156 9.914 
3.26944 -1.36005 10.2023 3.14161 -1.72531 10.1121 2.99563 -1.39474 9.94451 
3.14161 -1.72531 10.1121 2.91328 -2.16644 10.0026 2.85788 -1.73585 9.86236 
2.91328 -2.16644 10.0026 2.78602 -2.60855 10.0361 2.36753 -2.24388 9.6048 
2.78602 -2.60855 10.0361 2.47102 -2.74653 9.86923 2.36753 -2.24388 9.6048 
2.47102 -2.74653 9.86923 2.15576 -3.0243 9.79457 1.92827 -2.67984 9.50187 
1.77582 -3.12104 9.64893 1.55123 -3.41975 9.70782 1.39067 -3.04462 9.43251 
1.20972 -3.41939 9.5892 0.861201 -3.77279 9.70204 0.844256 -3.22278 9.36069 
0.861201 -3.77279 9.70204 0.4535 -3.7554 9.62624 0.573846 -3.44797 9.45088 
0.4535 -3.7554 9.62624 0.028769 -3.93345 9.70824 0.204883 -3.48669 9.43612 
-0.676332 -3.5755 9.55006 -1.0989 -3.59957 9.65606 -0.983732 -3.19646 9.38043 
-1.0989 -3.59957 9.65606 -1.493 -3.45011 9.70156 -1.37272 -3.19348 9.51198 
-1.493 -3.45011 9.70156 -1.85606 -3.22717 9.73762 -1.6408 -3.04821 9.54442 
-1.85606 -3.22717 9.73762 -2.24157 -2.9579 9.81523 -1.95375 -2.83337 9.59155 
-2.24157 -2.9579 9.81523 -2.65137 -2.74181 9.9844 -2.2415 -2.58824 9.65537 
-2.65137 -2.74181 9.9844 -2.92977 -2.40937 10.0797 -2.62793 -2.12358 9.7664 
-2.92977 -2.40937 10.0797 -3.16326 -2.05944 10.1815 -2.81969 -1.79634 9.84035 
-3.16326 -2.05944 10.1815 -3.30583 -1.66452 10.2528 -2.97606 -1.45051 9.93112 
-3.30583 -1.66452 10.2528 -3.41973 -1.27811 10.3403 -3.06103 -1.17245 9.99719 
-3.41973 -1.27811 10.3403 -3.47931 -0.79524 10.4406 -3.11811 -0.87896 10.0652 
-3.47931 -0.79524 10.4406 -3.3887 -0.408675 10.4314 -3.15495 -0.508073 10.1562 
-3.3887 -0.408675 10.4314 -3.36128 -0.0815046 10.5041 -2.98672 -0.0583854 10.1008 
-3.36128 -0.0815046 10.5041 -3.29029 0.304836 10.602 -3.04713 0.356731 10.3589 
-3.29029 0.304836 10.602 -3.2816 0.709172 10.8249 -3.04713 0.356731 10.3589 
-3.2816 0.709172 10.8249 -3.11625 1.07079 10.9181 -2.78793 1.00277 10.5194 
-3.11625 1.07079 10.9181 -2.78195 1.37741 10.8446 -2.59223 1.30654 10.5834 
-2.33425 1.77696 10.8427 -2.12269 2.07115 11.0132 -1.95348 1.87624 10.6201 
-2.12269 2.07115 11.0132 -1.94385 2.31471 11.1962 -1.77312 2.10473 10.784 
-1.94385 2.31471 11.1962 -1.69294 2.49076 11.2689 -1.45131 2.28745 10.8205 
-1.69294 2.49076 11.2689 -1.28832 2.46859 11.0069 -1.45131 2.28745 10.8205 
-1.11878 2.72525 11.3114 -0.698049 2.73693 11.1859 -0.849513 2.51996 10.8788 
-0.698049 2.73693 11.1859 -0.393158 2.84457 11.2927 -0.476989 2.5056 10.7418 
-0.393158 2.84457 11.2927 -0.0343354 2.87464 11.3148 -0.186581 2.55154 10.7723 
-0.0343354 2.87464 11.3148 0.302272 2.85945 11.3061 0.227364 2.54341 10.7588 
0.302272 2.85945 11.3061 0.711496 2.8279 11.3304 0.638381 2.47565 10.7278 
1.35714 2.44999 11.0177 1.77174 2.31993 11.0801 1.57796 2.11544 10.6485 
1.77174 2.31993 11.0801 2.17988 2.14839 11.1571 1.87149 1.90336 10.5854 
2.17988 2.14839 11.1571 2.43674 1.95429 11.1341 2.23273 1.72273 10.6771 
2.43674 1.95429 11.1341 2.52578 1.54335 10.7611 2.23273 1.72273 10.6771 
3.25708 -0.0755 10.4006 3.38897 -0.407207 10.4311 3.05912 -0.405437 10.0754 
2.97851 -1.04156 9.914 2.99563 -1.39474 9.94451 2.67384 -1.20264 9.60069 
2.99563 -1.39474 9.94451 2.85788 -1.73585 9.86236 2.53907 -1.50165 9.51603 
1.92827 -2.67984 9.50187 1.77582 -3.12104 9.64893 1.52339 -2.63958 9.2524 
1.39067 -3.04462 9.43251 1.20972 -3.41939 9.5892 1.03431 -2.87832 9.18823 
0.844256 -3.22278 9.36069 0.573846 -3.44797 9.45088 0.42093 -3.0138 9.12934 
0.573846 -3.44797 9.45088 0.204883 -3.48669 9.43612 0.42093 -3.0138 9.12934 
0.204883 -3.48669 9.43612 -0.115102 -3.49405 9.43807 0.0422456 -3.06688 9.13919 
-0.115102 -3.49405 9.43807 -0.357767 -3.62551 9.53892 -0.270653 -3.05072 9.14204 
-0.357767 -3.62551 9.53892 -0.676332 -3.5755 9.55006 -0.560116 -3.00907 9.15158 
-0.983732 -3.19646 9.38043 -1.37272 -3.19348 9.51198 -1.30514 -2.78256 9.23238 
-1.37272 -3.19348 9.51198 -1.6408 -3.04821 9.54442 -1.30514 -2.78256 9.23238 
-1.6408 -3.04821 9.54442 -1.95375 -2.83337 9.59155 -1.59048 -2.61532 9.27277 
-1.95375 -2.83337 9.59155 -2.2415 -2.58824 9.65537 -1.99036 -2.24277 9.32416 
-2.2415 -2.58824 9.65537 -2.44837 -2.36581 9.71068 -2.2206 -2.01666 9.39753 
-2.44837 -2.36581 9.71068 -2.62793 -2.12358 9.7664 -2.2206 -2.01666 9.39753 
-2.62793 -2.12358 9.7664 -2.81969 -1.79634 9.84035 -2.43419 -1.7565 9.48833 
-2.81969 -1.79634 9.84035 -2.97606 -1.45051 9.93112 -2.64042 -1.24341 9.57177 
-2.97606 -1.45051 9.93112 -3.06103 -1.17245 9.99719 -2.7262 -0.935495 9.63961 
-3.06103 -1.17245 9.99719 -3.11811 -0.87896 10.0652 -2.7262 -0.935495 9.63961 
-3.11811 -0.87896 10.0652 -3.15495 -0.508073 10.1562 -2.79626 -0.597583 9.73795 
-2.98672 -0.0583854 10.1008 -3.04713 0.356731 10.3589 -2.82667 0.34443 10.0935 
-2.79837 0.721684 10.3139 -2.78793 1.00277 10.5194 -2.53634 1.03923 10.2611 
-2.78793 1.00277 10.5194 -2.59223 1.30654 10.5834 -2.53634 1.03923 10.2611 
-2.59223 1.30654 10.5834 -2.46385 1.60036 10.7665 -2.23201 1.33669 10.2205 
-2.46385 1.60036 10.7665 -2.33425 1.77696 10.8427 -2.07988 1.62388 10.4053 
-1.95348 1.87624 10.6201 -1.77312 2.10473 10.784 -1.57154 1.91887 10.3388 
-1.77312 2.10473 10.784 -1.45131 2.28745 10.8205 -1.2923 2.07708 10.3693 
-1.45131 2.28745 10.8205 -1.28832 2.46859 11.0069 -0.947421 2.22519 10.4084 
-1.28832 2.46859 11.0069 -0.849513 2.51996 10.8788 -0.803268 2.3549 10.5713 
0.638381 2.47565 10.7278 1.05005 2.56026 11.0338 0.914913 2.24914 10.4388 
1.05005 2.56026 11.0338 1.35714 2.44999 11.0177 1.21112 2.21651 10.55 
1.87149 1.90336 10.5854 2.23273 1.72273 10.6771 2.05615 1.64194 10.4019 
2.23273 1.72273 10.6771 2.52578 1.54335 10.7611 2.3457 1.32557 10.3311 
2.52578 1.54335 10.7611 2.71922 1.27792 10.6951 2.3457 1.32557 10.3311 
2.71922 1.27792 10.6951 2.88085 1.00555 10.6251 2.45893 1.00497 10.1422 
2.88085 1.00555 10.6251 3.05238 0.656202 10.5548 2.60135 0.719322 10.0689 
3.05238 0.656202 10.5548 3.18126 0.304934 10.4844 2.79812 0.446195 10.1232 
3.18126 0.304934 10.4844 3.25708 -0.0755 10.4006 2.85611 0.173798 10.0418 
3.25708 -0.0755 10.4006 3.05912 -0.405437 10.0754 2.77915 -0.250445 9.7826 
3.05912 -0.405437 10.0754 3.03569 -0.759195 9.9903 2.69079 -0.586904 9.60893 
3.03569 -0.759195 9.9903 2.97851 -1.04156 9.914 2.63723 -0.881131 9.53512 
2.53907 -1.50165 9.51603 2.55145 -1.96147 9.65548 2.18668 -1.60381 9.20384 
2.55145 -1.96147 9.65548 2.36753 -2.24388 9.6048 2.1401 -1.91569 9.28672 
2.36753 -2.24388 9.6048 2.14987 -2.46902 9.54449 1.96847 -2.11039 9.24 
2.14987 -2.46902 9.54449 1.92827 -2.67984 9.50187 1.65768 -2.22899 9.08192 
1.52339 -2.63958 9.2524 1.39067 -3.04462 9.43251 1.23708 -2.64762 9.11101 
1.03431 -2.87832 9.18823 0.844256 -3.22278 9.36069 0.68265 -2.83654 9.04712 
0.844256 -3.22278 9.36069 0.42093 -3.0138 9.12934 0.68265 -2.83654 9.04712 
-0.560116 -3.00907 9.15158 -0.983732 -3.19646 9.38043 -0.888208 -2.79846 9.07749 
-2.79626 -0.597583 9.73795 -2.92233 -0.373536 9.92573 -2.60126 -0.280172 9.55293 
-2.92233 -0.373536 9.92573 -2.98672 -0.0583854 10.1008 -2.5656 0.08179 9.62283 
-2.98672 -0.0583854 10.1008 -2.82667 0.34443 10.0935 -2.5656 0.08179 9.62283 
-2.82667 0.34443 10.0935 -2.79837 0.721684 10.3139 -2.46596 0.497009 9.72682 
-2.79837 0.721684 10.3139 -2.53634 1.03923 10.2611 -2.33224 0.821242 9.80463 
-2.23201 1.33669 10.2205 -2.07988 1.62388 10.4053 -1.82226 1.52462 9.98702 
-2.07988 1.62388 10.4053 -1.95348 1.87624 10.6201 -1.60079 1.69619 10.0071 
-0.803268 2.3549 10.5713 -0.476989 2.5056 10.7418 -0.541318 2.19201 10.1464 
-0.476989 2.5056 10.7418 -0.186581 2.55154 10.7723 -0.296806 2.2998 10.2988 
-0.186581 2.55154 10.7723 0.227364 2.54341 10.7588 0.0190684 2.31815 10.3064 
0.227364 2.54341 10.7588 0.638381 2.47565 10.7278 0.542256 2.17625 10.1161 
0.914913 2.24914 10.4388 1.21112 2.21651 10.55 1.05245 2.03387 10.1119 
1.21112 2.21651 10.55 1.57796 2.11544 10.6485 1.2982 1.90346 10.0691 
1.57796 2.11544 10.6485 1.87149 1.90336 10.5854 1.54768 1.73347 10.0106 
1.87149 1.90336 10.5854 2.05615 1.64194 10.4019 1.79986 1.53394 9.97573 
2.05615 1.64194 10.4019 2.3457 1.32557 10.3311 1.96204 1.35958 9.92751 
2.60135 0.719322 10.0689 2.79812 0.446195 10.1232 2.60822 0.345144 9.81481 
2.79812 0.446195 10.1232 2.85611 0.173798 10.0418 2.60822 0.345144 9.81481 
2.85611 0.173798 10.0418 2.77915 -0.250445 9.7826 2.54704 0.0212323 9.57816 
2.77915 -0.250445 9.7826 2.69079 -0.586904 9.60893 2.48504 -0.267458 9.39615 
2.69079 -0.586904 9.60893 2.63723 -0.881131 9.53512 2.45297 -0.606873 9.31158 
2.63723 -0.881131 9.53512 2.67384 -1.20264 9.60069 2.40144 -0.88811 9.25711 
2.67384 -1.20264 9.60069 2.53907 -1.50165 9.51603 2.28605 -1.24367 9.18433 
2.53907 -1.50165 9.51603 2.18668 -1.60381 9.20384 2.28605 -1.24367 9.18433 
2.1401 -1.91569 9.28672 1.96847 -2.11039 9.24 1.86586 -1.8711 9.03328 
1.65768 -2.22899 9.08192 1.52339 -2.63958 9.2524 1.29704 -2.17563 8.81873 
1.52339 -2.63958 9.2524 1.23708 -2.64762 9.11101 1.09168 -2.28594 8.78641 
1.23708 -2.64762 9.11101 1.03431 -2.87832 9.18823 0.868301 -2.36985 8.7536 
1.03431 -2.87832 9.18823 0.68265 -2.83654 9.04712 0.613211 -2.45024 8.73123 
0.68265 -2.83654 9.04712 0.42093 -3.0138 9.12934 0.375284 -2.51182 8.73223 
0.42093 -3.0138 9.12934 0.0422456 -3.06688 9.13919 0.137264 -2.5582 8.74173 
0.0422456 -3.06688 9.13919 -0.270653 -3.05072 9.14204 -0.140436 -2.54677 8.73368 
-0.270653 -3.05072 9.14204 -0.560116 -3.00907 9.15158 -0.417705 -2.5127 8.7373 
-0.560116 -3.00907 9.15158 -0.888208 -2.79846 9.07749 -0.762579 -2.53934 8.84266 
-0.888208 -2.79846 9.07749 -1.30514 -2.78256 9.23238 -1.13347 -2.39719 8.88652 
-1.30514 -2.78256 9.23238 -1.59048 -2.61532 9.27277 -1.40201 -2.25183 8.93126 
-1.59048 -2.61532 9.27277 -1.80169 -2.45435 9.30588 -1.64267 -2.06708 8.97103 
-1.80169 -2.45435 9.30588 -1.99036 -2.24277 9.32416 -1.64267 -2.06708 8.97103 
-1.99036 -2.24277 9.32416 -2.2206 -2.01666 9.39753 -1.92367 -1.78174 9.03514 
-2.2206 -2.01666 9.39753 -2.43419 -1.7565 9.48833 -2.14034 -1.48478 9.11242 
-2.43419 -1.7565 9.48833 -2.54979 -1.50627 9.52853 -2.26908 -1.22485 9.16465 
-2.54979 -1.50627 9.52853 -2.64042 -1.24341 9.57177 -2.26908 -1.22485 9.16465 
-2.64042 -1.24341 9.57177 -2.7262 -0.935495 9.63961 -2.38912 -0.933971 9.24679 
-2.7262 -0.935495 9.63961 -2.79626 -0.597583 9.73795 -2.37001 -0.437415 9.21731 
-2.23201 1.33669 10.2205 -1.82226 1.52462 9.98702 -1.85617 1.36611 9.79809 
-1.57154 1.91887 10.3388 -1.2923 2.07708 10.3693 -1.29822 1.81747 9.90666 
-1.2923 2.07708 10.3693 -0.947421 2.22519 10.4084 -1.03174 1.95623 9.93866 
-0.541318 2.19201 10.1464 -0.296806 2.2998 10.2988 -0.256604 2.08623 9.82295 
-0.296806 2.2998 10.2988 0.0190684 2.31815 10.3064 -0.0410984 2.10109 9.82903 
0.542256 2.17625 10.1161 0.914913 2.24914 10.4388 0.760824 1.99605 9.83496 
2.11053 1.15923 9.86391 2.45893 1.00497 10.1422 2.17066 0.937556 9.69541 
2.45893 1.00497 10.1422 2.60135 0.719322 10.0689 2.29039 0.69341 9.62997 
2.60135 0.719322 10.0689 2.60822 0.345144 9.81481 2.40514 0.368631 9.55206 
2.54704 0.0212323 9.57816 2.77915 -0.250445 9.7826 2.48504 -0.267458 9.39615 
2.48504 -0.267458 9.39615 2.45297 -0.606873 9.31158 2.14894 -0.398488 8.91267 
2.45297 -0.606873 9.31158 2.40144 -0.88811 9.25711 2.11855 -0.598038 8.87038 
2.40144 -0.88811 9.25711 2.28605 -1.24367 9.18433 2.07465 -0.799556 8.83911 
2.28605 -1.24367 9.18433 2.18668 -1.60381 9.20384 1.80495 -1.36484 8.71714 
2.18668 -1.60381 9.20384 1.86586 -1.8711 9.03328 1.80495 -1.36484 8.71714 
1.86586 -1.8711 9.03328 1.65768 -2.22899 9.08192 1.38751 -1.77712 8.59525 
-0.762579 -2.53934 8.84266 -1.13347 -2.39719 8.88652 -0.844905 -2.10344 8.52652 
-1.13347 -2.39719 8.88652 -1.40201 -2.25183 8.93126 -1.07674 -1.98394 8.54567 
-1.40201 -2.25183 8.93126 -1.64267 -2.06708 8.97103 -1.44301 -1.72692 8.60488 
-1.64267 -2.06708 8.97103 -1.92367 -1.78174 9.03514 -1.65881 -1.49702 8.64612 
-1.92367 -1.78174 9.03514 -2.14034 -1.48478 9.11242 -1.94941 -1.35225 8.86293 
-2.14034 -1.48478 9.11242 -2.26908 -1.22485 9.16465 -1.98631 -1.06626 8.79865 
-2.26908 -1.22485 9.16465 -2.38912 -0.933971 9.24679 -2.07186 -0.809478 8.83378 
-2.37001 -0.437415 9.21731 -2.60126 -0.280172 9.55293 -2.283 -0.132268 9.14602 
-2.60126 -0.280172 9.55293 -2.5656 0.08179 9.62283 -2.283 -0.132268 9.14602 
-2.5656 0.08179 9.62283 -2.46596 0.497009 9.72682 -2.19837 0.426502 9.28322 
-2.46596 0.497009 9.72682 -2.33224 0.821242 9.80463 -2.08826 0.725133 9.3597 
-2.33224 0.821242 9.80463 -2.12395 1.12162 9.8342 -1.96947 0.95087 9.41797 
-2.12395 1.12162 9.8342 -1.85617 1.36611 9.79809 -1.81483 1.16718 9.46122 
-1.85617 1.36611 9.79809 -1.82226 1.52462 9.98702 -1.60398 1.41332 9.53884 
-1.82226 1.52462 9.98702 -1.60079 1.69619 10.0071 -1.25844 1.60001 9.436 
-1.60079 1.69619 10.0071 -1.29822 1.81747 9.90666 -1.25844 1.60001 9.436 
-1.29822 1.81747 9.90666 -1.03174 1.95623 9.93866 -0.901498 1.7652 9.41921 
-0.7372 2.0009 9.83053 -0.541318 2.19201 10.1464 -0.50892 1.98735 9.66726 
-0.0410984 2.10109 9.82903 0.243869 2.22954 10.1477 0.225644 1.9525 9.4762 
0.243869 2.22954 10.1477 0.542256 2.17625 10.1161 0.225644 1.9525 9.4762 
0.542256 2.17625 10.1161 0.760824 1.99605 9.83496 0.536601 1.89689 9.46212 
1.05245 2.03387 10.1119 1.2982 1.90346 10.0691 1.01047 1.81213 9.62066 
1.2982 1.90346 10.0691 1.54768 1.73347 10.0106 1.23908 1.6875 9.59482 
1.54768 1.73347 10.0106 1.79986 1.53394 9.97573 1.4537 1.53142 9.5487 
1.79986 1.53394 9.97573 1.96204 1.35958 9.92751 1.70325 1.31315 9.51469 
1.96204 1.35958 9.92751 2.11053 1.15923 9.86391 1.80458 1.07643 9.32624 
2.11053 1.15923 9.86391 2.17066 0.937556 9.69541 1.91463 0.889447 9.26502 
2.17066 0.937556 9.69541 2.29039 0.69341 9.62997 2.05255 0.605324 9.19252 
2.29039 0.69341 9.62997 2.40514 0.368631 9.55206 2.05255 0.605324 9.19252 
2.40514 0.368631 9.55206 2.54704 0.0212323 9.57816 2.1572 0.18517 9.07726 
2.54704 0.0212323 9.57816 2.48504 -0.267458 9.39615 2.15778 -0.150127 8.96002 
1.38751 -1.77712 8.59525 1.29704 -2.17563 8.81873 1.13013 -1.65424 8.31388 
1.29704 -2.17563 8.81873 1.09168 -2.28594 8.78641 0.898587 -1.86173 8.34373 
1.09168 -2.28594 8.78641 0.868301 -2.36985 8.7536 0.898587 -1.86173 8.34373 
0.868301 -2.36985 8.7536 0.613211 -2.45024 8.73123 0.664635 -2.04947 8.40341 
0.613211 -2.45024 8.73123 0.375284 -2.51182 8.73223 0.414171 -2.10995 8.38215 
0.375284 -2.51182 8.73223 0.137264 -2.5582 8.74173 0.123141 -2.1495 8.37673 
0.137264 -2.5582 8.74173 -0.140436 -2.54677 8.73368 -0.126189 -2.1513 8.37965 
-0.140436 -2.54677 8.73368 -0.417705 -2.5127 8.7373 -0.373201 -2.11534 8.37869 
-1.65881 -1.49702 8.64612 -1.94941 -1.35225 8.86293 -1.70853 -1.13097 8.50078 
-2.07186 -0.809478 8.83378 -2.33277 -0.660559 9.15883 -2.08467 -0.421571 8.80862 
-2.33277 -0.660559 9.15883 -2.37001 -0.437415 9.21731 -2.08467 -0.421571 8.80862 
-2.37001 -0.437415 9.21731 -2.283 -0.132268 9.14602 -1.98292 0.00405709 8.7232 
-2.283 -0.132268 9.14602 -2.26575 0.140197 9.22344 -1.97877 0.209098 8.80111 
-2.26575 0.140197 9.22344 -2.19837 0.426502 9.28322 -1.93555 0.430973 8.86115 
-2.19837 0.426502 9.28322 -2.08826 0.725133 9.3597 -1.86731 0.64832 8.92936 
-2.08826 0.725133 9.3597 -1.96947 0.95087 9.41797 -1.74377 0.85491 8.94021 
-1.96947 0.95087 9.41797 -1.81483 1.16718 9.46122 -1.56009 1.12904 9.00827 
-1.81483 1.16718 9.46122 -1.60398 1.41332 9.53884 -1.56009 1.12904 9.00827 
-0.901498 1.7652 9.41921 -0.7372 2.0009 9.83053 -0.593607 1.83617 9.33305 
-0.7372 2.0009 9.83053 -0.50892 1.98735 9.66726 -0.593607 1.83617 9.33305 
-0.50892 1.98735 9.66726 -0.256604 2.08623 9.82295 -0.284737 1.89817 9.34359 
-0.256604 2.08623 9.82295 -0.0410984 2.10109 9.82903 -0.0389473 1.92019 9.36073 
0.536601 1.89689 9.46212 0.760824 1.99605 9.83496 0.774525 1.71505 9.17233 
0.760824 1.99605 9.83496 1.01047 1.81213 9.62066 0.774525 1.71505 9.17233 
1.01047 1.81213 9.62066 1.23908 1.6875 9.59482 1.03071 1.59427 9.15456 
1.23908 1.6875 9.59482 1.4537 1.53142 9.5487 1.29885 1.38596 9.05765 
1.4537 1.53142 9.5487 1.70325 1.31315 9.51469 1.29885 1.38596 9.05765 
2.15778 -0.150127 8.96002 2.14894 -0.398488 8.91267 1.83476 -0.0539052 8.4493 
2.14894 -0.398488 8.91267 2.11855 -0.598038 8.87038 1.80218 -0.367291 8.38248 
2.11855 -0.598038 8.87038 2.07465 -0.799556 8.83911 1.73349 -0.566682 8.31391 
2.07465 -0.799556 8.83911 2.00231 -1.05074 8.81131 1.70586 -0.865734 8.37057 
2.00231 -1.05074 8.81131 1.80495 -1.36484 8.71714 1.70586 -0.865734 8.37057 
1.80495 -1.36484 8.71714 1.59668 -1.60986 8.65852 1.33949 -1.36467 8.25531 
1.59668 -1.60986 8.65852 1.38751 -1.77712 8.59525 1.33949 -1.36467 8.25531 
0.898587 -1.86173 8.34373 0.664635 -2.04947 8.40341 0.612192 -1.69194 8.04878 
0.664635 -2.04947 8.40341 0.414171 -2.10995 8.38215 0.322822 -1.72724 7.98925 
0.414171 -2.10995 8.38215 0.123141 -2.1495 8.37673 0.322822 -1.72724 7.98925 
0.123141 -2.1495 8.37673 -0.126189 -2.1513 8.37965 0.0331969 -1.75584 7.98419 
-0.126189 -2.1513 8.37965 -0.373201 -2.11534 8.37869 -0.200012 -1.7624 8.00694 
-0.373201 -2.11534 8.37869 -0.646272 -2.15935 8.49695 -0.483545 -1.73473 8.04058 
-0.646272 -2.15935 8.49695 -0.844905 -2.10344 8.52652 -0.763252 -1.64032 8.0712 
-0.844905 -2.10344 8.52652 -1.07674 -1.98394 8.54567 -0.763252 -1.64032 8.0712 
-1.07674 -1.98394 8.54567 -1.2769 -1.89085 8.59991 -1.09852 -1.44241 8.11727 
-1.2769 -1.89085 8.59991 -1.44301 -1.72692 8.60488 -1.09852 -1.44241 8.11727 
-1.44301 -1.72692 8.60488 -1.65881 -1.49702 8.64612 -1.26191 -1.28596 8.1311 
-1.70853 -1.13097 8.50078 -1.98631 -1.06626 8.79865 -1.7575 -0.773501 8.40369 
-1.98631 -1.06626 8.79865 -2.07186 -0.809478 8.83378 -1.7575 -0.773501 8.40369 
-2.07186 -0.809478 8.83378 -2.08467 -0.421571 8.80862 -1.85497 -0.500101 8.47889 
-2.08467 -0.421571 8.80862 -1.98292 0.00405709 8.7232 -1.89515 -0.222436 8.52833 
-1.34212 1.34566 9.05145 -1.25844 1.60001 9.436 -1.10504 1.46832 8.95003 
-1.25844 1.60001 9.436 -0.901498 1.7652 9.41921 -0.85965 1.61005 8.98351 
-0.901498 1.7652 9.41921 -0.593607 1.83617 9.33305 -0.558909 1.67711 8.86199 
-0.593607 1.83617 9.33305 -0.284737 1.89817 9.34359 -0.244881 1.73849 8.85916 
-0.284737 1.89817 9.34359 -0.0389473 1.92019 9.36073 -0.031127 1.75512 8.86884 
-0.0389473 1.92019 9.36073 0.225644 1.9525 9.4762 0.201234 1.74513 8.86336 
0.225644 1.9525 9.4762 0.536601 1.89689 9.46212 0.4535 1.70156 8.85939 
1.80458 1.07643 9.32624 1.91463 0.889447 9.26502 1.68613 0.821937 8.7893 
1.91463 0.889447 9.26502 2.05255 0.605324 9.19252 1.68613 0.821937 8.7893 
2.05255 0.605324 9.19252 2.1572 0.18517 9.07726 1.878 0.280433 8.65474 
2.1572 0.18517 9.07726 2.15778 -0.150127 8.96002 1.83476 -0.0539052 8.4493 
1.73349 -0.566682 8.31391 1.70586 -0.865734 8.37057 1.49937 -0.639411 7.9942 
1.70586 -0.865734 8.37057 1.54919 -1.13744 8.32248 1.36972 -0.840865 7.93289 
1.54919 -1.13744 8.32248 1.33949 -1.36467 8.25531 1.1977 -1.05748 7.88553 
1.33949 -1.36467 8.25531 1.13013 -1.65424 8.31388 0.970535 -1.23782 7.82879 
1.13013 -1.65424 8.31388 0.898587 -1.86173 8.34373 0.970535 -1.23782 7.82879 
-1.70853 -1.13097 8.50078 -1.7575 -0.773501 8.40369 -1.51357 -0.808828 8.09564 
-1.7575 -0.773501 8.40369 -1.85497 -0.500101 8.47889 -1.56808 -0.462545 8.02834 
-1.85497 -0.500101 8.47889 -1.89515 -0.222436 8.52833 -1.63963 -0.186299 8.10046 
-1.89515 -0.222436 8.52833 -1.98292 0.00405709 8.7232 -1.73665 -0.0230057 8.28429 
-1.98292 0.00405709 8.7232 -1.97877 0.209098 8.80111 -1.72536 0.21487 8.34234 
-1.97877 0.209098 8.80111 -1.93555 0.430973 8.86115 -1.62775 0.463423 8.30764 
-1.93555 0.430973 8.86115 -1.86731 0.64832 8.92936 -1.51814 0.70641 8.32452 
-1.86731 0.64832 8.92936 -1.74377 0.85491 8.94021 -1.51814 0.70641 8.32452 
-1.74377 0.85491 8.94021 -1.56009 1.12904 9.00827 -1.3997 0.913556 8.36865 
-1.56009 1.12904 9.00827 -1.34212 1.34566 9.05145 -1.27882 1.16357 8.56467 
-1.34212 1.34566 9.05145 -1.10504 1.46832 8.95003 -0.979843 1.34527 8.45309 
-1.10504 1.46832 8.95003 -0.85965 1.61005 8.98351 -0.732712 1.48353 8.46276 
0.4535 1.70156 8.85939 0.774525 1.71505 9.17233 0.628273 1.53803 8.49587 
0.774525 1.71505 9.17233 1.03071 1.59427 9.15456 0.883011 1.41696 8.48883 
1.03071 1.59427 9.15456 1.29885 1.38596 9.05765 1.08936 1.33275 8.60491 
1.29885 1.38596 9.05765 1.55789 1.09584 8.94855 1.32472 1.1183 8.56203 
1.55789 1.09584 8.94855 1.68613 0.821937 8.7893 1.51792 0.849322 8.50188 
1.68613 0.821937 8.7893 1.79711 0.584322 8.7383 1.5818 0.574907 8.30668 
1.79711 0.584322 8.7383 1.878 0.280433 8.65474 1.5818 0.574907 8.30668 
1.83476 -0.0539052 8.4493 1.80218 -0.367291 8.38248 1.48339 -0.193141 7.82319 
1.80218 -0.367291 8.38248 1.73349 -0.566682 8.31391 1.39409 -0.369432 7.71755 
0.764091 -1.37806 7.81544 0.612192 -1.69194 8.04878 0.535952 -1.25 7.54865 
0.612192 -1.69194 8.04878 0.322822 -1.72724 7.98925 0.313957 -1.31215 7.53269 
0.322822 -1.72724 7.98925 0.0331969 -1.75584 7.98419 0.109423 -1.34055 7.52506 
0.0331969 -1.75584 7.98419 -0.200012 -1.7624 8.00694 -0.0792005 -1.33277 7.51383 
-0.200012 -1.7624 8.00694 -0.483545 -1.73473 8.04058 -0.368475 -1.42046 7.66624 
-0.483545 -1.73473 8.04058 -0.763252 -1.64032 8.0712 -0.63745 -1.31014 7.66688 
-0.763252 -1.64032 8.0712 -0.956129 -1.54353 8.09804 -0.842351 -1.20477 7.69347 
-0.956129 -1.54353 8.09804 -1.09852 -1.44241 8.11727 -0.842351 -1.20477 7.69347 
-1.09852 -1.44241 8.11727 -1.26191 -1.28596 8.1311 -0.997177 -0.981398 7.61302 
-1.26191 -1.28596 8.1311 -1.41698 -1.0818 8.14364 -1.17314 -0.749673 7.61855 
-1.41698 -1.0818 8.14364 -1.51357 -0.808828 8.09564 -1.30509 -0.546404 7.6604 
-1.51357 -0.808828 8.09564 -1.56808 -0.462545 8.02834 -1.30509 -0.546404 7.6604 
-1.73665 -0.0230057 8.28429 -1.72536 0.21487 8.34234 -1.47648 0.294372 7.87708 
-1.3997 0.913556 8.36865 -1.27882 1.16357 8.56467 -1.16703 1.12078 8.24976 
-0.732712 1.48353 8.46276 -0.558909 1.67711 8.86199 -0.461292 1.51145 8.20006 
-0.558909 1.67711 8.86199 -0.244881 1.73849 8.85916 -0.202379 1.60638 8.34918 
-0.244881 1.73849 8.85916 -0.031127 1.75512 8.86884 -0.202379 1.60638 8.34918 
-0.031127 1.75512 8.86884 0.201234 1.74513 8.86336 0.139297 1.61772 8.37757 
0.201234 1.74513 8.86336 0.4535 1.70156 8.85939 0.383155 1.5747 8.36139 
1.08936 1.33275 8.60491 1.32472 1.1183 8.56203 1.05816 1.22304 8.27528 
1.32472 1.1183 8.56203 1.51792 0.849322 8.50188 1.26486 0.905851 8.05314 
1.51792 0.849322 8.50188 1.5818 0.574907 8.30668 1.36383 0.702239 7.97066 
1.63739 0.290922 8.21179 1.83476 -0.0539052 8.4493 1.57196 0.0632728 7.98847 
1.57196 0.0632728 7.98847 1.48339 -0.193141 7.82319 1.35546 0.121696 7.54947 
1.49937 -0.639411 7.9942 1.36972 -0.840865 7.93289 1.17429 -0.48505 7.42657 
1.36972 -0.840865 7.93289 1.1977 -1.05748 7.88553 1.03019 -0.660275 7.36441 
1.1977 -1.05748 7.88553 0.970535 -1.23782 7.82879 0.918172 -0.891493 7.44479 
0.970535 -1.23782 7.82879 0.764091 -1.37806 7.81544 0.712596 -1.03815 7.422 
-0.0792005 -1.33277 7.51383 -0.368475 -1.42046 7.66624 -0.28494 -1.06064 7.21659 
-0.368475 -1.42046 7.66624 -0.63745 -1.31014 7.66688 -0.496466 -1.03116 7.27401 
-0.63745 -1.31014 7.66688 -0.842351 -1.20477 7.69347 -0.678406 -0.943583 7.29094 
-1.30509 -0.546404 7.6604 -1.56808 -0.462545 8.02834 -1.34102 -0.30388 7.59827 
-1.56808 -0.462545 8.02834 -1.63963 -0.186299 8.10046 -1.39021 -0.100756 7.62877 
-1.47648 0.294372 7.87708 -1.62775 0.463423 8.30764 -1.365 0.551659 7.79494 
-1.62775 0.463423 8.30764 -1.51814 0.70641 8.32452 -1.365 0.551659 7.79494 
-1.51814 0.70641 8.32452 -1.3997 0.913556 8.36865 -1.20848 0.780045 7.69775 
-1.3997 0.913556 8.36865 -1.16703 1.12078 8.24976 -1.1192 0.9427 7.76102 
-1.16703 1.12078 8.24976 -0.979843 1.34527 8.45309 -0.951462 1.14199 7.81497 
-0.979843 1.34527 8.45309 -0.732712 1.48353 8.46276 -0.735641 1.30454 7.84726 
-0.732712 1.48353 8.46276 -0.461292 1.51145 8.20006 -0.582966 1.42423 8.01609 
-0.202379 1.60638 8.34918 0.139297 1.61772 8.37757 0.0183677 1.51765 7.91762 
0.139297 1.61772 8.37757 0.383155 1.5747 8.36139 0.275413 1.48705 7.88733 
0.383155 1.5747 8.36139 0.628273 1.53803 8.49587 0.506719 1.45546 8.02285 
0.628273 1.53803 8.49587 0.883011 1.41696 8.48883 0.708125 1.32494 7.85701 
0.883011 1.41696 8.48883 1.05816 1.22304 8.27528 0.909408 1.16412 7.78462 
1.36383 0.702239 7.97066 1.5818 0.574907 8.30668 1.37923 0.498443 7.78553 
1.5818 0.574907 8.30668 1.63739 0.290922 8.21179 1.37923 0.498443 7.78553 
1.63739 0.290922 8.21179 1.57196 0.0632728 7.98847 1.41396 0.307279 7.74029 
1.35546 0.121696 7.54947 1.48339 -0.193141 7.82319 1.18383 -0.0177354 7.19832 
1.48339 -0.193141 7.82319 1.39409 -0.369432 7.71755 1.08709 -0.22187 7.10075 
1.39409 -0.369432 7.71755 1.17429 -0.48505 7.42657 1.08709 -0.22187 7.10075 
0.918172 -0.891493 7.44479 0.712596 -1.03815 7.422 0.770263 -0.745829 7.14458 
0.712596 -1.03815 7.422 0.535952 -1.25 7.54865 0.457348 -0.936614 7.12442 
0.535952 -1.25 7.54865 0.313957 -1.31215 7.53269 0.457348 -0.936614 7.12442 
0.313957 -1.31215 7.53269 0.109423 -1.34055 7.52506 0.128556 -1.01105 7.10993 
0.109423 -1.34055 7.52506 -0.0792005 -1.33277 7.51383 -0.0967045 -1.00129 7.09648 
-0.0792005 -1.33277 7.51383 -0.28494 -1.06064 7.21659 -0.0967045 -1.00129 7.09648 
-0.678406 -0.943583 7.29094 -0.997177 -0.981398 7.61302 -0.758889 -0.6652 7.04986 
-0.997177 -0.981398 7.61302 -1.17314 -0.749673 7.61855 -0.899895 -0.564844 7.10598 
-1.17314 -0.749673 7.61855 -1.30509 -0.546404 7.6604 -1.01502 -0.427586 7.14071 
-1.30509 -0.546404 7.6604 -1.34102 -0.30388 7.59827 -1.11457 -0.224527 7.15547 
-1.34102 -0.30388 7.59827 -1.39021 -0.100756 7.62877 -1.17211 -0.022755 7.17641 
-1.39021 -0.100756 7.62877 -1.49081 0.100591 7.84003 -1.28106 0.179841 7.38617 
-1.49081 0.100591 7.84003 -1.47648 0.294372 7.87708 -1.28106 0.179841 7.38617 
-1.47648 0.294372 7.87708 -1.365 0.551659 7.79494 -1.26567 0.447551 7.46387 
-0.735641 1.30454 7.84726 -0.582966 1.42423 8.01609 -0.488975 1.34535 7.49415 
-0.582966 1.42423 8.01609 -0.461292 1.51145 8.20006 -0.346337 1.40492 7.55079 
1.26486 0.905851 8.05314 1.36383 0.702239 7.97066 1.08298 0.810844 7.39601 
1.36383 0.702239 7.97066 1.37923 0.498443 7.78553 1.14654 0.657277 7.35071 
1.37923 0.498443 7.78553 1.41396 0.307279 7.74029 1.21432 0.436485 7.3257 
1.17429 -0.48505 7.42657 1.03019 -0.660275 7.36441 0.855409 -0.344958 6.82119 
1.03019 -0.660275 7.36441 0.770263 -0.745829 7.14458 0.713387 -0.44987 6.7474 
0.770263 -0.745829 7.14458 0.457348 -0.936614 7.12442 0.592266 -0.640447 6.84974 
0.457348 -0.936614 7.12442 0.128556 -1.01105 7.10993 0.237537 -0.705007 6.71922 
0.128556 -1.01105 7.10993 -0.0967045 -1.00129 7.09648 -0.102179 -0.712202 6.69494 
-0.0967045 -1.00129 7.09648 -0.28494 -1.06064 7.21659 -0.102179 -0.712202 6.69494 
-0.28494 -1.06064 7.21659 -0.496466 -1.03116 7.27401 -0.31252 -0.770827 6.84021 
-0.496466 -1.03116 7.27401 -0.678406 -0.943583 7.29094 -0.496527 -0.606621 6.72763 
-1.17211 -0.022755 7.17641 -1.28106 0.179841 7.38617 -1.08083 0.262991 6.9092 
-1.28106 0.179841 7.38617 -1.26567 0.447551 7.46387 -1.0702 0.496123 6.95823 
-1.15488 0.634117 7.34335 -1.20848 0.780045 7.69775 -0.980624 0.808167 7.0651 
-1.20848 0.780045 7.69775 -1.1192 0.9427 7.76102 -0.906571 0.936261 7.10581 
-1.1192 0.9427 7.76102 -0.951462 1.14199 7.81497 -0.758 1.10512 7.12193 
-0.951462 1.14199 7.81497 -0.735641 1.30454 7.84726 -0.616572 1.25126 7.32401 
-0.196624 1.49972 7.8949 0.0183677 1.51765 7.91762 0.0836088 1.40559 7.24274 
0.0183677 1.51765 7.91762 0.275413 1.48705 7.88733 0.0836088 1.40559 7.24274 
0.447733 1.36637 7.52061 0.708125 1.32494 7.85701 0.593947 1.26307 7.31555 
0.708125 1.32494 7.85701 0.909408 1.16412 7.78462 0.773687 1.1341 7.2963 
0.909408 1.16412 7.78462 1.10395 1.02994 7.91031 0.901642 1.00031 7.25637 
1.15103 0.220867 7.0846 1.18383 -0.0177354 7.19832 1.02016 0.178266 6.76136 
1.18383 -0.0177354 7.19832 1.08709 -0.22187 7.10075 0.911604 -0.0411919 6.62991 
1.08709 -0.22187 7.10075 0.855409 -0.344958 6.82119 0.911604 -0.0411919 6.62991 
0.713387 -0.44987 6.7474 0.592266 -0.640447 6.84974 0.499064 -0.360417 6.38516 
-0.102179 -0.712202 6.69494 -0.31252 -0.770827 6.84021 -0.207582 -0.522443 6.42629 
-0.496527 -0.606621 6.72763 -0.758889 -0.6652 7.04986 -0.613962 -0.349499 6.49803 
-0.758889 -0.6652 7.04986 -0.899895 -0.564844 7.10598 -0.792167 -0.250339 6.61818 
-0.899895 -0.564844 7.10598 -1.01502 -0.427586 7.14071 -0.792167 -0.250339 6.61818 
-1.01502 -0.427586 7.14071 -1.11457 -0.224527 7.15547 -0.93605 -0.0421014 6.68724 
-1.11457 -0.224527 7.15547 -1.17211 -0.022755 7.17641 -0.958244 0.159805 6.62337 
-1.0702 0.496123 6.95823 -1.15488 0.634117 7.34335 -0.924445 0.643135 6.60083 
-0.758 1.10512 7.12193 -0.616572 1.25126 7.32401 -0.496297 1.23426 6.82248 
-0.616572 1.25126 7.32401 -0.488975 1.34535 7.49415 -0.496297 1.23426 6.82248 
-0.488975 1.34535 7.49415 -0.346337 1.40492 7.55079 -0.30336 1.32415 6.90232 
0.447733 1.36637 7.52061 0.593947 1.26307 7.31555 0.491717 1.24519 6.89421 
0.593947 1.26307 7.31555 0.773687 1.1341 7.2963 0.621043 1.15219 6.82341 
0.773687 1.1341 7.2963 0.901642 1.00031 7.25637 0.750428 1.02715 6.7973 
0.901642 1.00031 7.25637 1.08298 0.810844 7.39601 0.863738 0.86057 6.74883 
1.08298 0.810844 7.39601 1.14654 0.657277 7.35071 0.863738 0.86057 6.74883 
1.14654 0.657277 7.35071 1.21432 0.436485 7.3257 0.940192 0.638672 6.65884 
1.21432 0.436485 7.3257 1.15103 0.220867 7.0846 1.00239 0.394951 6.70827 
1.02016 0.178266 6.76136 0.911604 -0.0411919 6.62991 0.805032 0.140296 6.26529 
0.911604 -0.0411919 6.62991 0.855409 -0.344958 6.82119 0.700307 -0.00587713 6.19526 
0.855409 -0.344958 6.82119 0.713387 -0.44987 6.7474 0.568017 -0.170455 6.19621 
0.499064 -0.360417 6.38516 0.387035 -0.646839 6.71136 0.291959 -0.317473 6.14769 
0.387035 -0.646839 6.71136 0.237537 -0.705007 6.71922 0.142716 -0.334196 6.10652 
0.237537 -0.705007 6.71922 0.0758263 -0.729234 6.7168 -0.005185 -0.36226 6.12968 
0.0758263 -0.729234 6.7168 -0.102179 -0.712202 6.69494 -0.005185 -0.36226 6.12968 
-0.207582 -0.522443 6.42629 -0.496527 -0.606621 6.72763 -0.238795 -0.303958 6.09506 
-0.613962 -0.349499 6.49803 -0.792167 -0.250339 6.61818 -0.571574 -0.112659 6.11152 
-0.792167 -0.250339 6.61818 -0.93605 -0.0421014 6.68724 -0.731708 0.0232267 6.2184 
-1.08083 0.262991 6.9092 -1.0702 0.496123 6.95823 -0.92358 0.429882 6.46919 
-0.924445 0.643135 6.60083 -0.980624 0.808167 7.0651 -0.811581 0.895512 6.5914 
-0.980624 0.808167 7.0651 -0.906571 0.936261 7.10581 -0.811581 0.895512 6.5914 
-0.906571 0.936261 7.10581 -0.758 1.10512 7.12193 -0.63794 1.10488 6.61848 
-0.30336 1.32415 6.90232 -0.150415 1.3941 7.21671 -0.122363 1.34517 6.67312 
-0.150415 1.3941 7.21671 0.0836088 1.40559 7.24274 -0.122363 1.34517 6.67312 
0.0836088 1.40559 7.24274 0.347121 1.33732 7.11829 0.272608 1.31646 6.69048 
0.499064 -0.360417 6.38516 0.291959 -0.317473 6.14769 0.364909 -0.12004 5.87644 
-0.958244 0.159805 6.62337 -0.92358 0.429882 6.46919 -0.811325 0.39132 6.12018 
-0.92358 0.429882 6.46919 -0.924445 0.643135 6.60083 -0.818493 0.626453 6.16228 
-0.924445 0.643135 6.60083 -0.811581 0.895512 6.5914 -0.728078 0.901643 6.20312 
-0.811581 0.895512 6.5914 -0.63794 1.10488 6.61848 -0.590969 1.09339 6.28397 
-0.63794 1.10488 6.61848 -0.496297 1.23426 6.82248 -0.42877 1.21662 6.31253 
-0.496297 1.23426 6.82248 -0.30336 1.32415 6.90232 -0.257075 1.29602 6.32936 
-0.30336 1.32415 6.90232 -0.122363 1.34517 6.67312 -0.257075 1.29602 6.32936 
-0.122363 1.34517 6.67312 0.0555328 1.35086 6.68561 -0.083308 1.32242 6.12862 
0.0555328 1.35086 6.68561 0.272608 1.31646 6.69048 0.0771368 1.32352 6.15818 
0.272608 1.31646 6.69048 0.491717 1.24519 6.89421 0.420073 1.22197 6.31981 
0.491717 1.24519 6.89421 0.621043 1.15219 6.82341 0.555316 1.12624 6.2941 
0.621043 1.15219 6.82341 0.750428 1.02715 6.7973 0.555316 1.12624 6.2941 
0.750428 1.02715 6.7973 0.863738 0.86057 6.74883 0.686795 0.974474 6.23887 
0.863738 0.86057 6.74883 0.940192 0.638672 6.65884 0.747127 0.808589 6.08721 
0.940192 0.638672 6.65884 1.00239 0.394951 6.70827 0.826592 0.580086 6.16927 
0.826592 0.580086 6.16927 0.835844 0.315934 6.22714 0.708732 0.655466 5.7123 
0.835844 0.315934 6.22714 0.805032 0.140296 6.26529 0.705883 0.430215 5.76397 
0.805032 0.140296 6.26529 0.700307 -0.00587713 6.19526 0.632253 0.227109 5.75728 
0.700307 -0.00587713 6.19526 0.568017 -0.170455 6.19621 0.4617 0.13367 5.55692 
0.364909 -0.12004 5.87644 0.291959 -0.317473 6.14769 0.125173 -0.0835398 5.62934 
0.291959 -0.317473 6.14769 0.142716 -0.334196 6.10652 0.125173 -0.0835398 5.62934 
0.142716 -0.334196 6.10652 -0.005185 -0.36226 6.12968 0.125173 -0.0835398 5.62934 
-0.005185 -0.36226 6.12968 -0.238795 -0.303958 6.09506 -0.132792 -0.0928262 5.65705 
-0.238795 -0.303958 6.09506 -0.390259 -0.257392 6.12408 -0.336734 0.0159909 5.59437 
-0.390259 -0.257392 6.12408 -0.571574 -0.112659 6.11152 -0.336734 0.0159909 5.59437 
-0.571574 -0.112659 6.11152 -0.731708 0.0232267 6.2184 -0.520861 0.205993 5.55065 
-0.731708 0.0232267 6.2184 -0.798141 0.184632 6.21222 -0.637889 0.378188 5.60164 
-0.798141 0.184632 6.21222 -0.811325 0.39132 6.12018 -0.637889 0.378188 5.60164 
-0.811325 0.39132 6.12018 -0.818493 0.626453 6.16228 -0.690286 0.552292 5.65023 
-0.818493 0.626453 6.16228 -0.728078 0.901643 6.20312 -0.620094 0.963494 5.71743 
-0.728078 0.901643 6.20312 -0.590969 1.09339 6.28397 -0.620094 0.963494 5.71743 
-0.590969 1.09339 6.28397 -0.42877 1.21662 6.31253 -0.467865 1.15889 5.86217 
-0.42877 1.21662 6.31253 -0.257075 1.29602 6.32936 -0.282085 1.27463 5.98566 
0.420073 1.22197 6.31981 0.555316 1.12624 6.2941 0.394459 1.20823 5.83022 
0.555316 1.12624 6.2941 0.686795 0.974474 6.23887 0.578532 1.02283 5.73983 
0.705883 0.430215 5.76397 0.632253 0.227109 5.75728 0.583651 0.536812 5.25714 
0.364909 -0.12004 5.87644 0.125173 -0.0835398 5.62934 0.277912 0.169916 5.23746 
0.125173 -0.0835398 5.62934 -0.132792 -0.0928262 5.65705 -0.0224644 0.113711 5.20933 
-0.132792 -0.0928262 5.65705 -0.336734 0.0159909 5.59437 -0.172699 0.142176 5.2027 
-0.467865 1.15889 5.86217 -0.282085 1.27463 5.98566 -0.364201 1.22411 5.44251 
-0.282085 1.27463 5.98566 -0.083308 1.32242 6.12862 -0.114835 1.32672 5.50341 
-0.083308 1.32242 6.12862 0.0771368 1.32352 6.15818 0.0230119 1.33112 5.66843 
0.0771368 1.32352 6.15818 0.265326 1.28583 6.17015 0.192405 1.3066 5.62485 
0.578532 1.02283 5.73983 0.747127 0.808589 6.08721 0.599627 0.911174 5.39636 
0.708732 0.655466 5.7123 0.705883 0.430215 5.76397 0.600646 0.738523 5.18552 
-0.336734 0.0159909 5.59437 -0.520861 0.205993 5.55065 -0.351057 0.293042 5.06581 
-0.520861 0.205993 5.55065 -0.637889 0.378188 5.60164 -0.490402 0.431913 5.10527 
-0.637889 0.378188 5.60164 -0.690286 0.552292 5.65023 -0.582466 0.622856 5.15016 
-0.690286 0.552292 5.65023 -0.693165 0.732416 5.69339 -0.595126 0.813112 5.18819 
-0.693165 0.732416 5.69339 -0.620094 0.963494 5.71743 -0.558115 0.977465 5.22382 
-0.620094 0.963494 5.71743 -0.467865 1.15889 5.86217 -0.469538 1.12599 5.25435 
-0.114835 1.32672 5.50341 0.0230119 1.33112 5.66843 0.0190862 1.36115 5.11849 
0.0230119 1.33112 5.66843 0.192405 1.3066 5.62485 0.175023 1.33794 5.09953 
0.192405 1.3066 5.62485 0.394459 1.20823 5.83022 0.175023 1.33794 5.09953 
0.394459 1.20823 5.83022 0.493094 1.12559 5.76926 0.341043 1.24486 5.14346 
0.493094 1.12559 5.76926 0.578532 1.02283 5.73983 0.433964 1.16036 5.09694 
0.578532 1.02283 5.73983 0.599627 0.911174 5.39636 0.509545 1.04767 5.03387 
0.600646 0.738523 5.18552 0.583651 0.536812 5.25714 0.534463 0.734207 4.83522 
0.583651 0.536812 5.25714 0.502934 0.383849 5.22172 0.475046 0.630509 4.70919 
0.502934 0.383849 5.22172 0.30154 0.354558 4.86247 0.399908 0.482304 4.76637 
0.277912 0.169916 5.23746 0.125063 0.113264 5.23883 0.137208 0.333339 4.72536 
0.125063 0.113264 5.23883 -0.0224644 0.113711 5.20933 -0.012359 0.31849 4.71814 
-0.0224644 0.113711 5.20933 -0.172699 0.142176 5.2027 -0.173773 0.344593 4.72192 
-0.172699 0.142176 5.2027 -0.351057 0.293042 5.06581 -0.173773 0.344593 4.72192 
-0.351057 0.293042 5.06581 -0.490402 0.431913 5.10527 -0.350515 0.441349 4.74246 
-0.490402 0.431913 5.10527 -0.582466 0.622856 5.15016 -0.455745 0.622456 4.65554 
-0.582466 0.622856 5.15016 -0.595126 0.813112 5.18819 -0.540249 0.896214 4.8013 
-0.595126 0.813112 5.18819 -0.558115 0.977465 5.22382 -0.540249 0.896214 4.8013 
-0.558115 0.977465 5.22382 -0.469538 1.12599 5.25435 -0.472552 1.10678 4.77937 
-0.469538 1.12599 5.25435 -0.364201 1.22411 5.44251 -0.383017 1.22887 4.77962 
-0.364201 1.22411 5.44251 -0.244959 1.28873 5.46666 -0.272712 1.31197 4.85324 
-0.244959 1.28873 5.46666 -0.114835 1.32672 5.50341 -0.139864 1.35853 4.98938 
0.599627 0.911174 5.39636 0.600646 0.738523 5.18552 0.544091 0.898227 4.85802 
0.544091 0.898227 4.85802 0.534463 0.734207 4.83522 0.47708 0.869961 4.33662 
0.399908 0.482304 4.76637 0.30154 0.354558 4.86247 0.24378 0.554758 4.25385 
0.30154 0.354558 4.86247 0.137208 0.333339 4.72536 0.102498 0.507797 4.2251 
0.137208 0.333339 4.72536 -0.012359 0.31849 4.71814 0.102498 0.507797 4.2251 
-0.012359 0.31849 4.71814 -0.173773 0.344593 4.72192 -0.0860385 0.483283 4.28187 
-0.173773 0.344593 4.72192 -0.350515 0.441349 4.74246 -0.243622 0.53797 4.30826 
-0.350515 0.441349 4.74246 -0.455745 0.622456 4.65554 -0.38033 0.69742 4.19667 
-0.503965 0.729629 4.69182 -0.540249 0.896214 4.8013 -0.485013 0.937421 4.33603 
-0.139864 1.35853 4.98938 0.0190862 1.36115 5.11849 0.0250206 1.43371 4.52607 
0.0190862 1.36115 5.11849 0.175023 1.33794 5.09953 0.0250206 1.43371 4.52607 
0.175023 1.33794 5.09953 0.341043 1.24486 5.14346 0.217973 1.38297 4.49669 
0.341043 1.24486 5.14346 0.433964 1.16036 5.09694 0.31933 1.32098 4.45943 
0.433964 1.16036 5.09694 0.509545 1.04767 5.03387 0.415963 1.21255 4.41934 
0.509545 1.04767 5.03387 0.544091 0.898227 4.85802 0.487509 1.03209 4.41353 
0.47708 0.869961 4.33662 0.475046 0.630509 4.70919 0.422185 0.793477 4.13193 
-0.455745 0.622456 4.65554 -0.503965 0.729629 4.69182 -0.453901 0.87162 4.15872 
-0.472552 1.10678 4.77937 -0.383017 1.22887 4.77962 -0.417497 1.22828 4.24705 
-0.383017 1.22887 4.77962 -0.272712 1.31197 4.85324 -0.301733 1.37663 4.17755 
0.487509 1.03209 4.41353 0.47708 0.869961 4.33662 0.458681 1.1186 3.87093 
0.47708 0.869961 4.33662 0.422185 0.793477 4.13193 0.443771 0.976727 3.83308 
0.422185 0.793477 4.13193 0.353442 0.639203 4.28332 0.391337 0.854615 3.79056 
0.353442 0.639203 4.28332 0.24378 0.554758 4.25385 0.299871 0.745894 3.78476 
0.24378 0.554758 4.25385 0.102498 0.507797 4.2251 0.0782662 0.652332 3.72321 
0.102498 0.507797 4.2251 -0.0860385 0.483283 4.28187 0.0782662 0.652332 3.72321 
-0.0860385 0.483283 4.28187 -0.243622 0.53797 4.30826 -0.225185 0.697318 3.76477 
-0.243622 0.53797 4.30826 -0.38033 0.69742 4.19667 -0.332979 0.783552 3.76351 
-0.38033 0.69742 4.19667 -0.453901 0.87162 4.15872 -0.432701 0.939995 3.78797 
-0.453901 0.87162 4.15872 -0.485013 0.937421 4.33603 -0.432701 0.939995 3.78797 
-0.485013 0.937421 4.33603 -0.476987 1.05547 4.37288 -0.457593 1.09392 3.86285 
-0.476987 1.05547 4.37288 -0.417497 1.22828 4.24705 -0.437801 1.21245 3.88801 
-0.417497 1.22828 4.24705 -0.301733 1.37663 4.17755 -0.374568 1.34605 3.90089 
-0.301733 1.37663 4.17755 -0.165442 1.41405 4.44203 -0.156045 1.50696 3.94891 
-0.165442 1.41405 4.44203 0.0250206 1.43371 4.52607 -0.156045 1.50696 3.94891 
0.0250206 1.43371 4.52607 0.217973 1.38297 4.49669 0.0964883 1.51715 3.97818 
0.217973 1.38297 4.49669 0.31933 1.32098 4.45943 0.207917 1.47983 3.95202 
0.31933 1.32098 4.45943 0.415963 1.21255 4.41934 0.309442 1.41138 3.94706 
0.415963 1.21255 4.41934 0.487509 1.03209 4.41353 0.408232 1.29244 3.90031 
0.458681 1.1186 3.87093 0.443771 0.976727 3.83308 0.44692 1.11146 3.51676 
0.441773 1.07706 3.52074 0.44692 1.11146 3.51676 0.443771 0.976727 3.83308 
0.387438 0.941267 3.4739 0.403173 0.972442 3.46777 0.391337 0.854615 3.79056 
0.299871 0.745894 3.78476 0.203563 0.684411 3.77187 0.221852 0.784856 3.42712 
0.0719892 0.728226 3.43917 0.104252 0.741045 3.41323 0.0782662 0.652332 3.72321 
-0.0811423 0.733403 3.4245 -0.0486067 0.731241 3.41288 -0.0859126 0.640868 3.77105 
-0.0859126 0.640868 3.77105 -0.225185 0.697318 3.76477 -0.206917 0.802946 3.31797 
-0.225185 0.697318 3.76477 -0.332979 0.783552 3.76351 -0.269796 0.809241 3.46148 
-0.295412 0.832021 3.45544 -0.269796 0.809241 3.46148 -0.332979 0.783552 3.76351 
-0.392055 0.949043 3.47577 -0.374915 0.925191 3.45492 -0.332979 0.783552 3.76351 
-0.432701 0.939995 3.78797 -0.457593 1.09392 3.86285 -0.448091 1.12191 3.51825 
-0.420749 1.31712 3.57397 -0.431333 1.29168 3.54648 -0.437801 1.21245 3.88801 
-0.437801 1.21245 3.88801 -0.374568 1.34605 3.90089 -0.407292 1.35282 3.56183 
-0.342795 1.44739 3.59591 -0.363218 1.42583 3.57543 -0.374568 1.34605 3.90089 
-0.301733 1.37663 4.17755 -0.156045 1.50696 3.94891 -0.213624 1.54396 3.643 
0.00461801 1.60156 3.63243 -0.0282704 1.6035 3.62089 -0.0281912 1.5261 3.97083 
-0.0281912 1.5261 3.97083 0.0964883 1.51715 3.97818 0.0391996 1.60534 3.60983 
0.0964883 1.51715 3.97818 0.207917 1.47983 3.95202 0.186867 1.56577 3.60799 
0.207917 1.47983 3.95202 0.309442 1.41138 3.94706 0.272103 1.52425 3.56345 
0.30432 1.48676 3.60281 0.272103 1.52425 3.56345 0.309442 1.41138 3.94706 
0.348775 1.44095 3.59217 0.327087 1.46666 3.59109 0.309442 1.41138 3.94706 
0.309442 1.41138 3.94706 0.408232 1.29244 3.90031 0.369665 1.42347 3.54669 
0.423936 1.30999 3.56623 0.411846 1.34501 3.55127 0.408232 1.29244 3.90031 
0.408232 1.29244 3.90031 0.458681 1.1186 3.87093 0.434324 1.28035 3.54937 
0.45 2.71366 -2.92762 0.444512 1.23355 3.54977 0.448935 1.19976 3.51864 
0.444512 1.23355 3.54977 0.45 2.71366 -2.92762 0.443163 2.78964 -2.90937 
0.448935 1.19976 3.51864 0.450188 1.15867 3.49319 0.45 2.71366 -2.92762 
0.443163 2.78964 -2.90937 0.423936 1.30999 3.56623 0.434324 1.28035 3.54937 
0.434324 1.28035 3.54937 0.444512 1.23355 3.54977 0.443163 2.78964 -2.90937 
0.423936 1.30999 3.56623 0.443163 2.78964 -2.90937 0.422862 2.86332 -2.89169 
0.422862 2.86332 -2.89169 0.394232 1.37493 3.58195 0.411846 1.34501 3.55127 
0.394232 1.37493 3.58195 0.422862 2.86332 -2.89169 0.389711 2.93245 -2.87509 
0.411846 1.34501 3.55127 0.423936 1.30999 3.56623 0.422862 2.86332 -2.89169 
0.389711 2.93245 -2.87509 0.348775 1.44095 3.59217 0.369665 1.42347 3.54669 
0.369665 1.42347 3.54669 0.394232 1.37493 3.58195 0.389711 2.93245 -2.87509 
0.348775 1.44095 3.59217 0.389711 2.93245 -2.87509 0.34472 2.99492 -2.86009 
0.34472 2.99492 -2.86009 0.30432 1.48676 3.60281 0.327087 1.46666 3.59109 
0.30432 1.48676 3.60281 0.34472 2.99492 -2.86009 0.289254 3.04886 -2.84714 
0.289254 3.04886 -2.84714 0.228648 1.53804 3.63175 0.272103 1.52425 3.56345 
0.228648 1.53804 3.63175 0.289254 3.04886 -2.84714 0.225 3.09261 -2.83664 
0.225 3.09261 -2.83664 0.155624 1.57485 3.62459 0.186867 1.56577 3.60799 
0.186867 1.56577 3.60799 0.228648 1.53804 3.63175 0.225 3.09261 -2.83664 
0.153909 3.12484 -2.8289 0.124493 1.5873 3.61701 0.155624 1.57485 3.62459 
0.155624 1.57485 3.62459 0.225 3.09261 -2.83664 0.153909 3.12484 -2.8289 
0.153909 3.12484 -2.8289 0.0850226 1.58885 3.65243 0.124493 1.5873 3.61701 
0.0850226 1.58885 3.65243 0.153909 3.12484 -2.8289 0.0781417 3.14458 -2.82416 
0.0781417 3.14458 -2.82416 0.00461801 1.60156 3.63243 0.0391996 1.60534 3.60983 
0.0391996 1.60534 3.60983 0.0850226 1.58885 3.65243 0.0781417 3.14458 -2.82416 
0.00461801 1.60156 3.63243 0.0781417 3.14458 -2.82416 -2.66454e-10 3.15123 -2.82256 
-2.66454e-10 3.15123 -2.82256 -0.0683429 1.59509 3.63867 -0.0282704 1.6035 3.62089 
-0.0683429 1.59509 3.63867 -2.66454e-10 3.15123 -2.82256 -0.0781417 3.14458 -2.82416 
-0.0781417 3.14458 -2.82416 -0.150125 1.57226 3.64538 -0.113422 1.59019 3.618 
-0.113422 1.59019 3.618 -0.0683429 1.59509 3.63867 -0.0781417 3.14458 -2.82416 
-0.150125 1.57226 3.64538 -0.0781417 3.14458 -2.82416 -0.153909 3.12484 -2.8289 
-0.153909 3.12484 -2.8289 -0.213624 1.54396 3.643 -0.18603 1.56271 3.62167 
-0.213624 1.54396 3.643 -0.153909 3.12484 -2.8289 -0.225 3.09261 -2.83664 
-0.18603 1.56271 3.62167 -0.150125 1.57226 3.64538 -0.153909 3.12484 -2.8289 
-0.225 3.09261 -2.83664 -0.28538 1.4996 3.62226 -0.252882 1.52855 3.60388 
-0.28538 1.4996 3.62226 -0.225 3.09261 -2.83664 -0.289254 3.04886 -2.84714 
-0.252882 1.52855 3.60388 -0.213624 1.54396 3.643 -0.225 3.09261 -2.83664 
-0.289254 3.04886 -2.84714 -0.342795 1.44739 3.59591 -0.319585 1.47544 3.58792 
-0.319585 1.47544 3.58792 -0.28538 1.4996 3.62226 -0.289254 3.04886 -2.84714 
-0.342795 1.44739 3.59591 -0.289254 3.04886 -2.84714 -0.34472 2.99492 -2.86009 
-0.34472 2.99492 -2.86009 -0.385806 1.38994 3.58194 -0.363218 1.42583 3.57543 
-0.385806 1.38994 3.58194 -0.34472 2.99492 -2.86009 -0.389711 2.93245 -2.87509 
-0.363218 1.42583 3.57543 -0.342795 1.44739 3.59591 -0.34472 2.99492 -2.86009 
-0.389711 2.93245 -2.87509 -0.420749 1.31712 3.57397 -0.407292 1.35282 3.56183 
-0.407292 1.35282 3.56183 -0.385806 1.38994 3.58194 -0.389711 2.93245 -2.87509 
-0.420749 1.31712 3.57397 -0.389711 2.93245 -2.87509 -0.422862 2.86332 -2.89169 
-0.422862 2.86332 -2.89169 -0.4414 1.25122 3.5477 -0.431333 1.29168 3.54648 
-0.4414 1.25122 3.5477 -0.422862 2.86332 -2.89169 -0.443163 2.78964 -2.90937 
-0.443163 2.78964 -2.90937 -0.450435 1.16462 3.54137 -0.447975 1.20978 3.52523 
-0.447975 1.20978 3.52523 -0.4414 1.25122 3.5477 -0.443163 2.78964 -2.90937 
-0.450435 1.16462 3.54137 -0.443163 2.78964 -2.90937 -0.45 2.71366 -2.92762 
-0.45 2.71366 -2.92762 -0.443477 1.09005 3.5082 -0.448091 1.12191 3.51825 
-0.448091 1.12191 3.51825 -0.450435 1.16462 3.54137 -0.45 2.71366 -2.92762 
-0.443163 2.63768 -2.94586 -0.436864 1.06106 3.49129 -0.443477 1.09005 3.5082 
-0.443477 1.09005 3.5082 -0.45 2.71366 -2.92762 -0.443163 2.63768 -2.94586 
-0.443163 2.63768 -2.94586 -0.425595 1.01672 3.50861 -0.436864 1.06106 3.49129 
-0.425595 1.01672 3.50861 -0.443163 2.63768 -2.94586 -0.422862 2.56401 -2.96354 
-0.422862 2.56401 -2.96354 -0.392055 0.949043 3.47577 -0.407939 0.98146 3.4723 
-0.407939 0.98146 3.4723 -0.425595 1.01672 3.50861 -0.422862 2.56401 -2.96354 
-0.392055 0.949043 3.47577 -0.422862 2.56401 -2.96354 -0.389711 2.49488 -2.98014 
-0.389711 2.49488 -2.98014 -0.351738 0.894259 3.4458 -0.374915 0.925191 3.45492 
-0.351738 0.894259 3.4458 -0.389711 2.49488 -2.98014 -0.34472 2.4324 -2.99514 
-0.34472 2.4324 -2.99514 -0.295412 0.832021 3.45544 -0.320872 0.860969 3.43701 
-0.320872 0.860969 3.43701 -0.351738 0.894259 3.4458 -0.34472 2.4324 -2.99514 
-0.295412 0.832021 3.45544 -0.34472 2.4324 -2.99514 -0.289254 2.37847 -3.00809 
-0.289254 2.37847 -3.00809 -0.243707 0.796439 3.43771 -0.269796 0.809241 3.46148 
-0.225 2.33472 -3.01859 -0.206917 0.802946 3.31797 -0.243707 0.796439 3.43771 
-0.243707 0.796439 3.43771 -0.289254 2.37847 -3.00809 -0.225 2.33472 -3.01859 
-0.225 2.33472 -3.01859 -0.159167 0.753061 3.43376 -0.206917 0.802946 3.31797 
-0.159167 0.753061 3.43376 -0.225 2.33472 -3.01859 -0.153909 2.30248 -3.02633 
-0.153909 2.30248 -3.02633 -0.0811423 0.733403 3.4245 -0.114739 0.743529 3.41399 
-0.114739 0.743529 3.41399 -0.159167 0.753061 3.43376 -0.153909 2.30248 -3.02633 
-0.0811423 0.733403 3.4245 -0.153909 2.30248 -3.02633 -0.0781417 2.28274 -3.03107 
-0.0781417 2.28274 -3.03107 -0.00844419 0.72407 3.43046 -0.0486067 0.731241 3.41288 
-0.00844419 0.72407 3.43046 -0.0781417 2.28274 -3.03107 -2.66454e-10 2.2761 -3.03267 
-0.0486067 0.731241 3.41288 -0.0811423 0.733403 3.4245 -0.0781417 2.28274 -3.03107 
-2.66454e-10 2.2761 -3.03267 0.0719892 0.728226 3.43917 0.0376113 0.733276 3.39978 
0.0376113 0.733276 3.39978 -0.00844419 0.72407 3.43046 -2.66454e-10 2.2761 -3.03267 
0.0719892 0.728226 3.43917 -2.66454e-10 2.2761 -3.03267 0.0781417 2.28274 -3.03107 
0.0781417 2.28274 -3.03107 0.143095 0.747133 3.43416 0.104252 0.741045 3.41323 
0.143095 0.747133 3.43416 0.0781417 2.28274 -3.03107 0.153909 2.30248 -3.02633 
0.153909 2.30248 -3.02633 0.221852 0.784856 3.42712 0.185843 0.768061 3.42018 
0.185843 0.768061 3.42018 0.143095 0.747133 3.43416 0.153909 2.30248 -3.02633 
0.221852 0.784856 3.42712 0.153909 2.30248 -3.02633 0.225 2.33472 -3.01859 
0.225 2.33472 -3.01859 0.287853 0.827947 3.44527 0.261238 0.8107 3.42846 
0.261238 0.8107 3.42846 0.221852 0.784856 3.42712 0.225 2.33472 -3.01859 
0.289254 2.37847 -3.00809 0.312379 0.851181 3.44187 0.287853 0.827947 3.44527 
0.287853 0.827947 3.44527 0.225 2.33472 -3.01859 0.289254 2.37847 -3.00809 
0.289254 2.37847 -3.00809 0.340562 0.870223 3.48795 0.312379 0.851181 3.44187 
0.340562 0.870223 3.48795 0.289254 2.37847 -3.00809 0.34472 2.4324 -2.99514 
0.34472 2.4324 -2.99514 0.387438 0.941267 3.4739 0.36878 0.915678 3.45577 
0.36878 0.915678 3.45577 0.340562 0.870223 3.48795 0.34472 2.4324 -2.99514 
0.387438 0.941267 3.4739 0.34472 2.4324 -2.99514 0.389711 2.49488 -2.98014 
0.389711 2.49488 -2.98014 0.419453 1.00205 3.49914 0.403173 0.972442 3.46777 
0.419453 1.00205 3.49914 0.389711 2.49488 -2.98014 0.422862 2.56401 -2.96354 
0.422862 2.56401 -2.96354 0.441773 1.07706 3.52074 0.433861 1.05025 3.48702 
0.433861 1.05025 3.48702 0.419453 1.00205 3.49914 0.422862 2.56401 -2.96354 
0.441773 1.07706 3.52074 0.422862 2.56401 -2.96354 0.443163 2.63768 -2.94586 
0.443163 2.63768 -2.94586 0.450188 1.15867 3.49319 0.44692 1.11146 3.51676 
0.450188 1.15867 3.49319 0.443163 2.63768 -2.94586 0.45 2.71366 -2.92762 
0.44692 1.11146 3.51676 0.441773 1.07706 3.52074 0.443163 2.63768 -2.94586 
0.403173 0.972442 3.46777 0.387438 0.941267 3.4739 0.389711 2.49488 -2.98014 
0.104252 0.741045 3.41323 0.0719892 0.728226 3.43917 0.0781417 2.28274 -3.03107 
-0.269796 0.809241 3.46148 -0.295412 0.832021 3.45544 -0.289254 2.37847 -3.00809 
-0.374915 0.925191 3.45492 -0.392055 0.949043 3.47577 -0.389711 2.49488 -2.98014 
-0.431333 1.29168 3.54648 -0.420749 1.31712 3.57397 -0.422862 2.86332 -2.89169 
-0.0282704 1.6035 3.62089 0.00461801 1.60156 3.63243 -2.66454e-10 3.15123 -2.82256 
0.272103 1.52425 3.56345 0.30432 1.48676 3.60281 0.289254 3.04886 -2.84714 
0.327087 1.46666 3.59109 0.348775 1.44095 3.59217 0.34472 2.99492 -2.86009 
-0.225 3.09261 -2.83664 0.443163 2.63768 -2.94586 0.422862 2.56401 -2.96354 
0.422862 2.56401 -2.96354 0.389711 2.49488 -2.98014 -0.225 3.09261 -2.83664 
0.389711 2.49488 -2.98014 0.34472 2.4324 -2.99514 -0.225 3.09261 -2.83664 
0.34472 2.4324 -2.99514 0.289254 2.37847 -3.00809 -0.225 3.09261 -2.83664 
0.289254 2.37847 -3.00809 0.225 2.33472 -3.01859 -0.225 3.09261 -2.83664 
0.225 2.33472 -3.01859 0.153909 2.30248 -3.02633 -0.225 3.09261 -2.83664 
0.153909 2.30248 -3.02633 0.0781417 2.28274 -3.03107 -0.225 3.09261 -2.83664 
0.0781417 2.28274 -3.03107 -2.66454e-10 2.2761 -3.03267 -0.225 3.09261 -2.83664 
-2.66454e-10 2.2761 -3.03267 -0.0781417 2.28274 -3.03107 -0.225 3.09261 -2.83664 
-0.0781417 2.28274 -3.03107 -0.153909 2.30248 -3.02633 -0.225 3.09261 -2.83664 
-0.153909 2.30248 -3.02633 -0.225 2.33472 -3.01859 -0.225 3.09261 -2.83664 
-0.225 2.33472 -3.01859 -0.289254 2.37847 -3.00809 -0.225 3.09261 -2.83664 
-0.289254 2.37847 -3.00809 -0.34472 2.4324 -2.99514 -0.225 3.09261 -2.83664 
-0.34472 2.4324 -2.99514 -0.389711 2.49488 -2.98014 -0.225 3.09261 -2.83664 
-0.389711 2.49488 -2.98014 -0.422862 2.56401 -2.96354 -0.225 3.09261 -2.83664 
-0.422862 2.56401 -2.96354 -0.443163 2.63768 -2.94586 -0.225 3.09261 -2.83664 
-0.443163 2.63768 -2.94586 -0.45 2.71366 -2.92762 -0.225 3.09261 -2.83664 
-0.45 2.71366 -2.92762 -0.443163 2.78964 -2.90937 -0.225 3.09261 -2.83664 
-0.443163 2.78964 -2.90937 -0.422862 2.86332 -2.89169 -0.225 3.09261 -2.83664 
-0.422862 2.86332 -2.89169 -0.389711 2.93245 -2.87509 -0.225 3.09261 -2.83664 
-0.389711 2.93245 -2.87509 -0.34472 2.99492 -2.86009 -0.225 3.09261 -2.83664 
-0.34472 2.99492 -2.86009 -0.289254 3.04886 -2.84714 -0.225 3.09261 -2.83664 
-0.153909 3.12484 -2.8289 -0.0781417 3.14458 -2.82416 -0.225 3.09261 -2.83664 
-0.0781417 3.14458 -2.82416 -2.66454e-10 3.15123 -2.82256 -0.225 3.09261 -2.83664 
-2.66454e-10 3.15123 -2.82256 0.0781417 3.14458 -2.82416 -0.225 3.09261 -2.83664 
0.0781417 3.14458 -2.82416 0.153909 3.12484 -2.8289 -0.225 3.09261 -2.83664 
0.153909 3.12484 -2.8289 0.225 3.09261 -2.83664 -0.225 3.09261 -2.83664 
0.225 3.09261 -2.83664 0.289254 3.04886 -2.84714 -0.225 3.09261 -2.83664 
0.289254 3.04886 -2.84714 0.34472 2.99492 -2.86009 -0.225 3.09261 -2.83664 
0.34472 2.99492 -2.86009 0.389711 2.93245 -2.87509 -0.225 3.09261 -2.83664 
0.389711 2.93245 -2.87509 0.422862 2.86332 -2.89169 -0.225 3.09261 -2.83664 
0.422862 2.86332 -2.89169 0.443163 2.78964 -2.90937 -0.225 3.09261 -2.83664 
0.443163 2.78964 -2.90937 0.45 2.71366 -2.92762 -0.225 3.09261 -2.83664 
0.45 2.71366 -2.92762 0.443163 2.63768 -2.94586 -0.225 3.09261 -2.83664 
-0.301 2.48022 -1.95525 0.296427 2.53104 -1.94304 0.282847 2.58032 -1.93121 
0.282847 2.58032 -1.93121 0.260674 2.62656 -1.92011 -0.301 2.48022 -1.95525 
0.260674 2.62656 -1.92011 0.230579 2.66835 -1.91008 -0.301 2.48022 -1.95525 
0.230579 2.66835 -1.91008 0.193479 2.70443 -1.90142 -0.301 2.48022 -1.95525 
0.193479 2.70443 -1.90142 0.1505 2.73369 -1.89439 -0.301 2.48022 -1.95525 
0.1505 2.73369 -1.89439 0.102948 2.75525 -1.88922 -0.301 2.48022 -1.95525 
0.102948 2.75525 -1.88922 0.0522681 2.76845 -1.88605 -0.301 2.48022 -1.95525 
0.0522681 2.76845 -1.88605 -2.66454e-10 2.7729 -1.88498 -0.301 2.48022 -1.95525 
-2.66454e-10 2.7729 -1.88498 -0.0522681 2.76845 -1.88605 -0.301 2.48022 -1.95525 
-0.0522681 2.76845 -1.88605 -0.102948 2.75525 -1.88922 -0.301 2.48022 -1.95525 
-0.102948 2.75525 -1.88922 -0.1505 2.73369 -1.89439 -0.301 2.48022 -1.95525 
-0.1505 2.73369 -1.89439 -0.193479 2.70443 -1.90142 -0.301 2.48022 -1.95525 
-0.193479 2.70443 -1.90142 -0.230579 2.66835 -1.91008 -0.301 2.48022 -1.95525 
-0.230579 2.66835 -1.91008 -0.260674 2.62656 -1.92011 -0.301 2.48022 -1.95525 
-0.260674 2.62656 -1.92011 -0.282847 2.58032 -1.93121 -0.301 2.48022 -1.95525 
-0.282847 2.58032 -1.93121 -0.296427 2.53104 -1.94304 -0.301 2.48022 -1.95525 
-0.296427 2.42939 -1.96745 -0.282847 2.38011 -1.97928 -0.301 2.48022 -1.95525 
-0.282847 2.38011 -1.97928 -0.260674 2.33387 -1.99038 -0.301 2.48022 -1.95525 
-0.260674 2.33387 -1.99038 -0.230579 2.29208 -2.00041 -0.301 2.48022 -1.95525 
-0.230579 2.29208 -2.00041 -0.193479 2.25601 -2.00907 -0.301 2.48022 -1.95525 
-0.193479 2.25601 -2.00907 -0.1505 2.22675 -2.0161 -0.301 2.48022 -1.95525 
-0.1505 2.22675 -2.0161 -0.102948 2.20518 -2.02127 -0.301 2.48022 -1.95525 
-0.102948 2.20518 -2.02127 -0.0522681 2.19198 -2.02444 -0.301 2.48022 -1.95525 
-0.0522681 2.19198 -2.02444 -2.66454e-10 2.18753 -2.02551 -0.301 2.48022 -1.95525 
-2.66454e-10 2.18753 -2.02551 0.0522681 2.19198 -2.02444 -0.301 2.48022 -1.95525 
0.0522681 2.19198 -2.02444 0.102948 2.20518 -2.02127 -0.301 2.48022 -1.95525 
0.102948 2.20518 -2.02127 0.1505 2.22675 -2.0161 -0.301 2.48022 -1.95525 
0.1505 2.22675 -2.0161 0.193479 2.25601 -2.00907 -0.301 2.48022 -1.95525 
0.193479 2.25601 -2.00907 0.230579 2.29208 -2.00041 -0.301 2.48022 -1.95525 
0.230579 2.29208 -2.00041 0.260674 2.33387 -1.99038 -0.301 2.48022 -1.95525 
0.260674 2.33387 -1.99038 0.282847 2.38011 -1.97928 -0.301 2.48022 -1.95525 
0.282847 2.38011 -1.97928 0.296427 2.42939 -1.96745 -0.301 2.48022 -1.95525 
0.296427 2.42939 -1.96745 0.301 2.48022 -1.95525 -0.301 2.48022 -1.95525 
0.301 2.48022 -1.95525 0.296427 2.53104 -1.94304 -0.301 2.48022 -1.95525 
-0.296427 2.42939 -1.96745 -0.300117 0.102631 7.84941 -0.295717 0.0764373 7.80678 
-0.301 2.48022 -1.95525 -0.301002 0.14438 7.82443 -0.300117 0.102631 7.84941 
-0.300117 0.102631 7.84941 -0.296427 2.42939 -1.96745 -0.301 2.48022 -1.95525 
-0.282847 2.38011 -1.97928 -0.295717 0.0764373 7.80678 -0.286972 0.0367271 7.83359 
-0.295717 0.0764373 7.80678 -0.282847 2.38011 -1.97928 -0.296427 2.42939 -1.96745 
-0.286972 0.0367271 7.83359 -0.280176 0.0170483 7.83185 -0.282847 2.38011 -1.97928 
-0.260674 2.33387 -1.99038 -0.280176 0.0170483 7.83185 -0.269746 -0.00483371 7.82361 
-0.280176 0.0170483 7.83185 -0.260674 2.33387 -1.99038 -0.282847 2.38011 -1.97928 
-0.269746 -0.00483371 7.82361 -0.259365 -0.0243398 7.822 -0.260674 2.33387 -1.99038 
-0.230579 2.29208 -2.00041 -0.246197 -0.0433505 7.81436 -0.231483 -0.0621303 7.80991 
-0.230579 2.29208 -2.00041 -0.259365 -0.0243398 7.822 -0.246197 -0.0433505 7.81436 
-0.259365 -0.0243398 7.822 -0.230579 2.29208 -2.00041 -0.260674 2.33387 -1.99038 
-0.193479 2.25601 -2.00907 -0.216877 -0.0779205 7.80606 -0.190527 -0.0947162 7.76929 
-0.230579 2.29208 -2.00041 -0.231483 -0.0621303 7.80991 -0.216877 -0.0779205 7.80606 
-0.216877 -0.0779205 7.80606 -0.193479 2.25601 -2.00907 -0.230579 2.29208 -2.00041 
-0.1505 2.22675 -2.0161 -0.190527 -0.0947162 7.76929 -0.163614 -0.120633 7.79581 
-0.190527 -0.0947162 7.76929 -0.1505 2.22675 -2.0161 -0.193479 2.25601 -2.00907 
-0.163614 -0.120633 7.79581 -0.145683 -0.131617 7.7949 -0.1505 2.22675 -2.0161 
-0.102948 2.20518 -2.02127 -0.145683 -0.131617 7.7949 -0.12313 -0.142039 7.79067 
-0.145683 -0.131617 7.7949 -0.102948 2.20518 -2.02127 -0.1505 2.22675 -2.0161 
-0.12313 -0.142039 7.79067 -0.102095 -0.150678 7.79014 -0.102948 2.20518 -2.02127 
-0.0522681 2.19198 -2.02444 -0.0797594 -0.157185 7.78703 -0.0449797 -0.161953 7.77347 
-0.0522681 2.19198 -2.02444 -0.102095 -0.150678 7.79014 -0.0797594 -0.157185 7.78703 
-0.102095 -0.150678 7.79014 -0.0522681 2.19198 -2.02444 -0.102948 2.20518 -2.02127 
-2.66454e-10 2.18753 -2.02551 -0.0449797 -0.161953 7.77347 -0.00845798 -0.16691 7.78151 
-0.0449797 -0.161953 7.77347 -2.66454e-10 2.18753 -2.02551 -0.0522681 2.19198 -2.02444 
0.0522681 2.19198 -2.02444 0.0115291 -0.167433 7.78457 0.0345197 -0.165717 7.78499 
-2.66454e-10 2.18753 -2.02551 -0.00845798 -0.16691 7.78151 0.0115291 -0.167433 7.78457 
0.0115291 -0.167433 7.78457 0.0522681 2.19198 -2.02444 -2.66454e-10 2.18753 -2.02551 
0.0345197 -0.165717 7.78499 0.0558809 -0.16483 7.79476 0.0522681 2.19198 -2.02444 
0.102948 2.20518 -2.02127 0.0558809 -0.16483 7.79476 0.0906628 -0.159353 7.8089 
0.0558809 -0.16483 7.79476 0.102948 2.20518 -2.02127 0.0522681 2.19198 -2.02444 
0.1505 2.22675 -2.0161 0.12313 -0.142039 7.79067 0.155215 -0.122203 7.77757 
0.102948 2.20518 -2.02127 0.0906628 -0.159353 7.8089 0.12313 -0.142039 7.79067 
0.12313 -0.142039 7.79067 0.1505 2.22675 -2.0161 0.102948 2.20518 -2.02127 
0.193479 2.25601 -2.00907 0.155215 -0.122203 7.77757 0.182474 -0.107733 7.79891 
0.155215 -0.122203 7.77757 0.193479 2.25601 -2.00907 0.1505 2.22675 -2.0161 
0.182474 -0.107733 7.79891 0.198638 -0.0949047 7.80141 0.193479 2.25601 -2.00907 
0.230579 2.29208 -2.00041 0.198638 -0.0949047 7.80141 0.216877 -0.0779205 7.80606 
0.198638 -0.0949047 7.80141 0.230579 2.29208 -2.00041 0.193479 2.25601 -2.00907 
0.216877 -0.0779205 7.80606 0.231792 -0.0623522 7.81238 0.230579 2.29208 -2.00041 
0.260674 2.33387 -1.99038 0.246197 -0.0433505 7.81436 0.265218 -0.00528645 7.78441 
0.260674 2.33387 -1.99038 0.231792 -0.0623522 7.81238 0.246197 -0.0433505 7.81436 
0.231792 -0.0623522 7.81238 0.260674 2.33387 -1.99038 0.230579 2.29208 -2.00041 
0.282847 2.38011 -1.97928 0.265218 -0.00528645 7.78441 0.280474 0.0191214 7.8266 
0.265218 -0.00528645 7.78441 0.282847 2.38011 -1.97928 0.260674 2.33387 -1.99038 
0.296427 2.42939 -1.96745 0.286972 0.0367271 7.83359 0.293082 0.0583468 7.83878 
0.282847 2.38011 -1.97928 0.280474 0.0191214 7.8266 0.286972 0.0367271 7.83359 
0.286972 0.0367271 7.83359 0.296427 2.42939 -1.96745 0.282847 2.38011 -1.97928 
0.293082 0.0583468 7.83878 0.297307 0.0776001 7.84783 0.296427 2.42939 -1.96745 
0.301 2.48022 -1.95525 0.297307 0.0776001 7.84783 0.301002 0.121582 7.81896 
0.297307 0.0776001 7.84783 0.301 2.48022 -1.95525 0.296427 2.42939 -1.96745 
0.296427 2.53104 -1.94304 0.300117 0.14744 7.86017 0.295717 0.190134 7.83407 
0.301 2.48022 -1.95525 0.301002 0.121582 7.81896 0.300117 0.14744 7.86017 
0.300117 0.14744 7.86017 0.296427 2.53104 -1.94304 0.301 2.48022 -1.95525 
0.282847 2.58032 -1.93121 0.295717 0.190134 7.83407 0.286972 0.213344 7.87599 
0.295717 0.190134 7.83407 0.282847 2.58032 -1.93121 0.296427 2.53104 -1.94304 
0.286972 0.213344 7.87599 0.280176 0.231668 7.88338 0.282847 2.58032 -1.93121 
0.260674 2.62656 -1.92011 0.280176 0.231668 7.88338 0.269746 0.254905 7.88597 
0.280176 0.231668 7.88338 0.260674 2.62656 -1.92011 0.282847 2.58032 -1.93121 
0.269746 0.254905 7.88597 0.259365 0.273016 7.89339 0.260674 2.62656 -1.92011 
0.230579 2.66835 -1.91008 0.246197 0.293422 7.89522 0.231483 0.312178 7.89977 
0.230579 2.66835 -1.91008 0.259365 0.273016 7.89339 0.246197 0.293422 7.89522 
0.259365 0.273016 7.89339 0.230579 2.66835 -1.91008 0.260674 2.62656 -1.92011 
0.193479 2.70443 -1.90142 0.216877 0.327992 7.90352 0.190527 0.359653 7.87837 
0.230579 2.66835 -1.91008 0.231483 0.312178 7.89977 0.216877 0.327992 7.90352 
0.216877 0.327992 7.90352 0.193479 2.70443 -1.90142 0.230579 2.66835 -1.91008 
0.1505 2.73369 -1.89439 0.190527 0.359653 7.87837 0.163614 0.370704 7.91377 
0.190527 0.359653 7.87837 0.1505 2.73369 -1.89439 0.193479 2.70443 -1.90142 
0.163614 0.370704 7.91377 0.145683 0.380904 7.91794 0.1505 2.73369 -1.89439 
0.102948 2.75525 -1.88922 0.145683 0.380904 7.91794 0.12313 0.39211 7.91891 
0.145683 0.380904 7.91794 0.102948 2.75525 -1.88922 0.1505 2.73369 -1.89439 
0.12313 0.39211 7.91891 0.102095 0.400047 7.92236 0.102948 2.75525 -1.88922 
0.0522681 2.76845 -1.88605 0.0797594 0.407257 7.92254 0.0449797 0.417661 7.91263 
0.0522681 2.76845 -1.88605 0.102095 0.400047 7.92236 0.0797594 0.407257 7.92254 
0.102095 0.400047 7.92236 0.0522681 2.76845 -1.88605 0.102948 2.75525 -1.88922 
-2.66454e-10 2.7729 -1.88498 0.0449797 0.417661 7.91263 0.00845798 0.418428 7.92204 
0.0449797 0.417661 7.91263 -2.66454e-10 2.7729 -1.88498 0.0522681 2.76845 -1.88605 
-0.0522681 2.76845 -1.88605 -0.0115291 0.417504 7.92501 -0.0345197 0.415788 7.92459 
-2.66454e-10 2.7729 -1.88498 0.00845798 0.418428 7.92204 -0.0115291 0.417504 7.92501 
-0.0115291 0.417504 7.92501 -0.0522681 2.76845 -1.88605 -2.66454e-10 2.7729 -1.88498 
-0.0345197 0.415788 7.92459 -0.0558809 0.410561 7.9329 -0.0522681 2.76845 -1.88605 
-0.102948 2.75525 -1.88922 -0.0558809 0.410561 7.9329 -0.0906628 0.399263 7.94301 
-0.0558809 0.410561 7.9329 -0.102948 2.75525 -1.88922 -0.0522681 2.76845 -1.88605 
-0.1505 2.73369 -1.89439 -0.12313 0.39211 7.91891 -0.155215 0.380383 7.89823 
-0.102948 2.75525 -1.88922 -0.0906628 0.399263 7.94301 -0.12313 0.39211 7.91891 
-0.12313 0.39211 7.91891 -0.1505 2.73369 -1.89439 -0.102948 2.75525 -1.88922 
-0.193479 2.70443 -1.90142 -0.155215 0.380383 7.89823 -0.182474 0.357805 7.91067 
-0.155215 0.380383 7.89823 -0.193479 2.70443 -1.90142 -0.1505 2.73369 -1.89439 
-0.182474 0.357805 7.91067 -0.198638 0.345238 7.90708 -0.193479 2.70443 -1.90142 
-0.230579 2.66835 -1.91008 -0.198638 0.345238 7.90708 -0.216877 0.327992 7.90352 
-0.198638 0.345238 7.90708 -0.230579 2.66835 -1.91008 -0.193479 2.70443 -1.90142 
-0.216877 0.327992 7.90352 -0.231792 0.311255 7.90207 -0.230579 2.66835 -1.91008 
-0.260674 2.62656 -1.92011 -0.246197 0.293422 7.89522 -0.265218 0.273107 7.85124 
-0.260674 2.62656 -1.92011 -0.231792 0.311255 7.90207 -0.246197 0.293422 7.89522 
-0.231792 0.311255 7.90207 -0.260674 2.62656 -1.92011 -0.230579 2.66835 -1.91008 
-0.282847 2.58032 -1.93121 -0.265218 0.273107 7.85124 -0.280474 0.232203 7.87776 
-0.265218 0.273107 7.85124 -0.282847 2.58032 -1.93121 -0.260674 2.62656 -1.92011 
-0.296427 2.53104 -1.94304 -0.286972 0.213344 7.87599 -0.293082 0.191725 7.8708 
-0.282847 2.58032 -1.93121 -0.280474 0.232203 7.87776 -0.286972 0.213344 7.87599 
-0.286972 0.213344 7.87599 -0.296427 2.53104 -1.94304 -0.282847 2.58032 -1.93121 
-0.293082 0.191725 7.8708 -0.297307 0.170461 7.87012 -0.296427 2.53104 -1.94304 
-0.301 2.48022 -1.95525 -0.297307 0.170461 7.87012 -0.301002 0.14438 7.82443 
-0.297307 0.170461 7.87012 -0.301 2.48022 -1.95525 -0.296427 2.53104 -1.94304 
2.02725 -0.362753 10.5337 1.76869 -0.289323 10.4147 1.77667 -0.549171 10.3529 
1.77667 -0.549171 10.3529 2.03315 -0.509684 10.4986 2.02725 -0.362753 10.5337 
1.76869 -0.289323 10.4147 2.02725 -0.362753 10.5337 2.0097 -0.218058 10.5679 
1.76869 -0.289323 10.4147 2.0097 -0.218058 10.5679 1.98348 -0.0719593 10.6039 
1.98348 -0.0719593 10.6039 1.70876 0.0529192 10.5057 1.76869 -0.289323 10.4147 
1.70876 0.0529192 10.5057 1.98348 -0.0719593 10.6039 1.94186 0.0693554 10.6364 
1.70876 0.0529192 10.5057 1.94186 0.0693554 10.6364 1.89173 0.203368 10.6674 
1.70876 0.0529192 10.5057 1.89173 0.203368 10.6674 1.82544 0.34223 10.6986 
1.82544 0.34223 10.6986 1.4756 0.500988 10.6095 1.70876 0.0529192 10.5057 
1.4756 0.500988 10.6095 1.82544 0.34223 10.6986 1.75207 0.463529 10.7244 
1.4756 0.500988 10.6095 1.75207 0.463529 10.7244 1.68829 0.590771 10.7622 
1.27359 0.826874 10.7258 1.4756 0.500988 10.6095 1.53859 0.719127 10.7715 
1.4756 0.500988 10.6095 1.68829 0.590771 10.7622 1.53859 0.719127 10.7715 
0.920206 1.08622 10.7915 1.27359 0.826874 10.7258 1.21236 1.07134 10.8753 
0.825732 1.29709 10.9324 0.685361 1.35042 10.9445 0.563004 1.24005 10.8298 
0.563004 1.24005 10.8298 0.685361 1.35042 10.9445 0.541382 1.39578 10.9559 
0.563004 1.24005 10.8298 0.541382 1.39578 10.9559 0.394957 1.42891 10.9635 
0.394957 1.42891 10.9635 0.227119 1.36091 10.8957 0.563004 1.24005 10.8298 
0.227119 1.36091 10.8957 0.0953936 1.4662 10.9734 -0.0535274 1.46382 10.9706 
-0.0535274 1.46382 10.9706 -0.0999485 1.25753 10.7921 0.227119 1.36091 10.8957 
-0.0999485 1.25753 10.7921 -0.0535274 1.46382 10.9706 -0.209479 1.45234 10.9669 
-0.0999485 1.25753 10.7921 -0.209479 1.45234 10.9669 -0.351242 1.43021 10.9602 
-0.351242 1.43021 10.9602 -0.429014 1.21616 10.7886 -0.0999485 1.25753 10.7921 
-0.429014 1.21616 10.7886 -0.351242 1.43021 10.9602 -0.496443 1.39843 10.9515 
-0.429014 1.21616 10.7886 -0.496443 1.39843 10.9515 -0.654576 1.35476 10.9422 
-0.654576 1.35476 10.9422 -0.667326 1.11494 10.7458 -0.429014 1.21616 10.7886 
-0.667326 1.11494 10.7458 -0.654576 1.35476 10.9422 -0.834181 1.27728 10.9192 
-0.978754 0.971406 10.7219 -0.667326 1.11494 10.7458 -0.99791 1.20382 10.9055 
-1.24302 0.755947 10.6654 -0.978754 0.971406 10.7219 -1.24612 1.05059 10.8722 
-1.56928 0.744936 10.7989 -1.66233 0.628344 10.7717 -1.45401 0.556574 10.634 
-1.45401 0.556574 10.634 -1.24302 0.755947 10.6654 -1.56928 0.744936 10.7989 
-1.74411 0.505394 10.742 -1.68819 0.289275 10.6027 -1.45401 0.556574 10.634 
-1.45401 0.556574 10.634 -1.66233 0.628344 10.7717 -1.74411 0.505394 10.742 
-1.68819 0.289275 10.6027 -1.74411 0.505394 10.742 -1.81719 0.375651 10.7107 
-1.68819 0.289275 10.6027 -1.81719 0.375651 10.7107 -1.88091 0.243687 10.6798 
-1.68819 0.289275 10.6027 -1.88091 0.243687 10.6798 -1.92964 0.105985 10.6451 
-1.92964 0.105985 10.6451 -1.82182 -0.108459 10.5056 -1.68819 0.289275 10.6027 
-1.82182 -0.108459 10.5056 -1.92964 0.105985 10.6451 -1.96644 -0.0342903 10.6092 
-1.82182 -0.108459 10.5056 -1.96644 -0.0342903 10.6092 -1.97367 -0.208788 10.553 
-1.97367 -0.208788 10.553 -1.77358 -0.550039 10.3456 -1.82182 -0.108459 10.5056 
-1.84836 -0.957725 10.3309 -1.77358 -0.550039 10.3456 -2.00026 -0.848697 10.4157 
-1.69691 -1.23993 10.2343 -1.84836 -0.957725 10.3309 -1.92961 -1.12475 10.3496 
-1.57074 -1.76436 10.1972 -1.37877 -1.78431 10.1343 -1.56332 -1.56801 10.1867 
-1.37877 -1.78431 10.1343 -1.36358 -1.97738 10.1465 -1.24612 -2.06952 10.1231 
-1.24612 -2.06952 10.1231 -1.06601 -1.9833 10.0586 -1.37877 -1.78431 10.1343 
-1.06601 -1.9833 10.0586 -1.24612 -2.06952 10.1231 -1.12456 -2.15333 10.1026 
-1.06601 -1.9833 10.0586 -1.12456 -2.15333 10.1026 -0.997976 -2.22124 10.0833 
-0.997976 -2.22124 10.0833 -0.795108 -2.18437 10.0369 -1.06601 -1.9833 10.0586 
-0.318243 -2.32288 10.002 -0.609714 -2.27363 10.0231 -0.498536 -2.42512 10.038 
-0.000761073 -2.30549 9.97948 -0.318243 -2.32288 10.002 -0.209214 -2.46785 10.0246 
0.238081 -2.3344 9.99925 -0.000761073 -2.30549 9.97948 0.095385 -2.48578 10.0246 
0.562757 -2.21485 9.99869 0.238081 -2.3344 9.99925 0.394992 -2.44808 10.0327 
0.541312 -2.41514 10.041 0.68538 -2.3706 10.0517 0.562757 -2.21485 9.99869 
0.825782 -2.31581 10.0647 0.917228 -1.96629 10.0132 0.562757 -2.21485 9.99869 
0.562757 -2.21485 9.99869 0.68538 -2.3706 10.0517 0.825782 -2.31581 10.0647 
0.917228 -1.96629 10.0132 0.825782 -2.31581 10.0647 0.959022 -2.25083 10.0796 
0.917228 -1.96629 10.0132 0.959022 -2.25083 10.0796 1.09237 -2.1793 10.0984 
0.917228 -1.96629 10.0132 1.09237 -2.1793 10.0984 1.21229 -2.08936 10.1165 
1.21229 -2.08936 10.1165 1.20406 -1.75742 10.0657 0.917228 -1.96629 10.0132 
1.20406 -1.75742 10.0657 1.21229 -2.08936 10.1165 1.32557 -2.00062 10.1377 
1.20406 -1.75742 10.0657 1.32557 -2.00062 10.1377 1.44419 -1.89987 10.1641 
1.44419 -1.89987 10.1641 1.43103 -1.50227 10.1231 1.20406 -1.75742 10.0657 
1.43103 -1.50227 10.1231 1.44419 -1.89987 10.1641 1.57828 -1.74841 10.1994 
1.64073 -1.12735 10.2081 1.43103 -1.50227 10.1231 1.75737 -1.48294 10.26 
1.88857 -0.902651 10.3563 1.64073 -1.12735 10.2081 1.93999 -1.0866 10.3578 
1.77667 -0.549171 10.3529 1.88857 -0.902651 10.3563 2.00971 -0.801018 10.428 
2.02728 -0.656572 10.4631 2.03315 -0.509684 10.4986 1.77667 -0.549171 10.3529 
1.34656 0.204986 10.3418 1.70876 0.0529192 10.5057 1.4756 0.500988 10.6095 
1.06301 0.737864 10.5579 1.27359 0.826874 10.7258 0.920206 1.08622 10.7915 
0.747948 0.926077 10.5914 0.920206 1.08622 10.7915 0.563004 1.24005 10.8298 
0.328316 1.10177 10.6516 0.563004 1.24005 10.8298 0.227119 1.36091 10.8957 
-1.46823 0.210243 10.4262 -1.68819 0.289275 10.6027 -1.82182 -0.108459 10.5056 
-1.58467 -0.154199 10.341 -1.82182 -0.108459 10.5056 -1.77358 -0.550039 10.3456 
-1.55994 -0.866247 10.1702 -1.84836 -0.957725 10.3309 -1.69691 -1.23993 10.2343 
-1.46091 -1.15299 10.1067 -1.69691 -1.23993 10.2343 -1.56332 -1.56801 10.1867 
-1.28718 -1.40908 10.0415 -1.56332 -1.56801 10.1867 -1.37877 -1.78431 10.1343 
-1.06242 -1.64312 9.98437 -1.37877 -1.78431 10.1343 -1.06601 -1.9833 10.0586 
-0.755903 -1.83639 9.9338 -1.06601 -1.9833 10.0586 -0.795108 -2.18437 10.0369 
-0.755903 -1.83639 9.9338 -0.795108 -2.18437 10.0369 -0.609714 -2.27363 10.0231 
-0.489035 -1.94199 9.90718 -0.609714 -2.27363 10.0231 -0.318243 -2.32288 10.002 
-0.118773 -2.0253 9.89166 -0.318243 -2.32288 10.002 -0.000761073 -2.30549 9.97948 
-0.118773 -2.0253 9.89166 -0.000761073 -2.30549 9.97948 0.238081 -2.3344 9.99925 
0.298817 -2.00263 9.89887 0.238081 -2.3344 9.99925 0.562757 -2.21485 9.99869 
0.617445 -1.93549 9.93009 0.562757 -2.21485 9.99869 0.917228 -1.96629 10.0132 
1.58345 -0.755354 10.196 1.88857 -0.902651 10.3563 1.77667 -0.549171 10.3529 
1.45933 -0.381329 10.1676 1.77667 -0.549171 10.3529 1.76869 -0.289323 10.4147 
1.45933 -0.381329 10.1676 1.76869 -0.289323 10.4147 1.70876 0.0529192 10.5057 
1.42014 -0.0512489 10.2597 1.70876 0.0529192 10.5057 1.34656 0.204986 10.3418 
1.11541 0.482983 10.3716 1.4756 0.500988 10.6095 1.06301 0.737864 10.5579 
-0.0510425 0.989544 10.4971 -0.0999485 1.25753 10.7921 -0.429014 1.21616 10.7886 
-0.47629 0.921445 10.485 -0.429014 1.21616 10.7886 -0.667326 1.11494 10.7458 
-0.47629 0.921445 10.485 -0.667326 1.11494 10.7458 -0.978754 0.971406 10.7219 
-0.855728 0.732703 10.442 -0.978754 0.971406 10.7219 -1.24302 0.755947 10.6654 
-1.13746 0.477047 10.3854 -1.24302 0.755947 10.6654 -1.45401 0.556574 10.634 
-1.13746 0.477047 10.3854 -1.45401 0.556574 10.634 -1.46823 0.210243 10.4262 
-1.46371 -0.498953 10.1432 -1.77358 -0.550039 10.3456 -1.55994 -0.866247 10.1702 
0.83337 -1.59531 9.87547 0.917228 -1.96629 10.0132 1.20406 -1.75742 10.0657 
1.1278 -1.33331 9.94367 1.20406 -1.75742 10.0657 1.43103 -1.50227 10.1231 
1.33857 -1.00468 10.0191 1.43103 -1.50227 10.1231 1.64073 -1.12735 10.2081 
1.33857 -1.00468 10.0191 1.64073 -1.12735 10.2081 1.58345 -0.755354 10.196 
0.782863 0.652283 10.3162 1.06301 0.737864 10.5579 0.747948 0.926077 10.5914 
0.548432 0.773833 10.3346 0.747948 0.926077 10.5914 0.328316 1.10177 10.6516 
0.267858 0.920603 10.4274 0.328316 1.10177 10.6516 -0.0510425 0.989544 10.4971 
-1.13525 0.124877 10.1089 -1.46823 0.210243 10.4262 -1.58467 -0.154199 10.341 
-1.21905 -0.248999 9.99175 -1.58467 -0.154199 10.341 -1.46371 -0.498953 10.1432 
-1.27698 -0.758723 9.97033 -1.55994 -0.866247 10.1702 -1.46091 -1.15299 10.1067 
-1.13894 -0.943162 9.87583 -1.46091 -1.15299 10.1067 -1.28718 -1.40908 10.0415 
-1.05623 -1.30632 9.89124 -1.28718 -1.40908 10.0415 -1.06242 -1.64312 9.98437 
-0.783375 -1.46824 9.81131 -1.06242 -1.64312 9.98437 -0.755903 -1.83639 9.9338 
-0.548432 -1.57886 9.76978 -0.755903 -1.83639 9.9338 -0.489035 -1.94199 9.90718 
-0.26671 -1.7469 9.78332 -0.489035 -1.94199 9.90718 -0.118773 -2.0253 9.89166 
0.0649912 -1.77065 9.77981 -0.118773 -2.0253 9.89166 0.298817 -2.00263 9.89887 
0.425414 -1.70695 9.79328 0.298817 -2.00263 9.89887 0.617445 -1.93549 9.93009 
0.425414 -1.70695 9.79328 0.617445 -1.93549 9.93009 0.83337 -1.59531 9.87547 
1.20615 -0.486283 9.91921 1.58345 -0.755354 10.196 1.45933 -0.381329 10.1676 
1.22249 -0.125633 10.0417 1.45933 -0.381329 10.1676 1.42014 -0.0512489 10.2597 
1.22249 -0.125633 10.0417 1.42014 -0.0512489 10.2597 1.34656 0.204986 10.3418 
1.05232 0.161065 10.0524 1.34656 0.204986 10.3418 1.11541 0.482983 10.3716 
0.880799 0.405235 10.11 1.11541 0.482983 10.3716 0.782863 0.652283 10.3162 
0.0416995 0.770126 10.1847 0.267858 0.920603 10.4274 -0.0510425 0.989544 10.4971 
-0.187331 0.762565 10.1933 -0.0510425 0.989544 10.4971 -0.47629 0.921445 10.485 
-0.442499 0.705895 10.189 -0.47629 0.921445 10.485 -0.855728 0.732703 10.442 
-0.90044 0.381944 10.1044 -0.855728 0.732703 10.442 -1.13746 0.477047 10.3854 
-0.90044 0.381944 10.1044 -1.13746 0.477047 10.3854 -1.13525 0.124877 10.1089 
-1.10998 -0.535281 9.82076 -1.46371 -0.498953 10.1432 -1.27698 -0.758723 9.97033 
-0.886414 -1.15242 9.74134 -1.05623 -1.30632 9.89124 -0.783375 -1.46824 9.81131 
-0.0420285 -1.50698 9.63755 -0.26671 -1.7469 9.78332 0.0649912 -1.77065 9.77981 
0.266757 -1.49486 9.65164 0.0649912 -1.77065 9.77981 0.425414 -1.70695 9.79328 
0.538275 -1.41709 9.6872 0.425414 -1.70695 9.79328 0.83337 -1.59531 9.87547 
0.748115 -1.27744 9.71115 0.83337 -1.59531 9.87547 1.1278 -1.33331 9.94367 
0.987285 -1.02229 9.77085 1.1278 -1.33331 9.94367 1.33857 -1.00468 10.0191 
1.1164 -0.763109 9.8307 1.33857 -1.00468 10.0191 1.20615 -0.486283 9.91921 
0.991304 0.00859322 9.87261 1.22249 -0.125633 10.0417 1.05232 0.161065 10.0524 
0.522003 0.562891 10.0103 0.782863 0.652283 10.3162 0.548432 0.773833 10.3346 
0.522003 0.562891 10.0103 0.548432 0.773833 10.3346 0.276886 0.736722 10.1728 
-0.991304 -0.687286 9.70555 -1.27698 -0.758723 9.97033 -1.13894 -0.943162 9.87583 
-0.611877 -1.18924 9.59587 -0.783375 -1.46824 9.81131 -0.548432 -1.57886 9.76978 
0.925351 -0.361791 9.62578 1.20615 -0.486283 9.91921 0.967778 -0.175621 9.73989 
0.786328 0.169676 9.75293 1.05232 0.161065 10.0524 0.880799 0.405235 10.11 
0.167782 0.585914 9.85008 0.276886 0.736722 10.1728 0.0416995 0.770126 10.1847 
-0.134872 0.596319 9.86569 0.0416995 0.770126 10.1847 -0.187331 0.762565 10.1933 
-0.134872 0.596319 9.86569 -0.187331 0.762565 10.1933 -0.442499 0.705895 10.189 
-0.407972 0.559201 9.92878 -0.442499 0.705895 10.189 -0.687791 0.573336 10.1575 
-0.562689 0.397915 9.7896 -0.687791 0.573336 10.1575 -0.90044 0.381944 10.1044 
-0.773604 0.205393 9.77084 -0.90044 0.381944 10.1044 -1.13525 0.124877 10.1089 
-0.886552 -0.0267559 9.71289 -1.13525 0.124877 10.1089 -1.21905 -0.248999 9.99175 
-0.925351 -0.245213 9.65377 -1.21905 -0.248999 9.99175 -1.10998 -0.535281 9.82076 
-0.786328 -0.776476 9.52578 -1.13894 -0.943162 9.87583 -0.886414 -1.15242 9.74134 
-0.099468 -1.20386 9.42691 -0.345478 -1.42049 9.62267 -0.0420285 -1.50698 9.63755 
0.134869 -1.20781 9.43255 -0.0420285 -1.50698 9.63755 0.266757 -1.49486 9.65164 
0.407972 -1.20338 9.50562 0.266757 -1.49486 9.65164 0.538275 -1.41709 9.6872 
0.407972 -1.20338 9.50562 0.538275 -1.41709 9.6872 0.748115 -1.27744 9.71115 
0.764084 -0.817046 9.51584 0.748115 -1.27744 9.71115 0.987285 -1.02229 9.77085 
0.764084 -0.817046 9.51584 0.987285 -1.02229 9.77085 1.1164 -0.763109 9.8307 
0.886552 -0.583276 9.57928 1.1164 -0.763109 9.8307 1.20615 -0.486283 9.91921 
0.708694 0.0383787 9.49151 0.991304 0.00859322 9.87261 0.786328 0.169676 9.75293 
-0.303439 0.46643 9.6576 -0.407972 0.559201 9.92878 -0.562689 0.397915 9.7896 
-0.866884 -0.415763 9.54021 -1.10998 -0.535281 9.82076 -0.991304 -0.687286 9.70555 
-0.708694 -0.540806 9.35246 -0.991304 -0.687286 9.70555 -0.786328 -0.776476 9.52578 
-0.371856 -1.07237 9.39041 -0.611877 -1.18924 9.59587 -0.345478 -1.42049 9.62267 
0.303439 -0.997607 9.30611 0.407972 -1.20338 9.50562 0.558352 -0.985229 9.44355 
0.717215 -0.145403 9.36321 0.925351 -0.361791 9.62578 0.967778 -0.175621 9.73989 
0.717215 -0.145403 9.36321 0.967778 -0.175621 9.73989 0.708694 0.0383787 9.49151 
0.572251 0.164265 9.39983 0.786328 0.169676 9.75293 0.649845 0.335646 9.7892 
0.455145 0.297727 9.44363 0.649845 0.335646 9.7892 0.417097 0.463172 9.75151 
0.277071 0.416702 9.50006 0.417097 0.463172 9.75151 0.167782 0.585914 9.85008 
0.00587748 0.469519 9.50441 0.167782 0.585914 9.85008 -0.134872 0.596319 9.86569 
-0.613944 0.142113 9.43849 -0.773604 0.205393 9.77084 -0.886552 -0.0267559 9.71289 
-0.702439 -0.070343 9.378 -0.886552 -0.0267559 9.71289 -0.925351 -0.245213 9.65377 
-0.717215 -0.318809 9.32158 -0.925351 -0.245213 9.65377 -0.866884 -0.415763 9.54021 
-0.717215 -0.318809 9.32158 -0.866884 -0.415763 9.54021 -0.708694 -0.540806 9.35246 
-0.572251 -0.611349 9.21362 -0.786328 -0.776476 9.52578 -0.649845 -0.940821 9.48274 
-0.455145 -0.750154 9.19206 -0.649845 -0.940821 9.48274 -0.371856 -1.07237 9.39041 
-0.277071 -0.881779 9.18832 -0.371856 -1.07237 9.39041 -0.099468 -1.20386 9.42691 
-0.00746746 -0.932392 9.16926 -0.099468 -1.20386 9.42691 0.134869 -1.20781 9.43255 
0.613944 -0.609167 9.25813 0.764084 -0.817046 9.51584 0.886552 -0.583276 9.57928 
0.702439 -0.392406 9.30068 0.886552 -0.583276 9.57928 0.925351 -0.361791 9.62578 
-0.083232 0.379657 9.1793 0.00587748 0.469519 9.50441 -0.303439 0.46643 9.6576 
-0.289338 0.356922 9.33892 -0.303439 0.46643 9.6576 -0.562689 0.397915 9.7896 
-0.421764 0.266628 9.29716 -0.562689 0.397915 9.7896 -0.613944 0.142113 9.43849 
0.083232 -0.703148 8.91934 -0.00746746 -0.932392 9.16926 0.303439 -0.997607 9.30611 
0.289338 -0.755359 9.07189 0.303439 -0.997607 9.30611 0.558352 -0.985229 9.44355 
0.421764 -0.655948 9.07567 0.558352 -0.985229 9.44355 0.613944 -0.609167 9.25813 
0.533717 0.0212106 9.09628 0.717215 -0.145403 9.36321 0.708694 0.0383787 9.49151 
0.352382 0.253466 9.1067 0.455145 0.297727 9.44363 0.277071 0.416702 9.50006 
0.140543 0.365609 9.13347 0.277071 0.416702 9.50006 0.00587748 0.469519 9.50441 
-0.457084 0.122441 9.04126 -0.613944 0.142113 9.43849 -0.702439 -0.070343 9.378 
-0.577802 -0.108067 9.09034 -0.702439 -0.070343 9.378 -0.717215 -0.318809 9.32158 
-0.533717 -0.346081 9.0081 -0.717215 -0.318809 9.32158 -0.708694 -0.540806 9.35246 
-0.352382 -0.557753 8.91195 -0.455145 -0.750154 9.19206 -0.277071 -0.881779 9.18832 
-0.140543 -0.669827 8.88489 -0.277071 -0.881779 9.18832 -0.00746746 -0.932392 9.16926 
0.457084 -0.4113 8.91312 0.613944 -0.609167 9.25813 0.702439 -0.392406 9.30068 
0.577802 -0.228197 9.0615 0.702439 -0.392406 9.30068 0.717215 -0.145403 9.36321 
-0.13658 0.328321 8.89799 -0.083232 0.379657 9.1793 -0.289338 0.356922 9.33892 
-0.13658 0.328321 8.89799 -0.289338 0.356922 9.33892 -0.421764 0.266628 9.29716 
0.13658 -0.529695 8.692 0.083232 -0.703148 8.91934 0.289338 -0.755359 9.07189 
0.13658 -0.529695 8.692 0.289338 -0.755359 9.07189 0.421764 -0.655948 9.07567 
0.422514 -0.00309876 8.70549 0.577802 -0.228197 9.0615 0.533717 0.0212106 9.09628 
0.422514 -0.00309876 8.70549 0.533717 0.0212106 9.09628 0.38901 0.156212 8.90545 
0.225113 0.285896 8.80938 0.352382 0.253466 9.1067 0.140543 0.365609 9.13347 
0.0338038 0.333181 8.72546 0.140543 0.365609 9.13347 -0.083232 0.379657 9.1793 
-0.422514 -0.147008 8.67095 -0.577802 -0.108067 9.09034 -0.533717 -0.346081 9.0081 
-0.422514 -0.147008 8.67095 -0.533717 -0.346081 9.0081 -0.38901 -0.379734 8.77678 
-0.225113 -0.451665 8.6323 -0.352382 -0.557753 8.91195 -0.140543 -0.669827 8.88489 
-0.0338038 -0.455697 8.53606 -0.140543 -0.669827 8.88489 0.083232 -0.703148 8.91934 
0.335559 0.117578 8.48368 0.422514 -0.00309876 8.70549 0.38901 0.156212 8.90545 
0.217337 0.272118 8.46582 0.38901 0.156212 8.90545 0.225113 0.285896 8.80938 
-0.109011 0.324221 8.57503 0.0338038 0.333181 8.72546 -0.13658 0.328321 8.89799 
-0.109011 0.324221 8.57503 -0.13658 0.328321 8.89799 -0.289047 0.25928 8.94005 
-0.291225 0.213289 8.63536 -0.289047 0.25928 8.94005 -0.457084 0.122441 9.04126 
-0.335559 -0.153829 8.41852 -0.422514 -0.147008 8.67095 -0.38901 -0.379734 8.77678 
-0.217337 -0.283417 8.33245 -0.38901 -0.379734 8.77678 -0.225113 -0.451665 8.6323 
0.109011 -0.379423 8.4061 -0.0338038 -0.455697 8.53606 0.13658 -0.529695 8.692 
0.109011 -0.379423 8.4061 0.13658 -0.529695 8.692 0.289047 -0.487276 8.76082 
0.291225 -0.307969 8.51021 0.289047 -0.487276 8.76082 0.457084 -0.4113 8.91312 
0.342425 0.0230723 8.33634 0.408907 -0.205382 8.66933 0.422514 -0.00309876 8.70549 
-0.310583 0.152647 8.35236 -0.291225 0.213289 8.63536 -0.408907 0.049646 8.73056 
-0.342425 -0.00273502 8.33015 -0.408907 0.049646 8.73056 -0.422514 -0.147008 8.67095 
0.310583 -0.125458 8.28559 0.291225 -0.307969 8.51021 0.408907 -0.205382 8.66933 
0.072203 0.353607 8.22586 0.217337 0.272118 8.46582 0.0338038 0.333181 8.72546 
0.072203 0.353607 8.22586 0.0338038 0.333181 8.72546 -0.109011 0.324221 8.57503 
-0.072203 -0.247086 8.08165 -0.217337 -0.283417 8.33245 -0.0338038 -0.455697 8.53606 
-0.072203 -0.247086 8.08165 -0.0338038 -0.455697 8.53606 0.109011 -0.379423 8.4061 
0.287987 0.203609 8.09328 0.342425 0.0230723 8.33634 0.335559 0.117578 8.48368 
0.287987 0.203609 8.09328 0.335559 0.117578 8.48368 0.217337 0.272118 8.46582 
-0.254711 0.251793 8.07677 -0.193454 0.291558 8.30988 -0.310583 0.152647 8.35236 
-0.306694 0.129097 8.05115 -0.310583 0.152647 8.35236 -0.342425 -0.00273502 8.33015 
-0.287987 -0.0532481 8.03162 -0.342425 -0.00273502 8.33015 -0.335559 -0.153829 8.41852 
-0.287987 -0.0532481 8.03162 -0.335559 -0.153829 8.41852 -0.217337 -0.283417 8.33245 
0.254711 -0.0886816 7.99503 0.193454 -0.229941 8.18467 0.310583 -0.125458 8.28559 
0.306694 0.0322696 8.02791 0.310583 -0.125458 8.28559 0.342425 0.0230723 8.33634 
0.300117 0.14744 7.86017 0.306694 0.0322696 8.02791 0.287987 0.203609 8.09328 
0.287987 0.203609 8.09328 0.216877 0.327992 7.90352 0.231483 0.312178 7.89977 
0.216877 0.327992 7.90352 0.287987 0.203609 8.09328 0.182371 0.32381 8.09578 
0.145683 0.380904 7.91794 0.182371 0.32381 8.09578 0.072203 0.353607 8.22586 
0.0449797 0.417661 7.91263 0.072203 0.353607 8.22586 -0.0508787 0.356563 8.23867 
-0.0508787 0.356563 8.23867 -0.0115291 0.417504 7.92501 0.00845798 0.418428 7.92204 
-0.0906628 0.399263 7.94301 -0.0508787 0.356563 8.23867 -0.193454 0.291558 8.30988 
-0.193454 0.291558 8.30988 -0.12313 0.39211 7.91891 -0.0906628 0.399263 7.94301 
-0.198638 0.345238 7.90708 -0.193454 0.291558 8.30988 -0.254711 0.251793 8.07677 
-0.265218 0.273107 7.85124 -0.254711 0.251793 8.07677 -0.306694 0.129097 8.05115 
-0.306694 0.129097 8.05115 -0.286972 0.213344 7.87599 -0.280474 0.232203 7.87776 
-0.300117 0.102631 7.84941 -0.306694 0.129097 8.05115 -0.287987 -0.0532481 8.03162 
-0.287987 -0.0532481 8.03162 -0.216877 -0.0779205 7.80606 -0.231483 -0.0621303 7.80991 
-0.216877 -0.0779205 7.80606 -0.287987 -0.0532481 8.03162 -0.182371 -0.161479 7.97927 
-0.145683 -0.131617 7.7949 -0.182371 -0.161479 7.97927 -0.072203 -0.247086 8.08165 
-0.0449797 -0.161953 7.77347 -0.072203 -0.247086 8.08165 0.0508787 -0.255536 8.09172 
0.0508787 -0.255536 8.09172 0.0115291 -0.167433 7.78457 -0.00845798 -0.16691 7.78151 
0.0906628 -0.159353 7.8089 0.0508787 -0.255536 8.09172 0.193454 -0.229941 8.18467 
0.193454 -0.229941 8.18467 0.12313 -0.142039 7.79067 0.0906628 -0.159353 7.8089 
0.198638 -0.0949047 7.80141 0.193454 -0.229941 8.18467 0.254711 -0.0886816 7.99503 
0.265218 -0.00528645 7.78441 0.254711 -0.0886816 7.99503 0.306694 0.0322696 8.02791 
0.306694 0.0322696 8.02791 0.286972 0.0367271 7.83359 0.280474 0.0191214 7.8266 
0.306694 0.0322696 8.02791 0.301002 0.121582 7.81896 0.297307 0.0776001 7.84783 
0.297307 0.0776001 7.84783 0.293082 0.0583468 7.83878 0.306694 0.0322696 8.02791 
0.306694 0.0322696 8.02791 0.293082 0.0583468 7.83878 0.286972 0.0367271 7.83359 
0.306694 0.0322696 8.02791 0.280474 0.0191214 7.8266 0.265218 -0.00528645 7.78441 
0.254711 -0.0886816 7.99503 0.265218 -0.00528645 7.78441 0.246197 -0.0433505 7.81436 
0.254711 -0.0886816 7.99503 0.246197 -0.0433505 7.81436 0.231792 -0.0623522 7.81238 
0.231792 -0.0623522 7.81238 0.216877 -0.0779205 7.80606 0.254711 -0.0886816 7.99503 
0.254711 -0.0886816 7.99503 0.216877 -0.0779205 7.80606 0.198638 -0.0949047 7.80141 
0.198638 -0.0949047 7.80141 0.182474 -0.107733 7.79891 0.193454 -0.229941 8.18467 
0.193454 -0.229941 8.18467 0.182474 -0.107733 7.79891 0.155215 -0.122203 7.77757 
0.193454 -0.229941 8.18467 0.155215 -0.122203 7.77757 0.12313 -0.142039 7.79067 
0.0508787 -0.255536 8.09172 0.0906628 -0.159353 7.8089 0.0558809 -0.16483 7.79476 
0.0558809 -0.16483 7.79476 0.0345197 -0.165717 7.78499 0.0508787 -0.255536 8.09172 
0.0508787 -0.255536 8.09172 0.0345197 -0.165717 7.78499 0.0115291 -0.167433 7.78457 
0.0508787 -0.255536 8.09172 -0.00845798 -0.16691 7.78151 -0.0449797 -0.161953 7.77347 
-0.072203 -0.247086 8.08165 -0.0449797 -0.161953 7.77347 -0.0797594 -0.157185 7.78703 
-0.072203 -0.247086 8.08165 -0.0797594 -0.157185 7.78703 -0.102095 -0.150678 7.79014 
-0.102095 -0.150678 7.79014 -0.12313 -0.142039 7.79067 -0.072203 -0.247086 8.08165 
-0.072203 -0.247086 8.08165 -0.12313 -0.142039 7.79067 -0.145683 -0.131617 7.7949 
-0.145683 -0.131617 7.7949 -0.163614 -0.120633 7.79581 -0.182371 -0.161479 7.97927 
-0.182371 -0.161479 7.97927 -0.163614 -0.120633 7.79581 -0.190527 -0.0947162 7.76929 
-0.182371 -0.161479 7.97927 -0.190527 -0.0947162 7.76929 -0.216877 -0.0779205 7.80606 
-0.287987 -0.0532481 8.03162 -0.231483 -0.0621303 7.80991 -0.246197 -0.0433505 7.81436 
-0.287987 -0.0532481 8.03162 -0.246197 -0.0433505 7.81436 -0.259365 -0.0243398 7.822 
-0.259365 -0.0243398 7.822 -0.269746 -0.00483371 7.82361 -0.287987 -0.0532481 8.03162 
-0.287987 -0.0532481 8.03162 -0.269746 -0.00483371 7.82361 -0.280176 0.0170483 7.83185 
-0.280176 0.0170483 7.83185 -0.286972 0.0367271 7.83359 -0.287987 -0.0532481 8.03162 
-0.287987 -0.0532481 8.03162 -0.286972 0.0367271 7.83359 -0.295717 0.0764373 7.80678 
-0.287987 -0.0532481 8.03162 -0.295717 0.0764373 7.80678 -0.300117 0.102631 7.84941 
-0.306694 0.129097 8.05115 -0.300117 0.102631 7.84941 -0.301002 0.14438 7.82443 
-0.306694 0.129097 8.05115 -0.301002 0.14438 7.82443 -0.297307 0.170461 7.87012 
-0.297307 0.170461 7.87012 -0.293082 0.191725 7.8708 -0.306694 0.129097 8.05115 
-0.306694 0.129097 8.05115 -0.293082 0.191725 7.8708 -0.286972 0.213344 7.87599 
-0.306694 0.129097 8.05115 -0.280474 0.232203 7.87776 -0.265218 0.273107 7.85124 
-0.254711 0.251793 8.07677 -0.265218 0.273107 7.85124 -0.246197 0.293422 7.89522 
-0.254711 0.251793 8.07677 -0.246197 0.293422 7.89522 -0.231792 0.311255 7.90207 
-0.231792 0.311255 7.90207 -0.216877 0.327992 7.90352 -0.254711 0.251793 8.07677 
-0.254711 0.251793 8.07677 -0.216877 0.327992 7.90352 -0.198638 0.345238 7.90708 
-0.198638 0.345238 7.90708 -0.182474 0.357805 7.91067 -0.193454 0.291558 8.30988 
-0.193454 0.291558 8.30988 -0.182474 0.357805 7.91067 -0.155215 0.380383 7.89823 
-0.193454 0.291558 8.30988 -0.155215 0.380383 7.89823 -0.12313 0.39211 7.91891 
-0.0508787 0.356563 8.23867 -0.0906628 0.399263 7.94301 -0.0558809 0.410561 7.9329 
-0.0558809 0.410561 7.9329 -0.0345197 0.415788 7.92459 -0.0508787 0.356563 8.23867 
-0.0508787 0.356563 8.23867 -0.0345197 0.415788 7.92459 -0.0115291 0.417504 7.92501 
-0.0508787 0.356563 8.23867 0.00845798 0.418428 7.92204 0.0449797 0.417661 7.91263 
0.072203 0.353607 8.22586 0.0449797 0.417661 7.91263 0.0797594 0.407257 7.92254 
0.072203 0.353607 8.22586 0.0797594 0.407257 7.92254 0.102095 0.400047 7.92236 
0.102095 0.400047 7.92236 0.12313 0.39211 7.91891 0.072203 0.353607 8.22586 
0.072203 0.353607 8.22586 0.12313 0.39211 7.91891 0.145683 0.380904 7.91794 
0.145683 0.380904 7.91794 0.163614 0.370704 7.91377 0.182371 0.32381 8.09578 
0.182371 0.32381 8.09578 0.163614 0.370704 7.91377 0.190527 0.359653 7.87837 
0.182371 0.32381 8.09578 0.190527 0.359653 7.87837 0.216877 0.327992 7.90352 
0.287987 0.203609 8.09328 0.231483 0.312178 7.89977 0.246197 0.293422 7.89522 
0.287987 0.203609 8.09328 0.246197 0.293422 7.89522 0.259365 0.273016 7.89339 
0.259365 0.273016 7.89339 0.269746 0.254905 7.88597 0.287987 0.203609 8.09328 
0.287987 0.203609 8.09328 0.269746 0.254905 7.88597 0.280176 0.231668 7.88338 
0.280176 0.231668 7.88338 0.286972 0.213344 7.87599 0.287987 0.203609 8.09328 
0.287987 0.203609 8.09328 0.286972 0.213344 7.87599 0.295717 0.190134 7.83407 
0.287987 0.203609 8.09328 0.295717 0.190134 7.83407 0.300117 0.14744 7.86017 
0.306694 0.0322696 8.02791 0.300117 0.14744 7.86017 0.301002 0.121582 7.81896 
0.310583 -0.125458 8.28559 0.306694 0.0322696 8.02791 0.254711 -0.0886816 7.99503 
-0.217337 -0.283417 8.33245 -0.072203 -0.247086 8.08165 -0.182371 -0.161479 7.97927 
-0.217337 -0.283417 8.33245 -0.182371 -0.161479 7.97927 -0.287987 -0.0532481 8.03162 
-0.342425 -0.00273502 8.33015 -0.287987 -0.0532481 8.03162 -0.306694 0.129097 8.05115 
-0.310583 0.152647 8.35236 -0.306694 0.129097 8.05115 -0.254711 0.251793 8.07677 
0.217337 0.272118 8.46582 0.072203 0.353607 8.22586 0.182371 0.32381 8.09578 
0.217337 0.272118 8.46582 0.182371 0.32381 8.09578 0.287987 0.203609 8.09328 
0.342425 0.0230723 8.33634 0.287987 0.203609 8.09328 0.306694 0.0322696 8.02791 
0.109011 -0.379423 8.4061 0.193454 -0.229941 8.18467 0.0508787 -0.255536 8.09172 
0.109011 -0.379423 8.4061 0.0508787 -0.255536 8.09172 -0.072203 -0.247086 8.08165 
-0.109011 0.324221 8.57503 -0.193454 0.291558 8.30988 -0.0508787 0.356563 8.23867 
-0.109011 0.324221 8.57503 -0.0508787 0.356563 8.23867 0.072203 0.353607 8.22586 
0.408907 -0.205382 8.66933 0.342425 0.0230723 8.33634 0.310583 -0.125458 8.28559 
0.291225 -0.307969 8.51021 0.310583 -0.125458 8.28559 0.193454 -0.229941 8.18467 
0.291225 -0.307969 8.51021 0.193454 -0.229941 8.18467 0.109011 -0.379423 8.4061 
-0.225113 -0.451665 8.6323 -0.0338038 -0.455697 8.53606 -0.217337 -0.283417 8.33245 
-0.422514 -0.147008 8.67095 -0.335559 -0.153829 8.41852 -0.342425 -0.00273502 8.33015 
-0.408907 0.049646 8.73056 -0.342425 -0.00273502 8.33015 -0.310583 0.152647 8.35236 
-0.291225 0.213289 8.63536 -0.310583 0.152647 8.35236 -0.193454 0.291558 8.30988 
-0.291225 0.213289 8.63536 -0.193454 0.291558 8.30988 -0.109011 0.324221 8.57503 
0.225113 0.285896 8.80938 0.0338038 0.333181 8.72546 0.217337 0.272118 8.46582 
0.422514 -0.00309876 8.70549 0.335559 0.117578 8.48368 0.342425 0.0230723 8.33634 
0.457084 -0.4113 8.91312 0.408907 -0.205382 8.66933 0.291225 -0.307969 8.51021 
0.289047 -0.487276 8.76082 0.291225 -0.307969 8.51021 0.109011 -0.379423 8.4061 
-0.38901 -0.379734 8.77678 -0.217337 -0.283417 8.33245 -0.335559 -0.153829 8.41852 
-0.457084 0.122441 9.04126 -0.408907 0.049646 8.73056 -0.291225 0.213289 8.63536 
-0.289047 0.25928 8.94005 -0.291225 0.213289 8.63536 -0.109011 0.324221 8.57503 
0.38901 0.156212 8.90545 0.217337 0.272118 8.46582 0.335559 0.117578 8.48368 
0.577802 -0.228197 9.0615 0.422514 -0.00309876 8.70549 0.408907 -0.205382 8.66933 
0.083232 -0.703148 8.91934 0.13658 -0.529695 8.692 -0.0338038 -0.455697 8.53606 
-0.140543 -0.669827 8.88489 -0.0338038 -0.455697 8.53606 -0.225113 -0.451665 8.6323 
-0.352382 -0.557753 8.91195 -0.225113 -0.451665 8.6323 -0.38901 -0.379734 8.77678 
-0.577802 -0.108067 9.09034 -0.422514 -0.147008 8.67095 -0.408907 0.049646 8.73056 
-0.083232 0.379657 9.1793 -0.13658 0.328321 8.89799 0.0338038 0.333181 8.72546 
0.140543 0.365609 9.13347 0.0338038 0.333181 8.72546 0.225113 0.285896 8.80938 
0.352382 0.253466 9.1067 0.225113 0.285896 8.80938 0.38901 0.156212 8.90545 
0.577802 -0.228197 9.0615 0.408907 -0.205382 8.66933 0.457084 -0.4113 8.91312 
0.421764 -0.655948 9.07567 0.457084 -0.4113 8.91312 0.289047 -0.487276 8.76082 
0.421764 -0.655948 9.07567 0.289047 -0.487276 8.76082 0.13658 -0.529695 8.692 
-0.572251 -0.611349 9.21362 -0.352382 -0.557753 8.91195 -0.38901 -0.379734 8.77678 
-0.572251 -0.611349 9.21362 -0.38901 -0.379734 8.77678 -0.533717 -0.346081 9.0081 
-0.577802 -0.108067 9.09034 -0.408907 0.049646 8.73056 -0.457084 0.122441 9.04126 
-0.421764 0.266628 9.29716 -0.457084 0.122441 9.04126 -0.289047 0.25928 8.94005 
-0.421764 0.266628 9.29716 -0.289047 0.25928 8.94005 -0.13658 0.328321 8.89799 
0.572251 0.164265 9.39983 0.352382 0.253466 9.1067 0.38901 0.156212 8.90545 
0.572251 0.164265 9.39983 0.38901 0.156212 8.90545 0.533717 0.0212106 9.09628 
0.702439 -0.392406 9.30068 0.577802 -0.228197 9.0615 0.457084 -0.4113 8.91312 
0.613944 -0.609167 9.25813 0.457084 -0.4113 8.91312 0.421764 -0.655948 9.07567 
-0.00746746 -0.932392 9.16926 0.083232 -0.703148 8.91934 -0.140543 -0.669827 8.88489 
-0.277071 -0.881779 9.18832 -0.140543 -0.669827 8.88489 -0.352382 -0.557753 8.91195 
-0.455145 -0.750154 9.19206 -0.352382 -0.557753 8.91195 -0.572251 -0.611349 9.21362 
-0.708694 -0.540806 9.35246 -0.572251 -0.611349 9.21362 -0.533717 -0.346081 9.0081 
-0.717215 -0.318809 9.32158 -0.533717 -0.346081 9.0081 -0.577802 -0.108067 9.09034 
-0.702439 -0.070343 9.378 -0.577802 -0.108067 9.09034 -0.457084 0.122441 9.04126 
-0.613944 0.142113 9.43849 -0.457084 0.122441 9.04126 -0.421764 0.266628 9.29716 
0.00587748 0.469519 9.50441 -0.083232 0.379657 9.1793 0.140543 0.365609 9.13347 
0.277071 0.416702 9.50006 0.140543 0.365609 9.13347 0.352382 0.253466 9.1067 
0.455145 0.297727 9.44363 0.352382 0.253466 9.1067 0.572251 0.164265 9.39983 
0.708694 0.0383787 9.49151 0.572251 0.164265 9.39983 0.533717 0.0212106 9.09628 
0.717215 -0.145403 9.36321 0.533717 0.0212106 9.09628 0.577802 -0.228197 9.0615 
0.558352 -0.985229 9.44355 0.421764 -0.655948 9.07567 0.289338 -0.755359 9.07189 
0.303439 -0.997607 9.30611 0.289338 -0.755359 9.07189 0.083232 -0.703148 8.91934 
-0.562689 0.397915 9.7896 -0.421764 0.266628 9.29716 -0.289338 0.356922 9.33892 
-0.303439 0.46643 9.6576 -0.289338 0.356922 9.33892 -0.083232 0.379657 9.1793 
0.925351 -0.361791 9.62578 0.717215 -0.145403 9.36321 0.702439 -0.392406 9.30068 
0.886552 -0.583276 9.57928 0.702439 -0.392406 9.30068 0.613944 -0.609167 9.25813 
0.764084 -0.817046 9.51584 0.613944 -0.609167 9.25813 0.558352 -0.985229 9.44355 
0.134869 -1.20781 9.43255 0.303439 -0.997607 9.30611 -0.00746746 -0.932392 9.16926 
-0.099468 -1.20386 9.42691 -0.00746746 -0.932392 9.16926 -0.277071 -0.881779 9.18832 
-0.371856 -1.07237 9.39041 -0.277071 -0.881779 9.18832 -0.455145 -0.750154 9.19206 
-0.649845 -0.940821 9.48274 -0.455145 -0.750154 9.19206 -0.572251 -0.611349 9.21362 
-0.786328 -0.776476 9.52578 -0.572251 -0.611349 9.21362 -0.708694 -0.540806 9.35246 
-0.925351 -0.245213 9.65377 -0.717215 -0.318809 9.32158 -0.702439 -0.070343 9.378 
-0.886552 -0.0267559 9.71289 -0.702439 -0.070343 9.378 -0.613944 0.142113 9.43849 
-0.773604 0.205393 9.77084 -0.613944 0.142113 9.43849 -0.562689 0.397915 9.7896 
-0.134872 0.596319 9.86569 -0.303439 0.46643 9.6576 0.00587748 0.469519 9.50441 
0.167782 0.585914 9.85008 0.00587748 0.469519 9.50441 0.277071 0.416702 9.50006 
0.417097 0.463172 9.75151 0.277071 0.416702 9.50006 0.455145 0.297727 9.44363 
0.649845 0.335646 9.7892 0.455145 0.297727 9.44363 0.572251 0.164265 9.39983 
0.786328 0.169676 9.75293 0.572251 0.164265 9.39983 0.708694 0.0383787 9.49151 
0.407972 -1.20338 9.50562 0.303439 -0.997607 9.30611 0.134869 -1.20781 9.43255 
-0.611877 -1.18924 9.59587 -0.371856 -1.07237 9.39041 -0.649845 -0.940821 9.48274 
-0.991304 -0.687286 9.70555 -0.708694 -0.540806 9.35246 -0.866884 -0.415763 9.54021 
-1.10998 -0.535281 9.82076 -0.866884 -0.415763 9.54021 -0.925351 -0.245213 9.65377 
-0.407972 0.559201 9.92878 -0.303439 0.46643 9.6576 -0.134872 0.596319 9.86569 
0.522003 0.562891 10.0103 0.167782 0.585914 9.85008 0.417097 0.463172 9.75151 
0.522003 0.562891 10.0103 0.417097 0.463172 9.75151 0.649845 0.335646 9.7892 
0.991304 0.00859322 9.87261 0.708694 0.0383787 9.49151 0.967778 -0.175621 9.73989 
1.20615 -0.486283 9.91921 0.925351 -0.361791 9.62578 0.886552 -0.583276 9.57928 
1.1164 -0.763109 9.8307 0.886552 -0.583276 9.57928 0.764084 -0.817046 9.51584 
0.748115 -1.27744 9.71115 0.764084 -0.817046 9.51584 0.558352 -0.985229 9.44355 
0.748115 -1.27744 9.71115 0.558352 -0.985229 9.44355 0.407972 -1.20338 9.50562 
0.266757 -1.49486 9.65164 0.407972 -1.20338 9.50562 0.134869 -1.20781 9.43255 
-0.0420285 -1.50698 9.63755 0.134869 -1.20781 9.43255 -0.099468 -1.20386 9.42691 
-0.345478 -1.42049 9.62267 -0.099468 -1.20386 9.42691 -0.371856 -1.07237 9.39041 
-0.886414 -1.15242 9.74134 -0.611877 -1.18924 9.59587 -0.649845 -0.940821 9.48274 
-0.886414 -1.15242 9.74134 -0.649845 -0.940821 9.48274 -0.786328 -0.776476 9.52578 
-1.13894 -0.943162 9.87583 -0.786328 -0.776476 9.52578 -0.991304 -0.687286 9.70555 
-1.21905 -0.248999 9.99175 -0.925351 -0.245213 9.65377 -0.886552 -0.0267559 9.71289 
-1.13525 0.124877 10.1089 -0.886552 -0.0267559 9.71289 -0.773604 0.205393 9.77084 
-0.90044 0.381944 10.1044 -0.773604 0.205393 9.77084 -0.562689 0.397915 9.7896 
-0.687791 0.573336 10.1575 -0.562689 0.397915 9.7896 -0.407972 0.559201 9.92878 
-0.442499 0.705895 10.189 -0.407972 0.559201 9.92878 -0.134872 0.596319 9.86569 
0.0416995 0.770126 10.1847 -0.134872 0.596319 9.86569 0.167782 0.585914 9.85008 
0.276886 0.736722 10.1728 0.167782 0.585914 9.85008 0.522003 0.562891 10.0103 
0.880799 0.405235 10.11 0.522003 0.562891 10.0103 0.649845 0.335646 9.7892 
0.880799 0.405235 10.11 0.649845 0.335646 9.7892 0.786328 0.169676 9.75293 
1.05232 0.161065 10.0524 0.786328 0.169676 9.75293 0.991304 0.00859322 9.87261 
-0.548432 -1.57886 9.76978 -0.345478 -1.42049 9.62267 -0.611877 -1.18924 9.59587 
-0.783375 -1.46824 9.81131 -0.611877 -1.18924 9.59587 -0.886414 -1.15242 9.74134 
-1.27698 -0.758723 9.97033 -0.991304 -0.687286 9.70555 -1.10998 -0.535281 9.82076 
0.782863 0.652283 10.3162 0.522003 0.562891 10.0103 0.880799 0.405235 10.11 
1.22249 -0.125633 10.0417 0.991304 0.00859322 9.87261 0.967778 -0.175621 9.73989 
1.22249 -0.125633 10.0417 0.967778 -0.175621 9.73989 1.20615 -0.486283 9.91921 
1.33857 -1.00468 10.0191 1.1164 -0.763109 9.8307 0.987285 -1.02229 9.77085 
1.1278 -1.33331 9.94367 0.987285 -1.02229 9.77085 0.748115 -1.27744 9.71115 
0.83337 -1.59531 9.87547 0.748115 -1.27744 9.71115 0.538275 -1.41709 9.6872 
0.425414 -1.70695 9.79328 0.538275 -1.41709 9.6872 0.266757 -1.49486 9.65164 
0.0649912 -1.77065 9.77981 0.266757 -1.49486 9.65164 -0.0420285 -1.50698 9.63755 
-0.26671 -1.7469 9.78332 -0.0420285 -1.50698 9.63755 -0.345478 -1.42049 9.62267 
-0.26671 -1.7469 9.78332 -0.345478 -1.42049 9.62267 -0.548432 -1.57886 9.76978 
-1.05623 -1.30632 9.89124 -0.886414 -1.15242 9.74134 -1.13894 -0.943162 9.87583 
-1.46371 -0.498953 10.1432 -1.10998 -0.535281 9.82076 -1.21905 -0.248999 9.99175 
-0.855728 0.732703 10.442 -0.90044 0.381944 10.1044 -0.687791 0.573336 10.1575 
-0.855728 0.732703 10.442 -0.687791 0.573336 10.1575 -0.442499 0.705895 10.189 
-0.47629 0.921445 10.485 -0.442499 0.705895 10.189 -0.187331 0.762565 10.1933 
-0.0510425 0.989544 10.4971 -0.187331 0.762565 10.1933 0.0416995 0.770126 10.1847 
0.267858 0.920603 10.4274 0.0416995 0.770126 10.1847 0.276886 0.736722 10.1728 
0.267858 0.920603 10.4274 0.276886 0.736722 10.1728 0.548432 0.773833 10.3346 
1.11541 0.482983 10.3716 0.880799 0.405235 10.11 1.05232 0.161065 10.0524 
1.34656 0.204986 10.3418 1.05232 0.161065 10.0524 1.22249 -0.125633 10.0417 
1.45933 -0.381329 10.1676 1.22249 -0.125633 10.0417 1.20615 -0.486283 9.91921 
1.58345 -0.755354 10.196 1.20615 -0.486283 9.91921 1.33857 -1.00468 10.0191 
0.298817 -2.00263 9.89887 0.425414 -1.70695 9.79328 0.0649912 -1.77065 9.77981 
-0.118773 -2.0253 9.89166 0.0649912 -1.77065 9.77981 -0.26671 -1.7469 9.78332 
-0.489035 -1.94199 9.90718 -0.26671 -1.7469 9.78332 -0.548432 -1.57886 9.76978 
-0.755903 -1.83639 9.9338 -0.548432 -1.57886 9.76978 -0.783375 -1.46824 9.81131 
-1.06242 -1.64312 9.98437 -0.783375 -1.46824 9.81131 -1.05623 -1.30632 9.89124 
-1.28718 -1.40908 10.0415 -1.05623 -1.30632 9.89124 -1.13894 -0.943162 9.87583 
-1.46091 -1.15299 10.1067 -1.13894 -0.943162 9.87583 -1.27698 -0.758723 9.97033 
-1.55994 -0.866247 10.1702 -1.27698 -0.758723 9.97033 -1.46371 -0.498953 10.1432 
-1.58467 -0.154199 10.341 -1.21905 -0.248999 9.99175 -1.13525 0.124877 10.1089 
-1.46823 0.210243 10.4262 -1.13525 0.124877 10.1089 -1.13746 0.477047 10.3854 
0.328316 1.10177 10.6516 0.267858 0.920603 10.4274 0.548432 0.773833 10.3346 
0.747948 0.926077 10.5914 0.548432 0.773833 10.3346 0.782863 0.652283 10.3162 
1.06301 0.737864 10.5579 0.782863 0.652283 10.3162 1.11541 0.482983 10.3716 
1.77667 -0.549171 10.3529 1.45933 -0.381329 10.1676 1.58345 -0.755354 10.196 
1.43103 -1.50227 10.1231 1.33857 -1.00468 10.0191 1.1278 -1.33331 9.94367 
1.20406 -1.75742 10.0657 1.1278 -1.33331 9.94367 0.83337 -1.59531 9.87547 
0.917228 -1.96629 10.0132 0.83337 -1.59531 9.87547 0.617445 -1.93549 9.93009 
-1.77358 -0.550039 10.3456 -1.46371 -0.498953 10.1432 -1.58467 -0.154199 10.341 
-1.24302 0.755947 10.6654 -1.13746 0.477047 10.3854 -0.855728 0.732703 10.442 
-0.978754 0.971406 10.7219 -0.855728 0.732703 10.442 -0.47629 0.921445 10.485 
-0.429014 1.21616 10.7886 -0.47629 0.921445 10.485 -0.0510425 0.989544 10.4971 
-0.0999485 1.25753 10.7921 -0.0510425 0.989544 10.4971 0.328316 1.10177 10.6516 
1.4756 0.500988 10.6095 1.11541 0.482983 10.3716 1.34656 0.204986 10.3418 
1.70876 0.0529192 10.5057 1.42014 -0.0512489 10.2597 1.45933 -0.381329 10.1676 
1.88857 -0.902651 10.3563 1.58345 -0.755354 10.196 1.64073 -1.12735 10.2081 
0.562757 -2.21485 9.99869 0.617445 -1.93549 9.93009 0.298817 -2.00263 9.89887 
0.238081 -2.3344 9.99925 0.298817 -2.00263 9.89887 -0.118773 -2.0253 9.89166 
-0.318243 -2.32288 10.002 -0.118773 -2.0253 9.89166 -0.489035 -1.94199 9.90718 
-0.609714 -2.27363 10.0231 -0.489035 -1.94199 9.90718 -0.755903 -1.83639 9.9338 
-1.06601 -1.9833 10.0586 -0.755903 -1.83639 9.9338 -1.06242 -1.64312 9.98437 
-1.37877 -1.78431 10.1343 -1.06242 -1.64312 9.98437 -1.28718 -1.40908 10.0415 
-1.56332 -1.56801 10.1867 -1.28718 -1.40908 10.0415 -1.46091 -1.15299 10.1067 
-1.69691 -1.23993 10.2343 -1.46091 -1.15299 10.1067 -1.55994 -0.866247 10.1702 
-1.84836 -0.957725 10.3309 -1.55994 -0.866247 10.1702 -1.77358 -0.550039 10.3456 
-1.82182 -0.108459 10.5056 -1.58467 -0.154199 10.341 -1.46823 0.210243 10.4262 
-1.68819 0.289275 10.6027 -1.46823 0.210243 10.4262 -1.45401 0.556574 10.634 
0.227119 1.36091 10.8957 -0.0999485 1.25753 10.7921 0.328316 1.10177 10.6516 
0.563004 1.24005 10.8298 0.328316 1.10177 10.6516 0.747948 0.926077 10.5914 
0.920206 1.08622 10.7915 0.747948 0.926077 10.5914 1.06301 0.737864 10.5579 
1.27359 0.826874 10.7258 1.06301 0.737864 10.5579 1.4756 0.500988 10.6095 
2.00971 -0.801018 10.428 2.02728 -0.656572 10.4631 1.77667 -0.549171 10.3529 
1.89174 -1.22168 10.3253 1.93999 -1.0866 10.3578 1.64073 -1.12735 10.2081 
1.83384 -1.36431 10.2933 1.89174 -1.22168 10.3253 1.64073 -1.12735 10.2081 
1.75737 -1.48294 10.26 1.83384 -1.36431 10.2933 1.64073 -1.12735 10.2081 
1.68175 -1.60485 10.2313 1.75737 -1.48294 10.26 1.43103 -1.50227 10.1231 
1.57828 -1.74841 10.1994 1.68175 -1.60485 10.2313 1.43103 -1.50227 10.1231 
0.394992 -2.44808 10.0327 0.541312 -2.41514 10.041 0.562757 -2.21485 9.99869 
-0.0535005 -2.48236 10.0232 0.095385 -2.48578 10.0246 -0.000761073 -2.30549 9.97948 
-0.209214 -2.46785 10.0246 -0.0535005 -2.48236 10.0232 -0.000761073 -2.30549 9.97948 
-1.56332 -1.56801 10.1867 -1.69691 -1.23993 10.2343 -1.74355 -1.52284 10.2544 
-1.81761 -1.39587 10.2858 -1.74355 -1.52284 10.2544 -1.69691 -1.23993 10.2343 
-1.88088 -1.26324 10.3181 -1.81761 -1.39587 10.2858 -1.69691 -1.23993 10.2343 
-1.92961 -1.12475 10.3496 -1.88088 -1.26324 10.3181 -1.69691 -1.23993 10.2343 
-2.01495 -0.692831 10.4498 -2.00026 -0.848697 10.4157 -1.77358 -0.550039 10.3456 
-2.02106 -0.467322 10.5025 -2.01495 -0.692831 10.4498 -1.77358 -0.550039 10.3456 
-1.97367 -0.208788 10.553 -2.02106 -0.467322 10.5025 -1.77358 -0.550039 10.3456 
-1.47069 0.855545 10.8263 -1.56928 0.744936 10.7989 -1.24302 0.755947 10.6654 
-1.36358 0.957905 10.8512 -1.47069 0.855545 10.8263 -1.24302 0.755947 10.6654 
-1.24612 1.05059 10.8722 -1.36358 0.957905 10.8512 -1.24302 0.755947 10.6654 
-1.12457 1.13462 10.8919 -1.24612 1.05059 10.8722 -0.978754 0.971406 10.7219 
-0.99791 1.20382 10.9055 -1.12457 1.13462 10.8919 -0.978754 0.971406 10.7219 
-0.834181 1.27728 10.9192 -0.99791 1.20382 10.9055 -0.667326 1.11494 10.7458 
0.563004 1.24005 10.8298 0.920206 1.08622 10.7915 0.825732 1.29709 10.9324 
0.959018 1.23189 10.9158 0.825732 1.29709 10.9324 0.920206 1.08622 10.7915 
1.09116 1.15727 10.8981 0.959018 1.23189 10.9158 0.920206 1.08622 10.7915 
1.21236 1.07134 10.8753 1.09116 1.15727 10.8981 0.920206 1.08622 10.7915 
1.32553 0.982605 10.8539 1.21236 1.07134 10.8753 1.27359 0.826874 10.7258 
1.43917 0.876707 10.8273 1.32553 0.982605 10.8539 1.27359 0.826874 10.7258 
1.53859 0.719127 10.7715 1.43917 0.876707 10.8273 1.27359 0.826874 10.7258 
4.57933 -0.584495 11.704 2.02725 -0.362753 10.5337 2.03315 -0.509684 10.4986 
2.03315 -0.509684 10.4986 4.58408 -0.787373 11.6552 4.57933 -0.584495 11.704 
4.56651 -0.409838 11.745 4.53998 -0.164656 11.805 2.0097 -0.218058 10.5679 
2.0097 -0.218058 10.5679 2.02725 -0.362753 10.5337 4.56651 -0.409838 11.745 
4.50827 0.0199391 11.8491 4.47099 0.19852 11.8919 1.98348 -0.0719593 10.6039 
2.0097 -0.218058 10.5679 4.53998 -0.164656 11.805 4.50827 0.0199391 11.8491 
1.98348 -0.0719593 10.6039 2.0097 -0.218058 10.5679 4.50827 0.0199391 11.8491 
4.40675 0.441547 11.9501 1.94186 0.0693554 10.6364 1.98348 -0.0719593 10.6039 
1.98348 -0.0719593 10.6039 4.47099 0.19852 11.8919 4.40675 0.441547 11.9501 
4.40675 0.441547 11.9501 4.35323 0.609334 11.9906 1.94186 0.0693554 10.6364 
4.35323 0.609334 11.9906 4.28596 0.79422 12.0349 1.89173 0.203368 10.6674 
1.89173 0.203368 10.6674 1.94186 0.0693554 10.6364 4.35323 0.609334 11.9906 
4.28596 0.79422 12.0349 4.20457 0.98847 12.0816 1.89173 0.203368 10.6674 
4.20457 0.98847 12.0816 4.12941 1.14907 12.1201 1.82544 0.34223 10.6986 
1.82544 0.34223 10.6986 1.89173 0.203368 10.6674 4.20457 0.98847 12.0816 
4.01634 1.36182 12.1712 1.75207 0.463529 10.7244 1.82544 0.34223 10.6986 
1.82544 0.34223 10.6986 4.12941 1.14907 12.1201 4.01634 1.36182 12.1712 
4.01634 1.36182 12.1712 3.91673 1.52863 12.2113 1.75207 0.463529 10.7244 
3.91673 1.52863 12.2113 3.81648 1.6781 12.2458 1.68829 0.590771 10.7622 
1.68829 0.590771 10.7622 1.75207 0.463529 10.7244 3.91673 1.52863 12.2113 
3.62588 1.93042 12.3038 1.53859 0.719127 10.7715 1.68829 0.590771 10.7622 
1.68829 0.590771 10.7622 3.81648 1.6781 12.2458 3.62588 1.93042 12.3038 
1.53859 0.719127 10.7715 3.62588 1.93042 12.3038 3.42976 2.17048 12.3653 
3.42976 2.17048 12.3653 3.26084 2.34988 12.4098 1.43917 0.876707 10.8273 
3.12888 2.47027 12.4373 1.32553 0.982605 10.8539 1.43917 0.876707 10.8273 
1.32553 0.982605 10.8539 3.12888 2.47027 12.4373 2.97051 2.60768 12.4703 
2.81127 2.73344 12.5005 1.21236 1.07134 10.8753 1.32553 0.982605 10.8539 
1.21236 1.07134 10.8753 2.81127 2.73344 12.5005 2.66726 2.83839 12.5256 
2.66726 2.83839 12.5256 2.45438 2.97769 12.5591 1.09116 1.15727 10.8981 
2.29204 3.07287 12.582 0.959018 1.23189 10.9158 1.09116 1.15727 10.8981 
1.09116 1.15727 10.8981 2.45438 2.97769 12.5591 2.29204 3.07287 12.582 
1.88305 3.27615 12.63 0.825732 1.29709 10.9324 0.959018 1.23189 10.9158 
0.685361 1.35042 10.9445 1.88305 3.27615 12.63 1.73012 3.34039 12.6462 
0.685361 1.35042 10.9445 1.73012 3.34039 12.6462 1.53848 3.41159 12.6633 
0.685361 1.35042 10.9445 0.825732 1.29709 10.9324 1.88305 3.27615 12.63 
1.33693 3.47627 12.6789 0.541382 1.39578 10.9559 0.685361 1.35042 10.9445 
0.685361 1.35042 10.9445 1.53848 3.41159 12.6633 1.33693 3.47627 12.6789 
1.16394 3.5238 12.6898 0.919594 3.57967 12.7036 0.394957 1.42891 10.9635 
0.394957 1.42891 10.9635 0.541382 1.39578 10.9559 1.16394 3.5238 12.6898 
0.727414 3.61357 12.7118 0.227119 1.36091 10.8957 0.394957 1.42891 10.9635 
0.394957 1.42891 10.9635 0.919594 3.57967 12.7036 0.727414 3.61357 12.7118 
0.727414 3.61357 12.7118 0.544466 3.63852 12.7175 0.227119 1.36091 10.8957 
0.287115 3.66326 12.7245 0.0953936 1.4662 10.9734 0.227119 1.36091 10.8957 
0.227119 1.36091 10.8957 0.544466 3.63852 12.7175 0.287115 3.66326 12.7245 
0.287115 3.66326 12.7245 0.104348 3.6689 12.7251 0.0953936 1.4662 10.9734 
0.104348 3.6689 12.7251 -0.0940894 3.66931 12.7252 -0.0535274 1.46382 10.9706 
-0.0535274 1.46382 10.9706 0.0953936 1.4662 10.9734 0.104348 3.6689 12.7251 
-0.341367 3.66142 12.7251 -0.209479 1.45234 10.9669 -0.0535274 1.46382 10.9706 
-0.0535274 1.46382 10.9706 -0.0940894 3.66931 12.7252 -0.341367 3.66142 12.7251 
-0.734276 3.61266 12.7116 -0.351242 1.43021 10.9602 -0.209479 1.45234 10.9669 
-0.209479 1.45234 10.9669 -0.520661 3.64121 12.7185 -0.734276 3.61266 12.7116 
-0.734276 3.61266 12.7116 -0.932659 3.57682 12.703 -0.351242 1.43021 10.9602 
-0.932659 3.57682 12.703 -1.10939 3.53525 12.6915 -0.496443 1.39843 10.9515 
-0.496443 1.39843 10.9515 -0.351242 1.43021 10.9602 -0.932659 3.57682 12.703 
-1.35829 3.47098 12.6779 -0.654576 1.35476 10.9422 -0.496443 1.39843 10.9515 
-0.496443 1.39843 10.9515 -1.10939 3.53525 12.6915 -1.35829 3.47098 12.6779 
-1.65544 3.37049 12.6534 -0.834181 1.27728 10.9192 -0.654576 1.35476 10.9422 
-1.65544 3.37049 12.6534 -1.94931 3.25064 12.6262 -0.834181 1.27728 10.9192 
-2.10898 3.17031 12.6054 -0.99791 1.20382 10.9055 -0.834181 1.27728 10.9192 
-0.99791 1.20382 10.9055 -2.10898 3.17031 12.6054 -2.29204 3.07287 12.582 
-2.47036 2.96743 12.5567 -1.12457 1.13462 10.8919 -0.99791 1.20382 10.9055 
-1.12457 1.13462 10.8919 -2.47036 2.96743 12.5567 -2.62072 2.87166 12.5342 
-2.62072 2.87166 12.5342 -2.82471 2.7243 12.4986 -1.24612 1.05059 10.8722 
-2.97315 2.60537 12.4698 -1.36358 0.957905 10.8512 -1.24612 1.05059 10.8722 
-1.36358 0.957905 10.8512 -2.97315 2.60537 12.4698 -3.11304 2.48471 12.4406 
-3.11304 2.48471 12.4406 -3.30557 2.30226 12.397 -1.47069 0.855545 10.8263 
-1.56928 0.744936 10.7989 -3.30557 2.30226 12.397 -3.49838 2.07281 12.3345 
-1.56928 0.744936 10.7989 -1.47069 0.855545 10.8263 -3.30557 2.30226 12.397 
-3.68391 1.86536 12.2921 -1.66233 0.628344 10.7717 -1.56928 0.744936 10.7989 
-1.56928 0.744936 10.7989 -3.49838 2.07281 12.3345 -3.68391 1.86536 12.2921 
-3.78843 1.72263 12.2576 -3.92219 1.52022 12.2092 -1.74411 0.505394 10.742 
-1.74411 0.505394 10.742 -1.66233 0.628344 10.7717 -3.78843 1.72263 12.2576 
-4.02108 1.35289 12.1691 -1.81719 0.375651 10.7107 -1.74411 0.505394 10.742 
-1.74411 0.505394 10.742 -3.92219 1.52022 12.2092 -4.02108 1.35289 12.1691 
-4.02108 1.35289 12.1691 -4.10539 1.19532 12.1308 -1.81719 0.375651 10.7107 
-4.21571 0.967694 12.0772 -1.88091 0.243687 10.6798 -1.81719 0.375651 10.7107 
-1.81719 0.375651 10.7107 -4.10539 1.19532 12.1308 -4.21571 0.967694 12.0772 
-4.21571 0.967694 12.0772 -4.28334 0.800548 12.0365 -1.88091 0.243687 10.6798 
-4.28334 0.800548 12.0365 -4.34919 0.621778 11.9935 -1.92964 0.105985 10.6451 
-1.92964 0.105985 10.6451 -1.88091 0.243687 10.6798 -4.28334 0.800548 12.0365 
-4.4259 0.388916 11.9394 -1.96644 -0.0342903 10.6092 -1.92964 0.105985 10.6451 
-1.92964 0.105985 10.6451 -4.34919 0.621778 11.9935 -4.4259 0.388916 11.9394 
-4.4259 0.388916 11.9394 -4.46581 0.218625 11.8968 -1.96644 -0.0342903 10.6092 
-4.46581 0.218625 11.8968 -4.51822 -0.0610314 11.8269 -1.97367 -0.208788 10.553 
-1.97367 -0.208788 10.553 -1.96644 -0.0342903 10.6092 -4.46581 0.218625 11.8968 
-4.51822 -0.0610314 11.8269 -4.56348 -0.354413 11.7594 -1.97367 -0.208788 10.553 
-4.56348 -0.354413 11.7594 -2.02106 -0.467322 10.5025 -1.97367 -0.208788 10.553 
-2.02106 -0.467322 10.5025 -4.56348 -0.354413 11.7594 -4.58065 -0.60336 11.6994 
-4.57322 -0.905144 11.6217 -4.56262 -1.21951 11.5513 -2.01495 -0.692831 10.4498 
-4.54139 -1.39433 11.5095 -2.00026 -0.848697 10.4157 -2.01495 -0.692831 10.4498 
-2.00026 -0.848697 10.4157 -4.54139 -1.39433 11.5095 -4.50898 -1.59135 11.4622 
-4.46581 -1.79337 11.4137 -1.84836 -0.957725 10.3309 -2.00026 -0.848697 10.4157 
-1.84836 -0.957725 10.3309 -4.46581 -1.79337 11.4137 -4.42262 -1.96328 11.3731 
-4.42262 -1.96328 11.3731 -4.34928 -2.1965 11.3169 -1.92961 -1.12475 10.3496 
-4.28334 -2.37529 11.274 -1.88088 -1.26324 10.3181 -1.92961 -1.12475 10.3496 
-1.88088 -1.26324 10.3181 -4.28334 -2.37529 11.274 -4.21424 -2.54157 11.2339 
-4.21424 -2.54157 11.2339 -4.10297 -2.77778 11.1775 -1.81761 -1.39587 10.2858 
-1.74355 -1.52284 10.2544 -4.10297 -2.77778 11.1775 -4.02108 -2.92764 11.1414 
-1.74355 -1.52284 10.2544 -4.02108 -2.92764 11.1414 -3.92442 -3.08999 11.1021 
-1.74355 -1.52284 10.2544 -1.81761 -1.39587 10.2858 -4.10297 -2.77778 11.1775 
-1.56332 -1.56801 10.1867 -3.92442 -3.08999 11.1021 -3.78917 -3.29642 11.0527 
-1.56332 -1.56801 10.1867 -1.74355 -1.52284 10.2544 -3.92442 -3.08999 11.1021 
-3.68391 -3.44011 11.0184 -3.55161 -3.60576 10.9786 -1.57074 -1.76436 10.1972 
-1.56332 -1.56801 10.1867 -3.78917 -3.29642 11.0527 -3.68391 -3.44011 11.0184 
-1.57074 -1.76436 10.1972 -1.56332 -1.56801 10.1867 -3.68391 -3.44011 11.0184 
-3.42057 -3.75486 10.9428 -1.37877 -1.78431 10.1343 -1.57074 -1.76436 10.1972 
-1.57074 -1.76436 10.1972 -3.55161 -3.60576 10.9786 -3.42057 -3.75486 10.9428 
-3.42057 -3.75486 10.9428 -3.2969 -3.88333 10.9114 -1.37877 -1.78431 10.1343 
-3.11341 -4.05951 10.8696 -1.36358 -1.97738 10.1465 -1.37877 -1.78431 10.1343 
-1.37877 -1.78431 10.1343 -3.2969 -3.88333 10.9114 -3.11341 -4.05951 10.8696 
-3.11341 -4.05951 10.8696 -2.97315 -4.18012 10.8407 -1.36358 -1.97738 10.1465 
-2.97315 -4.18012 10.8407 -2.82483 -4.29931 10.8124 -1.24612 -2.06952 10.1231 
-1.24612 -2.06952 10.1231 -1.36358 -1.97738 10.1465 -2.97315 -4.18012 10.8407 
-2.62038 -4.44607 10.7771 -1.12456 -2.15333 10.1026 -1.24612 -2.06952 10.1231 
-1.24612 -2.06952 10.1231 -2.82483 -4.29931 10.8124 -2.62038 -4.44607 10.7771 
-2.62038 -4.44607 10.7771 -2.47036 -4.54218 10.7538 -1.12456 -2.15333 10.1026 
-2.47036 -4.54218 10.7538 -2.29204 -4.64762 10.7285 -0.997976 -2.22124 10.0833 
-0.997976 -2.22124 10.0833 -1.12456 -2.15333 10.1026 -2.47036 -4.54218 10.7538 
-2.29204 -4.64762 10.7285 -2.10898 -4.74505 10.7051 -0.997976 -2.22124 10.0833 
-2.10898 -4.74505 10.7051 -1.9479 -4.82307 10.6864 -0.795108 -2.18437 10.0369 
-0.795108 -2.18437 10.0369 -0.997976 -2.22124 10.0833 -2.10898 -4.74505 10.7051 
-0.795108 -2.18437 10.0369 -1.9479 -4.82307 10.6864 -1.71488 -4.92158 10.6627 
-1.71488 -4.92158 10.6627 -1.53512 -4.98743 10.6469 -0.609714 -2.27363 10.0231 
-1.53512 -4.98743 10.6469 -1.35843 -5.04642 10.6333 -0.609714 -2.27363 10.0231 
-1.35843 -5.04642 10.6333 -1.10999 -5.11219 10.6167 -0.498536 -2.42512 10.038 
-0.932659 -5.15157 10.6075 -0.318243 -2.32288 10.002 -0.498536 -2.42512 10.038 
-0.318243 -2.32288 10.002 -0.932659 -5.15157 10.6075 -0.7343 -5.18739 10.5989 
-0.7343 -5.18739 10.5989 -0.493913 -5.21939 10.5912 -0.209214 -2.46785 10.0246 
-0.312829 -5.23441 10.5876 -0.0940996 -5.24406 10.5853 -0.0535005 -2.48236 10.0232 
-0.209214 -2.46785 10.0246 -0.493913 -5.21939 10.5912 -0.312829 -5.23441 10.5876 
0.104348 -5.24364 10.5854 0.095385 -2.48578 10.0246 -0.0535005 -2.48236 10.0232 
0.095385 -2.48578 10.0246 0.104348 -5.24364 10.5854 0.286778 -5.23334 10.5864 
0.286778 -5.23334 10.5864 0.544612 -5.21433 10.5927 0.238081 -2.3344 9.99925 
0.727414 -5.18832 10.5987 0.919586 -5.15432 10.6068 0.394992 -2.44808 10.0327 
0.238081 -2.3344 9.99925 0.544612 -5.21433 10.5927 0.727414 -5.18832 10.5987 
1.16479 -5.10179 10.6206 0.541312 -2.41514 10.041 0.394992 -2.44808 10.0327 
1.33693 -5.05102 10.6316 1.53848 -4.98634 10.6472 0.68538 -2.3706 10.0517 
0.541312 -2.41514 10.041 1.16479 -5.10179 10.6206 1.33693 -5.05102 10.6316 
0.68538 -2.3706 10.0517 0.541312 -2.41514 10.041 1.33693 -5.05102 10.6316 
1.73012 -4.91514 10.6643 0.825782 -2.31581 10.0647 0.68538 -2.3706 10.0517 
0.68538 -2.3706 10.0517 1.53848 -4.98634 10.6472 1.73012 -4.91514 10.6643 
1.73012 -4.91514 10.6643 1.89577 -4.84476 10.6805 0.825782 -2.31581 10.0647 
1.89577 -4.84476 10.6805 2.12608 -4.73663 10.707 0.959022 -2.25083 10.0796 
0.959022 -2.25083 10.0796 0.825782 -2.31581 10.0647 1.89577 -4.84476 10.6805 
2.29204 -4.64762 10.7285 2.45485 -4.55333 10.7515 1.09237 -2.1793 10.0984 
0.959022 -2.25083 10.0796 2.12608 -4.73663 10.707 2.29204 -4.64762 10.7285 
1.09237 -2.1793 10.0984 0.959022 -2.25083 10.0796 2.29204 -4.64762 10.7285 
2.6673 -4.41302 10.7847 1.21229 -2.08936 10.1165 1.09237 -2.1793 10.0984 
1.09237 -2.1793 10.0984 2.45485 -4.55333 10.7515 2.6673 -4.41302 10.7847 
2.6673 -4.41302 10.7847 2.81127 -4.30819 10.81 1.21229 -2.08936 10.1165 
2.81127 -4.30819 10.81 2.97052 -4.18242 10.8402 1.32557 -2.00062 10.1377 
1.32557 -2.00062 10.1377 1.21229 -2.08936 10.1165 2.81127 -4.30819 10.81 
2.97052 -4.18242 10.8402 3.12888 -4.04502 10.8732 1.32557 -2.00062 10.1377 
3.12888 -4.04502 10.8732 3.25865 -3.92267 10.9023 1.44419 -1.89987 10.1641 
1.44419 -1.89987 10.1641 1.32557 -2.00062 10.1377 3.12888 -4.04502 10.8732 
3.47251 -3.69545 10.9559 1.57828 -1.74841 10.1994 1.44419 -1.89987 10.1641 
1.44419 -1.89987 10.1641 3.25865 -3.92267 10.9023 3.47251 -3.69545 10.9559 
3.47251 -3.69545 10.9559 3.66974 -3.45918 11.0137 1.57828 -1.74841 10.1994 
3.66974 -3.45918 11.0137 3.81919 -3.25425 11.0632 1.68175 -1.60485 10.2313 
3.91673 -3.10338 11.0992 1.75737 -1.48294 10.26 1.68175 -1.60485 10.2313 
1.75737 -1.48294 10.26 3.91673 -3.10338 11.0992 4.01637 -2.93645 11.1393 
4.01637 -2.93645 11.1393 4.12995 -2.72405 11.1905 1.83384 -1.36431 10.2933 
4.20457 -2.56322 11.2289 1.89174 -1.22168 10.3253 1.83384 -1.36431 10.2933 
1.89174 -1.22168 10.3253 4.20457 -2.56322 11.2289 4.28599 -2.36899 11.2755 
4.35323 -2.18408 11.3199 1.93999 -1.0866 10.3578 1.89174 -1.22168 10.3253 
1.93999 -1.0866 10.3578 4.35323 -2.18408 11.3199 4.40742 -2.01612 11.3604 
4.40742 -2.01612 11.3604 4.47048 -1.77269 11.4184 1.88857 -0.902651 10.3563 
4.50827 -1.59468 11.4614 2.00971 -0.801018 10.428 1.88857 -0.902651 10.3563 
1.88857 -0.902651 10.3563 4.47048 -1.77269 11.4184 4.50827 -1.59468 11.4614 
4.56699 -1.16467 11.5641 2.02728 -0.656572 10.4631 2.00971 -0.801018 10.428 
4.57933 -0.990251 11.6065 4.58408 -0.787373 11.6552 2.03315 -0.509684 10.4986 
2.02728 -0.656572 10.4631 4.56699 -1.16467 11.5641 4.57933 -0.990251 11.6065 
2.03315 -0.509684 10.4986 2.02728 -0.656572 10.4631 4.57933 -0.990251 11.6065 
2.00971 -0.801018 10.428 4.54012 -1.41035 11.506 4.56699 -1.16467 11.5641 
4.50827 -1.59468 11.4614 4.54012 -1.41035 11.506 2.00971 -0.801018 10.428 
1.88857 -0.902651 10.3563 1.93999 -1.0866 10.3578 4.40742 -2.01612 11.3604 
1.89174 -1.22168 10.3253 4.28599 -2.36899 11.2755 4.35323 -2.18408 11.3199 
1.83384 -1.36431 10.2933 4.12995 -2.72405 11.1905 4.20457 -2.56322 11.2289 
1.83384 -1.36431 10.2933 1.75737 -1.48294 10.26 4.01637 -2.93645 11.1393 
1.68175 -1.60485 10.2313 3.81919 -3.25425 11.0632 3.91673 -3.10338 11.0992 
1.68175 -1.60485 10.2313 1.57828 -1.74841 10.1994 3.66974 -3.45918 11.0137 
0.394992 -2.44808 10.0327 0.919586 -5.15432 10.6068 1.16479 -5.10179 10.6206 
0.394992 -2.44808 10.0327 0.238081 -2.3344 9.99925 0.727414 -5.18832 10.5987 
0.238081 -2.3344 9.99925 0.095385 -2.48578 10.0246 0.286778 -5.23334 10.5864 
-0.0535005 -2.48236 10.0232 -0.0940996 -5.24406 10.5853 0.104348 -5.24364 10.5854 
-0.0535005 -2.48236 10.0232 -0.209214 -2.46785 10.0246 -0.312829 -5.23441 10.5876 
-0.209214 -2.46785 10.0246 -0.318243 -2.32288 10.002 -0.7343 -5.18739 10.5989 
-0.498536 -2.42512 10.038 -1.10999 -5.11219 10.6167 -0.932659 -5.15157 10.6075 
-0.498536 -2.42512 10.038 -0.609714 -2.27363 10.0231 -1.35843 -5.04642 10.6333 
-0.609714 -2.27363 10.0231 -0.795108 -2.18437 10.0369 -1.71488 -4.92158 10.6627 
-1.81761 -1.39587 10.2858 -1.88088 -1.26324 10.3181 -4.21424 -2.54157 11.2339 
-1.92961 -1.12475 10.3496 -4.34928 -2.1965 11.3169 -4.28334 -2.37529 11.274 
-1.92961 -1.12475 10.3496 -1.84836 -0.957725 10.3309 -4.42262 -1.96328 11.3731 
-2.00026 -0.848697 10.4157 -4.50898 -1.59135 11.4622 -4.46581 -1.79337 11.4137 
-2.01495 -0.692831 10.4498 -4.56262 -1.21951 11.5513 -4.54139 -1.39433 11.5095 
-2.01495 -0.692831 10.4498 -2.02106 -0.467322 10.5025 -4.57322 -0.905144 11.6217 
-2.02106 -0.467322 10.5025 -4.58065 -0.60336 11.6994 -4.57322 -0.905144 11.6217 
-3.68391 1.86536 12.2921 -3.78843 1.72263 12.2576 -1.66233 0.628344 10.7717 
-1.47069 0.855545 10.8263 -1.36358 0.957905 10.8512 -3.11304 2.48471 12.4406 
-1.24612 1.05059 10.8722 -2.82471 2.7243 12.4986 -2.97315 2.60537 12.4698 
-1.24612 1.05059 10.8722 -1.12457 1.13462 10.8919 -2.62072 2.87166 12.5342 
-0.99791 1.20382 10.9055 -2.29204 3.07287 12.582 -2.47036 2.96743 12.5567 
-0.834181 1.27728 10.9192 -1.94931 3.25064 12.6262 -2.10898 3.17031 12.6054 
-0.654576 1.35476 10.9422 -1.35829 3.47098 12.6779 -1.65544 3.37049 12.6534 
-0.209479 1.45234 10.9669 -0.341367 3.66142 12.7251 -0.520661 3.64121 12.7185 
1.33693 3.47627 12.6789 1.16394 3.5238 12.6898 0.541382 1.39578 10.9559 
0.959018 1.23189 10.9158 2.12602 3.1618 12.6032 1.88305 3.27615 12.63 
2.29204 3.07287 12.582 2.12602 3.1618 12.6032 0.959018 1.23189 10.9158 
1.09116 1.15727 10.8981 1.21236 1.07134 10.8753 2.66726 2.83839 12.5256 
1.32553 0.982605 10.8539 2.97051 2.60768 12.4703 2.81127 2.73344 12.5005 
1.43917 0.876707 10.8273 3.26084 2.34988 12.4098 3.12888 2.47027 12.4373 
1.43917 0.876707 10.8273 1.53859 0.719127 10.7715 3.42976 2.17048 12.3653 
4.57933 -0.584495 11.704 4.56651 -0.409838 11.745 2.02725 -0.362753 10.5337 
-4.78814 -0.711663 11.7848 -4.57322 -0.905144 11.6217 -4.58065 -0.60336 11.6994 
-4.58065 -0.60336 11.6994 -4.56348 -0.354413 11.7594 -4.75437 -0.278176 11.8854 
-4.51822 -0.0610314 11.8269 -4.67792 0.278912 12.0339 -4.75437 -0.278176 11.8854 
-4.51822 -0.0610314 11.8269 -4.46581 0.218625 11.8968 -4.67792 0.278912 12.0339 
-4.67792 0.278912 12.0339 -4.46581 0.218625 11.8968 -4.4259 0.388916 11.9394 
-4.4259 0.388916 11.9394 -4.34919 0.621778 11.9935 -4.46846 0.840261 12.1502 
-4.46846 0.840261 12.1502 -4.28334 0.800548 12.0365 -4.21571 0.967694 12.0772 
-4.21571 0.967694 12.0772 -4.10539 1.19532 12.1308 -4.25578 1.31949 12.2707 
-4.25578 1.31949 12.2707 -4.02108 1.35289 12.1691 -3.92219 1.52022 12.2092 
-3.92219 1.52022 12.2092 -4.03966 1.69801 12.3666 -4.25578 1.31949 12.2707 
-3.92219 1.52022 12.2092 -3.78843 1.72263 12.2576 -4.03966 1.69801 12.3666 
-3.76359 2.07223 12.4543 -4.03966 1.69801 12.3666 -3.78843 1.72263 12.2576 
-3.68391 1.86536 12.2921 -3.49838 2.07281 12.3345 -3.76359 2.07223 12.4543 
-3.49094 2.37517 12.5256 -3.76359 2.07223 12.4543 -3.49838 2.07281 12.3345 
-3.49094 2.37517 12.5256 -3.49838 2.07281 12.3345 -3.30557 2.30226 12.397 
-3.30557 2.30226 12.397 -3.11304 2.48471 12.4406 -3.0917 2.75085 12.617 
-3.0917 2.75085 12.617 -2.97315 2.60537 12.4698 -2.82471 2.7243 12.4986 
-2.82471 2.7243 12.4986 -2.62072 2.87166 12.5342 -2.66673 3.05498 12.6884 
-2.47036 2.96743 12.5567 -2.29204 3.07287 12.582 -2.19756 3.32855 12.7543 
-2.29204 3.07287 12.582 -2.10898 3.17031 12.6054 -2.19756 3.32855 12.7543 
-2.19756 3.32855 12.7543 -2.10898 3.17031 12.6054 -1.94931 3.25064 12.6262 
-1.94931 3.25064 12.6262 -1.65544 3.37049 12.6534 -1.68797 3.54613 12.8069 
-1.68797 3.54613 12.8069 -1.65544 3.37049 12.6534 -1.35829 3.47098 12.6779 
-1.35829 3.47098 12.6779 -1.17228 3.70295 12.8425 -1.68797 3.54613 12.8069 
-1.35829 3.47098 12.6779 -1.10939 3.53525 12.6915 -1.17228 3.70295 12.8425 
-1.17228 3.70295 12.8425 -0.932659 3.57682 12.703 -0.734276 3.61266 12.7116 
-0.734276 3.61266 12.7116 -0.636799 3.81006 12.8754 -1.17228 3.70295 12.8425 
-0.734276 3.61266 12.7116 -0.520661 3.64121 12.7185 -0.636799 3.81006 12.8754 
-0.636799 3.81006 12.8754 -0.520661 3.64121 12.7185 -0.341367 3.66142 12.7251 
-0.341367 3.66142 12.7251 -0.100402 3.85014 12.8832 -0.636799 3.81006 12.8754 
-0.341367 3.66142 12.7251 -0.0940894 3.66931 12.7252 -0.100402 3.85014 12.8832 
-0.100402 3.85014 12.8832 0.104348 3.6689 12.7251 0.287115 3.66326 12.7245 
0.287115 3.66326 12.7245 0.560501 3.81071 12.8661 -0.100402 3.85014 12.8832 
0.287115 3.66326 12.7245 0.544466 3.63852 12.7175 0.560501 3.81071 12.8661 
0.560501 3.81071 12.8661 0.727414 3.61357 12.7118 0.919594 3.57967 12.7036 
0.919594 3.57967 12.7036 1.32872 3.65341 12.8223 0.560501 3.81071 12.8661 
0.919594 3.57967 12.7036 1.16394 3.5238 12.6898 1.32872 3.65341 12.8223 
1.33693 3.47627 12.6789 1.53848 3.41159 12.6633 1.32872 3.65341 12.8223 
1.97 3.42774 12.7741 1.32872 3.65341 12.8223 1.53848 3.41159 12.6633 
1.97 3.42774 12.7741 1.73012 3.34039 12.6462 1.88305 3.27615 12.63 
1.88305 3.27615 12.63 2.12602 3.1618 12.6032 1.97 3.42774 12.7741 
2.49878 3.17768 12.7295 1.97 3.42774 12.7741 2.12602 3.1618 12.6032 
2.49878 3.17768 12.7295 2.29204 3.07287 12.582 2.45438 2.97769 12.5591 
2.45438 2.97769 12.5591 2.66726 2.83839 12.5256 2.87934 2.92326 12.6641 
2.87934 2.92326 12.6641 2.81127 2.73344 12.5005 2.97051 2.60768 12.4703 
2.97051 2.60768 12.4703 3.29173 2.65856 12.6391 2.87934 2.92326 12.6641 
2.97051 2.60768 12.4703 3.12888 2.47027 12.4373 3.29173 2.65856 12.6391 
3.29173 2.65856 12.6391 3.12888 2.47027 12.4373 3.26084 2.34988 12.4098 
3.26084 2.34988 12.4098 3.42976 2.17048 12.3653 3.65003 2.19744 12.4806 
3.62588 1.93042 12.3038 3.99076 1.7701 12.381 3.65003 2.19744 12.4806 
3.62588 1.93042 12.3038 3.81648 1.6781 12.2458 3.99076 1.7701 12.381 
3.99076 1.7701 12.381 3.91673 1.52863 12.2113 4.01634 1.36182 12.1712 
4.01634 1.36182 12.1712 4.25994 1.3421 12.2861 3.99076 1.7701 12.381 
4.01634 1.36182 12.1712 4.12941 1.14907 12.1201 4.25994 1.3421 12.2861 
4.46128 0.909984 12.18 4.25994 1.3421 12.2861 4.12941 1.14907 12.1201 
4.20457 0.98847 12.0816 4.28596 0.79422 12.0349 4.46128 0.909984 12.18 
4.58419 0.533418 12.0832 4.46128 0.909984 12.18 4.28596 0.79422 12.0349 
4.58419 0.533418 12.0832 4.35323 0.609334 11.9906 4.40675 0.441547 11.9501 
4.40675 0.441547 11.9501 4.47099 0.19852 11.8919 4.72598 -0.0335383 11.9474 
4.72598 -0.0335383 11.9474 4.50827 0.0199391 11.8491 4.53998 -0.164656 11.805 
4.53998 -0.164656 11.805 4.56651 -0.409838 11.745 4.79129 -0.630698 11.8054 
4.57933 -0.584495 11.704 4.58408 -0.787373 11.6552 4.79129 -0.630698 11.8054 
4.58408 -0.787373 11.6552 4.57933 -0.990251 11.6065 4.76296 -1.23327 11.6539 
4.76296 -1.23327 11.6539 4.57933 -0.990251 11.6065 4.56699 -1.16467 11.5641 
4.56699 -1.16467 11.5641 4.54012 -1.41035 11.506 4.76296 -1.23327 11.6539 
4.69774 -1.74588 11.5394 4.76296 -1.23327 11.6539 4.54012 -1.41035 11.506 
4.69774 -1.74588 11.5394 4.50827 -1.59468 11.4614 4.47048 -1.77269 11.4184 
4.47048 -1.77269 11.4184 4.40742 -2.01612 11.3604 4.57835 -2.188 11.4312 
4.57835 -2.188 11.4312 4.35323 -2.18408 11.3199 4.28599 -2.36899 11.2755 
4.28599 -2.36899 11.2755 4.33266 -2.82302 11.2816 4.57835 -2.188 11.4312 
4.28599 -2.36899 11.2755 4.20457 -2.56322 11.2289 4.33266 -2.82302 11.2816 
4.33266 -2.82302 11.2816 4.20457 -2.56322 11.2289 4.12995 -2.72405 11.1905 
4.12995 -2.72405 11.1905 4.01637 -2.93645 11.1393 4.33266 -2.82302 11.2816 
4.09687 -3.39344 11.1951 4.33266 -2.82302 11.2816 4.01637 -2.93645 11.1393 
4.09687 -3.39344 11.1951 3.91673 -3.10338 11.0992 3.81919 -3.25425 11.0632 
3.81919 -3.25425 11.0632 3.66974 -3.45918 11.0137 3.76225 -3.69629 11.068 
3.47251 -3.69545 10.9559 3.3084 -4.19299 10.9514 3.76225 -3.69629 11.068 
3.47251 -3.69545 10.9559 3.25865 -3.92267 10.9023 3.3084 -4.19299 10.9514 
3.12888 -4.04502 10.8732 2.97052 -4.18242 10.8402 3.3084 -4.19299 10.9514 
2.8437 -4.5636 10.8617 3.3084 -4.19299 10.9514 2.97052 -4.18242 10.8402 
2.8437 -4.5636 10.8617 2.81127 -4.30819 10.81 2.6673 -4.41302 10.7847 
2.6673 -4.41302 10.7847 2.45485 -4.55333 10.7515 2.39922 -4.84093 10.7906 
2.39922 -4.84093 10.7906 2.29204 -4.64762 10.7285 2.12608 -4.73663 10.707 
2.12608 -4.73663 10.707 1.89577 -4.84476 10.6805 1.88831 -5.0931 10.7323 
1.88831 -5.0931 10.7323 1.73012 -4.91514 10.6643 1.53848 -4.98634 10.6472 
1.53848 -4.98634 10.6472 1.46023 -5.2587 10.6985 1.88831 -5.0931 10.7323 
1.53848 -4.98634 10.6472 1.33693 -5.05102 10.6316 1.46023 -5.2587 10.6985 
1.46023 -5.2587 10.6985 1.33693 -5.05102 10.6316 1.16479 -5.10179 10.6206 
1.16479 -5.10179 10.6206 0.930312 -5.38842 10.6644 1.46023 -5.2587 10.6985 
1.16479 -5.10179 10.6206 0.919586 -5.15432 10.6068 0.930312 -5.38842 10.6644 
0.930312 -5.38842 10.6644 0.727414 -5.18832 10.5987 0.544612 -5.21433 10.5927 
0.544612 -5.21433 10.5927 0.327826 -5.46125 10.6438 0.930312 -5.38842 10.6644 
0.544612 -5.21433 10.5927 0.286778 -5.23334 10.5864 0.327826 -5.46125 10.6438 
0.327826 -5.46125 10.6438 0.104348 -5.24364 10.5854 -0.0940996 -5.24406 10.5853 
-0.0940996 -5.24406 10.5853 -0.467051 -5.47097 10.6504 0.327826 -5.46125 10.6438 
-0.0940996 -5.24406 10.5853 -0.312829 -5.23441 10.5876 -0.467051 -5.47097 10.6504 
-0.467051 -5.47097 10.6504 -0.312829 -5.23441 10.5876 -0.493913 -5.21939 10.5912 
-0.493913 -5.21939 10.5912 -0.7343 -5.18739 10.5989 -0.467051 -5.47097 10.6504 
-1.18718 -5.3398 10.6799 -0.467051 -5.47097 10.6504 -0.7343 -5.18739 10.5989 
-1.18718 -5.3398 10.6799 -0.932659 -5.15157 10.6075 -1.10999 -5.11219 10.6167 
-1.10999 -5.11219 10.6167 -1.35843 -5.04642 10.6333 -1.18718 -5.3398 10.6799 
-1.70931 -5.1625 10.7159 -1.18718 -5.3398 10.6799 -1.35843 -5.04642 10.6333 
-1.70931 -5.1625 10.7159 -1.53512 -4.98743 10.6469 -1.71488 -4.92158 10.6627 
-1.71488 -4.92158 10.6627 -1.9479 -4.82307 10.6864 -2.19386 -4.94734 10.7634 
-2.10898 -4.74505 10.7051 -2.29204 -4.64762 10.7285 -2.19386 -4.94734 10.7634 
-2.29204 -4.64762 10.7285 -2.47036 -4.54218 10.7538 -2.67893 -4.6819 10.8357 
-2.67893 -4.6819 10.8357 -2.47036 -4.54218 10.7538 -2.62038 -4.44607 10.7771 
-2.62038 -4.44607 10.7771 -2.82483 -4.29931 10.8124 -3.11932 -4.3514 10.9109 
-3.11932 -4.3514 10.9109 -2.97315 -4.18012 10.8407 -3.11341 -4.05951 10.8696 
-3.11341 -4.05951 10.8696 -3.2969 -3.88333 10.9114 -3.51404 -3.96829 10.9989 
-3.51404 -3.96829 10.9989 -3.42057 -3.75486 10.9428 -3.55161 -3.60576 10.9786 
-3.55161 -3.60576 10.9786 -3.93969 -3.47944 11.1235 -3.51404 -3.96829 10.9989 
-3.55161 -3.60576 10.9786 -3.68391 -3.44011 11.0184 -3.93969 -3.47944 11.1235 
-3.93969 -3.47944 11.1235 -3.68391 -3.44011 11.0184 -3.78917 -3.29642 11.0527 
-3.78917 -3.29642 11.0527 -3.92442 -3.08999 11.1021 -3.93969 -3.47944 11.1235 
-4.25495 -2.95536 11.2477 -3.93969 -3.47944 11.1235 -3.92442 -3.08999 11.1021 
-4.25495 -2.95536 11.2477 -4.02108 -2.92764 11.1414 -4.10297 -2.77778 11.1775 
-4.10297 -2.77778 11.1775 -4.21424 -2.54157 11.2339 -4.45889 -2.53854 11.3507 
-4.45889 -2.53854 11.3507 -4.28334 -2.37529 11.274 -4.34928 -2.1965 11.3169 
-4.34928 -2.1965 11.3169 -4.66667 -1.89813 11.5017 -4.45889 -2.53854 11.3507 
-4.34928 -2.1965 11.3169 -4.42262 -1.96328 11.3731 -4.66667 -1.89813 11.5017 
-4.46581 -1.79337 11.4137 -4.50898 -1.59135 11.4622 -4.66667 -1.89813 11.5017 
-4.77147 -1.24178 11.6571 -4.66667 -1.89813 11.5017 -4.50898 -1.59135 11.4622 
-4.77147 -1.24178 11.6571 -4.54139 -1.39433 11.5095 -4.56262 -1.21951 11.5513 
-4.56262 -1.21951 11.5513 -4.57322 -0.905144 11.6217 -4.77147 -1.24178 11.6571 
-4.78814 -0.711663 11.7848 -4.77147 -1.24178 11.6571 -4.57322 -0.905144 11.6217 
-4.78814 -0.711663 11.7848 -4.75437 -0.278176 11.8854 -4.95914 -0.509725 11.9648 
-4.75437 -0.278176 11.8854 -4.67792 0.278912 12.0339 -4.97154 -0.0980731 12.1115 
-4.67792 0.278912 12.0339 -4.46846 0.840261 12.1502 -4.77761 0.562756 12.2361 
-4.46846 0.840261 12.1502 -4.25578 1.31949 12.2707 -4.51186 1.18183 12.3683 
-4.25578 1.31949 12.2707 -4.03966 1.69801 12.3666 -4.23537 1.69397 12.4937 
-4.03966 1.69801 12.3666 -3.76359 2.07223 12.4543 -3.91122 2.13739 12.5974 
-3.76359 2.07223 12.4543 -3.49094 2.37517 12.5256 -3.54424 2.55293 12.7012 
-3.49094 2.37517 12.5256 -3.0917 2.75085 12.617 -3.54424 2.55293 12.7012 
-3.0917 2.75085 12.617 -2.66673 3.05498 12.6884 -2.77096 3.17046 12.8483 
-2.66673 3.05498 12.6884 -2.19756 3.32855 12.7543 -2.28373 3.44088 12.9012 
-2.19756 3.32855 12.7543 -1.68797 3.54613 12.8069 -1.78871 3.6647 12.9638 
-1.68797 3.54613 12.8069 -1.17228 3.70295 12.8425 -1.45244 3.82391 13.0439 
-1.17228 3.70295 12.8425 -0.636799 3.81006 12.8754 -0.89736 3.91167 13.0263 
-0.636799 3.81006 12.8754 -0.100402 3.85014 12.8832 -0.459311 4.00557 13.0829 
-0.100402 3.85014 12.8832 0.560501 3.81071 12.8661 0.151378 3.99062 13.0454 
0.560501 3.81071 12.8661 1.32872 3.65341 12.8223 1.10489 3.86424 13.0084 
1.32872 3.65341 12.8223 1.97 3.42774 12.7741 1.73037 3.72491 13.0116 
2.49878 3.17768 12.7295 2.87934 2.92326 12.6641 2.9229 3.13041 12.8851 
3.29173 2.65856 12.6391 3.65003 2.19744 12.4806 3.68758 2.39674 12.6593 
3.65003 2.19744 12.4806 3.99076 1.7701 12.381 4.07 1.91894 12.5401 
3.99076 1.7701 12.381 4.25994 1.3421 12.2861 4.37101 1.56467 12.5091 
4.25994 1.3421 12.2861 4.46128 0.909984 12.18 4.60736 1.05655 12.3661 
4.46128 0.909984 12.18 4.58419 0.533418 12.0832 4.78136 0.463862 12.1924 
4.58419 0.533418 12.0832 4.72598 -0.0335383 11.9474 4.78136 0.463862 12.1924 
4.72598 -0.0335383 11.9474 4.79129 -0.630698 11.8054 5.01856 -0.626301 11.9758 
4.79129 -0.630698 11.8054 4.76296 -1.23327 11.6539 4.95914 -1.1753 11.805 
4.76296 -1.23327 11.6539 4.69774 -1.74588 11.5394 4.93297 -1.74648 11.7017 
4.69774 -1.74588 11.5394 4.57835 -2.188 11.4312 4.74612 -2.27073 11.5391 
4.57835 -2.188 11.4312 4.33266 -2.82302 11.2816 4.60217 -2.66951 11.4463 
4.09687 -3.39344 11.1951 3.76225 -3.69629 11.068 3.92561 -3.80994 11.1723 
3.76225 -3.69629 11.068 3.3084 -4.19299 10.9514 3.55128 -4.22166 11.0701 
3.3084 -4.19299 10.9514 2.8437 -4.5636 10.8617 3.13292 -4.66883 11.0061 
2.8437 -4.5636 10.8617 2.39922 -4.84093 10.7906 2.69234 -4.97512 10.9315 
2.39922 -4.84093 10.7906 1.88831 -5.0931 10.7323 2.1832 -5.18498 10.8424 
1.88831 -5.0931 10.7323 1.46023 -5.2587 10.6985 1.72745 -5.45761 10.8288 
1.46023 -5.2587 10.6985 0.930312 -5.38842 10.6644 1.06616 -5.56459 10.7488 
0.930312 -5.38842 10.6644 0.327826 -5.46125 10.6438 0.449023 -5.65635 10.7292 
0.327826 -5.46125 10.6438 -0.467051 -5.47097 10.6504 -0.225675 -5.67449 10.7235 
-0.467051 -5.47097 10.6504 -1.18718 -5.3398 10.6799 -0.920531 -5.66728 10.777 
-1.18718 -5.3398 10.6799 -1.70931 -5.1625 10.7159 -1.48689 -5.55171 10.8196 
-1.70931 -5.1625 10.7159 -2.19386 -4.94734 10.7634 -1.9832 -5.27478 10.8208 
-2.19386 -4.94734 10.7634 -2.67893 -4.6819 10.8357 -2.48983 -5.02922 10.8801 
-2.67893 -4.6819 10.8357 -3.11932 -4.3514 10.9109 -3.00259 -4.77297 10.9845 
-3.11932 -4.3514 10.9109 -3.51404 -3.96829 10.9989 -3.635 -4.13956 11.0934 
-3.51404 -3.96829 10.9989 -3.93969 -3.47944 11.1235 -4.01281 -3.7093 11.2001 
-3.93969 -3.47944 11.1235 -4.25495 -2.95536 11.2477 -4.31963 -3.23768 11.3108 
-4.25495 -2.95536 11.2477 -4.45889 -2.53854 11.3507 -4.60522 -2.82873 11.4542 
-4.45889 -2.53854 11.3507 -4.66667 -1.89813 11.5017 -4.78404 -2.14563 11.5678 
-4.66667 -1.89813 11.5017 -4.77147 -1.24178 11.6571 -4.97301 -1.61406 11.7494 
-4.77147 -1.24178 11.6571 -4.78814 -0.711663 11.7848 -5.01353 -1.07534 11.8646 
-5.01353 -1.07534 11.8646 -4.95914 -0.509725 11.9648 -5.13292 -0.541517 12.1115 
-4.97154 -0.0980731 12.1115 -4.77761 0.562756 12.2361 -5.04495 0.134456 12.28 
-4.77761 0.562756 12.2361 -4.51186 1.18183 12.3683 -4.76057 1.01389 12.4831 
-4.51186 1.18183 12.3683 -4.23537 1.69397 12.4937 -4.56221 1.41787 12.573 
-4.23537 1.69397 12.4937 -3.91122 2.13739 12.5974 -4.06554 2.18481 12.7636 
-3.91122 2.13739 12.5974 -3.54424 2.55293 12.7012 -3.68237 2.62393 12.8737 
-3.54424 2.55293 12.7012 -3.1115 2.92743 12.7896 -3.24193 3.00418 12.9595 
-3.1115 2.92743 12.7896 -2.77096 3.17046 12.8483 -2.84954 3.2867 13.029 
-2.77096 3.17046 12.8483 -2.28373 3.44088 12.9012 -2.38905 3.54959 13.0879 
-2.28373 3.44088 12.9012 -1.78871 3.6647 12.9638 -1.94916 3.74676 13.1369 
-1.45244 3.82391 13.0439 -0.89736 3.91167 13.0263 -1.03828 4.03033 13.2156 
-0.459311 4.00557 13.0829 0.151378 3.99062 13.0454 -0.197985 4.11729 13.2238 
0.151378 3.99062 13.0454 0.679877 3.94566 13.0345 0.370993 4.11971 13.2376 
0.679877 3.94566 13.0345 1.10489 3.86424 13.0084 0.934268 4.04422 13.2152 
1.10489 3.86424 13.0084 1.73037 3.72491 13.0116 1.39989 3.94135 13.192 
1.73037 3.72491 13.0116 2.35317 3.44036 12.9308 2.16706 3.66127 13.1229 
2.9229 3.13041 12.8851 3.29173 2.65856 12.6391 3.49061 2.80081 12.9144 
3.29173 2.65856 12.6391 3.68758 2.39674 12.6593 3.49061 2.80081 12.9144 
3.68758 2.39674 12.6593 4.07 1.91894 12.5401 4.16511 2.0557 12.7297 
4.37101 1.56467 12.5091 4.60736 1.05655 12.3661 4.71228 1.14512 12.5203 
4.60736 1.05655 12.3661 4.78136 0.463862 12.1924 4.95373 0.464983 12.3479 
5.01856 -0.626301 11.9758 4.95914 -1.1753 11.805 5.15535 -1.07804 11.9964 
4.95914 -1.1753 11.805 4.93297 -1.74648 11.7017 5.18386 -1.5117 11.9588 
4.93297 -1.74648 11.7017 4.74612 -2.27073 11.5391 4.92685 -2.36671 11.6862 
4.74612 -2.27073 11.5391 4.60217 -2.66951 11.4463 4.76231 -2.76198 11.5758 
4.60217 -2.66951 11.4463 4.41342 -3.06956 11.3501 4.56483 -3.15954 11.4721 
4.41342 -3.06956 11.3501 4.09687 -3.39344 11.1951 4.33438 -3.57014 11.3835 
4.09687 -3.39344 11.1951 3.92561 -3.80994 11.1723 4.06865 -3.92727 11.2913 
3.92561 -3.80994 11.1723 3.55128 -4.22166 11.0701 3.66912 -4.38881 11.1869 
2.69234 -4.97512 10.9315 2.1832 -5.18498 10.8424 2.26719 -5.36798 10.9528 
1.06616 -5.56459 10.7488 0.449023 -5.65635 10.7292 0.582276 -5.84474 10.8361 
0.449023 -5.65635 10.7292 -0.225675 -5.67449 10.7235 0.213184 -5.87131 10.8279 
-1.48689 -5.55171 10.8196 -1.9832 -5.27478 10.8208 -2.05318 -5.46057 10.9277 
-1.9832 -5.27478 10.8208 -2.48983 -5.02922 10.8801 -2.58278 -5.19619 10.9847 
-3.34424 -4.49266 11.0477 -3.635 -4.13956 11.0934 -3.83207 -4.22641 11.2294 
-3.635 -4.13956 11.0934 -4.01281 -3.7093 11.2001 -3.83207 -4.22641 11.2294 
-4.01281 -3.7093 11.2001 -4.31963 -3.23768 11.3108 -4.45173 -3.40893 11.4349 
-4.60522 -2.82873 11.4542 -4.78404 -2.14563 11.5678 -4.95511 -2.22068 11.7053 
-5.13292 -0.541517 12.1115 -4.97154 -0.0980731 12.1115 -5.2129 -0.287951 12.2898 
-1.94916 3.74676 13.1369 -1.45244 3.82391 13.0439 -1.68338 3.92474 13.2894 
-1.03828 4.03033 13.2156 -0.459311 4.00557 13.0829 -0.589889 4.1273 13.2878 
1.39989 3.94135 13.192 1.73037 3.72491 13.0116 1.85278 3.82871 13.2156 
2.16706 3.66127 13.1229 2.35317 3.44036 12.9308 2.64292 3.46776 13.1374 
2.35317 3.44036 12.9308 2.9229 3.13041 12.8851 2.64292 3.46776 13.1374 
4.16511 2.0557 12.7297 4.37101 1.56467 12.5091 4.51539 1.67817 12.7448 
4.95373 0.464983 12.3479 4.96386 -0.0924489 12.1063 5.12728 -0.0982656 12.2678 
4.96386 -0.0924489 12.1063 5.01856 -0.626301 11.9758 5.17529 -0.550675 12.1556 
5.18386 -1.5117 11.9588 4.93297 -1.74648 11.7017 5.14065 -2.13314 11.8893 
3.66912 -4.38881 11.1869 3.13292 -4.66883 11.0061 3.25413 -4.82382 11.1355 
3.13292 -4.66883 11.0061 2.69234 -4.97512 10.9315 2.80739 -5.13256 11.0561 
2.26719 -5.36798 10.9528 1.72745 -5.45761 10.8288 2.05691 -5.60236 11.0139 
-0.395144 -5.86856 10.8335 -0.920531 -5.66728 10.777 -1.05872 -5.90506 10.9349 
-0.920531 -5.66728 10.777 -1.48689 -5.55171 10.8196 -1.05872 -5.90506 10.9349 
-2.58278 -5.19619 10.9847 -3.00259 -4.77297 10.9845 -3.12747 -5.00157 11.1533 
-3.00259 -4.77297 10.9845 -3.34424 -4.49266 11.0477 -3.48748 -4.71717 11.2208 
-4.45173 -3.40893 11.4349 -4.60522 -2.82873 11.4542 -4.67812 -3.22822 11.5859 
-4.95511 -2.22068 11.7053 -4.97301 -1.61406 11.7494 -5.12728 -1.67947 11.8882 
-4.97301 -1.61406 11.7494 -5.01353 -1.07534 11.8646 -5.15729 -1.08628 11.9962 
-5.15729 -1.08628 11.9962 -5.13292 -0.541517 12.1115 -5.28765 -0.682437 12.2502 
-5.2129 -0.287951 12.2898 -5.04495 0.134456 12.28 -5.20623 0.241798 12.5309 
-5.04495 0.134456 12.28 -4.92327 0.606662 12.3957 -5.20623 0.241798 12.5309 
-4.92327 0.606662 12.3957 -4.76057 1.01389 12.4831 -4.99576 0.931717 12.7068 
-4.76057 1.01389 12.4831 -4.56221 1.41787 12.573 -4.66791 1.51325 12.7708 
-4.56221 1.41787 12.573 -4.33518 1.82244 12.6838 -4.66791 1.51325 12.7708 
-4.33518 1.82244 12.6838 -4.06554 2.18481 12.7636 -4.32381 2.05381 12.9065 
-4.06554 2.18481 12.7636 -3.68237 2.62393 12.8737 -4.02812 2.42382 12.9953 
-3.68237 2.62393 12.8737 -3.24193 3.00418 12.9595 -3.67099 2.85714 13.169 
-3.24193 3.00418 12.9595 -2.84954 3.2867 13.029 -3.17243 3.25217 13.2573 
-2.84954 3.2867 13.029 -2.38905 3.54959 13.0879 -2.63919 3.58102 13.3194 
-2.38905 3.54959 13.0879 -1.94916 3.74676 13.1369 -2.10714 3.80589 13.3271 
-1.68338 3.92474 13.2894 -1.03828 4.03033 13.2156 -1.42942 4.11026 13.5256 
-1.03828 4.03033 13.2156 -0.589889 4.1273 13.2878 -0.737467 4.2394 13.5401 
-0.589889 4.1273 13.2878 -0.197985 4.11729 13.2238 -0.131787 4.26912 13.5046 
-0.197985 4.11729 13.2238 0.370993 4.11971 13.2376 -0.131787 4.26912 13.5046 
0.370993 4.11971 13.2376 0.934268 4.04422 13.2152 0.853674 4.19565 13.4772 
0.934268 4.04422 13.2152 1.39989 3.94135 13.192 1.2284 4.11897 13.451 
1.39989 3.94135 13.192 1.85278 3.82871 13.2156 1.69422 4.0348 13.5118 
1.85278 3.82871 13.2156 2.16706 3.66127 13.1229 2.13891 3.82682 13.3889 
2.16706 3.66127 13.1229 2.64292 3.46776 13.1374 2.66599 3.56705 13.3179 
2.64292 3.46776 13.1374 3.09251 3.16107 13.0467 3.08412 3.30636 13.2635 
3.09251 3.16107 13.0467 3.49061 2.80081 12.9144 3.50499 2.98983 13.1874 
3.49061 2.80081 12.9144 3.84082 2.44766 12.8291 3.8706 2.5955 13.0365 
3.84082 2.44766 12.8291 4.16511 2.0557 12.7297 4.24773 2.14407 12.9124 
4.51539 1.67817 12.7448 4.71228 1.14512 12.5203 4.80485 1.34796 12.7972 
4.71228 1.14512 12.5203 4.95373 0.464983 12.3479 4.98912 0.805296 12.6067 
4.95373 0.464983 12.3479 5.12728 -0.0982656 12.2678 5.13333 0.313363 12.4772 
5.12728 -0.0982656 12.2678 5.17529 -0.550675 12.1556 5.31717 -0.517879 12.3395 
5.17529 -0.550675 12.1556 5.15535 -1.07804 11.9964 5.33491 -1.03058 12.2162 
4.92685 -2.36671 11.6862 4.76231 -2.76198 11.5758 4.99515 -2.79608 11.8109 
4.76231 -2.76198 11.5758 4.56483 -3.15954 11.4721 4.668 -3.34399 11.605 
4.56483 -3.15954 11.4721 4.33438 -3.57014 11.3835 4.668 -3.34399 11.605 
4.33438 -3.57014 11.3835 4.06865 -3.92727 11.2913 4.32381 -3.88694 11.4802 
4.06865 -3.92727 11.2913 3.66912 -4.38881 11.1869 4.02812 -4.25695 11.3914 
3.66912 -4.38881 11.1869 3.25413 -4.82382 11.1355 3.6715 -4.71986 11.3492 
3.25413 -4.82382 11.1355 2.80739 -5.13256 11.0561 3.17243 -5.11395 11.2488 
2.80739 -5.13256 11.0561 2.26719 -5.36798 10.9528 2.64631 -5.43986 11.1628 
1.68 -5.72812 10.9711 1.10366 -5.77692 10.8628 1.21707 -5.93064 10.9927 
1.10366 -5.77692 10.8628 0.582276 -5.84474 10.8361 0.679264 -6.03005 10.974 
0.582276 -5.84474 10.8361 0.213184 -5.87131 10.8279 0.307554 -6.11196 11.0017 
0.213184 -5.87131 10.8279 -0.395144 -5.86856 10.8335 -0.336037 -6.06839 10.9659 
-1.65287 -5.74688 10.9743 -2.05318 -5.46057 10.9277 -2.09084 -5.63343 11.0485 
-2.05318 -5.46057 10.9277 -2.58278 -5.19619 10.9847 -2.65066 -5.36677 11.1162 
-3.48748 -4.71717 11.2208 -3.83207 -4.22641 11.2294 -3.819 -4.55439 11.3761 
-3.83207 -4.22641 11.2294 -4.21943 -3.76648 11.3503 -4.32579 -3.95565 11.509 
-4.21943 -3.76648 11.3503 -4.45173 -3.40893 11.4349 -4.60924 -3.58974 11.6314 
-4.67812 -3.22822 11.5859 -4.91814 -2.70346 11.7107 -4.9373 -3.09505 11.821 
-4.95511 -2.22068 11.7053 -5.12728 -1.67947 11.8882 -5.13334 -2.14129 11.8879 
-5.12728 -1.67947 11.8882 -5.15729 -1.08628 11.9962 -5.33513 -1.18913 12.1841 
-5.33513 -1.18913 12.1841 -5.28765 -0.682437 12.2502 -5.43741 -0.936791 12.39 
-5.28765 -0.682437 12.2502 -5.2129 -0.287951 12.2898 -5.39619 -0.357163 12.5189 
-4.99576 0.931717 12.7068 -4.66791 1.51325 12.7708 -4.8277 1.48356 12.9821 
-4.66791 1.51325 12.7708 -4.32381 2.05381 12.9065 -4.56596 1.90468 13.0679 
-4.32381 2.05381 12.9065 -4.02812 2.42382 12.9953 -4.21786 2.37275 13.1801 
-2.63919 3.58102 13.3194 -2.10714 3.80589 13.3271 -2.27906 3.84389 13.5492 
-2.10714 3.80589 13.3271 -1.68338 3.92474 13.2894 -1.84129 4.00826 13.5685 
3.50499 2.98983 13.1874 3.8706 2.5955 13.0365 4.05388 2.5624 13.2268 
3.8706 2.5955 13.0365 4.24773 2.14407 12.9124 4.05388 2.5624 13.2268 
4.24773 2.14407 12.9124 4.51539 1.67817 12.7448 4.57199 1.88847 13.0546 
4.80485 1.34796 12.7972 4.98912 0.805296 12.6067 5.08314 0.920274 12.8438 
4.98912 0.805296 12.6067 5.13333 0.313363 12.4772 5.25966 0.397583 12.7154 
5.33491 -1.03058 12.2162 5.18386 -1.5117 11.9588 5.39317 -1.67436 12.2157 
5.18386 -1.5117 11.9588 5.14065 -2.13314 11.8893 5.39317 -1.67436 12.2157 
4.99515 -2.79608 11.8109 4.668 -3.34399 11.605 4.8277 -3.41318 11.8065 
4.668 -3.34399 11.605 4.32381 -3.88694 11.4802 4.56596 -3.82732 11.6917 
4.32381 -3.88694 11.4802 4.02812 -4.25695 11.3914 4.21193 -4.30007 11.5757 
2.64631 -5.43986 11.1628 2.05691 -5.60236 11.0139 2.15676 -5.80494 11.2084 
2.05691 -5.60236 11.0139 1.68 -5.72812 10.9711 1.81973 -5.93294 11.1772 
1.68 -5.72812 10.9711 1.21707 -5.93064 10.9927 1.46677 -6.04904 11.1575 
1.21707 -5.93064 10.9927 0.679264 -6.03005 10.974 0.87182 -6.18897 11.1378 
0.307554 -6.11196 11.0017 -0.336037 -6.06839 10.9659 -0.0152766 -6.24886 11.1148 
-0.336037 -6.06839 10.9659 -1.05872 -5.90506 10.9349 -0.65408 -6.22083 11.1315 
-1.05872 -5.90506 10.9349 -1.65287 -5.74688 10.9743 -1.47158 -6.04945 11.1593 
-1.65287 -5.74688 10.9743 -2.09084 -5.63343 11.0485 -1.95466 -5.89305 11.1966 
-2.09084 -5.63343 11.0485 -2.65066 -5.36677 11.1162 -2.41733 -5.7071 11.254 
-2.65066 -5.36677 11.1162 -3.12747 -5.00157 11.1533 -3.12842 -5.28492 11.3463 
-3.12747 -5.00157 11.1533 -3.48748 -4.71717 11.2208 -3.443 -5.04698 11.3956 
-4.9373 -3.09505 11.821 -4.91814 -2.70346 11.7107 -5.16799 -2.61932 11.9896 
-4.91814 -2.70346 11.7107 -5.13334 -2.14129 11.8879 -5.16799 -2.61932 11.9896 
-5.39619 -0.357163 12.5189 -5.20623 0.241798 12.5309 -5.38993 0.20065 12.8255 
-5.20623 0.241798 12.5309 -4.99576 0.931717 12.7068 -5.18983 0.6904 12.8354 
-4.21786 2.37275 13.1801 -3.67099 2.85714 13.169 -3.93489 2.75145 13.398 
-3.67099 2.85714 13.169 -3.17243 3.25217 13.2573 -3.24751 3.29215 13.4369 
-3.17243 3.25217 13.2573 -2.63919 3.58102 13.3194 -2.82993 3.56721 13.5114 
-0.737467 4.2394 13.5401 -0.131787 4.26912 13.5046 -0.374458 4.34901 13.7816 
0.465991 4.28301 13.5829 0.853674 4.19565 13.4772 0.874436 4.29343 13.7682 
0.853674 4.19565 13.4772 1.2284 4.11897 13.451 1.239 4.1977 13.6628 
1.69422 4.0348 13.5118 2.13891 3.82682 13.3889 2.18132 3.89402 13.5899 
2.13891 3.82682 13.3889 2.66599 3.56705 13.3179 2.73472 3.61682 13.5011 
2.66599 3.56705 13.3179 3.08412 3.30636 13.2635 3.24517 3.29963 13.453 
3.08412 3.30636 13.2635 3.50499 2.98983 13.1874 3.24517 3.29963 13.453 
4.57199 1.88847 13.0546 4.80485 1.34796 12.7972 4.91269 1.365 13.001 
5.34313 -0.147933 12.5283 5.31717 -0.517879 12.3395 5.52129 -0.562593 12.6706 
5.31717 -0.517879 12.3395 5.33491 -1.03058 12.2162 5.44863 -0.977655 12.4004 
5.39317 -1.67436 12.2157 5.14065 -2.13314 11.8893 5.25979 -2.46334 12.0928 
5.14065 -2.13314 11.8893 4.99515 -2.79608 11.8109 5.25979 -2.46334 12.0928 
4.21193 -4.30007 11.5757 3.6715 -4.71986 11.3492 3.93489 -4.7317 11.6015 
3.6715 -4.71986 11.3492 3.17243 -5.11395 11.2488 3.24751 -5.23111 11.3907 
3.17243 -5.11395 11.2488 2.64631 -5.43986 11.1628 2.69039 -5.57922 11.2971 
0.87182 -6.18897 11.1378 0.307554 -6.11196 11.0017 0.374458 -6.32926 11.2179 
-0.0152766 -6.24886 11.1148 -0.336037 -6.06839 10.9659 -0.65408 -6.22083 11.1315 
-4.1181 -4.33746 11.5051 -4.32579 -3.95565 11.509 -4.50461 -3.9765 11.7045 
-4.32579 -3.95565 11.509 -4.60924 -3.58974 11.6314 -4.50461 -3.9765 11.7045 
-5.33943 -1.74011 12.1373 -5.33513 -1.18913 12.1841 -5.44241 -1.45796 12.3196 
-5.43741 -0.936791 12.39 -5.39619 -0.357163 12.5189 -5.55723 -0.649143 12.7165 
-5.39619 -0.357163 12.5189 -5.38993 0.20065 12.8255 -5.50133 -0.148421 12.8507 
-5.38993 0.20065 12.8255 -5.18983 0.6904 12.8354 -5.36571 0.54987 13.0964 
-5.18983 0.6904 12.8354 -5.05203 1.03833 12.9043 -5.15428 1.02962 13.118 
-5.05203 1.03833 12.9043 -4.8277 1.48356 12.9821 -4.94485 1.47388 13.2263 
-4.8277 1.48356 12.9821 -4.56596 1.90468 13.0679 -4.68719 1.90345 13.3278 
-4.56596 1.90468 13.0679 -4.21786 2.37275 13.1801 -4.47556 2.20203 13.4059 
-3.93489 2.75145 13.398 -3.6285 2.99377 13.3737 -3.7228 3.01038 13.6034 
-3.6285 2.99377 13.3737 -3.24751 3.29215 13.4369 -3.41509 3.25661 13.6591 
-3.24751 3.29215 13.4369 -2.82993 3.56721 13.5114 -3.10845 3.47433 13.7132 
-2.82993 3.56721 13.5114 -2.27906 3.84389 13.5492 -2.67419 3.73579 13.7892 
-2.27906 3.84389 13.5492 -1.84129 4.00826 13.5685 -1.86439 4.08167 13.8572 
-1.84129 4.00826 13.5685 -1.42942 4.11026 13.5256 -1.35152 4.23478 13.8841 
-1.42942 4.11026 13.5256 -1.07132 4.19632 13.5598 -1.35152 4.23478 13.8841 
-1.07132 4.19632 13.5598 -0.737467 4.2394 13.5401 -0.741509 4.34533 13.9083 
-0.374458 4.34901 13.7816 0.00725762 4.33624 13.696 -0.0166685 4.39667 13.9362 
0.00725762 4.33624 13.696 0.465991 4.28301 13.5829 0.487217 4.37418 13.9213 
0.874436 4.29343 13.7682 1.239 4.1977 13.6628 1.24258 4.2586 13.8962 
1.239 4.1977 13.6628 1.69422 4.0348 13.5118 1.62528 4.15839 13.8756 
1.69422 4.0348 13.5118 2.18132 3.89402 13.5899 1.98539 4.04018 13.849 
2.18132 3.89402 13.5899 2.73472 3.61682 13.5011 2.46353 3.84117 13.8111 
2.73472 3.61682 13.5011 3.24517 3.29963 13.453 3.21275 3.40231 13.6941 
3.24517 3.29963 13.453 3.63933 2.98438 13.3715 3.51675 3.18032 13.6426 
3.63933 2.98438 13.3715 4.05388 2.5624 13.2268 3.90678 2.84768 13.5762 
4.05388 2.5624 13.2268 4.37179 2.18392 13.1472 4.47663 2.20063 13.4056 
4.37179 2.18392 13.1472 4.57199 1.88847 13.0546 4.69475 1.89195 13.325 
4.57199 1.88847 13.0546 4.91269 1.365 13.001 4.97942 1.38772 13.173 
4.91269 1.365 13.001 5.08314 0.920274 12.8438 5.20475 0.906713 13.0949 
5.08314 0.920274 12.8438 5.25966 0.397583 12.7154 5.37565 0.415406 12.9792 
5.25966 0.397583 12.7154 5.34313 -0.147933 12.5283 5.49933 -0.167874 12.8305 
5.52129 -0.562593 12.6706 5.44863 -0.977655 12.4004 5.56749 -0.90395 12.6538 
5.44863 -0.977655 12.4004 5.39317 -1.67436 12.2157 5.55672 -1.39768 12.5361 
5.39317 -1.67436 12.2157 5.25979 -2.46334 12.0928 5.47536 -2.04309 12.3893 
5.25979 -2.46334 12.0928 5.05203 -2.98114 11.9393 5.15428 -3.0704 12.1337 
5.05203 -2.98114 11.9393 4.8277 -3.41318 11.8065 4.94485 -3.5154 12.0285 
4.8277 -3.41318 11.8065 4.56596 -3.82732 11.6917 4.68719 -3.94423 11.9239 
4.56596 -3.82732 11.6917 4.21193 -4.30007 11.5757 4.47556 -4.24574 11.8579 
3.93489 -4.7317 11.6015 3.6285 -4.93657 11.4698 3.7228 -5.05563 11.6669 
3.6285 -4.93657 11.4698 3.24751 -5.23111 11.3907 3.41509 -5.30032 11.6048 
3.24751 -5.23111 11.3907 2.69039 -5.57922 11.2971 3.10845 -5.51885 11.5541 
2.69039 -5.57922 11.2971 2.15676 -5.80494 11.2084 2.21218 -5.98972 11.4328 
2.15676 -5.80494 11.2084 1.81973 -5.93294 11.1772 1.86439 -6.12538 11.4067 
1.81973 -5.93294 11.1772 1.46677 -6.04904 11.1575 1.49568 -6.23635 11.3736 
1.46677 -6.04904 11.1575 0.87182 -6.18897 11.1378 1.13234 -6.3247 11.3588 
0.374458 -6.32926 11.2179 -0.0152766 -6.24886 11.1148 0.255641 -6.46963 11.379 
-0.0152766 -6.24886 11.1148 -0.65408 -6.22083 11.1315 -0.271007 -6.43699 11.3394 
-0.65408 -6.22083 11.1315 -1.09599 -6.14143 11.1438 -1.25499 -6.30039 11.3636 
-1.09599 -6.14143 11.1438 -1.47158 -6.04945 11.1593 -1.25499 -6.30039 11.3636 
-1.47158 -6.04945 11.1593 -1.95466 -5.89305 11.1966 -1.76158 -6.16768 11.4071 
-1.95466 -5.89305 11.1966 -2.41733 -5.7071 11.254 -2.20258 -6.00223 11.4427 
-2.41733 -5.7071 11.254 -2.82808 -5.47728 11.2996 -2.89944 -5.64346 11.5159 
-2.82808 -5.47728 11.2996 -3.12842 -5.28492 11.3463 -3.21275 -5.44602 11.5698 
-3.12842 -5.28492 11.3463 -3.443 -5.04698 11.3956 -3.51982 -5.2165 11.6184 
-3.443 -5.04698 11.3956 -3.81451 -4.76058 11.5017 -3.89782 -4.89641 11.7033 
-3.81451 -4.76058 11.5017 -4.1181 -4.33746 11.5051 -4.2432 -4.52722 11.7839 
-4.1181 -4.33746 11.5051 -4.50461 -3.9765 11.7045 -4.47663 -4.24434 11.8583 
-4.8282 -3.55874 11.8831 -4.9373 -3.09505 11.821 -5.05303 -3.30898 12.0862 
-4.9373 -3.09505 11.821 -5.16799 -2.61932 11.9896 -5.27375 -2.7399 12.1943 
-5.16799 -2.61932 11.9896 -5.29998 -2.15854 12.1053 -5.42634 -2.24333 12.3387 
-5.29998 -2.15854 12.1053 -5.33943 -1.74011 12.1373 -5.51477 -1.72899 12.4387 
-5.33943 -1.74011 12.1373 -5.44241 -1.45796 12.3196 -5.51477 -1.72899 12.4387 
-5.44241 -1.45796 12.3196 -5.43741 -0.936791 12.39 -5.56749 -1.13683 12.5979 
-4.21921 2.51137 13.4674 -3.93489 2.75145 13.398 -4.02247 2.76955 13.6867 
-0.741509 4.34533 13.9083 -0.374458 4.34901 13.7816 -0.383217 4.40283 14.0788 
0.487217 4.37418 13.9213 0.874436 4.29343 13.7682 0.92186 4.354 14.1591 
4.21921 -4.54929 11.7723 3.93489 -4.7317 11.6015 4.02247 -4.87889 11.8505 
0.741674 -6.38331 11.3324 0.374458 -6.32926 11.2179 0.255641 -6.46963 11.379 
-4.6977 -3.92256 11.9233 -4.8282 -3.55874 11.8831 -4.93505 -3.68063 12.1382 
-5.56749 -1.13683 12.5979 -5.55723 -0.649143 12.7165 -5.6682 -0.857619 12.951 
-5.55723 -0.649143 12.7165 -5.50133 -0.148421 12.8507 -5.59542 -0.323596 13.0179 
-5.50133 -0.148421 12.8507 -5.38993 0.20065 12.8255 -5.54094 0.108724 13.2034 
-5.36571 0.54987 13.0964 -5.15428 1.02962 13.118 -5.26584 0.956621 13.3848 
-5.15428 1.02962 13.118 -4.94485 1.47388 13.2263 -5.06171 1.41097 13.5154 
-4.94485 1.47388 13.2263 -4.68719 1.90345 13.3278 -4.77187 1.8936 13.61 
-4.68719 1.90345 13.3278 -4.47556 2.20203 13.4059 -4.43373 2.35727 13.7268 
-4.47556 2.20203 13.4059 -4.21921 2.51137 13.4674 -4.43373 2.35727 13.7268 
-4.02247 2.76955 13.6867 -3.7228 3.01038 13.6034 -3.65338 3.13709 13.9314 
-3.7228 3.01038 13.6034 -3.41509 3.25661 13.6591 -3.65338 3.13709 13.9314 
-3.41509 3.25661 13.6591 -3.10845 3.47433 13.7132 -3.19179 3.47272 13.9979 
-3.10845 3.47433 13.7132 -2.67419 3.73579 13.7892 -2.81956 3.69634 14.042 
-2.67419 3.73579 13.7892 -2.21218 3.94894 13.8189 -2.53366 3.85194 14.1413 
-2.21218 3.94894 13.8189 -1.86439 4.08167 13.8572 -2.06918 4.04647 14.1219 
-1.86439 4.08167 13.8572 -1.35152 4.23478 13.8841 -1.79859 4.14707 14.2239 
-1.35152 4.23478 13.8841 -0.741509 4.34533 13.9083 -1.14315 4.31871 14.2208 
-0.383217 4.40283 14.0788 -0.0166685 4.39667 13.9362 -0.0597739 4.43203 14.304 
-0.0166685 4.39667 13.9362 0.487217 4.37418 13.9213 0.476249 4.40943 14.2189 
0.92186 4.354 14.1591 1.24258 4.2586 13.8962 1.28171 4.2856 14.1997 
1.24258 4.2586 13.8962 1.62528 4.15839 13.8756 1.69887 4.17796 14.2183 
1.62528 4.15839 13.8756 1.98539 4.04018 13.849 2.11749 4.0299 14.1314 
1.98539 4.04018 13.849 2.46353 3.84117 13.8111 2.47054 3.86761 14.0046 
2.46353 3.84117 13.8111 2.89944 3.60267 13.7357 2.91765 3.6408 14.0241 
2.89944 3.60267 13.7357 3.21275 3.40231 13.6941 3.19685 3.47059 14.0193 
3.21275 3.40231 13.6941 3.51675 3.18032 13.6426 3.60663 3.17413 13.9411 
3.51675 3.18032 13.6426 3.90678 2.84768 13.5762 3.92118 2.87949 13.7661 
3.90678 2.84768 13.5762 4.2432 2.48643 13.4678 4.24536 2.56945 13.7851 
4.2432 2.48643 13.4678 4.47663 2.20063 13.4056 4.48359 2.29292 13.718 
4.47663 2.20063 13.4056 4.69475 1.89195 13.325 4.70807 1.9877 13.6457 
4.69475 1.89195 13.325 4.97942 1.38772 13.173 4.91073 1.67582 13.5729 
4.97942 1.38772 13.173 5.20475 0.906713 13.0949 5.18476 1.15865 13.4471 
5.20475 0.906713 13.0949 5.37565 0.415406 12.9792 5.39382 0.635087 13.3477 
5.37565 0.415406 12.9792 5.49933 -0.167874 12.8305 5.57585 -0.18849 13.05 
5.49933 -0.167874 12.8305 5.52129 -0.562593 12.6706 5.66301 -0.714754 13.0014 
5.52129 -0.562593 12.6706 5.56749 -0.90395 12.6538 5.66301 -0.714754 13.0014 
5.56749 -0.90395 12.6538 5.55672 -1.39768 12.5361 5.669 -1.31048 12.8457 
5.55672 -1.39768 12.5361 5.47536 -2.04309 12.3893 5.62125 -1.86657 12.7406 
5.3658 -2.63947 12.3359 5.15428 -3.0704 12.1337 5.26584 -3.12647 12.4045 
5.15428 -3.0704 12.1337 4.94485 -3.5154 12.0285 5.06171 -3.5906 12.3146 
4.94485 -3.5154 12.0285 4.68719 -3.94423 11.9239 4.77187 -4.06359 12.1798 
4.68719 -3.94423 11.9239 4.47556 -4.24574 11.8579 4.43373 -4.52973 12.0733 
4.47556 -4.24574 11.8579 4.21921 -4.54929 11.7723 4.43373 -4.52973 12.0733 
4.02247 -4.87889 11.8505 3.7228 -5.05563 11.6669 3.65338 -5.31744 11.9016 
3.7228 -5.05563 11.6669 3.41509 -5.30032 11.6048 3.65338 -5.31744 11.9016 
3.41509 -5.30032 11.6048 3.10845 -5.51885 11.5541 3.19179 -5.64668 11.8085 
3.10845 -5.51885 11.5541 2.66905 -5.78806 11.5013 2.81916 -5.86589 11.7457 
2.66905 -5.78806 11.5013 2.21218 -5.98972 11.4328 2.5337 -6.04967 11.7642 
2.21218 -5.98972 11.4328 1.86439 -6.12538 11.4067 2.06918 -6.2142 11.6585 
1.86439 -6.12538 11.4067 1.49568 -6.23635 11.3736 1.79859 -6.35012 11.7037 
1.49568 -6.23635 11.3736 1.13234 -6.3247 11.3588 1.33269 -6.44783 11.6182 
1.13234 -6.3247 11.3588 0.741674 -6.38331 11.3324 0.992613 -6.52347 11.6119 
0.255641 -6.46963 11.379 -0.271007 -6.43699 11.3394 0.0592456 -6.63674 11.6376 
-0.271007 -6.43699 11.3394 -0.765239 -6.38394 11.3382 -0.496743 -6.58081 11.5829 
-0.765239 -6.38394 11.3382 -1.25499 -6.30039 11.3636 -0.965678 -6.52104 11.5972 
-1.25499 -6.30039 11.3636 -1.76158 -6.16768 11.4071 -1.52391 -6.35453 11.5566 
-1.76158 -6.16768 11.4071 -2.20258 -6.00223 11.4427 -2.10758 -6.20893 11.6757 
-2.20258 -6.00223 11.4427 -2.56329 -5.83019 11.4776 -2.57177 -6.00629 11.7287 
-2.56329 -5.83019 11.4776 -2.89944 -5.64346 11.5159 -2.91765 -5.80833 11.7555 
-2.89944 -5.64346 11.5159 -3.21275 -5.44602 11.5698 -3.19685 -5.65451 11.8286 
-3.21275 -5.44602 11.5698 -3.51982 -5.2165 11.6184 -3.60586 -5.35542 11.8932 
-3.51982 -5.2165 11.6184 -3.89782 -4.89641 11.7033 -3.97776 -5.00389 11.9387 
-3.89782 -4.89641 11.7033 -4.2432 -4.52722 11.7839 -4.2932 -4.68135 12.026 
-4.2432 -4.52722 11.7839 -4.47663 -4.24434 11.8583 -4.50807 -4.44555 12.1159 
-4.47663 -4.24434 11.8583 -4.6977 -3.92256 11.9233 -4.78018 -4.06167 12.1938 
-4.93505 -3.68063 12.1382 -5.05303 -3.30898 12.0862 -5.21549 -3.25572 12.3812 
-5.05303 -3.30898 12.0862 -5.27375 -2.7399 12.1943 -5.21549 -3.25572 12.3812 
-5.27375 -2.7399 12.1943 -5.42634 -2.24333 12.3387 -5.5022 -2.44134 12.588 
-5.42634 -2.24333 12.3387 -5.51477 -1.72899 12.4387 -5.57585 -1.9542 12.6261 
-5.51477 -1.72899 12.4387 -5.56749 -1.13683 12.5979 -5.66108 -1.47271 12.8161 
-5.6682 -0.857619 12.951 -5.59542 -0.323596 13.0179 -5.6604 -0.356165 13.3002 
-4.43373 2.35727 13.7268 -4.02247 2.76955 13.6867 -4.08347 2.74923 13.952 
-0.666966 4.38901 14.2259 -0.383217 4.40283 14.0788 -0.0597739 4.43203 14.304 
5.5022 0.262862 13.2372 5.57585 -0.18849 13.05 5.63851 -0.229531 13.3087 
4.43373 -4.52973 12.0733 4.02247 -4.87889 11.8505 4.08347 -4.98122 12.0961 
0.666966 -6.56661 11.5957 0.255641 -6.46963 11.379 0.0592456 -6.63674 11.6376 
-0.965678 -6.52104 11.5972 -1.52391 -6.35453 11.5566 -1.26367 -6.56767 11.8272 
-1.52391 -6.35453 11.5566 -2.10758 -6.20893 11.6757 -1.761 -6.39476 11.7718 
-4.78018 -4.06167 12.1938 -4.93505 -3.68063 12.1382 -5.07544 -3.69557 12.4885 
-4.93505 -3.68063 12.1382 -5.21549 -3.25572 12.3812 -5.07544 -3.69557 12.4885 
-5.5022 -2.44134 12.588 -5.57585 -1.9542 12.6261 -5.63836 -2.03541 12.8748 
-5.6604 -0.356165 13.3002 -5.54094 0.108724 13.2034 -5.611 -0.033193 13.4667 
-5.42106 0.597008 13.451 -5.26584 0.956621 13.3848 -5.323 0.908332 13.715 
-5.26584 0.956621 13.3848 -5.06171 1.41097 13.5154 -5.323 0.908332 13.715 
-5.06171 1.41097 13.5154 -4.77187 1.8936 13.61 -4.89932 1.7267 13.8865 
-4.77187 1.8936 13.61 -4.43373 2.35727 13.7268 -4.7052 2.02056 13.9535 
-4.08347 2.74923 13.952 -3.65338 3.13709 13.9314 -3.80983 3.00317 14.195 
-3.65338 3.13709 13.9314 -3.19179 3.47272 13.9979 -3.43682 3.29824 14.2704 
-3.19179 3.47272 13.9979 -2.81956 3.69634 14.042 -3.00873 3.58418 14.335 
-2.53366 3.85194 14.1413 -2.06918 4.04647 14.1219 -2.26117 3.96066 14.4299 
-1.79859 4.14707 14.2239 -1.14315 4.31871 14.2208 -1.43536 4.23404 14.4889 
-1.14315 4.31871 14.2208 -0.666966 4.38901 14.2259 -0.524763 4.39095 14.5276 
-0.666966 4.38901 14.2259 -0.0597739 4.43203 14.304 -0.524763 4.39095 14.5276 
-0.0597739 4.43203 14.304 0.476249 4.40943 14.2189 0.376066 4.39978 14.5284 
0.476249 4.40943 14.2189 0.92186 4.354 14.1591 0.73477 4.36772 14.5176 
0.92186 4.354 14.1591 1.28171 4.2856 14.1997 1.26621 4.27627 14.5032 
1.69887 4.17796 14.2183 2.11749 4.0299 14.1314 2.0323 4.05081 14.4475 
2.60327 3.8125 14.2231 2.91765 3.6408 14.0241 2.95415 3.61386 14.3545 
2.91765 3.6408 14.0241 3.19685 3.47059 14.0193 2.95415 3.61386 14.3545 
3.19685 3.47059 14.0193 3.60663 3.17413 13.9411 3.59896 3.17738 14.2282 
4.01327 2.82195 14.1073 4.24536 2.56945 13.7851 4.35095 2.46563 14.0758 
4.24536 2.56945 13.7851 4.48359 2.29292 13.718 4.35095 2.46563 14.0758 
4.48359 2.29292 13.718 4.70807 1.9877 13.6457 4.80122 1.88141 13.9237 
4.70807 1.9877 13.6457 4.91073 1.67582 13.5729 4.80122 1.88141 13.9237 
4.91073 1.67582 13.5729 5.18476 1.15865 13.4471 5.19075 1.199 13.7523 
5.39382 0.635087 13.3477 5.5022 0.262862 13.2372 5.55156 0.216476 13.5167 
5.63851 -0.229531 13.3087 5.66301 -0.714754 13.0014 5.71585 -0.738649 13.3155 
5.66301 -0.714754 13.0014 5.669 -1.31048 12.8457 5.72748 -1.25371 13.1673 
5.62125 -1.86657 12.7406 5.54094 -2.28867 12.6279 5.611 -2.28174 12.9269 
5.42106 -2.83613 12.6268 5.26584 -3.12647 12.4045 5.323 -3.23336 12.7207 
5.26584 -3.12647 12.4045 5.06171 -3.5906 12.3146 5.323 -3.23336 12.7207 
5.06171 -3.5906 12.3146 4.77187 -4.06359 12.1798 4.89932 -4.04038 12.5019 
4.77187 -4.06359 12.1798 4.43373 -4.52973 12.0733 4.7052 -4.33266 12.4282 
4.08347 -4.98122 12.0961 3.65338 -5.31744 11.9016 3.80983 -5.31779 12.1973 
3.65338 -5.31744 11.9016 3.19179 -5.64668 11.8085 3.43682 -5.61496 12.1306 
3.19179 -5.64668 11.8085 2.81916 -5.86589 11.7457 3.00873 -5.89905 12.0583 
2.5337 -6.04967 11.7642 2.06918 -6.2142 11.6585 2.26117 -6.27755 11.9719 
1.79859 -6.35012 11.7037 1.33269 -6.44783 11.6182 1.43536 -6.54795 11.9004 
1.33269 -6.44783 11.6182 0.992613 -6.52347 11.6119 1.0207 -6.638 11.8768 
0.992613 -6.52347 11.6119 0.666966 -6.56661 11.5957 0.524763 -6.70533 11.8636 
0.666966 -6.56661 11.5957 0.0592456 -6.63674 11.6376 0.524763 -6.70533 11.8636 
0.0592456 -6.63674 11.6376 -0.496743 -6.58081 11.5829 -0.376066 -6.71357 11.8604 
-0.496743 -6.58081 11.5829 -0.965678 -6.52104 11.5972 -0.73477 -6.6801 11.8653 
-1.761 -6.39476 11.7718 -2.10758 -6.20893 11.6757 -2.0323 -6.36588 11.9467 
-2.57177 -6.00629 11.7287 -2.91765 -5.80833 11.7555 -2.95415 -5.93435 12.0622 
-2.91765 -5.80833 11.7555 -3.19685 -5.65451 11.8286 -2.95415 -5.93435 12.0622 
-3.19685 -5.65451 11.8286 -3.60586 -5.35542 11.8932 -3.59896 -5.48807 12.1478 
-3.97776 -5.00389 11.9387 -4.2932 -4.68135 12.026 -4.2345 -4.91144 12.3028 
-4.2932 -4.68135 12.026 -4.50807 -4.44555 12.1159 -4.53339 -4.56107 12.3709 
-4.50807 -4.44555 12.1159 -4.78018 -4.06167 12.1938 -4.80534 -4.18858 12.4641 
-5.07544 -3.69557 12.4885 -5.21549 -3.25572 12.3812 -5.19879 -3.49369 12.6297 
-5.39614 -2.81402 12.5181 -5.5022 -2.44134 12.588 -5.55156 -2.5269 12.8581 
-5.63836 -2.03541 12.8748 -5.66108 -1.47271 12.8161 -5.69607 -1.75907 13.0646 
-5.66108 -1.47271 12.8161 -5.6682 -0.857619 12.951 -5.72945 -1.26953 13.1708 
-5.51399 0.348141 13.5575 -5.42106 0.597008 13.451 -5.323 0.908332 13.715 
-4.38943 2.42353 14.059 -4.08347 2.74923 13.952 -4.11224 2.70477 14.2586 
-3.00873 3.58418 14.335 -2.53366 3.85194 14.1413 -2.64564 3.76388 14.5139 
-2.26117 3.96066 14.4299 -1.79859 4.14707 14.2239 -1.80932 4.11524 14.5436 
-0.524763 4.39095 14.5276 -0.0597739 4.43203 14.304 -0.0095616 4.40013 14.6116 
1.26621 4.27627 14.5032 1.69887 4.17796 14.2183 1.67204 4.15713 14.551 
5.51399 -2.66275 12.8347 5.42106 -2.83613 12.6268 5.323 -3.23336 12.7207 
4.38943 -4.7396 12.3393 4.08347 -4.98122 12.0961 4.11224 -5.08077 12.3894 
3.00873 -5.89905 12.0583 2.5337 -6.04967 11.7642 2.64564 -6.14039 12.1361 
2.26117 -6.27755 11.9719 1.79859 -6.35012 11.7037 1.80932 -6.46691 12.003 
0.524763 -6.70533 11.8636 0.0592456 -6.63674 11.6376 0.0095616 -6.75162 11.9343 
-1.26367 -6.56767 11.8272 -1.761 -6.39476 11.7718 -1.67204 -6.50761 11.9906 
-3.91148 -5.22513 12.2194 -3.97776 -5.00389 11.9387 -4.2345 -4.91144 12.3028 
-5.72945 -1.26953 13.1708 -5.71325 -0.763829 13.278 -5.7329 -0.956535 13.4788 
-5.71325 -0.763829 13.278 -5.71507 -0.703077 13.5396 -5.72706 -0.85299 13.5036 
-5.71325 -0.763829 13.278 -5.6604 -0.356165 13.3002 -5.68882 -0.471303 13.5943 
-5.6604 -0.356165 13.3002 -5.611 -0.033193 13.4667 -5.63985 -0.176155 13.6701 
-5.611 -0.033193 13.4667 -5.59078 0.0488965 13.7201 -5.63985 -0.176155 13.6701 
-5.611 -0.033193 13.4667 -5.51399 0.348141 13.5575 -5.53648 0.262622 13.7646 
-5.51399 0.348141 13.5575 -5.323 0.908332 13.715 -5.44816 0.542951 13.8387 
-5.323 0.908332 13.715 -5.36234 0.77741 13.895 -5.44816 0.542951 13.8387 
-5.323 0.908332 13.715 -5.26374 1.01267 13.9515 -5.31943 0.883576 13.9205 
-5.323 0.908332 13.715 -5.09707 1.38464 13.8076 -5.16218 1.22815 14.0042 
-4.89932 1.7267 13.8865 -4.90338 1.68891 14.1139 -5.02031 1.49296 14.0735 
-5.02031 1.49296 14.0735 -5.09707 1.38464 13.8076 -4.89932 1.7267 13.8865 
-4.89932 1.7267 13.8865 -4.7052 2.02056 13.9535 -4.78239 1.87503 14.1601 
-4.38943 2.42353 14.059 -4.45169 2.31113 14.2633 -4.60602 2.11855 14.2172 
-4.60602 2.11855 14.2172 -4.7052 2.02056 13.9535 -4.38943 2.42353 14.059 
-4.38943 2.42353 14.059 -4.28223 2.5045 14.3097 -4.36982 2.40678 14.2862 
-4.11224 2.70477 14.2586 -3.80983 3.00317 14.195 -3.89332 2.88848 14.4092 
-3.80983 3.00317 14.195 -3.72211 3.03688 14.4375 -3.89332 2.88848 14.4092 
-3.80983 3.00317 14.195 -3.43682 3.29824 14.2704 -3.54466 3.17876 14.4724 
-3.00873 3.58418 14.335 -3.09266 3.49015 14.5463 -3.29739 3.357 14.5148 
-3.29739 3.357 14.5148 -3.43682 3.29824 14.2704 -3.00873 3.58418 14.335 
-3.00873 3.58418 14.335 -2.86942 3.62215 14.578 -2.97498 3.56142 14.5634 
-2.64564 3.76388 14.5139 -2.26117 3.96066 14.4299 -2.37433 3.86735 14.6513 
-2.26117 3.96066 14.4299 -2.16595 3.95706 14.6584 -2.37433 3.86735 14.6513 
-2.26117 3.96066 14.4299 -1.80932 4.11524 14.5436 -1.94818 4.03835 14.681 
-1.43536 4.23404 14.4889 -1.42213 4.19571 14.7157 -1.63286 4.13912 14.7021 
-1.63286 4.13912 14.7021 -1.80932 4.11524 14.5436 -1.43536 4.23404 14.4889 
-1.43536 4.23404 14.4889 -1.0207 4.32501 14.5087 -1.27701 4.22985 14.7239 
-1.0207 4.32501 14.5087 -1.1676 4.25305 14.7295 -1.27701 4.22985 14.7239 
-1.0207 4.32501 14.5087 -0.524763 4.39095 14.5276 -0.616074 4.33823 14.7502 
-0.524763 4.39095 14.5276 -0.391633 4.35675 14.7544 -0.616074 4.33823 14.7502 
-0.524763 4.39095 14.5276 -0.0095616 4.40013 14.6116 -0.183939 4.3669 14.7568 
-0.0095616 4.40013 14.6116 -0.130635 4.36832 14.7571 -0.183939 4.3669 14.7568 
0.376066 4.39978 14.5284 0.391633 4.35675 14.7544 0.183939 4.3669 14.7568 
0.183939 4.3669 14.7568 -0.0095616 4.40013 14.6116 0.376066 4.39978 14.5284 
0.376066 4.39978 14.5284 0.73477 4.36772 14.5176 0.614585 4.33863 14.749 
1.26621 4.27627 14.5032 1.1676 4.25305 14.7295 0.913282 4.2987 14.7404 
0.913282 4.2987 14.7404 0.73477 4.36772 14.5176 1.26621 4.27627 14.5032 
1.26621 4.27627 14.5032 1.42213 4.19571 14.7157 1.27701 4.22985 14.7239 
1.26621 4.27627 14.5032 1.67204 4.15713 14.551 1.63286 4.13912 14.7021 
1.67204 4.15713 14.551 1.67371 4.12717 14.6992 1.63286 4.13912 14.7021 
1.67204 4.15713 14.551 2.0323 4.05081 14.4475 1.94819 4.03814 14.6819 
2.0323 4.05081 14.4475 2.16595 3.95706 14.6584 1.94819 4.03814 14.6819 
2.0323 4.05081 14.4475 2.47481 3.86478 14.4192 2.37379 3.87213 14.6322 
2.95415 3.61386 14.3545 2.86942 3.62215 14.578 2.64734 3.74054 14.6064 
2.64734 3.74054 14.6064 2.47481 3.86478 14.4192 2.95415 3.61386 14.3545 
2.95415 3.61386 14.3545 3.09266 3.49015 14.5463 2.97498 3.56142 14.5634 
2.95415 3.61386 14.3545 3.30492 3.39175 14.2883 3.29739 3.35697 14.5149 
3.30492 3.39175 14.2883 3.59896 3.17738 14.2282 3.54467 3.1785 14.4734 
3.59896 3.17738 14.2282 3.72211 3.03688 14.4375 3.54467 3.1785 14.4734 
3.59896 3.17738 14.2282 4.01327 2.82195 14.1073 3.89323 2.89125 14.3981 
4.35095 2.46563 14.0758 4.28223 2.5045 14.3097 4.1132 2.68088 14.352 
4.1132 2.68088 14.352 4.01327 2.82195 14.1073 4.35095 2.46563 14.0758 
4.35095 2.46563 14.0758 4.45169 2.31113 14.2633 4.36982 2.40678 14.2862 
4.35095 2.46563 14.0758 4.60449 2.15559 13.9908 4.60656 2.11856 14.2141 
4.60449 2.15559 13.9908 4.80122 1.88141 13.9237 4.78189 1.87538 14.1621 
4.80122 1.88141 13.9237 4.90338 1.68891 14.1139 4.78189 1.87538 14.1621 
4.80122 1.88141 13.9237 5.02678 1.51282 13.8366 5.02033 1.49549 14.0628 
5.02678 1.51282 13.8366 5.19075 1.199 13.7523 5.16218 1.22822 14.0039 
5.19075 1.199 13.7523 5.26374 1.01267 13.9515 5.16218 1.22822 14.0039 
5.19075 1.199 13.7523 5.39137 0.730847 13.6755 5.31943 0.883576 13.9205 
5.39137 0.730847 13.6755 5.36234 0.77741 13.895 5.31943 0.883576 13.9205 
5.39137 0.730847 13.6755 5.55156 0.216476 13.5167 5.53616 0.262173 13.7725 
5.55156 0.216476 13.5167 5.59078 0.0488965 13.7201 5.53616 0.262173 13.7725 
5.55156 0.216476 13.5167 5.63851 -0.229531 13.3087 5.63985 -0.174662 13.6637 
5.63851 -0.229531 13.3087 5.71585 -0.738649 13.3155 5.68882 -0.471392 13.5946 
5.71585 -0.738649 13.3155 5.71507 -0.703077 13.5396 5.68882 -0.471392 13.5946 
5.71585 -0.738649 13.3155 5.7329 -0.956535 13.4788 5.72706 -0.85299 13.5036 
5.71585 -0.738649 13.3155 5.72748 -1.25371 13.1673 5.73885 -1.21052 13.4178 
5.69873 -1.76285 13.0712 5.71507 -1.71796 13.296 5.72706 -1.56805 13.3319 
5.72706 -1.56805 13.3319 5.72748 -1.25371 13.1673 5.69873 -1.76285 13.0712 
5.69873 -1.76285 13.0712 5.611 -2.28174 12.9269 5.63985 -2.24669 13.173 
5.611 -2.28174 12.9269 5.59078 -2.46994 13.1154 5.63985 -2.24669 13.173 
5.611 -2.28174 12.9269 5.51399 -2.66275 12.8347 5.53648 -2.68053 13.058 
5.51399 -2.66275 12.8347 5.323 -3.23336 12.7207 5.44816 -2.96399 12.9968 
5.323 -3.23336 12.7207 5.36234 -3.19845 12.9405 5.44816 -2.96399 12.9968 
5.323 -3.23336 12.7207 5.26374 -3.43371 12.884 5.31943 -3.30462 12.915 
5.323 -3.23336 12.7207 5.09707 -3.69978 12.5869 5.16218 -3.6496 12.8331 
4.89932 -4.04038 12.5019 4.90338 -4.10994 12.7217 5.02031 -3.91702 12.7747 
5.02031 -3.91702 12.7747 5.09707 -3.69978 12.5869 4.89932 -4.04038 12.5019 
4.89932 -4.04038 12.5019 4.7052 -4.33266 12.4282 4.78239 -4.29677 12.6784 
4.38943 -4.7396 12.3393 4.45169 -4.73217 12.5723 4.60602 -4.53966 12.6187 
4.60602 -4.53966 12.6187 4.7052 -4.33266 12.4282 4.38943 -4.7396 12.3393 
4.38943 -4.7396 12.3393 4.28223 -4.92554 12.5259 4.36982 -4.82782 12.5493 
4.11224 -5.08077 12.3894 3.80983 -5.31779 12.1973 3.89332 -5.31288 12.4403 
3.80983 -5.31779 12.1973 3.72211 -5.45792 12.3981 3.89332 -5.31288 12.4403 
3.80983 -5.31779 12.1973 3.43682 -5.61496 12.1306 3.54466 -5.60016 12.3647 
3.00873 -5.89905 12.0583 3.09266 -5.91118 12.2892 3.29739 -5.77823 12.3216 
3.29739 -5.77823 12.3216 3.43682 -5.61496 12.1306 3.00873 -5.89905 12.0583 
3.00873 -5.89905 12.0583 2.86942 -6.04319 12.2576 2.97498 -5.98246 12.2721 
2.64564 -6.14039 12.1361 2.26117 -6.27755 11.9719 2.37433 -6.29492 12.2115 
2.26117 -6.27755 11.9719 2.16595 -6.3781 12.1772 2.37433 -6.29492 12.2115 
2.26117 -6.27755 11.9719 1.80932 -6.46691 12.003 1.94818 -6.4608 12.1604 
1.43536 -6.54795 11.9004 1.42213 -6.61675 12.1199 1.63286 -6.56016 12.1334 
1.63286 -6.56016 12.1334 1.80932 -6.46691 12.003 1.43536 -6.54795 11.9004 
1.43536 -6.54795 11.9004 1.0207 -6.638 11.8768 1.27701 -6.65089 12.1117 
1.0207 -6.638 11.8768 1.1676 -6.67408 12.1061 1.27701 -6.65089 12.1117 
1.0207 -6.638 11.8768 0.524763 -6.70533 11.8636 0.616074 -6.75942 12.0859 
0.524763 -6.70533 11.8636 0.391633 -6.77779 12.0812 0.616074 -6.75942 12.0859 
0.524763 -6.70533 11.8636 0.0095616 -6.75162 11.9343 0.183939 -6.78793 12.0788 
0.0095616 -6.75162 11.9343 0.130635 -6.78936 12.0784 0.183939 -6.78793 12.0788 
-0.376066 -6.71357 11.8604 -0.391633 -6.77779 12.0812 -0.183939 -6.78793 12.0788 
-0.183939 -6.78793 12.0788 0.0095616 -6.75162 11.9343 -0.376066 -6.71357 11.8604 
-0.376066 -6.71357 11.8604 -0.73477 -6.6801 11.8653 -0.614585 -6.7592 12.0846 
-1.26367 -6.56767 11.8272 -1.1676 -6.67408 12.1061 -0.913282 -6.71975 12.0951 
-0.913282 -6.71975 12.0951 -0.73477 -6.6801 11.8653 -1.26367 -6.56767 11.8272 
-1.26367 -6.56767 11.8272 -1.42213 -6.61675 12.1199 -1.27701 -6.65089 12.1117 
-1.26367 -6.56767 11.8272 -1.67204 -6.50761 11.9906 -1.63286 -6.56016 12.1334 
-1.67204 -6.50761 11.9906 -1.67371 -6.54821 12.1363 -1.63286 -6.56016 12.1334 
-1.67204 -6.50761 11.9906 -2.0323 -6.36588 11.9467 -1.94819 -6.461 12.1613 
-2.0323 -6.36588 11.9467 -2.16595 -6.3781 12.1772 -1.94819 -6.461 12.1613 
-2.0323 -6.36588 11.9467 -2.47481 -6.18729 12.0059 -2.37379 -6.29052 12.1924 
-2.95415 -5.93435 12.0622 -2.86942 -6.04319 12.2576 -2.64734 -6.16158 12.2291 
-2.64734 -6.16158 12.2291 -2.47481 -6.18729 12.0059 -2.95415 -5.93435 12.0622 
-2.95415 -5.93435 12.0622 -3.09266 -5.91118 12.2892 -2.97498 -5.98246 12.2721 
-2.95415 -5.93435 12.0622 -3.30492 -5.70639 12.1041 -3.29739 -5.77828 12.3218 
-3.30492 -5.70639 12.1041 -3.59896 -5.48807 12.1478 -3.54467 -5.6004 12.3658 
-3.59896 -5.48807 12.1478 -3.72211 -5.45792 12.3981 -3.54467 -5.6004 12.3658 
-3.59896 -5.48807 12.1478 -3.91148 -5.22513 12.2194 -3.89377 -5.30957 12.4283 
-3.91148 -5.22513 12.2194 -4.2345 -4.91144 12.3028 -4.1132 -5.10191 12.4835 
-4.2345 -4.91144 12.3028 -4.28223 -4.92554 12.5259 -4.1132 -5.10191 12.4835 
-4.2345 -4.91144 12.3028 -4.53339 -4.56107 12.3709 -4.36982 -4.82782 12.5493 
-4.53339 -4.56107 12.3709 -4.45169 -4.73217 12.5723 -4.36982 -4.82782 12.5493 
-4.53339 -4.56107 12.3709 -4.80534 -4.18858 12.4641 -4.78186 -4.2972 12.6765 
-4.80534 -4.18858 12.4641 -4.90338 -4.10994 12.7217 -4.78186 -4.2972 12.6765 
-4.80534 -4.18858 12.4641 -5.07544 -3.69557 12.4885 -5.02033 -3.91454 12.7645 
-5.07544 -3.69557 12.4885 -5.19879 -3.49369 12.6297 -5.16218 -3.64954 12.8329 
-5.19879 -3.49369 12.6297 -5.26374 -3.43371 12.884 -5.16218 -3.64954 12.8329 
-5.19879 -3.49369 12.6297 -5.39215 -3.05486 12.7665 -5.31943 -3.30462 12.915 
-5.39215 -3.05486 12.7665 -5.36234 -3.19845 12.9405 -5.31943 -3.30462 12.915 
-5.39215 -3.05486 12.7665 -5.55156 -2.5269 12.8581 -5.53616 -2.68376 13.0653 
-5.55156 -2.5269 12.8581 -5.59078 -2.46994 13.1154 -5.53616 -2.68376 13.0653 
-5.55156 -2.5269 12.8581 -5.63836 -2.03541 12.8748 -5.63985 -2.24513 13.1666 
-5.63836 -2.03541 12.8748 -5.69607 -1.75907 13.0646 -5.68882 -1.94938 13.2398 
-5.69607 -1.75907 13.0646 -5.71507 -1.71796 13.296 -5.68882 -1.94938 13.2398 
-5.69607 -1.75907 13.0646 -5.72945 -1.26953 13.1708 -5.72706 -1.56805 13.3319 
-5.72945 -1.26953 13.1708 -5.7329 -1.4645 13.3568 -5.72706 -1.56805 13.3319 
-5.73885 -1.21052 13.4178 -5.7329 -1.4645 13.3568 -5.72945 -1.26953 13.1708 
-5.72706 -1.56805 13.3319 -5.71507 -1.71796 13.296 -5.69607 -1.75907 13.0646 
-5.68882 -1.94938 13.2398 -5.63985 -2.24513 13.1666 -5.63836 -2.03541 12.8748 
-5.63985 -2.24513 13.1666 -5.59078 -2.46994 13.1154 -5.55156 -2.5269 12.8581 
-5.53616 -2.68376 13.0653 -5.44816 -2.96399 12.9968 -5.39215 -3.05486 12.7665 
-5.44816 -2.96399 12.9968 -5.36234 -3.19845 12.9405 -5.39215 -3.05486 12.7665 
-5.31943 -3.30462 12.915 -5.26374 -3.43371 12.884 -5.19879 -3.49369 12.6297 
-5.16218 -3.64954 12.8329 -5.02033 -3.91454 12.7645 -5.07544 -3.69557 12.4885 
-5.02033 -3.91454 12.7645 -4.90338 -4.10994 12.7217 -4.80534 -4.18858 12.4641 
-4.78186 -4.2972 12.6765 -4.60656 -4.53827 12.6159 -4.53339 -4.56107 12.3709 
-4.60656 -4.53827 12.6159 -4.45169 -4.73217 12.5723 -4.53339 -4.56107 12.3709 
-4.36982 -4.82782 12.5493 -4.28223 -4.92554 12.5259 -4.2345 -4.91144 12.3028 
-4.1132 -5.10191 12.4835 -3.89377 -5.30957 12.4283 -3.91148 -5.22513 12.2194 
-3.89377 -5.30957 12.4283 -3.72211 -5.45792 12.3981 -3.59896 -5.48807 12.1478 
-3.54467 -5.6004 12.3658 -3.29739 -5.77828 12.3218 -3.30492 -5.70639 12.1041 
-3.29739 -5.77828 12.3218 -3.09266 -5.91118 12.2892 -2.95415 -5.93435 12.0622 
-2.97498 -5.98246 12.2721 -2.86942 -6.04319 12.2576 -2.95415 -5.93435 12.0622 
-2.64734 -6.16158 12.2291 -2.37379 -6.29052 12.1924 -2.47481 -6.18729 12.0059 
-2.37379 -6.29052 12.1924 -2.16595 -6.3781 12.1772 -2.0323 -6.36588 11.9467 
-1.94819 -6.461 12.1613 -1.67371 -6.54821 12.1363 -1.67204 -6.50761 11.9906 
-1.63286 -6.56016 12.1334 -1.42213 -6.61675 12.1199 -1.26367 -6.56767 11.8272 
-1.27701 -6.65089 12.1117 -1.1676 -6.67408 12.1061 -1.26367 -6.56767 11.8272 
-0.913282 -6.71975 12.0951 -0.614585 -6.7592 12.0846 -0.73477 -6.6801 11.8653 
-0.614585 -6.7592 12.0846 -0.391633 -6.77779 12.0812 -0.376066 -6.71357 11.8604 
-0.183939 -6.78793 12.0788 -0.130635 -6.78936 12.0784 0.0095616 -6.75162 11.9343 
-0.130635 -6.78936 12.0784 0.130635 -6.78936 12.0784 0.0095616 -6.75162 11.9343 
0.183939 -6.78793 12.0788 0.391633 -6.77779 12.0812 0.524763 -6.70533 11.8636 
0.616074 -6.75942 12.0859 0.912935 -6.7194 12.0934 1.0207 -6.638 11.8768 
0.912935 -6.7194 12.0934 1.1676 -6.67408 12.1061 1.0207 -6.638 11.8768 
1.27701 -6.65089 12.1117 1.42213 -6.61675 12.1199 1.43536 -6.54795 11.9004 
1.63286 -6.56016 12.1334 1.67371 -6.54821 12.1363 1.80932 -6.46691 12.003 
1.67371 -6.54821 12.1363 1.94818 -6.4608 12.1604 1.80932 -6.46691 12.003 
1.94818 -6.4608 12.1604 2.16595 -6.3781 12.1772 2.26117 -6.27755 11.9719 
2.64564 -6.14039 12.1361 2.86942 -6.04319 12.2576 3.00873 -5.89905 12.0583 
2.97498 -5.98246 12.2721 3.09266 -5.91118 12.2892 3.00873 -5.89905 12.0583 
3.29739 -5.77823 12.3216 3.54466 -5.60016 12.3647 3.43682 -5.61496 12.1306 
3.54466 -5.60016 12.3647 3.72211 -5.45792 12.3981 3.80983 -5.31779 12.1973 
4.11224 -5.08077 12.3894 4.28223 -4.92554 12.5259 4.38943 -4.7396 12.3393 
4.36982 -4.82782 12.5493 4.45169 -4.73217 12.5723 4.38943 -4.7396 12.3393 
4.60602 -4.53966 12.6187 4.78239 -4.29677 12.6784 4.7052 -4.33266 12.4282 
4.78239 -4.29677 12.6784 4.90338 -4.10994 12.7217 4.89932 -4.04038 12.5019 
5.02031 -3.91702 12.7747 5.16218 -3.6496 12.8331 5.09707 -3.69978 12.5869 
5.16218 -3.6496 12.8331 5.26374 -3.43371 12.884 5.323 -3.23336 12.7207 
5.31943 -3.30462 12.915 5.36234 -3.19845 12.9405 5.323 -3.23336 12.7207 
5.44816 -2.96399 12.9968 5.53648 -2.68053 13.058 5.51399 -2.66275 12.8347 
5.53648 -2.68053 13.058 5.59078 -2.46994 13.1154 5.611 -2.28174 12.9269 
5.63985 -2.24669 13.173 5.68882 -1.94932 13.2395 5.69873 -1.76285 13.0712 
5.68882 -1.94932 13.2395 5.71507 -1.71796 13.296 5.69873 -1.76285 13.0712 
5.72706 -1.56805 13.3319 5.7329 -1.4645 13.3568 5.72748 -1.25371 13.1673 
5.7329 -1.4645 13.3568 5.73885 -1.21052 13.4178 5.72748 -1.25371 13.1673 
5.73885 -1.21052 13.4178 5.7329 -0.956535 13.4788 5.71585 -0.738649 13.3155 
5.72706 -0.85299 13.5036 5.71507 -0.703077 13.5396 5.71585 -0.738649 13.3155 
5.68882 -0.471392 13.5946 5.63985 -0.174662 13.6637 5.63851 -0.229531 13.3087 
5.63985 -0.174662 13.6637 5.59078 0.0488965 13.7201 5.55156 0.216476 13.5167 
5.53616 0.262173 13.7725 5.44816 0.542951 13.8387 5.39137 0.730847 13.6755 
5.44816 0.542951 13.8387 5.36234 0.77741 13.895 5.39137 0.730847 13.6755 
5.31943 0.883576 13.9205 5.26374 1.01267 13.9515 5.19075 1.199 13.7523 
5.16218 1.22822 14.0039 5.02033 1.49549 14.0628 5.02678 1.51282 13.8366 
5.02033 1.49549 14.0628 4.90338 1.68891 14.1139 4.80122 1.88141 13.9237 
4.78189 1.87538 14.1621 4.60656 2.11856 14.2141 4.60449 2.15559 13.9908 
4.60656 2.11856 14.2141 4.45169 2.31113 14.2633 4.35095 2.46563 14.0758 
4.36982 2.40678 14.2862 4.28223 2.5045 14.3097 4.35095 2.46563 14.0758 
4.1132 2.68088 14.352 3.89323 2.89125 14.3981 4.01327 2.82195 14.1073 
3.89323 2.89125 14.3981 3.72211 3.03688 14.4375 3.59896 3.17738 14.2282 
3.54467 3.1785 14.4734 3.29739 3.35697 14.5149 3.30492 3.39175 14.2883 
3.29739 3.35697 14.5149 3.09266 3.49015 14.5463 2.95415 3.61386 14.3545 
2.97498 3.56142 14.5634 2.86942 3.62215 14.578 2.95415 3.61386 14.3545 
2.64734 3.74054 14.6064 2.37379 3.87213 14.6322 2.47481 3.86478 14.4192 
2.37379 3.87213 14.6322 2.16595 3.95706 14.6584 2.0323 4.05081 14.4475 
1.94819 4.03814 14.6819 1.67371 4.12717 14.6992 1.67204 4.15713 14.551 
1.63286 4.13912 14.7021 1.42213 4.19571 14.7157 1.26621 4.27627 14.5032 
1.27701 4.22985 14.7239 1.1676 4.25305 14.7295 1.26621 4.27627 14.5032 
0.913282 4.2987 14.7404 0.614585 4.33863 14.749 0.73477 4.36772 14.5176 
0.614585 4.33863 14.749 0.391633 4.35675 14.7544 0.376066 4.39978 14.5284 
0.183939 4.3669 14.7568 0.130635 4.36832 14.7571 -0.0095616 4.40013 14.6116 
0.130635 4.36832 14.7571 -0.130635 4.36832 14.7571 -0.0095616 4.40013 14.6116 
-0.183939 4.3669 14.7568 -0.391633 4.35675 14.7544 -0.524763 4.39095 14.5276 
-0.616074 4.33823 14.7502 -0.912935 4.29917 14.7388 -1.0207 4.32501 14.5087 
-0.912935 4.29917 14.7388 -1.1676 4.25305 14.7295 -1.0207 4.32501 14.5087 
-1.27701 4.22985 14.7239 -1.42213 4.19571 14.7157 -1.43536 4.23404 14.4889 
-1.63286 4.13912 14.7021 -1.67371 4.12717 14.6992 -1.80932 4.11524 14.5436 
-1.67371 4.12717 14.6992 -1.94818 4.03835 14.681 -1.80932 4.11524 14.5436 
-1.94818 4.03835 14.681 -2.16595 3.95706 14.6584 -2.26117 3.96066 14.4299 
-2.64564 3.76388 14.5139 -2.86942 3.62215 14.578 -3.00873 3.58418 14.335 
-2.97498 3.56142 14.5634 -3.09266 3.49015 14.5463 -3.00873 3.58418 14.335 
-3.29739 3.357 14.5148 -3.54466 3.17876 14.4724 -3.43682 3.29824 14.2704 
-3.54466 3.17876 14.4724 -3.72211 3.03688 14.4375 -3.80983 3.00317 14.195 
-4.11224 2.70477 14.2586 -4.28223 2.5045 14.3097 -4.38943 2.42353 14.059 
-4.36982 2.40678 14.2862 -4.45169 2.31113 14.2633 -4.38943 2.42353 14.059 
-4.60602 2.11855 14.2172 -4.78239 1.87503 14.1601 -4.7052 2.02056 13.9535 
-4.78239 1.87503 14.1601 -4.90338 1.68891 14.1139 -4.89932 1.7267 13.8865 
-5.02031 1.49296 14.0735 -5.16218 1.22815 14.0042 -5.09707 1.38464 13.8076 
-5.16218 1.22815 14.0042 -5.26374 1.01267 13.9515 -5.323 0.908332 13.715 
-5.31943 0.883576 13.9205 -5.36234 0.77741 13.895 -5.323 0.908332 13.715 
-5.44816 0.542951 13.8387 -5.53648 0.262622 13.7646 -5.51399 0.348141 13.5575 
-5.53648 0.262622 13.7646 -5.59078 0.0488965 13.7201 -5.611 -0.033193 13.4667 
-5.63985 -0.176155 13.6701 -5.68882 -0.471303 13.5943 -5.6604 -0.356165 13.3002 
-5.68882 -0.471303 13.5943 -5.71507 -0.703077 13.5396 -5.71325 -0.763829 13.278 
-5.72706 -0.85299 13.5036 -5.7329 -0.956535 13.4788 -5.71325 -0.763829 13.278 
-5.7329 -0.956535 13.4788 -5.73885 -1.21052 13.4178 -5.72945 -1.26953 13.1708 
-5.55156 -2.5269 12.8581 -5.39215 -3.05486 12.7665 -5.39614 -2.81402 12.5181 
-2.95415 -5.93435 12.0622 -2.47481 -6.18729 12.0059 -2.57177 -6.00629 11.7287 
-2.0323 -6.36588 11.9467 -1.67204 -6.50761 11.9906 -1.761 -6.39476 11.7718 
-0.376066 -6.71357 11.8604 0.0095616 -6.75162 11.9343 0.0592456 -6.63674 11.6376 
1.43536 -6.54795 11.9004 1.80932 -6.46691 12.003 1.79859 -6.35012 11.7037 
2.26117 -6.27755 11.9719 2.64564 -6.14039 12.1361 2.5337 -6.04967 11.7642 
3.80983 -5.31779 12.1973 4.11224 -5.08077 12.3894 4.08347 -4.98122 12.0961 
5.611 -2.28174 12.9269 5.69873 -1.76285 13.0712 5.62125 -1.86657 12.7406 
5.55156 0.216476 13.5167 5.39137 0.730847 13.6755 5.39382 0.635087 13.3477 
2.95415 3.61386 14.3545 2.47481 3.86478 14.4192 2.60327 3.8125 14.2231 
2.0323 4.05081 14.4475 1.67204 4.15713 14.551 1.69887 4.17796 14.2183 
0.376066 4.39978 14.5284 -0.0095616 4.40013 14.6116 -0.0597739 4.43203 14.304 
-1.43536 4.23404 14.4889 -1.80932 4.11524 14.5436 -1.79859 4.14707 14.2239 
-2.26117 3.96066 14.4299 -2.64564 3.76388 14.5139 -2.53366 3.85194 14.1413 
-3.80983 3.00317 14.195 -4.11224 2.70477 14.2586 -4.08347 2.74923 13.952 
-5.72945 -1.26953 13.1708 -5.69607 -1.75907 13.0646 -5.66108 -1.47271 12.8161 
-5.63836 -2.03541 12.8748 -5.55156 -2.5269 12.8581 -5.5022 -2.44134 12.588 
-5.39614 -2.81402 12.5181 -5.39215 -3.05486 12.7665 -5.21549 -3.25572 12.3812 
-5.39215 -3.05486 12.7665 -5.19879 -3.49369 12.6297 -5.21549 -3.25572 12.3812 
-5.07544 -3.69557 12.4885 -4.80534 -4.18858 12.4641 -4.78018 -4.06167 12.1938 
-4.80534 -4.18858 12.4641 -4.53339 -4.56107 12.3709 -4.50807 -4.44555 12.1159 
-4.53339 -4.56107 12.3709 -4.2345 -4.91144 12.3028 -4.2932 -4.68135 12.026 
-3.97776 -5.00389 11.9387 -3.91148 -5.22513 12.2194 -3.60586 -5.35542 11.8932 
-3.91148 -5.22513 12.2194 -3.59896 -5.48807 12.1478 -3.60586 -5.35542 11.8932 
-3.59896 -5.48807 12.1478 -3.30492 -5.70639 12.1041 -3.19685 -5.65451 11.8286 
-3.30492 -5.70639 12.1041 -2.95415 -5.93435 12.0622 -3.19685 -5.65451 11.8286 
-2.57177 -6.00629 11.7287 -2.47481 -6.18729 12.0059 -2.10758 -6.20893 11.6757 
-2.47481 -6.18729 12.0059 -2.0323 -6.36588 11.9467 -2.10758 -6.20893 11.6757 
-1.26367 -6.56767 11.8272 -0.73477 -6.6801 11.8653 -0.965678 -6.52104 11.5972 
-0.73477 -6.6801 11.8653 -0.376066 -6.71357 11.8604 -0.496743 -6.58081 11.5829 
0.524763 -6.70533 11.8636 1.0207 -6.638 11.8768 0.992613 -6.52347 11.6119 
1.0207 -6.638 11.8768 1.43536 -6.54795 11.9004 1.33269 -6.44783 11.6182 
1.79859 -6.35012 11.7037 2.26117 -6.27755 11.9719 2.06918 -6.2142 11.6585 
2.5337 -6.04967 11.7642 3.00873 -5.89905 12.0583 2.81916 -5.86589 11.7457 
3.00873 -5.89905 12.0583 3.43682 -5.61496 12.1306 3.19179 -5.64668 11.8085 
3.43682 -5.61496 12.1306 3.80983 -5.31779 12.1973 3.65338 -5.31744 11.9016 
4.08347 -4.98122 12.0961 4.38943 -4.7396 12.3393 4.43373 -4.52973 12.0733 
4.38943 -4.7396 12.3393 4.7052 -4.33266 12.4282 4.43373 -4.52973 12.0733 
4.7052 -4.33266 12.4282 4.89932 -4.04038 12.5019 4.77187 -4.06359 12.1798 
4.89932 -4.04038 12.5019 5.09707 -3.69978 12.5869 5.06171 -3.5906 12.3146 
5.09707 -3.69978 12.5869 5.323 -3.23336 12.7207 5.06171 -3.5906 12.3146 
5.42106 -2.83613 12.6268 5.51399 -2.66275 12.8347 5.54094 -2.28867 12.6279 
5.51399 -2.66275 12.8347 5.611 -2.28174 12.9269 5.54094 -2.28867 12.6279 
5.62125 -1.86657 12.7406 5.69873 -1.76285 13.0712 5.669 -1.31048 12.8457 
5.69873 -1.76285 13.0712 5.72748 -1.25371 13.1673 5.669 -1.31048 12.8457 
5.72748 -1.25371 13.1673 5.71585 -0.738649 13.3155 5.66301 -0.714754 13.0014 
5.63851 -0.229531 13.3087 5.55156 0.216476 13.5167 5.5022 0.262862 13.2372 
5.39382 0.635087 13.3477 5.39137 0.730847 13.6755 5.18476 1.15865 13.4471 
5.39137 0.730847 13.6755 5.19075 1.199 13.7523 5.18476 1.15865 13.4471 
5.19075 1.199 13.7523 5.02678 1.51282 13.8366 4.91073 1.67582 13.5729 
5.02678 1.51282 13.8366 4.80122 1.88141 13.9237 4.91073 1.67582 13.5729 
4.80122 1.88141 13.9237 4.60449 2.15559 13.9908 4.48359 2.29292 13.718 
4.60449 2.15559 13.9908 4.35095 2.46563 14.0758 4.48359 2.29292 13.718 
4.01327 2.82195 14.1073 3.59896 3.17738 14.2282 3.60663 3.17413 13.9411 
3.59896 3.17738 14.2282 3.30492 3.39175 14.2883 3.19685 3.47059 14.0193 
3.30492 3.39175 14.2883 2.95415 3.61386 14.3545 3.19685 3.47059 14.0193 
2.60327 3.8125 14.2231 2.47481 3.86478 14.4192 2.11749 4.0299 14.1314 
2.47481 3.86478 14.4192 2.0323 4.05081 14.4475 2.11749 4.0299 14.1314 
1.69887 4.17796 14.2183 1.26621 4.27627 14.5032 1.28171 4.2856 14.1997 
1.26621 4.27627 14.5032 0.73477 4.36772 14.5176 0.92186 4.354 14.1591 
0.73477 4.36772 14.5176 0.376066 4.39978 14.5284 0.476249 4.40943 14.2189 
-0.524763 4.39095 14.5276 -1.0207 4.32501 14.5087 -1.14315 4.31871 14.2208 
-1.0207 4.32501 14.5087 -1.43536 4.23404 14.4889 -1.14315 4.31871 14.2208 
-1.79859 4.14707 14.2239 -2.26117 3.96066 14.4299 -2.06918 4.04647 14.1219 
-2.53366 3.85194 14.1413 -3.00873 3.58418 14.335 -2.81956 3.69634 14.042 
-3.00873 3.58418 14.335 -3.43682 3.29824 14.2704 -3.19179 3.47272 13.9979 
-3.43682 3.29824 14.2704 -3.80983 3.00317 14.195 -3.65338 3.13709 13.9314 
-4.08347 2.74923 13.952 -4.38943 2.42353 14.059 -4.43373 2.35727 13.7268 
-4.38943 2.42353 14.059 -4.7052 2.02056 13.9535 -4.43373 2.35727 13.7268 
-4.7052 2.02056 13.9535 -4.89932 1.7267 13.8865 -4.77187 1.8936 13.61 
-4.89932 1.7267 13.8865 -5.09707 1.38464 13.8076 -5.06171 1.41097 13.5154 
-5.09707 1.38464 13.8076 -5.323 0.908332 13.715 -5.06171 1.41097 13.5154 
-5.42106 0.597008 13.451 -5.51399 0.348141 13.5575 -5.54094 0.108724 13.2034 
-5.51399 0.348141 13.5575 -5.611 -0.033193 13.4667 -5.54094 0.108724 13.2034 
-5.6604 -0.356165 13.3002 -5.71325 -0.763829 13.278 -5.6682 -0.857619 12.951 
-5.71325 -0.763829 13.278 -5.72945 -1.26953 13.1708 -5.6682 -0.857619 12.951 
-5.66108 -1.47271 12.8161 -5.63836 -2.03541 12.8748 -5.57585 -1.9542 12.6261 
-1.761 -6.39476 11.7718 -1.26367 -6.56767 11.8272 -1.52391 -6.35453 11.5566 
3.65338 -5.31744 11.9016 4.08347 -4.98122 12.0961 4.02247 -4.87889 11.8505 
5.26584 -3.12647 12.4045 5.42106 -2.83613 12.6268 5.3658 -2.63947 12.3359 
5.42106 -2.83613 12.6268 5.54094 -2.28867 12.6279 5.3658 -2.63947 12.3359 
5.66301 -0.714754 13.0014 5.63851 -0.229531 13.3087 5.57585 -0.18849 13.05 
4.24536 2.56945 13.7851 4.01327 2.82195 14.1073 3.92118 2.87949 13.7661 
4.01327 2.82195 14.1073 3.60663 3.17413 13.9411 3.92118 2.87949 13.7661 
2.91765 3.6408 14.0241 2.60327 3.8125 14.2231 2.47054 3.86761 14.0046 
2.60327 3.8125 14.2231 2.11749 4.0299 14.1314 2.47054 3.86761 14.0046 
-3.65338 3.13709 13.9314 -4.08347 2.74923 13.952 -4.02247 2.76955 13.6867 
-5.26584 0.956621 13.3848 -5.42106 0.597008 13.451 -5.36571 0.54987 13.0964 
-5.42106 0.597008 13.451 -5.54094 0.108724 13.2034 -5.36571 0.54987 13.0964 
-5.54094 0.108724 13.2034 -5.6604 -0.356165 13.3002 -5.59542 -0.323596 13.0179 
-5.6682 -0.857619 12.951 -5.66108 -1.47271 12.8161 -5.56749 -1.13683 12.5979 
-5.66108 -1.47271 12.8161 -5.57585 -1.9542 12.6261 -5.51477 -1.72899 12.4387 
-5.57585 -1.9542 12.6261 -5.5022 -2.44134 12.588 -5.42634 -2.24333 12.3387 
-5.5022 -2.44134 12.588 -5.39614 -2.81402 12.5181 -5.27375 -2.7399 12.1943 
-5.39614 -2.81402 12.5181 -5.21549 -3.25572 12.3812 -5.27375 -2.7399 12.1943 
-4.93505 -3.68063 12.1382 -4.78018 -4.06167 12.1938 -4.6977 -3.92256 11.9233 
-4.78018 -4.06167 12.1938 -4.50807 -4.44555 12.1159 -4.47663 -4.24434 11.8583 
-4.50807 -4.44555 12.1159 -4.2932 -4.68135 12.026 -4.2432 -4.52722 11.7839 
-4.2932 -4.68135 12.026 -3.97776 -5.00389 11.9387 -3.89782 -4.89641 11.7033 
-3.97776 -5.00389 11.9387 -3.60586 -5.35542 11.8932 -3.51982 -5.2165 11.6184 
-3.60586 -5.35542 11.8932 -3.19685 -5.65451 11.8286 -3.21275 -5.44602 11.5698 
-3.19685 -5.65451 11.8286 -2.91765 -5.80833 11.7555 -2.89944 -5.64346 11.5159 
-2.91765 -5.80833 11.7555 -2.57177 -6.00629 11.7287 -2.56329 -5.83019 11.4776 
-2.57177 -6.00629 11.7287 -2.10758 -6.20893 11.6757 -2.20258 -6.00223 11.4427 
-2.10758 -6.20893 11.6757 -1.52391 -6.35453 11.5566 -1.76158 -6.16768 11.4071 
-1.52391 -6.35453 11.5566 -0.965678 -6.52104 11.5972 -1.25499 -6.30039 11.3636 
-0.965678 -6.52104 11.5972 -0.496743 -6.58081 11.5829 -0.765239 -6.38394 11.3382 
-0.496743 -6.58081 11.5829 0.0592456 -6.63674 11.6376 -0.271007 -6.43699 11.3394 
0.255641 -6.46963 11.379 0.666966 -6.56661 11.5957 0.741674 -6.38331 11.3324 
0.666966 -6.56661 11.5957 0.992613 -6.52347 11.6119 0.741674 -6.38331 11.3324 
0.992613 -6.52347 11.6119 1.33269 -6.44783 11.6182 1.13234 -6.3247 11.3588 
1.33269 -6.44783 11.6182 1.79859 -6.35012 11.7037 1.49568 -6.23635 11.3736 
1.79859 -6.35012 11.7037 2.06918 -6.2142 11.6585 1.86439 -6.12538 11.4067 
2.06918 -6.2142 11.6585 2.5337 -6.04967 11.7642 2.21218 -5.98972 11.4328 
2.5337 -6.04967 11.7642 2.81916 -5.86589 11.7457 2.66905 -5.78806 11.5013 
2.81916 -5.86589 11.7457 3.19179 -5.64668 11.8085 3.10845 -5.51885 11.5541 
3.19179 -5.64668 11.8085 3.65338 -5.31744 11.9016 3.41509 -5.30032 11.6048 
4.02247 -4.87889 11.8505 4.43373 -4.52973 12.0733 4.21921 -4.54929 11.7723 
4.43373 -4.52973 12.0733 4.77187 -4.06359 12.1798 4.68719 -3.94423 11.9239 
4.77187 -4.06359 12.1798 5.06171 -3.5906 12.3146 4.94485 -3.5154 12.0285 
5.06171 -3.5906 12.3146 5.26584 -3.12647 12.4045 5.15428 -3.0704 12.1337 
5.3658 -2.63947 12.3359 5.54094 -2.28867 12.6279 5.47536 -2.04309 12.3893 
5.54094 -2.28867 12.6279 5.62125 -1.86657 12.7406 5.47536 -2.04309 12.3893 
5.62125 -1.86657 12.7406 5.669 -1.31048 12.8457 5.55672 -1.39768 12.5361 
5.669 -1.31048 12.8457 5.66301 -0.714754 13.0014 5.56749 -0.90395 12.6538 
5.66301 -0.714754 13.0014 5.57585 -0.18849 13.05 5.49933 -0.167874 12.8305 
5.57585 -0.18849 13.05 5.5022 0.262862 13.2372 5.37565 0.415406 12.9792 
5.5022 0.262862 13.2372 5.39382 0.635087 13.3477 5.37565 0.415406 12.9792 
5.39382 0.635087 13.3477 5.18476 1.15865 13.4471 5.20475 0.906713 13.0949 
5.18476 1.15865 13.4471 4.91073 1.67582 13.5729 4.97942 1.38772 13.173 
4.91073 1.67582 13.5729 4.70807 1.9877 13.6457 4.69475 1.89195 13.325 
4.70807 1.9877 13.6457 4.48359 2.29292 13.718 4.47663 2.20063 13.4056 
4.48359 2.29292 13.718 4.24536 2.56945 13.7851 4.2432 2.48643 13.4678 
4.24536 2.56945 13.7851 3.92118 2.87949 13.7661 3.90678 2.84768 13.5762 
3.92118 2.87949 13.7661 3.60663 3.17413 13.9411 3.51675 3.18032 13.6426 
3.60663 3.17413 13.9411 3.19685 3.47059 14.0193 3.21275 3.40231 13.6941 
3.19685 3.47059 14.0193 2.91765 3.6408 14.0241 2.89944 3.60267 13.7357 
2.91765 3.6408 14.0241 2.47054 3.86761 14.0046 2.46353 3.84117 13.8111 
2.47054 3.86761 14.0046 2.11749 4.0299 14.1314 1.98539 4.04018 13.849 
2.11749 4.0299 14.1314 1.69887 4.17796 14.2183 1.62528 4.15839 13.8756 
1.69887 4.17796 14.2183 1.28171 4.2856 14.1997 1.24258 4.2586 13.8962 
0.92186 4.354 14.1591 0.476249 4.40943 14.2189 0.487217 4.37418 13.9213 
0.476249 4.40943 14.2189 -0.0597739 4.43203 14.304 -0.0166685 4.39667 13.9362 
-0.383217 4.40283 14.0788 -0.666966 4.38901 14.2259 -0.741509 4.34533 13.9083 
-0.666966 4.38901 14.2259 -1.14315 4.31871 14.2208 -0.741509 4.34533 13.9083 
-1.14315 4.31871 14.2208 -1.79859 4.14707 14.2239 -1.35152 4.23478 13.8841 
-1.79859 4.14707 14.2239 -2.06918 4.04647 14.1219 -1.86439 4.08167 13.8572 
-2.06918 4.04647 14.1219 -2.53366 3.85194 14.1413 -2.21218 3.94894 13.8189 
-2.53366 3.85194 14.1413 -2.81956 3.69634 14.042 -2.67419 3.73579 13.7892 
-2.81956 3.69634 14.042 -3.19179 3.47272 13.9979 -3.10845 3.47433 13.7132 
-3.19179 3.47272 13.9979 -3.65338 3.13709 13.9314 -3.41509 3.25661 13.6591 
-4.02247 2.76955 13.6867 -4.43373 2.35727 13.7268 -4.21921 2.51137 13.4674 
-4.43373 2.35727 13.7268 -4.77187 1.8936 13.61 -4.68719 1.90345 13.3278 
-4.77187 1.8936 13.61 -5.06171 1.41097 13.5154 -4.94485 1.47388 13.2263 
-5.06171 1.41097 13.5154 -5.26584 0.956621 13.3848 -5.15428 1.02962 13.118 
-5.36571 0.54987 13.0964 -5.54094 0.108724 13.2034 -5.38993 0.20065 12.8255 
-5.54094 0.108724 13.2034 -5.59542 -0.323596 13.0179 -5.50133 -0.148421 12.8507 
-5.59542 -0.323596 13.0179 -5.6682 -0.857619 12.951 -5.55723 -0.649143 12.7165 
-5.05303 -3.30898 12.0862 -4.93505 -3.68063 12.1382 -4.8282 -3.55874 11.8831 
3.7228 -5.05563 11.6669 4.02247 -4.87889 11.8505 3.93489 -4.7317 11.6015 
1.24258 4.2586 13.8962 0.92186 4.354 14.1591 0.874436 4.29343 13.7682 
-0.0166685 4.39667 13.9362 -0.383217 4.40283 14.0788 -0.374458 4.34901 13.7816 
-3.7228 3.01038 13.6034 -4.02247 2.76955 13.6867 -3.93489 2.75145 13.398 
-5.56749 -1.13683 12.5979 -5.51477 -1.72899 12.4387 -5.44241 -1.45796 12.3196 
-5.51477 -1.72899 12.4387 -5.42634 -2.24333 12.3387 -5.29998 -2.15854 12.1053 
-5.42634 -2.24333 12.3387 -5.27375 -2.7399 12.1943 -5.16799 -2.61932 11.9896 
-5.27375 -2.7399 12.1943 -5.05303 -3.30898 12.0862 -4.9373 -3.09505 11.821 
-4.8282 -3.55874 11.8831 -4.6977 -3.92256 11.9233 -4.50461 -3.9765 11.7045 
-4.6977 -3.92256 11.9233 -4.47663 -4.24434 11.8583 -4.50461 -3.9765 11.7045 
-4.47663 -4.24434 11.8583 -4.2432 -4.52722 11.7839 -4.1181 -4.33746 11.5051 
-4.2432 -4.52722 11.7839 -3.89782 -4.89641 11.7033 -3.81451 -4.76058 11.5017 
-3.89782 -4.89641 11.7033 -3.51982 -5.2165 11.6184 -3.443 -5.04698 11.3956 
-3.51982 -5.2165 11.6184 -3.21275 -5.44602 11.5698 -3.12842 -5.28492 11.3463 
-3.21275 -5.44602 11.5698 -2.89944 -5.64346 11.5159 -2.82808 -5.47728 11.2996 
-2.89944 -5.64346 11.5159 -2.56329 -5.83019 11.4776 -2.41733 -5.7071 11.254 
-2.56329 -5.83019 11.4776 -2.20258 -6.00223 11.4427 -2.41733 -5.7071 11.254 
-2.20258 -6.00223 11.4427 -1.76158 -6.16768 11.4071 -1.95466 -5.89305 11.1966 
-1.76158 -6.16768 11.4071 -1.25499 -6.30039 11.3636 -1.47158 -6.04945 11.1593 
-1.25499 -6.30039 11.3636 -0.765239 -6.38394 11.3382 -0.65408 -6.22083 11.1315 
-0.765239 -6.38394 11.3382 -0.271007 -6.43699 11.3394 -0.65408 -6.22083 11.1315 
-0.271007 -6.43699 11.3394 0.255641 -6.46963 11.379 -0.0152766 -6.24886 11.1148 
0.374458 -6.32926 11.2179 0.741674 -6.38331 11.3324 0.87182 -6.18897 11.1378 
0.741674 -6.38331 11.3324 1.13234 -6.3247 11.3588 0.87182 -6.18897 11.1378 
1.13234 -6.3247 11.3588 1.49568 -6.23635 11.3736 1.46677 -6.04904 11.1575 
1.49568 -6.23635 11.3736 1.86439 -6.12538 11.4067 1.81973 -5.93294 11.1772 
1.86439 -6.12538 11.4067 2.21218 -5.98972 11.4328 2.15676 -5.80494 11.2084 
2.21218 -5.98972 11.4328 2.66905 -5.78806 11.5013 2.69039 -5.57922 11.2971 
2.66905 -5.78806 11.5013 3.10845 -5.51885 11.5541 2.69039 -5.57922 11.2971 
3.10845 -5.51885 11.5541 3.41509 -5.30032 11.6048 3.24751 -5.23111 11.3907 
3.41509 -5.30032 11.6048 3.7228 -5.05563 11.6669 3.6285 -4.93657 11.4698 
3.93489 -4.7317 11.6015 4.21921 -4.54929 11.7723 4.21193 -4.30007 11.5757 
4.21921 -4.54929 11.7723 4.47556 -4.24574 11.8579 4.21193 -4.30007 11.5757 
4.47556 -4.24574 11.8579 4.68719 -3.94423 11.9239 4.56596 -3.82732 11.6917 
4.68719 -3.94423 11.9239 4.94485 -3.5154 12.0285 4.8277 -3.41318 11.8065 
4.94485 -3.5154 12.0285 5.15428 -3.0704 12.1337 5.05203 -2.98114 11.9393 
5.15428 -3.0704 12.1337 5.3658 -2.63947 12.3359 5.25979 -2.46334 12.0928 
5.3658 -2.63947 12.3359 5.47536 -2.04309 12.3893 5.25979 -2.46334 12.0928 
5.47536 -2.04309 12.3893 5.55672 -1.39768 12.5361 5.39317 -1.67436 12.2157 
5.55672 -1.39768 12.5361 5.56749 -0.90395 12.6538 5.44863 -0.977655 12.4004 
5.52129 -0.562593 12.6706 5.49933 -0.167874 12.8305 5.34313 -0.147933 12.5283 
5.49933 -0.167874 12.8305 5.37565 0.415406 12.9792 5.25966 0.397583 12.7154 
5.37565 0.415406 12.9792 5.20475 0.906713 13.0949 5.08314 0.920274 12.8438 
5.20475 0.906713 13.0949 4.97942 1.38772 13.173 4.91269 1.365 13.001 
4.97942 1.38772 13.173 4.69475 1.89195 13.325 4.57199 1.88847 13.0546 
4.69475 1.89195 13.325 4.47663 2.20063 13.4056 4.37179 2.18392 13.1472 
4.47663 2.20063 13.4056 4.2432 2.48643 13.4678 4.05388 2.5624 13.2268 
4.2432 2.48643 13.4678 3.90678 2.84768 13.5762 4.05388 2.5624 13.2268 
3.90678 2.84768 13.5762 3.51675 3.18032 13.6426 3.63933 2.98438 13.3715 
3.51675 3.18032 13.6426 3.21275 3.40231 13.6941 3.24517 3.29963 13.453 
3.21275 3.40231 13.6941 2.89944 3.60267 13.7357 2.73472 3.61682 13.5011 
2.89944 3.60267 13.7357 2.46353 3.84117 13.8111 2.73472 3.61682 13.5011 
2.46353 3.84117 13.8111 1.98539 4.04018 13.849 2.18132 3.89402 13.5899 
1.98539 4.04018 13.849 1.62528 4.15839 13.8756 1.69422 4.0348 13.5118 
1.62528 4.15839 13.8756 1.24258 4.2586 13.8962 1.239 4.1977 13.6628 
0.874436 4.29343 13.7682 0.487217 4.37418 13.9213 0.465991 4.28301 13.5829 
0.487217 4.37418 13.9213 -0.0166685 4.39667 13.9362 0.00725762 4.33624 13.696 
-0.374458 4.34901 13.7816 -0.741509 4.34533 13.9083 -0.737467 4.2394 13.5401 
-0.741509 4.34533 13.9083 -1.35152 4.23478 13.8841 -1.07132 4.19632 13.5598 
-1.35152 4.23478 13.8841 -1.86439 4.08167 13.8572 -1.84129 4.00826 13.5685 
-1.86439 4.08167 13.8572 -2.21218 3.94894 13.8189 -2.27906 3.84389 13.5492 
-2.21218 3.94894 13.8189 -2.67419 3.73579 13.7892 -2.27906 3.84389 13.5492 
-2.67419 3.73579 13.7892 -3.10845 3.47433 13.7132 -2.82993 3.56721 13.5114 
-3.10845 3.47433 13.7132 -3.41509 3.25661 13.6591 -3.24751 3.29215 13.4369 
-3.41509 3.25661 13.6591 -3.7228 3.01038 13.6034 -3.6285 2.99377 13.3737 
-3.93489 2.75145 13.398 -4.21921 2.51137 13.4674 -4.21786 2.37275 13.1801 
-4.21921 2.51137 13.4674 -4.47556 2.20203 13.4059 -4.21786 2.37275 13.1801 
-4.47556 2.20203 13.4059 -4.68719 1.90345 13.3278 -4.56596 1.90468 13.0679 
-4.68719 1.90345 13.3278 -4.94485 1.47388 13.2263 -4.8277 1.48356 12.9821 
-4.94485 1.47388 13.2263 -5.15428 1.02962 13.118 -5.05203 1.03833 12.9043 
-5.15428 1.02962 13.118 -5.36571 0.54987 13.0964 -5.18983 0.6904 12.8354 
-5.50133 -0.148421 12.8507 -5.55723 -0.649143 12.7165 -5.39619 -0.357163 12.5189 
-5.55723 -0.649143 12.7165 -5.56749 -1.13683 12.5979 -5.43741 -0.936791 12.39 
-5.43741 -0.936791 12.39 -5.44241 -1.45796 12.3196 -5.33513 -1.18913 12.1841 
-4.9373 -3.09505 11.821 -4.8282 -3.55874 11.8831 -4.60924 -3.58974 11.6314 
-4.8282 -3.55874 11.8831 -4.50461 -3.9765 11.7045 -4.60924 -3.58974 11.6314 
-4.1181 -4.33746 11.5051 -3.81451 -4.76058 11.5017 -3.819 -4.55439 11.3761 
-0.0152766 -6.24886 11.1148 0.374458 -6.32926 11.2179 0.307554 -6.11196 11.0017 
2.69039 -5.57922 11.2971 3.24751 -5.23111 11.3907 3.17243 -5.11395 11.2488 
3.24751 -5.23111 11.3907 3.6285 -4.93657 11.4698 3.6715 -4.71986 11.3492 
3.6285 -4.93657 11.4698 3.93489 -4.7317 11.6015 3.6715 -4.71986 11.3492 
4.8277 -3.41318 11.8065 5.05203 -2.98114 11.9393 4.99515 -2.79608 11.8109 
5.05203 -2.98114 11.9393 5.25979 -2.46334 12.0928 4.99515 -2.79608 11.8109 
5.39317 -1.67436 12.2157 5.44863 -0.977655 12.4004 5.33491 -1.03058 12.2162 
5.44863 -0.977655 12.4004 5.52129 -0.562593 12.6706 5.31717 -0.517879 12.3395 
5.08314 0.920274 12.8438 4.91269 1.365 13.001 4.80485 1.34796 12.7972 
4.05388 2.5624 13.2268 3.63933 2.98438 13.3715 3.50499 2.98983 13.1874 
3.63933 2.98438 13.3715 3.24517 3.29963 13.453 3.50499 2.98983 13.1874 
3.24517 3.29963 13.453 2.73472 3.61682 13.5011 2.66599 3.56705 13.3179 
2.73472 3.61682 13.5011 2.18132 3.89402 13.5899 2.13891 3.82682 13.3889 
1.69422 4.0348 13.5118 1.239 4.1977 13.6628 1.2284 4.11897 13.451 
1.239 4.1977 13.6628 0.874436 4.29343 13.7682 0.853674 4.19565 13.4772 
0.465991 4.28301 13.5829 0.00725762 4.33624 13.696 -0.131787 4.26912 13.5046 
0.00725762 4.33624 13.696 -0.374458 4.34901 13.7816 -0.131787 4.26912 13.5046 
-2.27906 3.84389 13.5492 -2.82993 3.56721 13.5114 -2.63919 3.58102 13.3194 
-2.82993 3.56721 13.5114 -3.24751 3.29215 13.4369 -3.17243 3.25217 13.2573 
-3.24751 3.29215 13.4369 -3.6285 2.99377 13.3737 -3.67099 2.85714 13.169 
-3.6285 2.99377 13.3737 -3.93489 2.75145 13.398 -3.67099 2.85714 13.169 
-4.8277 1.48356 12.9821 -5.05203 1.03833 12.9043 -4.99576 0.931717 12.7068 
-5.05203 1.03833 12.9043 -5.18983 0.6904 12.8354 -4.99576 0.931717 12.7068 
-5.18983 0.6904 12.8354 -5.38993 0.20065 12.8255 -5.20623 0.241798 12.5309 
-5.33943 -1.74011 12.1373 -5.29998 -2.15854 12.1053 -5.13334 -2.14129 11.8879 
-5.29998 -2.15854 12.1053 -5.16799 -2.61932 11.9896 -5.13334 -2.14129 11.8879 
-4.9373 -3.09505 11.821 -4.60924 -3.58974 11.6314 -4.67812 -3.22822 11.5859 
-3.819 -4.55439 11.3761 -3.81451 -4.76058 11.5017 -3.48748 -4.71717 11.2208 
-3.81451 -4.76058 11.5017 -3.443 -5.04698 11.3956 -3.48748 -4.71717 11.2208 
-3.443 -5.04698 11.3956 -3.12842 -5.28492 11.3463 -3.12747 -5.00157 11.1533 
-3.12842 -5.28492 11.3463 -2.82808 -5.47728 11.2996 -2.65066 -5.36677 11.1162 
-2.82808 -5.47728 11.2996 -2.41733 -5.7071 11.254 -2.65066 -5.36677 11.1162 
-2.41733 -5.7071 11.254 -1.95466 -5.89305 11.1966 -2.09084 -5.63343 11.0485 
-1.95466 -5.89305 11.1966 -1.47158 -6.04945 11.1593 -1.65287 -5.74688 10.9743 
-1.47158 -6.04945 11.1593 -1.09599 -6.14143 11.1438 -1.05872 -5.90506 10.9349 
-1.09599 -6.14143 11.1438 -0.65408 -6.22083 11.1315 -1.05872 -5.90506 10.9349 
0.307554 -6.11196 11.0017 0.87182 -6.18897 11.1378 0.679264 -6.03005 10.974 
0.87182 -6.18897 11.1378 1.46677 -6.04904 11.1575 1.21707 -5.93064 10.9927 
1.46677 -6.04904 11.1575 1.81973 -5.93294 11.1772 1.68 -5.72812 10.9711 
1.81973 -5.93294 11.1772 2.15676 -5.80494 11.2084 2.05691 -5.60236 11.0139 
2.15676 -5.80494 11.2084 2.69039 -5.57922 11.2971 2.64631 -5.43986 11.1628 
3.6715 -4.71986 11.3492 4.21193 -4.30007 11.5757 4.02812 -4.25695 11.3914 
4.21193 -4.30007 11.5757 4.56596 -3.82732 11.6917 4.32381 -3.88694 11.4802 
4.56596 -3.82732 11.6917 4.8277 -3.41318 11.8065 4.668 -3.34399 11.605 
5.34313 -0.147933 12.5283 5.25966 0.397583 12.7154 5.13333 0.313363 12.4772 
5.25966 0.397583 12.7154 5.08314 0.920274 12.8438 4.98912 0.805296 12.6067 
4.80485 1.34796 12.7972 4.57199 1.88847 13.0546 4.51539 1.67817 12.7448 
4.57199 1.88847 13.0546 4.37179 2.18392 13.1472 4.24773 2.14407 12.9124 
4.37179 2.18392 13.1472 4.05388 2.5624 13.2268 4.24773 2.14407 12.9124 
-1.42942 4.11026 13.5256 -1.84129 4.00826 13.5685 -1.68338 3.92474 13.2894 
-1.84129 4.00826 13.5685 -2.27906 3.84389 13.5492 -2.10714 3.80589 13.3271 
-3.67099 2.85714 13.169 -4.21786 2.37275 13.1801 -4.02812 2.42382 12.9953 
-4.21786 2.37275 13.1801 -4.56596 1.90468 13.0679 -4.32381 2.05381 12.9065 
-4.56596 1.90468 13.0679 -4.8277 1.48356 12.9821 -4.66791 1.51325 12.7708 
-5.20623 0.241798 12.5309 -5.39619 -0.357163 12.5189 -5.2129 -0.287951 12.2898 
-5.39619 -0.357163 12.5189 -5.43741 -0.936791 12.39 -5.28765 -0.682437 12.2502 
-5.33513 -1.18913 12.1841 -5.33943 -1.74011 12.1373 -5.12728 -1.67947 11.8882 
-5.33943 -1.74011 12.1373 -5.13334 -2.14129 11.8879 -5.12728 -1.67947 11.8882 
-5.13334 -2.14129 11.8879 -4.91814 -2.70346 11.7107 -4.95511 -2.22068 11.7053 
-4.67812 -3.22822 11.5859 -4.60924 -3.58974 11.6314 -4.45173 -3.40893 11.4349 
-4.60924 -3.58974 11.6314 -4.32579 -3.95565 11.509 -4.21943 -3.76648 11.3503 
-4.32579 -3.95565 11.509 -4.1181 -4.33746 11.5051 -3.83207 -4.22641 11.2294 
-4.1181 -4.33746 11.5051 -3.819 -4.55439 11.3761 -3.83207 -4.22641 11.2294 
-3.12747 -5.00157 11.1533 -2.65066 -5.36677 11.1162 -2.58278 -5.19619 10.9847 
-2.65066 -5.36677 11.1162 -2.09084 -5.63343 11.0485 -2.05318 -5.46057 10.9277 
-1.05872 -5.90506 10.9349 -0.336037 -6.06839 10.9659 -0.395144 -5.86856 10.8335 
-0.336037 -6.06839 10.9659 0.307554 -6.11196 11.0017 0.213184 -5.87131 10.8279 
0.307554 -6.11196 11.0017 0.679264 -6.03005 10.974 0.582276 -5.84474 10.8361 
0.679264 -6.03005 10.974 1.21707 -5.93064 10.9927 1.10366 -5.77692 10.8628 
2.05691 -5.60236 11.0139 2.64631 -5.43986 11.1628 2.26719 -5.36798 10.9528 
2.64631 -5.43986 11.1628 3.17243 -5.11395 11.2488 2.80739 -5.13256 11.0561 
3.17243 -5.11395 11.2488 3.6715 -4.71986 11.3492 3.25413 -4.82382 11.1355 
3.6715 -4.71986 11.3492 4.02812 -4.25695 11.3914 3.66912 -4.38881 11.1869 
4.02812 -4.25695 11.3914 4.32381 -3.88694 11.4802 4.06865 -3.92727 11.2913 
4.32381 -3.88694 11.4802 4.668 -3.34399 11.605 4.33438 -3.57014 11.3835 
4.668 -3.34399 11.605 4.99515 -2.79608 11.8109 4.76231 -2.76198 11.5758 
4.99515 -2.79608 11.8109 5.14065 -2.13314 11.8893 4.92685 -2.36671 11.6862 
5.18386 -1.5117 11.9588 5.33491 -1.03058 12.2162 5.15535 -1.07804 11.9964 
5.33491 -1.03058 12.2162 5.31717 -0.517879 12.3395 5.17529 -0.550675 12.1556 
5.31717 -0.517879 12.3395 5.34313 -0.147933 12.5283 5.12728 -0.0982656 12.2678 
5.34313 -0.147933 12.5283 5.13333 0.313363 12.4772 5.12728 -0.0982656 12.2678 
5.13333 0.313363 12.4772 4.98912 0.805296 12.6067 4.95373 0.464983 12.3479 
4.98912 0.805296 12.6067 4.80485 1.34796 12.7972 4.71228 1.14512 12.5203 
4.51539 1.67817 12.7448 4.24773 2.14407 12.9124 4.16511 2.0557 12.7297 
4.24773 2.14407 12.9124 3.8706 2.5955 13.0365 3.84082 2.44766 12.8291 
3.8706 2.5955 13.0365 3.50499 2.98983 13.1874 3.49061 2.80081 12.9144 
3.50499 2.98983 13.1874 3.08412 3.30636 13.2635 3.09251 3.16107 13.0467 
3.08412 3.30636 13.2635 2.66599 3.56705 13.3179 2.64292 3.46776 13.1374 
2.66599 3.56705 13.3179 2.13891 3.82682 13.3889 2.16706 3.66127 13.1229 
2.13891 3.82682 13.3889 1.69422 4.0348 13.5118 1.85278 3.82871 13.2156 
1.69422 4.0348 13.5118 1.2284 4.11897 13.451 1.39989 3.94135 13.192 
1.2284 4.11897 13.451 0.853674 4.19565 13.4772 0.934268 4.04422 13.2152 
0.853674 4.19565 13.4772 0.465991 4.28301 13.5829 0.370993 4.11971 13.2376 
0.465991 4.28301 13.5829 -0.131787 4.26912 13.5046 0.370993 4.11971 13.2376 
-0.131787 4.26912 13.5046 -0.737467 4.2394 13.5401 -0.589889 4.1273 13.2878 
-0.737467 4.2394 13.5401 -1.07132 4.19632 13.5598 -1.03828 4.03033 13.2156 
-1.07132 4.19632 13.5598 -1.42942 4.11026 13.5256 -1.03828 4.03033 13.2156 
-1.68338 3.92474 13.2894 -2.10714 3.80589 13.3271 -1.94916 3.74676 13.1369 
-2.10714 3.80589 13.3271 -2.63919 3.58102 13.3194 -2.38905 3.54959 13.0879 
-2.63919 3.58102 13.3194 -3.17243 3.25217 13.2573 -2.84954 3.2867 13.029 
-3.17243 3.25217 13.2573 -3.67099 2.85714 13.169 -3.24193 3.00418 12.9595 
-3.67099 2.85714 13.169 -4.02812 2.42382 12.9953 -3.68237 2.62393 12.8737 
-4.02812 2.42382 12.9953 -4.32381 2.05381 12.9065 -4.06554 2.18481 12.7636 
-4.32381 2.05381 12.9065 -4.66791 1.51325 12.7708 -4.33518 1.82244 12.6838 
-4.66791 1.51325 12.7708 -4.99576 0.931717 12.7068 -4.76057 1.01389 12.4831 
-4.99576 0.931717 12.7068 -5.20623 0.241798 12.5309 -4.92327 0.606662 12.3957 
-5.2129 -0.287951 12.2898 -5.28765 -0.682437 12.2502 -5.13292 -0.541517 12.1115 
-5.28765 -0.682437 12.2502 -5.33513 -1.18913 12.1841 -5.15729 -1.08628 11.9962 
-5.15729 -1.08628 11.9962 -5.12728 -1.67947 11.8882 -4.97301 -1.61406 11.7494 
-4.95511 -2.22068 11.7053 -4.91814 -2.70346 11.7107 -4.60522 -2.82873 11.4542 
-4.91814 -2.70346 11.7107 -4.67812 -3.22822 11.5859 -4.60522 -2.82873 11.4542 
-3.83207 -4.22641 11.2294 -3.48748 -4.71717 11.2208 -3.34424 -4.49266 11.0477 
-3.48748 -4.71717 11.2208 -3.12747 -5.00157 11.1533 -3.00259 -4.77297 10.9845 
-2.05318 -5.46057 10.9277 -1.65287 -5.74688 10.9743 -1.48689 -5.55171 10.8196 
-1.65287 -5.74688 10.9743 -1.05872 -5.90506 10.9349 -1.48689 -5.55171 10.8196 
1.10366 -5.77692 10.8628 1.68 -5.72812 10.9711 1.72745 -5.45761 10.8288 
1.68 -5.72812 10.9711 2.05691 -5.60236 11.0139 1.72745 -5.45761 10.8288 
2.26719 -5.36798 10.9528 2.80739 -5.13256 11.0561 2.69234 -4.97512 10.9315 
2.80739 -5.13256 11.0561 3.25413 -4.82382 11.1355 3.13292 -4.66883 11.0061 
4.92685 -2.36671 11.6862 5.14065 -2.13314 11.8893 4.93297 -1.74648 11.7017 
5.15535 -1.07804 11.9964 5.17529 -0.550675 12.1556 5.01856 -0.626301 11.9758 
5.17529 -0.550675 12.1556 5.12728 -0.0982656 12.2678 4.96386 -0.0924489 12.1063 
4.95373 0.464983 12.3479 4.71228 1.14512 12.5203 4.60736 1.05655 12.3661 
4.71228 1.14512 12.5203 4.51539 1.67817 12.7448 4.37101 1.56467 12.5091 
3.49061 2.80081 12.9144 3.09251 3.16107 13.0467 2.9229 3.13041 12.8851 
3.09251 3.16107 13.0467 2.64292 3.46776 13.1374 2.9229 3.13041 12.8851 
2.16706 3.66127 13.1229 1.85278 3.82871 13.2156 1.73037 3.72491 13.0116 
-0.197985 4.11729 13.2238 -0.589889 4.1273 13.2878 -0.459311 4.00557 13.0829 
-1.03828 4.03033 13.2156 -1.68338 3.92474 13.2894 -1.45244 3.82391 13.0439 
-5.04495 0.134456 12.28 -5.2129 -0.287951 12.2898 -4.97154 -0.0980731 12.1115 
-4.97301 -1.61406 11.7494 -4.95511 -2.22068 11.7053 -4.78404 -2.14563 11.5678 
-4.60522 -2.82873 11.4542 -4.45173 -3.40893 11.4349 -4.31963 -3.23768 11.3108 
-4.45173 -3.40893 11.4349 -4.21943 -3.76648 11.3503 -4.01281 -3.7093 11.2001 
-4.21943 -3.76648 11.3503 -3.83207 -4.22641 11.2294 -4.01281 -3.7093 11.2001 
-3.00259 -4.77297 10.9845 -2.58278 -5.19619 10.9847 -2.48983 -5.02922 10.8801 
-2.58278 -5.19619 10.9847 -2.05318 -5.46057 10.9277 -1.9832 -5.27478 10.8208 
-0.920531 -5.66728 10.777 -0.395144 -5.86856 10.8335 -0.225675 -5.67449 10.7235 
-0.395144 -5.86856 10.8335 0.213184 -5.87131 10.8279 -0.225675 -5.67449 10.7235 
0.213184 -5.87131 10.8279 0.582276 -5.84474 10.8361 0.449023 -5.65635 10.7292 
0.582276 -5.84474 10.8361 1.10366 -5.77692 10.8628 1.06616 -5.56459 10.7488 
1.10366 -5.77692 10.8628 1.72745 -5.45761 10.8288 1.06616 -5.56459 10.7488 
1.72745 -5.45761 10.8288 2.26719 -5.36798 10.9528 2.1832 -5.18498 10.8424 
3.13292 -4.66883 11.0061 3.66912 -4.38881 11.1869 3.55128 -4.22166 11.0701 
3.66912 -4.38881 11.1869 4.06865 -3.92727 11.2913 3.92561 -3.80994 11.1723 
4.06865 -3.92727 11.2913 4.33438 -3.57014 11.3835 4.09687 -3.39344 11.1951 
4.33438 -3.57014 11.3835 4.56483 -3.15954 11.4721 4.41342 -3.06956 11.3501 
4.56483 -3.15954 11.4721 4.76231 -2.76198 11.5758 4.60217 -2.66951 11.4463 
4.76231 -2.76198 11.5758 4.92685 -2.36671 11.6862 4.74612 -2.27073 11.5391 
5.18386 -1.5117 11.9588 5.15535 -1.07804 11.9964 4.95914 -1.1753 11.805 
4.96386 -0.0924489 12.1063 4.95373 0.464983 12.3479 4.78136 0.463862 12.1924 
4.37101 1.56467 12.5091 4.16511 2.0557 12.7297 4.07 1.91894 12.5401 
4.16511 2.0557 12.7297 3.84082 2.44766 12.8291 3.68758 2.39674 12.6593 
3.84082 2.44766 12.8291 3.49061 2.80081 12.9144 3.68758 2.39674 12.6593 
1.39989 3.94135 13.192 0.934268 4.04422 13.2152 1.10489 3.86424 13.0084 
0.934268 4.04422 13.2152 0.370993 4.11971 13.2376 0.679877 3.94566 13.0345 
0.370993 4.11971 13.2376 -0.197985 4.11729 13.2238 0.151378 3.99062 13.0454 
-0.459311 4.00557 13.0829 -1.03828 4.03033 13.2156 -0.89736 3.91167 13.0263 
-1.45244 3.82391 13.0439 -1.94916 3.74676 13.1369 -1.78871 3.6647 12.9638 
-1.94916 3.74676 13.1369 -2.38905 3.54959 13.0879 -2.28373 3.44088 12.9012 
-2.38905 3.54959 13.0879 -2.84954 3.2867 13.029 -2.77096 3.17046 12.8483 
-2.84954 3.2867 13.029 -3.24193 3.00418 12.9595 -3.1115 2.92743 12.7896 
-3.24193 3.00418 12.9595 -3.68237 2.62393 12.8737 -3.54424 2.55293 12.7012 
-3.68237 2.62393 12.8737 -4.06554 2.18481 12.7636 -3.91122 2.13739 12.5974 
-4.06554 2.18481 12.7636 -4.33518 1.82244 12.6838 -4.23537 1.69397 12.4937 
-4.33518 1.82244 12.6838 -4.56221 1.41787 12.573 -4.23537 1.69397 12.4937 
-4.56221 1.41787 12.573 -4.76057 1.01389 12.4831 -4.51186 1.18183 12.3683 
-4.76057 1.01389 12.4831 -4.92327 0.606662 12.3957 -4.77761 0.562756 12.2361 
-4.92327 0.606662 12.3957 -5.04495 0.134456 12.28 -4.77761 0.562756 12.2361 
-4.97154 -0.0980731 12.1115 -5.13292 -0.541517 12.1115 -4.95914 -0.509725 11.9648 
-5.13292 -0.541517 12.1115 -5.15729 -1.08628 11.9962 -5.01353 -1.07534 11.8646 
-5.01353 -1.07534 11.8646 -4.97301 -1.61406 11.7494 -4.77147 -1.24178 11.6571 
-4.97301 -1.61406 11.7494 -4.78404 -2.14563 11.5678 -4.66667 -1.89813 11.5017 
-4.78404 -2.14563 11.5678 -4.60522 -2.82873 11.4542 -4.45889 -2.53854 11.3507 
-4.60522 -2.82873 11.4542 -4.31963 -3.23768 11.3108 -4.25495 -2.95536 11.2477 
-4.31963 -3.23768 11.3108 -4.01281 -3.7093 11.2001 -3.93969 -3.47944 11.1235 
-4.01281 -3.7093 11.2001 -3.635 -4.13956 11.0934 -3.51404 -3.96829 10.9989 
-3.635 -4.13956 11.0934 -3.34424 -4.49266 11.0477 -3.11932 -4.3514 10.9109 
-3.34424 -4.49266 11.0477 -3.00259 -4.77297 10.9845 -3.11932 -4.3514 10.9109 
-3.00259 -4.77297 10.9845 -2.48983 -5.02922 10.8801 -2.67893 -4.6819 10.8357 
-2.48983 -5.02922 10.8801 -1.9832 -5.27478 10.8208 -2.19386 -4.94734 10.7634 
-1.9832 -5.27478 10.8208 -1.48689 -5.55171 10.8196 -1.70931 -5.1625 10.7159 
-1.48689 -5.55171 10.8196 -0.920531 -5.66728 10.777 -1.18718 -5.3398 10.6799 
-0.920531 -5.66728 10.777 -0.225675 -5.67449 10.7235 -0.467051 -5.47097 10.6504 
-0.225675 -5.67449 10.7235 0.449023 -5.65635 10.7292 0.327826 -5.46125 10.6438 
0.449023 -5.65635 10.7292 1.06616 -5.56459 10.7488 0.930312 -5.38842 10.6644 
1.06616 -5.56459 10.7488 1.72745 -5.45761 10.8288 1.46023 -5.2587 10.6985 
1.72745 -5.45761 10.8288 2.1832 -5.18498 10.8424 1.88831 -5.0931 10.7323 
2.1832 -5.18498 10.8424 2.69234 -4.97512 10.9315 2.39922 -4.84093 10.7906 
2.69234 -4.97512 10.9315 3.13292 -4.66883 11.0061 2.8437 -4.5636 10.8617 
3.13292 -4.66883 11.0061 3.55128 -4.22166 11.0701 3.3084 -4.19299 10.9514 
3.55128 -4.22166 11.0701 3.92561 -3.80994 11.1723 3.76225 -3.69629 11.068 
4.09687 -3.39344 11.1951 4.41342 -3.06956 11.3501 4.33266 -2.82302 11.2816 
4.41342 -3.06956 11.3501 4.60217 -2.66951 11.4463 4.33266 -2.82302 11.2816 
4.60217 -2.66951 11.4463 4.74612 -2.27073 11.5391 4.57835 -2.188 11.4312 
4.74612 -2.27073 11.5391 4.93297 -1.74648 11.7017 4.69774 -1.74588 11.5394 
4.93297 -1.74648 11.7017 4.95914 -1.1753 11.805 4.76296 -1.23327 11.6539 
4.95914 -1.1753 11.805 5.01856 -0.626301 11.9758 4.79129 -0.630698 11.8054 
5.01856 -0.626301 11.9758 4.96386 -0.0924489 12.1063 4.72598 -0.0335383 11.9474 
4.96386 -0.0924489 12.1063 4.78136 0.463862 12.1924 4.72598 -0.0335383 11.9474 
4.78136 0.463862 12.1924 4.60736 1.05655 12.3661 4.46128 0.909984 12.18 
4.60736 1.05655 12.3661 4.37101 1.56467 12.5091 4.25994 1.3421 12.2861 
4.37101 1.56467 12.5091 4.07 1.91894 12.5401 3.99076 1.7701 12.381 
4.07 1.91894 12.5401 3.68758 2.39674 12.6593 3.65003 2.19744 12.4806 
3.29173 2.65856 12.6391 2.9229 3.13041 12.8851 2.87934 2.92326 12.6641 
2.9229 3.13041 12.8851 2.35317 3.44036 12.9308 2.49878 3.17768 12.7295 
2.35317 3.44036 12.9308 1.73037 3.72491 13.0116 1.97 3.42774 12.7741 
1.73037 3.72491 13.0116 1.10489 3.86424 13.0084 1.32872 3.65341 12.8223 
1.10489 3.86424 13.0084 0.679877 3.94566 13.0345 0.560501 3.81071 12.8661 
0.679877 3.94566 13.0345 0.151378 3.99062 13.0454 0.560501 3.81071 12.8661 
0.151378 3.99062 13.0454 -0.459311 4.00557 13.0829 -0.100402 3.85014 12.8832 
-0.459311 4.00557 13.0829 -0.89736 3.91167 13.0263 -0.636799 3.81006 12.8754 
-0.89736 3.91167 13.0263 -1.45244 3.82391 13.0439 -1.17228 3.70295 12.8425 
-1.45244 3.82391 13.0439 -1.78871 3.6647 12.9638 -1.68797 3.54613 12.8069 
-1.78871 3.6647 12.9638 -2.28373 3.44088 12.9012 -2.19756 3.32855 12.7543 
-2.28373 3.44088 12.9012 -2.77096 3.17046 12.8483 -2.66673 3.05498 12.6884 
-2.77096 3.17046 12.8483 -3.1115 2.92743 12.7896 -3.0917 2.75085 12.617 
-3.1115 2.92743 12.7896 -3.54424 2.55293 12.7012 -3.0917 2.75085 12.617 
-3.54424 2.55293 12.7012 -3.91122 2.13739 12.5974 -3.76359 2.07223 12.4543 
-3.91122 2.13739 12.5974 -4.23537 1.69397 12.4937 -4.03966 1.69801 12.3666 
-4.23537 1.69397 12.4937 -4.51186 1.18183 12.3683 -4.25578 1.31949 12.2707 
-4.51186 1.18183 12.3683 -4.77761 0.562756 12.2361 -4.46846 0.840261 12.1502 
-4.77761 0.562756 12.2361 -4.97154 -0.0980731 12.1115 -4.67792 0.278912 12.0339 
-4.97154 -0.0980731 12.1115 -4.95914 -0.509725 11.9648 -4.75437 -0.278176 11.8854 
-4.95914 -0.509725 11.9648 -5.01353 -1.07534 11.8646 -4.78814 -0.711663 11.7848 
2.49878 3.17768 12.7295 2.35317 3.44036 12.9308 1.97 3.42774 12.7741 
-4.50898 -1.59135 11.4622 -4.54139 -1.39433 11.5095 -4.77147 -1.24178 11.6571 
-4.42262 -1.96328 11.3731 -4.46581 -1.79337 11.4137 -4.66667 -1.89813 11.5017 
-4.21424 -2.54157 11.2339 -4.28334 -2.37529 11.274 -4.45889 -2.53854 11.3507 
-4.45889 -2.53854 11.3507 -4.25495 -2.95536 11.2477 -4.10297 -2.77778 11.1775 
-3.92442 -3.08999 11.1021 -4.02108 -2.92764 11.1414 -4.25495 -2.95536 11.2477 
-3.2969 -3.88333 10.9114 -3.42057 -3.75486 10.9428 -3.51404 -3.96829 10.9989 
-3.51404 -3.96829 10.9989 -3.11932 -4.3514 10.9109 -3.11341 -4.05951 10.8696 
-2.82483 -4.29931 10.8124 -2.97315 -4.18012 10.8407 -3.11932 -4.3514 10.9109 
-3.11932 -4.3514 10.9109 -2.67893 -4.6819 10.8357 -2.62038 -4.44607 10.7771 
-2.67893 -4.6819 10.8357 -2.19386 -4.94734 10.7634 -2.29204 -4.64762 10.7285 
-1.9479 -4.82307 10.6864 -2.10898 -4.74505 10.7051 -2.19386 -4.94734 10.7634 
-2.19386 -4.94734 10.7634 -1.70931 -5.1625 10.7159 -1.71488 -4.92158 10.6627 
-1.35843 -5.04642 10.6333 -1.53512 -4.98743 10.6469 -1.70931 -5.1625 10.7159 
-0.7343 -5.18739 10.5989 -0.932659 -5.15157 10.6075 -1.18718 -5.3398 10.6799 
0.286778 -5.23334 10.5864 0.104348 -5.24364 10.5854 0.327826 -5.46125 10.6438 
0.919586 -5.15432 10.6068 0.727414 -5.18832 10.5987 0.930312 -5.38842 10.6644 
1.89577 -4.84476 10.6805 1.73012 -4.91514 10.6643 1.88831 -5.0931 10.7323 
1.88831 -5.0931 10.7323 2.39922 -4.84093 10.7906 2.12608 -4.73663 10.707 
2.45485 -4.55333 10.7515 2.29204 -4.64762 10.7285 2.39922 -4.84093 10.7906 
2.39922 -4.84093 10.7906 2.8437 -4.5636 10.8617 2.6673 -4.41302 10.7847 
2.97052 -4.18242 10.8402 2.81127 -4.30819 10.81 2.8437 -4.5636 10.8617 
3.25865 -3.92267 10.9023 3.12888 -4.04502 10.8732 3.3084 -4.19299 10.9514 
3.66974 -3.45918 11.0137 3.47251 -3.69545 10.9559 3.76225 -3.69629 11.068 
3.76225 -3.69629 11.068 4.09687 -3.39344 11.1951 3.81919 -3.25425 11.0632 
4.01637 -2.93645 11.1393 3.91673 -3.10338 11.0992 4.09687 -3.39344 11.1951 
4.40742 -2.01612 11.3604 4.35323 -2.18408 11.3199 4.57835 -2.188 11.4312 
4.57835 -2.188 11.4312 4.69774 -1.74588 11.5394 4.47048 -1.77269 11.4184 
4.54012 -1.41035 11.506 4.50827 -1.59468 11.4614 4.69774 -1.74588 11.5394 
4.76296 -1.23327 11.6539 4.79129 -0.630698 11.8054 4.58408 -0.787373 11.6552 
4.56651 -0.409838 11.745 4.57933 -0.584495 11.704 4.79129 -0.630698 11.8054 
4.79129 -0.630698 11.8054 4.72598 -0.0335383 11.9474 4.53998 -0.164656 11.805 
4.47099 0.19852 11.8919 4.50827 0.0199391 11.8491 4.72598 -0.0335383 11.9474 
4.72598 -0.0335383 11.9474 4.58419 0.533418 12.0832 4.40675 0.441547 11.9501 
4.28596 0.79422 12.0349 4.35323 0.609334 11.9906 4.58419 0.533418 12.0832 
4.12941 1.14907 12.1201 4.20457 0.98847 12.0816 4.46128 0.909984 12.18 
3.81648 1.6781 12.2458 3.91673 1.52863 12.2113 3.99076 1.7701 12.381 
3.42976 2.17048 12.3653 3.62588 1.93042 12.3038 3.65003 2.19744 12.4806 
3.65003 2.19744 12.4806 3.29173 2.65856 12.6391 3.26084 2.34988 12.4098 
2.66726 2.83839 12.5256 2.81127 2.73344 12.5005 2.87934 2.92326 12.6641 
2.87934 2.92326 12.6641 2.49878 3.17768 12.7295 2.45438 2.97769 12.5591 
2.12602 3.1618 12.6032 2.29204 3.07287 12.582 2.49878 3.17768 12.7295 
1.53848 3.41159 12.6633 1.73012 3.34039 12.6462 1.97 3.42774 12.7741 
1.16394 3.5238 12.6898 1.33693 3.47627 12.6789 1.32872 3.65341 12.8223 
0.544466 3.63852 12.7175 0.727414 3.61357 12.7118 0.560501 3.81071 12.8661 
-0.0940894 3.66931 12.7252 0.104348 3.6689 12.7251 -0.100402 3.85014 12.8832 
-1.10939 3.53525 12.6915 -0.932659 3.57682 12.703 -1.17228 3.70295 12.8425 
-1.68797 3.54613 12.8069 -2.19756 3.32855 12.7543 -1.94931 3.25064 12.6262 
-2.19756 3.32855 12.7543 -2.66673 3.05498 12.6884 -2.47036 2.96743 12.5567 
-2.62072 2.87166 12.5342 -2.47036 2.96743 12.5567 -2.66673 3.05498 12.6884 
-2.66673 3.05498 12.6884 -3.0917 2.75085 12.617 -2.82471 2.7243 12.4986 
-3.11304 2.48471 12.4406 -2.97315 2.60537 12.4698 -3.0917 2.75085 12.617 
-3.0917 2.75085 12.617 -3.49094 2.37517 12.5256 -3.30557 2.30226 12.397 
-3.78843 1.72263 12.2576 -3.68391 1.86536 12.2921 -3.76359 2.07223 12.4543 
-4.10539 1.19532 12.1308 -4.02108 1.35289 12.1691 -4.25578 1.31949 12.2707 
-4.25578 1.31949 12.2707 -4.46846 0.840261 12.1502 -4.21571 0.967694 12.0772 
-4.34919 0.621778 11.9935 -4.28334 0.800548 12.0365 -4.46846 0.840261 12.1502 
-4.46846 0.840261 12.1502 -4.67792 0.278912 12.0339 -4.4259 0.388916 11.9394 
-4.56348 -0.354413 11.7594 -4.51822 -0.0610314 11.8269 -4.75437 -0.278176 11.8854 
-4.75437 -0.278176 11.8854 -4.78814 -0.711663 11.7848 -4.58065 -0.60336 11.6994 
-5.73885 -2.31375 18.0131 -5.72706 -2.67128 17.9272 -5.7329 -1.4645 13.3568 
-5.72706 -2.67128 17.9272 -5.72706 -1.56805 13.3319 -5.7329 -1.4645 13.3568 
-5.69173 -3.02734 17.8417 -5.68882 -1.94938 13.2398 -5.71507 -1.71796 13.296 
-5.71507 -1.71796 13.296 -5.72706 -2.67128 17.9272 -5.69173 -3.02734 17.8417 
-5.69173 -3.02734 17.8417 -5.63302 -3.38047 17.757 -5.63985 -2.24513 13.1666 
-5.63985 -2.24513 13.1666 -5.68882 -1.94938 13.2398 -5.69173 -3.02734 17.8417 
-5.63302 -3.38047 17.757 -5.55116 -3.72921 17.6732 -5.59078 -2.46994 13.1154 
-5.55116 -3.72921 17.6732 -5.53616 -2.68376 13.0653 -5.59078 -2.46994 13.1154 
-5.55116 -3.72921 17.6732 -5.44816 -2.96399 12.9968 -5.53616 -2.68376 13.0653 
-5.44816 -2.96399 12.9968 -5.55116 -3.72921 17.6732 -5.44649 -4.07214 17.5909 
-5.44649 -4.07214 17.5909 -5.31943 -4.40785 17.5103 -5.36234 -3.19845 12.9405 
-5.31943 -4.40785 17.5103 -5.31943 -3.30462 12.915 -5.36234 -3.19845 12.9405 
-5.17052 -4.73494 17.4318 -5.16218 -3.64954 12.8329 -5.26374 -3.43371 12.884 
-5.26374 -3.43371 12.884 -5.31943 -4.40785 17.5103 -5.17052 -4.73494 17.4318 
-5.17052 -4.73494 17.4318 -5.00036 -5.05209 17.3556 -5.02033 -3.91454 12.7645 
-5.02033 -3.91454 12.7645 -5.16218 -3.64954 12.8329 -5.17052 -4.73494 17.4318 
-5.00036 -5.05209 17.3556 -4.80966 -5.35799 17.2822 -4.90338 -4.10994 12.7217 
-4.80966 -5.35799 17.2822 -4.78186 -4.2972 12.6765 -4.90338 -4.10994 12.7217 
-4.80966 -5.35799 17.2822 -4.60656 -4.53827 12.6159 -4.78186 -4.2972 12.6765 
-4.60656 -4.53827 12.6159 -4.80966 -5.35799 17.2822 -4.59919 -5.65137 17.2118 
-4.59919 -5.65137 17.2118 -4.36982 -5.93105 17.1446 -4.45169 -4.73217 12.5723 
-4.36982 -5.93105 17.1446 -4.36982 -4.82782 12.5493 -4.45169 -4.73217 12.5723 
-4.1225 -6.19585 17.0811 -4.1132 -5.10191 12.4835 -4.28223 -4.92554 12.5259 
-4.28223 -4.92554 12.5259 -4.36982 -5.93105 17.1446 -4.1225 -6.19585 17.0811 
-4.1225 -6.19585 17.0811 -3.85823 -6.44471 17.0213 -3.89377 -5.30957 12.4283 
-3.89377 -5.30957 12.4283 -4.1132 -5.10191 12.4835 -4.1225 -6.19585 17.0811 
-3.57811 -6.67659 16.9656 -3.54467 -5.6004 12.3658 -3.72211 -5.45792 12.3981 
-3.72211 -5.45792 12.3981 -3.85823 -6.44471 17.0213 -3.57811 -6.67659 16.9656 
-3.28329 -6.89054 16.9143 -3.29739 -5.77828 12.3218 -3.54467 -5.6004 12.3658 
-3.54467 -5.6004 12.3658 -3.57811 -6.67659 16.9656 -3.28329 -6.89054 16.9143 
-3.28329 -6.89054 16.9143 -2.97498 -7.08569 16.8674 -3.09266 -5.91118 12.2892 
-2.97498 -7.08569 16.8674 -2.97498 -5.98246 12.2721 -3.09266 -5.91118 12.2892 
-2.65444 -7.26122 16.8253 -2.64734 -6.16158 12.2291 -2.86942 -6.04319 12.2576 
-2.86942 -6.04319 12.2576 -2.97498 -7.08569 16.8674 -2.65444 -7.26122 16.8253 
-2.65444 -7.26122 16.8253 -2.32299 -7.41643 16.788 -2.37379 -6.29052 12.1924 
-2.37379 -6.29052 12.1924 -2.64734 -6.16158 12.2291 -2.65444 -7.26122 16.8253 
-1.982 -7.55067 16.7558 -1.94819 -6.461 12.1613 -2.16595 -6.3781 12.1772 
-2.16595 -6.3781 12.1772 -2.32299 -7.41643 16.788 -1.982 -7.55067 16.7558 
-1.63286 -7.66339 16.7287 -1.67371 -6.54821 12.1363 -1.94819 -6.461 12.1613 
-1.94819 -6.461 12.1613 -1.982 -7.55067 16.7558 -1.63286 -7.66339 16.7287 
-1.63286 -7.66339 16.7287 -1.63286 -6.56016 12.1334 -1.67371 -6.54821 12.1363 
-1.63286 -7.66339 16.7287 -1.27701 -7.75412 16.7069 -1.42213 -6.61675 12.1199 
-1.27701 -7.75412 16.7069 -1.27701 -6.65089 12.1117 -1.42213 -6.61675 12.1199 
-0.915919 -7.8225 16.6905 -0.913282 -6.71975 12.0951 -1.1676 -6.67408 12.1061 
-1.1676 -6.67408 12.1061 -1.27701 -7.75412 16.7069 -0.915919 -7.8225 16.6905 
-0.915919 -7.8225 16.6905 -0.551061 -7.86825 16.6795 -0.614585 -6.7592 12.0846 
-0.614585 -6.7592 12.0846 -0.913282 -6.71975 12.0951 -0.915919 -7.8225 16.6905 
-0.183939 -7.89116 16.674 -0.183939 -6.78793 12.0788 -0.391633 -6.77779 12.0812 
-0.391633 -6.77779 12.0812 -0.551061 -7.86825 16.6795 -0.183939 -7.89116 16.674 
0.183939 -7.89116 16.674 0.130635 -6.78936 12.0784 -0.130635 -6.78936 12.0784 
-0.130635 -6.78936 12.0784 -0.183939 -7.89116 16.674 0.183939 -7.89116 16.674 
0.183939 -7.89116 16.674 0.183939 -6.78793 12.0788 0.130635 -6.78936 12.0784 
0.183939 -7.89116 16.674 0.551061 -7.86825 16.6795 0.391633 -6.77779 12.0812 
0.551061 -7.86825 16.6795 0.616074 -6.75942 12.0859 0.391633 -6.77779 12.0812 
0.551061 -7.86825 16.6795 0.912935 -6.7194 12.0934 0.616074 -6.75942 12.0859 
0.912935 -6.7194 12.0934 0.551061 -7.86825 16.6795 0.915919 -7.8225 16.6905 
0.915919 -7.8225 16.6905 1.27701 -7.75412 16.7069 1.1676 -6.67408 12.1061 
1.27701 -7.75412 16.7069 1.27701 -6.65089 12.1117 1.1676 -6.67408 12.1061 
1.63286 -7.66339 16.7287 1.63286 -6.56016 12.1334 1.42213 -6.61675 12.1199 
1.42213 -6.61675 12.1199 1.27701 -7.75412 16.7069 1.63286 -7.66339 16.7287 
1.63286 -7.66339 16.7287 1.982 -7.55067 16.7558 1.94818 -6.4608 12.1604 
1.94818 -6.4608 12.1604 1.67371 -6.54821 12.1363 1.63286 -7.66339 16.7287 
1.982 -7.55067 16.7558 2.32299 -7.41643 16.788 2.16595 -6.3781 12.1772 
2.32299 -7.41643 16.788 2.37433 -6.29492 12.2115 2.16595 -6.3781 12.1772 
2.32299 -7.41643 16.788 2.64564 -6.14039 12.1361 2.37433 -6.29492 12.2115 
2.64564 -6.14039 12.1361 2.32299 -7.41643 16.788 2.65444 -7.26122 16.8253 
2.65444 -7.26122 16.8253 2.97498 -7.08569 16.8674 2.86942 -6.04319 12.2576 
2.97498 -7.08569 16.8674 2.97498 -5.98246 12.2721 2.86942 -6.04319 12.2576 
3.28329 -6.89054 16.9143 3.29739 -5.77823 12.3216 3.09266 -5.91118 12.2892 
3.09266 -5.91118 12.2892 2.97498 -7.08569 16.8674 3.28329 -6.89054 16.9143 
3.28329 -6.89054 16.9143 3.57811 -6.67659 16.9656 3.54466 -5.60016 12.3647 
3.54466 -5.60016 12.3647 3.29739 -5.77823 12.3216 3.28329 -6.89054 16.9143 
3.57811 -6.67659 16.9656 3.85823 -6.44471 17.0213 3.72211 -5.45792 12.3981 
3.85823 -6.44471 17.0213 3.89332 -5.31288 12.4403 3.72211 -5.45792 12.3981 
4.1225 -6.19585 17.0811 4.11224 -5.08077 12.3894 3.89332 -5.31288 12.4403 
3.89332 -5.31288 12.4403 3.85823 -6.44471 17.0213 4.1225 -6.19585 17.0811 
4.1225 -6.19585 17.0811 4.36982 -5.93105 17.1446 4.28223 -4.92554 12.5259 
4.36982 -5.93105 17.1446 4.36982 -4.82782 12.5493 4.28223 -4.92554 12.5259 
4.59919 -5.65137 17.2118 4.60602 -4.53966 12.6187 4.45169 -4.73217 12.5723 
4.45169 -4.73217 12.5723 4.36982 -5.93105 17.1446 4.59919 -5.65137 17.2118 
4.59919 -5.65137 17.2118 4.80966 -5.35799 17.2822 4.78239 -4.29677 12.6784 
4.78239 -4.29677 12.6784 4.60602 -4.53966 12.6187 4.59919 -5.65137 17.2118 
5.00036 -5.05209 17.3556 5.02031 -3.91702 12.7747 4.90338 -4.10994 12.7217 
4.90338 -4.10994 12.7217 4.80966 -5.35799 17.2822 5.00036 -5.05209 17.3556 
5.17052 -4.73494 17.4318 5.16218 -3.6496 12.8331 5.02031 -3.91702 12.7747 
5.02031 -3.91702 12.7747 5.00036 -5.05209 17.3556 5.17052 -4.73494 17.4318 
5.17052 -4.73494 17.4318 5.31943 -4.40785 17.5103 5.26374 -3.43371 12.884 
5.31943 -4.40785 17.5103 5.31943 -3.30462 12.915 5.26374 -3.43371 12.884 
5.44649 -4.07214 17.5909 5.44816 -2.96399 12.9968 5.36234 -3.19845 12.9405 
5.36234 -3.19845 12.9405 5.31943 -4.40785 17.5103 5.44649 -4.07214 17.5909 
5.44649 -4.07214 17.5909 5.55116 -3.72921 17.6732 5.53648 -2.68053 13.058 
5.53648 -2.68053 13.058 5.44816 -2.96399 12.9968 5.44649 -4.07214 17.5909 
5.63302 -3.38047 17.757 5.63985 -2.24669 13.173 5.59078 -2.46994 13.1154 
5.59078 -2.46994 13.1154 5.55116 -3.72921 17.6732 5.63302 -3.38047 17.757 
5.69173 -3.02734 17.8417 5.68882 -1.94932 13.2395 5.63985 -2.24669 13.173 
5.63985 -2.24669 13.173 5.63302 -3.38047 17.757 5.69173 -3.02734 17.8417 
5.69173 -3.02734 17.8417 5.72706 -2.67128 17.9272 5.71507 -1.71796 13.296 
5.72706 -2.67128 17.9272 5.72706 -1.56805 13.3319 5.71507 -1.71796 13.296 
5.73885 -2.31375 18.0131 5.73885 -1.21052 13.4178 5.7329 -1.4645 13.3568 
5.7329 -1.4645 13.3568 5.72706 -2.67128 17.9272 5.73885 -2.31375 18.0131 
5.73885 -2.31375 18.0131 5.72706 -1.95622 18.0989 5.7329 -0.956535 13.4788 
5.72706 -1.95622 18.0989 5.72706 -0.85299 13.5036 5.7329 -0.956535 13.4788 
5.69173 -1.60016 18.1844 5.68882 -0.471392 13.5946 5.71507 -0.703077 13.5396 
5.71507 -0.703077 13.5396 5.72706 -1.95622 18.0989 5.69173 -1.60016 18.1844 
5.69173 -1.60016 18.1844 5.63302 -1.24703 18.2692 5.63985 -0.174662 13.6637 
5.63985 -0.174662 13.6637 5.68882 -0.471392 13.5946 5.69173 -1.60016 18.1844 
5.63302 -1.24703 18.2692 5.55116 -0.898285 18.3529 5.59078 0.0488965 13.7201 
5.55116 -0.898285 18.3529 5.53616 0.262173 13.7725 5.59078 0.0488965 13.7201 
5.55116 -0.898285 18.3529 5.44816 0.542951 13.8387 5.53616 0.262173 13.7725 
5.44816 0.542951 13.8387 5.55116 -0.898285 18.3529 5.44649 -0.555357 18.4352 
5.44649 -0.555357 18.4352 5.31943 -0.219654 18.5158 5.36234 0.77741 13.895 
5.31943 -0.219654 18.5158 5.31943 0.883576 13.9205 5.36234 0.77741 13.895 
5.17052 0.107444 18.5943 5.16218 1.22822 14.0039 5.26374 1.01267 13.9515 
5.26374 1.01267 13.9515 5.31943 -0.219654 18.5158 5.17052 0.107444 18.5943 
5.17052 0.107444 18.5943 5.00036 0.424593 18.6705 5.02033 1.49549 14.0628 
5.02033 1.49549 14.0628 5.16218 1.22822 14.0039 5.17052 0.107444 18.5943 
5.00036 0.424593 18.6705 4.80966 0.730489 18.7439 4.90338 1.68891 14.1139 
4.80966 0.730489 18.7439 4.78189 1.87538 14.1621 4.90338 1.68891 14.1139 
4.80966 0.730489 18.7439 4.60656 2.11856 14.2141 4.78189 1.87538 14.1621 
4.60656 2.11856 14.2141 4.80966 0.730489 18.7439 4.59919 1.02388 18.8144 
4.59919 1.02388 18.8144 4.36982 1.30355 18.8815 4.45169 2.31113 14.2633 
4.36982 1.30355 18.8815 4.36982 2.40678 14.2862 4.45169 2.31113 14.2633 
4.1225 1.56836 18.9451 4.1132 2.68088 14.352 4.28223 2.5045 14.3097 
4.28223 2.5045 14.3097 4.36982 1.30355 18.8815 4.1225 1.56836 18.9451 
4.1225 1.56836 18.9451 3.85823 1.81721 19.0048 3.89323 2.89125 14.3981 
3.89323 2.89125 14.3981 4.1132 2.68088 14.352 4.1225 1.56836 18.9451 
3.57811 2.04909 19.0605 3.54467 3.1785 14.4734 3.72211 3.03688 14.4375 
3.72211 3.03688 14.4375 3.85823 1.81721 19.0048 3.57811 2.04909 19.0605 
3.28329 2.26304 19.1119 3.29739 3.35697 14.5149 3.54467 3.1785 14.4734 
3.54467 3.1785 14.4734 3.57811 2.04909 19.0605 3.28329 2.26304 19.1119 
3.28329 2.26304 19.1119 2.97498 2.45819 19.1587 3.09266 3.49015 14.5463 
2.97498 2.45819 19.1587 2.97498 3.56142 14.5634 3.09266 3.49015 14.5463 
2.65444 2.63372 19.2008 2.64734 3.74054 14.6064 2.86942 3.62215 14.578 
2.86942 3.62215 14.578 2.97498 2.45819 19.1587 2.65444 2.63372 19.2008 
2.65444 2.63372 19.2008 2.32299 2.78893 19.2381 2.37379 3.87213 14.6322 
2.37379 3.87213 14.6322 2.64734 3.74054 14.6064 2.65444 2.63372 19.2008 
1.982 2.92317 19.2703 1.94819 4.03814 14.6819 2.16595 3.95706 14.6584 
2.16595 3.95706 14.6584 2.32299 2.78893 19.2381 1.982 2.92317 19.2703 
1.63286 3.03589 19.2974 1.67371 4.12717 14.6992 1.94819 4.03814 14.6819 
1.94819 4.03814 14.6819 1.982 2.92317 19.2703 1.63286 3.03589 19.2974 
1.63286 3.03589 19.2974 1.63286 4.13912 14.7021 1.67371 4.12717 14.6992 
1.63286 3.03589 19.2974 1.27701 3.12662 19.3192 1.42213 4.19571 14.7157 
1.27701 3.12662 19.3192 1.27701 4.22985 14.7239 1.42213 4.19571 14.7157 
0.915919 3.195 19.3356 0.913282 4.2987 14.7404 1.1676 4.25305 14.7295 
1.1676 4.25305 14.7295 1.27701 3.12662 19.3192 0.915919 3.195 19.3356 
0.915919 3.195 19.3356 0.551061 3.24075 19.3466 0.614585 4.33863 14.749 
0.614585 4.33863 14.749 0.913282 4.2987 14.7404 0.915919 3.195 19.3356 
0.183939 3.26367 19.3521 0.183939 4.3669 14.7568 0.391633 4.35675 14.7544 
0.391633 4.35675 14.7544 0.551061 3.24075 19.3466 0.183939 3.26367 19.3521 
0.183939 3.26367 19.3521 -0.183939 3.26367 19.3521 -0.130635 4.36832 14.7571 
-0.130635 4.36832 14.7571 0.130635 4.36832 14.7571 0.183939 3.26367 19.3521 
-0.183939 3.26367 19.3521 -0.183939 4.3669 14.7568 -0.130635 4.36832 14.7571 
-0.183939 3.26367 19.3521 -0.551061 3.24075 19.3466 -0.391633 4.35675 14.7544 
-0.551061 3.24075 19.3466 -0.616074 4.33823 14.7502 -0.391633 4.35675 14.7544 
-0.551061 3.24075 19.3466 -0.912935 4.29917 14.7388 -0.616074 4.33823 14.7502 
-0.912935 4.29917 14.7388 -0.551061 3.24075 19.3466 -0.915919 3.195 19.3356 
-0.915919 3.195 19.3356 -1.27701 3.12662 19.3192 -1.1676 4.25305 14.7295 
-1.27701 3.12662 19.3192 -1.27701 4.22985 14.7239 -1.1676 4.25305 14.7295 
-1.63286 3.03589 19.2974 -1.63286 4.13912 14.7021 -1.42213 4.19571 14.7157 
-1.42213 4.19571 14.7157 -1.27701 3.12662 19.3192 -1.63286 3.03589 19.2974 
-1.63286 3.03589 19.2974 -1.982 2.92317 19.2703 -1.94818 4.03835 14.681 
-1.94818 4.03835 14.681 -1.67371 4.12717 14.6992 -1.63286 3.03589 19.2974 
-1.982 2.92317 19.2703 -2.32299 2.78893 19.2381 -2.16595 3.95706 14.6584 
-2.32299 2.78893 19.2381 -2.37433 3.86735 14.6513 -2.16595 3.95706 14.6584 
-2.32299 2.78893 19.2381 -2.64564 3.76388 14.5139 -2.37433 3.86735 14.6513 
-2.64564 3.76388 14.5139 -2.32299 2.78893 19.2381 -2.65444 2.63372 19.2008 
-2.65444 2.63372 19.2008 -2.97498 2.45819 19.1587 -2.86942 3.62215 14.578 
-2.97498 2.45819 19.1587 -2.97498 3.56142 14.5634 -2.86942 3.62215 14.578 
-3.28329 2.26304 19.1119 -3.29739 3.357 14.5148 -3.09266 3.49015 14.5463 
-3.09266 3.49015 14.5463 -2.97498 2.45819 19.1587 -3.28329 2.26304 19.1119 
-3.28329 2.26304 19.1119 -3.57811 2.04909 19.0605 -3.54466 3.17876 14.4724 
-3.54466 3.17876 14.4724 -3.29739 3.357 14.5148 -3.28329 2.26304 19.1119 
-3.57811 2.04909 19.0605 -3.85823 1.81721 19.0048 -3.72211 3.03688 14.4375 
-3.85823 1.81721 19.0048 -3.89332 2.88848 14.4092 -3.72211 3.03688 14.4375 
-4.1225 1.56836 18.9451 -4.11224 2.70477 14.2586 -3.89332 2.88848 14.4092 
-3.89332 2.88848 14.4092 -3.85823 1.81721 19.0048 -4.1225 1.56836 18.9451 
-4.1225 1.56836 18.9451 -4.36982 1.30355 18.8815 -4.28223 2.5045 14.3097 
-4.36982 1.30355 18.8815 -4.36982 2.40678 14.2862 -4.28223 2.5045 14.3097 
-4.59919 1.02388 18.8144 -4.60602 2.11855 14.2172 -4.45169 2.31113 14.2633 
-4.45169 2.31113 14.2633 -4.36982 1.30355 18.8815 -4.59919 1.02388 18.8144 
-4.59919 1.02388 18.8144 -4.80966 0.730489 18.7439 -4.78239 1.87503 14.1601 
-4.78239 1.87503 14.1601 -4.60602 2.11855 14.2172 -4.59919 1.02388 18.8144 
-5.00036 0.424593 18.6705 -5.02031 1.49296 14.0735 -4.90338 1.68891 14.1139 
-4.90338 1.68891 14.1139 -4.80966 0.730489 18.7439 -5.00036 0.424593 18.6705 
-5.17052 0.107444 18.5943 -5.16218 1.22815 14.0042 -5.02031 1.49296 14.0735 
-5.02031 1.49296 14.0735 -5.00036 0.424593 18.6705 -5.17052 0.107444 18.5943 
-5.17052 0.107444 18.5943 -5.31943 -0.219654 18.5158 -5.26374 1.01267 13.9515 
-5.31943 -0.219654 18.5158 -5.31943 0.883576 13.9205 -5.26374 1.01267 13.9515 
-5.44649 -0.555357 18.4352 -5.44816 0.542951 13.8387 -5.36234 0.77741 13.895 
-5.36234 0.77741 13.895 -5.31943 -0.219654 18.5158 -5.44649 -0.555357 18.4352 
-5.44649 -0.555357 18.4352 -5.55116 -0.898285 18.3529 -5.53648 0.262622 13.7646 
-5.53648 0.262622 13.7646 -5.44816 0.542951 13.8387 -5.44649 -0.555357 18.4352 
-5.63302 -1.24703 18.2692 -5.63985 -0.176155 13.6701 -5.59078 0.0488965 13.7201 
-5.59078 0.0488965 13.7201 -5.55116 -0.898285 18.3529 -5.63302 -1.24703 18.2692 
-5.69173 -1.60016 18.1844 -5.68882 -0.471303 13.5943 -5.63985 -0.176155 13.6701 
-5.63985 -0.176155 13.6701 -5.63302 -1.24703 18.2692 -5.69173 -1.60016 18.1844 
-5.69173 -1.60016 18.1844 -5.72706 -1.95622 18.0989 -5.71507 -0.703077 13.5396 
-5.72706 -1.95622 18.0989 -5.72706 -0.85299 13.5036 -5.71507 -0.703077 13.5396 
-5.73885 -2.31375 18.0131 -5.73885 -1.21052 13.4178 -5.7329 -0.956535 13.4788 
-5.7329 -0.956535 13.4788 -5.72706 -1.95622 18.0989 -5.73885 -2.31375 18.0131 
-5.7329 -0.956535 13.4788 -5.72706 -0.85299 13.5036 -5.72706 -1.95622 18.0989 
-5.71507 -0.703077 13.5396 -5.68882 -0.471303 13.5943 -5.69173 -1.60016 18.1844 
-5.59078 0.0488965 13.7201 -5.53648 0.262622 13.7646 -5.55116 -0.898285 18.3529 
-5.36234 0.77741 13.895 -5.31943 0.883576 13.9205 -5.31943 -0.219654 18.5158 
-5.26374 1.01267 13.9515 -5.16218 1.22815 14.0042 -5.17052 0.107444 18.5943 
-4.90338 1.68891 14.1139 -4.78239 1.87503 14.1601 -4.80966 0.730489 18.7439 
-4.45169 2.31113 14.2633 -4.36982 2.40678 14.2862 -4.36982 1.30355 18.8815 
-4.28223 2.5045 14.3097 -4.11224 2.70477 14.2586 -4.1225 1.56836 18.9451 
-3.72211 3.03688 14.4375 -3.54466 3.17876 14.4724 -3.57811 2.04909 19.0605 
-3.09266 3.49015 14.5463 -2.97498 3.56142 14.5634 -2.97498 2.45819 19.1587 
-2.86942 3.62215 14.578 -2.64564 3.76388 14.5139 -2.65444 2.63372 19.2008 
-2.16595 3.95706 14.6584 -1.94818 4.03835 14.681 -1.982 2.92317 19.2703 
-1.67371 4.12717 14.6992 -1.63286 4.13912 14.7021 -1.63286 3.03589 19.2974 
-1.42213 4.19571 14.7157 -1.27701 4.22985 14.7239 -1.27701 3.12662 19.3192 
-1.1676 4.25305 14.7295 -0.912935 4.29917 14.7388 -0.915919 3.195 19.3356 
-0.391633 4.35675 14.7544 -0.183939 4.3669 14.7568 -0.183939 3.26367 19.3521 
0.130635 4.36832 14.7571 0.183939 4.3669 14.7568 0.183939 3.26367 19.3521 
0.391633 4.35675 14.7544 0.614585 4.33863 14.749 0.551061 3.24075 19.3466 
1.1676 4.25305 14.7295 1.27701 4.22985 14.7239 1.27701 3.12662 19.3192 
1.42213 4.19571 14.7157 1.63286 4.13912 14.7021 1.63286 3.03589 19.2974 
2.16595 3.95706 14.6584 2.37379 3.87213 14.6322 2.32299 2.78893 19.2381 
2.86942 3.62215 14.578 2.97498 3.56142 14.5634 2.97498 2.45819 19.1587 
3.09266 3.49015 14.5463 3.29739 3.35697 14.5149 3.28329 2.26304 19.1119 
3.72211 3.03688 14.4375 3.89323 2.89125 14.3981 3.85823 1.81721 19.0048 
4.28223 2.5045 14.3097 4.36982 2.40678 14.2862 4.36982 1.30355 18.8815 
4.45169 2.31113 14.2633 4.60656 2.11856 14.2141 4.59919 1.02388 18.8144 
4.90338 1.68891 14.1139 5.02033 1.49549 14.0628 5.00036 0.424593 18.6705 
5.26374 1.01267 13.9515 5.31943 0.883576 13.9205 5.31943 -0.219654 18.5158 
5.36234 0.77741 13.895 5.44816 0.542951 13.8387 5.44649 -0.555357 18.4352 
5.59078 0.0488965 13.7201 5.63985 -0.174662 13.6637 5.63302 -1.24703 18.2692 
5.71507 -0.703077 13.5396 5.72706 -0.85299 13.5036 5.72706 -1.95622 18.0989 
5.7329 -0.956535 13.4788 5.73885 -1.21052 13.4178 5.73885 -2.31375 18.0131 
5.7329 -1.4645 13.3568 5.72706 -1.56805 13.3319 5.72706 -2.67128 17.9272 
5.71507 -1.71796 13.296 5.68882 -1.94932 13.2395 5.69173 -3.02734 17.8417 
5.59078 -2.46994 13.1154 5.53648 -2.68053 13.058 5.55116 -3.72921 17.6732 
5.36234 -3.19845 12.9405 5.31943 -3.30462 12.915 5.31943 -4.40785 17.5103 
5.26374 -3.43371 12.884 5.16218 -3.6496 12.8331 5.17052 -4.73494 17.4318 
4.90338 -4.10994 12.7217 4.78239 -4.29677 12.6784 4.80966 -5.35799 17.2822 
4.45169 -4.73217 12.5723 4.36982 -4.82782 12.5493 4.36982 -5.93105 17.1446 
4.28223 -4.92554 12.5259 4.11224 -5.08077 12.3894 4.1225 -6.19585 17.0811 
3.72211 -5.45792 12.3981 3.54466 -5.60016 12.3647 3.57811 -6.67659 16.9656 
3.09266 -5.91118 12.2892 2.97498 -5.98246 12.2721 2.97498 -7.08569 16.8674 
2.86942 -6.04319 12.2576 2.64564 -6.14039 12.1361 2.65444 -7.26122 16.8253 
2.16595 -6.3781 12.1772 1.94818 -6.4608 12.1604 1.982 -7.55067 16.7558 
1.67371 -6.54821 12.1363 1.63286 -6.56016 12.1334 1.63286 -7.66339 16.7287 
1.42213 -6.61675 12.1199 1.27701 -6.65089 12.1117 1.27701 -7.75412 16.7069 
1.1676 -6.67408 12.1061 0.912935 -6.7194 12.0934 0.915919 -7.8225 16.6905 
0.391633 -6.77779 12.0812 0.183939 -6.78793 12.0788 0.183939 -7.89116 16.674 
-0.130635 -6.78936 12.0784 -0.183939 -6.78793 12.0788 -0.183939 -7.89116 16.674 
-0.391633 -6.77779 12.0812 -0.614585 -6.7592 12.0846 -0.551061 -7.86825 16.6795 
-1.1676 -6.67408 12.1061 -1.27701 -6.65089 12.1117 -1.27701 -7.75412 16.7069 
-1.42213 -6.61675 12.1199 -1.63286 -6.56016 12.1334 -1.63286 -7.66339 16.7287 
-2.16595 -6.3781 12.1772 -2.37379 -6.29052 12.1924 -2.32299 -7.41643 16.788 
-2.86942 -6.04319 12.2576 -2.97498 -5.98246 12.2721 -2.97498 -7.08569 16.8674 
-3.09266 -5.91118 12.2892 -3.29739 -5.77828 12.3218 -3.28329 -6.89054 16.9143 
-3.72211 -5.45792 12.3981 -3.89377 -5.30957 12.4283 -3.85823 -6.44471 17.0213 
-4.28223 -4.92554 12.5259 -4.36982 -4.82782 12.5493 -4.36982 -5.93105 17.1446 
-4.45169 -4.73217 12.5723 -4.60656 -4.53827 12.6159 -4.59919 -5.65137 17.2118 
-4.90338 -4.10994 12.7217 -5.02033 -3.91454 12.7645 -5.00036 -5.05209 17.3556 
-5.26374 -3.43371 12.884 -5.31943 -3.30462 12.915 -5.31943 -4.40785 17.5103 
-5.36234 -3.19845 12.9405 -5.44816 -2.96399 12.9968 -5.44649 -4.07214 17.5909 
-5.59078 -2.46994 13.1154 -5.63985 -2.24513 13.1666 -5.63302 -3.38047 17.757 
-5.71507 -1.71796 13.296 -5.72706 -1.56805 13.3319 -5.72706 -2.67128 17.9272 
-5.7329 -1.4645 13.3568 -5.73885 -1.21052 13.4178 -5.73885 -2.31375 18.0131 
1.27701 3.12662 19.3192 5.72706 -2.67128 17.9272 5.69173 -3.02734 17.8417 
5.69173 -3.02734 17.8417 5.63302 -3.38047 17.757 1.27701 3.12662 19.3192 
5.63302 -3.38047 17.757 5.55116 -3.72921 17.6732 1.27701 3.12662 19.3192 
5.55116 -3.72921 17.6732 5.44649 -4.07214 17.5909 1.27701 3.12662 19.3192 
5.44649 -4.07214 17.5909 5.31943 -4.40785 17.5103 1.27701 3.12662 19.3192 
5.31943 -4.40785 17.5103 5.17052 -4.73494 17.4318 1.27701 3.12662 19.3192 
5.17052 -4.73494 17.4318 5.00036 -5.05209 17.3556 1.27701 3.12662 19.3192 
5.00036 -5.05209 17.3556 4.80966 -5.35799 17.2822 1.27701 3.12662 19.3192 
4.80966 -5.35799 17.2822 4.59919 -5.65137 17.2118 1.27701 3.12662 19.3192 
4.59919 -5.65137 17.2118 4.36982 -5.93105 17.1446 1.27701 3.12662 19.3192 
4.36982 -5.93105 17.1446 4.1225 -6.19585 17.0811 1.27701 3.12662 19.3192 
4.1225 -6.19585 17.0811 3.85823 -6.44471 17.0213 1.27701 3.12662 19.3192 
3.85823 -6.44471 17.0213 3.57811 -6.67659 16.9656 1.27701 3.12662 19.3192 
3.57811 -6.67659 16.9656 3.28329 -6.89054 16.9143 1.27701 3.12662 19.3192 
3.28329 -6.89054 16.9143 2.97498 -7.08569 16.8674 1.27701 3.12662 19.3192 
2.97498 -7.08569 16.8674 2.65444 -7.26122 16.8253 1.27701 3.12662 19.3192 
2.65444 -7.26122 16.8253 2.32299 -7.41643 16.788 1.27701 3.12662 19.3192 
2.32299 -7.41643 16.788 1.982 -7.55067 16.7558 1.27701 3.12662 19.3192 
1.982 -7.55067 16.7558 1.63286 -7.66339 16.7287 1.27701 3.12662 19.3192 
1.63286 -7.66339 16.7287 1.27701 -7.75412 16.7069 1.27701 3.12662 19.3192 
1.27701 -7.75412 16.7069 0.915919 -7.8225 16.6905 1.27701 3.12662 19.3192 
0.915919 -7.8225 16.6905 0.551061 -7.86825 16.6795 1.27701 3.12662 19.3192 
0.551061 -7.86825 16.6795 0.183939 -7.89116 16.674 1.27701 3.12662 19.3192 
0.183939 -7.89116 16.674 -0.183939 -7.89116 16.674 1.27701 3.12662 19.3192 
-0.183939 -7.89116 16.674 -0.551061 -7.86825 16.6795 1.27701 3.12662 19.3192 
-0.551061 -7.86825 16.6795 -0.915919 -7.8225 16.6905 1.27701 3.12662 19.3192 
-0.915919 -7.8225 16.6905 -1.27701 -7.75412 16.7069 1.27701 3.12662 19.3192 
-1.27701 -7.75412 16.7069 -1.63286 -7.66339 16.7287 1.27701 3.12662 19.3192 
-1.63286 -7.66339 16.7287 -1.982 -7.55067 16.7558 1.27701 3.12662 19.3192 
-1.982 -7.55067 16.7558 -2.32299 -7.41643 16.788 1.27701 3.12662 19.3192 
-2.32299 -7.41643 16.788 -2.65444 -7.26122 16.8253 1.27701 3.12662 19.3192 
-2.65444 -7.26122 16.8253 -2.97498 -7.08569 16.8674 1.27701 3.12662 19.3192 
-2.97498 -7.08569 16.8674 -3.28329 -6.89054 16.9143 1.27701 3.12662 19.3192 
-3.28329 -6.89054 16.9143 -3.57811 -6.67659 16.9656 1.27701 3.12662 19.3192 
-3.57811 -6.67659 16.9656 -3.85823 -6.44471 17.0213 1.27701 3.12662 19.3192 
-3.85823 -6.44471 17.0213 -4.1225 -6.19585 17.0811 1.27701 3.12662 19.3192 
-4.1225 -6.19585 17.0811 -4.36982 -5.93105 17.1446 1.27701 3.12662 19.3192 
-4.36982 -5.93105 17.1446 -4.59919 -5.65137 17.2118 1.27701 3.12662 19.3192 
-4.59919 -5.65137 17.2118 -4.80966 -5.35799 17.2822 1.27701 3.12662 19.3192 
-4.80966 -5.35799 17.2822 -5.00036 -5.05209 17.3556 1.27701 3.12662 19.3192 
-5.00036 -5.05209 17.3556 -5.17052 -4.73494 17.4318 1.27701 3.12662 19.3192 
-5.17052 -4.73494 17.4318 -5.31943 -4.40785 17.5103 1.27701 3.12662 19.3192 
-5.31943 -4.40785 17.5103 -5.44649 -4.07214 17.5909 1.27701 3.12662 19.3192 
-5.44649 -4.07214 17.5909 -5.55116 -3.72921 17.6732 1.27701 3.12662 19.3192 
-5.55116 -3.72921 17.6732 -5.63302 -3.38047 17.757 1.27701 3.12662 19.3192 
-5.63302 -3.38047 17.757 -5.69173 -3.02734 17.8417 1.27701 3.12662 19.3192 
-5.69173 -3.02734 17.8417 -5.72706 -2.67128 17.9272 1.27701 3.12662 19.3192 
-5.72706 -2.67128 17.9272 -5.73885 -2.31375 18.0131 1.27701 3.12662 19.3192 
-5.73885 -2.31375 18.0131 -5.72706 -1.95622 18.0989 1.27701 3.12662 19.3192 
-5.72706 -1.95622 18.0989 -5.69173 -1.60016 18.1844 1.27701 3.12662 19.3192 
-5.69173 -1.60016 18.1844 -5.63302 -1.24703 18.2692 1.27701 3.12662 19.3192 
-5.63302 -1.24703 18.2692 -5.55116 -0.898285 18.3529 1.27701 3.12662 19.3192 
-5.55116 -0.898285 18.3529 -5.44649 -0.555357 18.4352 1.27701 3.12662 19.3192 
-5.44649 -0.555357 18.4352 -5.31943 -0.219654 18.5158 1.27701 3.12662 19.3192 
-5.31943 -0.219654 18.5158 -5.17052 0.107444 18.5943 1.27701 3.12662 19.3192 
-5.17052 0.107444 18.5943 -5.00036 0.424593 18.6705 1.27701 3.12662 19.3192 
-5.00036 0.424593 18.6705 -4.80966 0.730489 18.7439 1.27701 3.12662 19.3192 
-4.80966 0.730489 18.7439 -4.59919 1.02388 18.8144 1.27701 3.12662 19.3192 
-4.59919 1.02388 18.8144 -4.36982 1.30355 18.8815 1.27701 3.12662 19.3192 
-4.36982 1.30355 18.8815 -4.1225 1.56836 18.9451 1.27701 3.12662 19.3192 
-4.1225 1.56836 18.9451 -3.85823 1.81721 19.0048 1.27701 3.12662 19.3192 
-3.85823 1.81721 19.0048 -3.57811 2.04909 19.0605 1.27701 3.12662 19.3192 
-3.57811 2.04909 19.0605 -3.28329 2.26304 19.1119 1.27701 3.12662 19.3192 
-3.28329 2.26304 19.1119 -2.97498 2.45819 19.1587 1.27701 3.12662 19.3192 
-2.97498 2.45819 19.1587 -2.65444 2.63372 19.2008 1.27701 3.12662 19.3192 
-2.65444 2.63372 19.2008 -2.32299 2.78893 19.2381 1.27701 3.12662 19.3192 
-2.32299 2.78893 19.2381 -1.982 2.92317 19.2703 1.27701 3.12662 19.3192 
-1.982 2.92317 19.2703 -1.63286 3.03589 19.2974 1.27701 3.12662 19.3192 
-1.63286 3.03589 19.2974 -1.27701 3.12662 19.3192 1.27701 3.12662 19.3192 
-1.27701 3.12662 19.3192 -0.915919 3.195 19.3356 1.27701 3.12662 19.3192 
-0.915919 3.195 19.3356 -0.551061 3.24075 19.3466 1.27701 3.12662 19.3192 
-0.551061 3.24075 19.3466 -0.183939 3.26367 19.3521 1.27701 3.12662 19.3192 
-0.183939 3.26367 19.3521 0.183939 3.26367 19.3521 1.27701 3.12662 19.3192 
0.183939 3.26367 19.3521 0.551061 3.24075 19.3466 1.27701 3.12662 19.3192 
0.551061 3.24075 19.3466 0.915919 3.195 19.3356 1.27701 3.12662 19.3192 
1.63286 3.03589 19.2974 1.982 2.92317 19.2703 1.27701 3.12662 19.3192 
1.982 2.92317 19.2703 2.32299 2.78893 19.2381 1.27701 3.12662 19.3192 
2.32299 2.78893 19.2381 2.65444 2.63372 19.2008 1.27701 3.12662 19.3192 
2.65444 2.63372 19.2008 2.97498 2.45819 19.1587 1.27701 3.12662 19.3192 
2.97498 2.45819 19.1587 3.28329 2.26304 19.1119 1.27701 3.12662 19.3192 
3.28329 2.26304 19.1119 3.57811 2.04909 19.0605 1.27701 3.12662 19.3192 
3.57811 2.04909 19.0605 3.85823 1.81721 19.0048 1.27701 3.12662 19.3192 
3.85823 1.81721 19.0048 4.1225 1.56836 18.9451 1.27701 3.12662 19.3192 
4.1225 1.56836 18.9451 4.36982 1.30355 18.8815 1.27701 3.12662 19.3192 
4.36982 1.30355 18.8815 4.59919 1.02388 18.8144 1.27701 3.12662 19.3192 
4.59919 1.02388 18.8144 4.80966 0.730489 18.7439 1.27701 3.12662 19.3192 
4.80966 0.730489 18.7439 5.00036 0.424593 18.6705 1.27701 3.12662 19.3192 
5.00036 0.424593 18.6705 5.17052 0.107444 18.5943 1.27701 3.12662 19.3192 
5.17052 0.107444 18.5943 5.31943 -0.219654 18.5158 1.27701 3.12662 19.3192 
5.31943 -0.219654 18.5158 5.44649 -0.555357 18.4352 1.27701 3.12662 19.3192 
5.44649 -0.555357 18.4352 5.55116 -0.898285 18.3529 1.27701 3.12662 19.3192 
5.55116 -0.898285 18.3529 5.63302 -1.24703 18.2692 1.27701 3.12662 19.3192 
5.63302 -1.24703 18.2692 5.69173 -1.60016 18.1844 1.27701 3.12662 19.3192 
5.69173 -1.60016 18.1844 5.72706 -1.95622 18.0989 1.27701 3.12662 19.3192 
5.72706 -1.95622 18.0989 5.73885 -2.31375 18.0131 1.27701 3.12662 19.3192 
5.73885 -2.31375 18.0131 5.72706 -2.67128 17.9272 1.27701 3.12662 19.3192 

POLYGONS 5744 22976
3 0 1 2 
3 3 4 5 
3 6 7 8 
3 9 10 11 
3 12 13 14 
3 15 16 17 
3 18 19 20 
3 21 22 23 
3 24 25 26 
3 27 28 29 
3 30 31 32 
3 33 34 35 
3 36 37 38 
3 39 40 41 
3 42 43 44 
3 45 46 47 
3 48 49 50 
3 51 52 53 
3 54 55 56 
3 57 58 59 
3 60 61 62 
3 63 64 65 
3 66 67 68 
3 69 70 71 
3 72 73 74 
3 75 76 77 
3 78 79 80 
3 81 82 83 
3 84 85 86 
3 87 88 89 
3 90 91 92 
3 93 94 95 
3 96 97 98 
3 99 100 101 
3 102 103 104 
3 105 106 107 
3 108 109 110 
3 111 112 113 
3 114 115 116 
3 117 118 119 
3 120 121 122 
3 123 124 125 
3 126 127 128 
3 129 130 131 
3 132 133 134 
3 135 136 137 
3 138 139 140 
3 141 142 143 
3 144 145 146 
3 147 148 149 
3 150 151 152 
3 153 154 155 
3 156 157 158 
3 159 160 161 
3 162 163 164 
3 165 166 167 
3 168 169 170 
3 171 172 173 
3 174 175 176 
3 177 178 179 
3 180 181 182 
3 183 184 185 
3 186 187 188 
3 189 190 191 
3 192 193 194 
3 195 196 197 
3 198 199 200 
3 201 202 203 
3 204 205 206 
3 207 208 209 
3 210 211 212 
3 213 214 215 
3 216 217 218 
3 219 220 221 
3 222 223 224 
3 225 226 227 
3 228 229 230 
3 231 232 233 
3 234 235 236 
3 237 238 239 
3 240 241 242 
3 243 244 245 
3 246 247 248 
3 249 250 251 
3 252 253 254 
3 255 256 257 
3 258 259 260 
3 261 262 263 
3 264 265 266 
3 267 268 269 
3 270 271 272 
3 273 274 275 
3 276 277 278 
3 279 280 281 
3 282 283 284 
3 285 286 287 
3 288 289 290 
3 291 292 293 
3 294 295 296 
3 297 298 299 
3 300 301 302 
3 303 304 305 
3 306 307 308 
3 309 310 311 
3 312 313 314 
3 315 316 317 
3 318 319 320 
3 321 322 323 
3 324 325 326 
3 327 328 329 
3 330 331 332 
3 333 334 335 
3 336 337 338 
3 339 340 341 
3 342 343 344 
3 345 346 347 
3 348 349 350 
3 351 352 353 
3 354 355 356 
3 357 358 359 
3 360 361 362 
3 363 364 365 
3 366 367 368 
3 369 370 371 
3 372 373 374 
3 375 376 377 
3 378 379 380 
3 381 382 383 
3 384 385 386 
3 387 388 389 
3 390 391 392 
3 393 394 395 
3 396 397 398 
3 399 400 401 
3 402 403 404 
3 405 406 407 
3 408 409 410 
3 411 412 413 
3 414 415 416 
3 417 418 419 
3 420 421 422 
3 423 424 425 
3 426 427 428 
3 429 430 431 
3 432 433 434 
3 435 436 437 
3 438 439 440 
3 441 442 443 
3 444 445 446 
3 447 448 449 
3 450 451 452 
3 453 454 455 
3 456 457 458 
3 459 460 461 
3 462 463 464 
3 465 466 467 
3 468 469 470 
3 471 472 473 
3 474 475 476 
3 477 478 479 
3 480 481 482 
3 483 484 485 
3 486 487 488 
3 489 490 491 
3 492 493 494 
3 495 496 497 
3 498 499 500 
3 501 502 503 
3 504 505 506 
3 507 508 509 
3 510 511 512 
3 513 514 515 
3 516 517 518 
3 519 520 521 
3 522 523 524 
3 525 526 527 
3 528 529 530 
3 531 532 533 
3 534 535 536 
3 537 538 539 
3 540 541 542 
3 543 544 545 
3 546 547 548 
3 549 550 551 
3 552 553 554 
3 555 556 557 
3 558 559 560 
3 561 562 563 
3 564 565 566 
3 567 568 569 
3 570 571 572 
3 573 574 575 
3 576 577 578 
3 579 580 581 
3 582 583 584 
3 585 586 587 
3 588 589 590 
3 591 592 593 
3 594 595 596 
3 597 598 599 
3 600 601 602 
3 603 604 605 
3 606 607 608 
3 609 610 611 
3 612 613 614 
3 615 616 617 
3 618 619 620 
3 621 622 623 
3 624 625 626 
3 627 628 629 
3 630 631 632 
3 633 634 635 
3 636 637 638 
3 639 640 641 
3 642 643 644 
3 645 646 647 
3 648 649 650 
3 651 652 653 
3 654 655 656 
3 657 658 659 
3 660 661 662 
3 663 664 665 
3 666 667 668 
3 669 670 671 
3 672 673 674 
3 675 676 677 
3 678 679 680 
3 681 682 683 
3 684 685 686 
3 687 688 689 
3 690 691 692 
3 693 694 695 
3 696 697 698 
3 699 700 701 
3 702 703 704 
3 705 706 707 
3 708 709 710 
3 711 712 713 
3 714 715 716 
3 717 718 719 
3 720 721 722 
3 723 724 725 
3 726 727 728 
3 729 730 731 
3 732 733 734 
3 735 736 737 
3 738 739 740 
3 741 742 743 
3 744 745 746 
3 747 748 749 
3 750 751 752 
3 753 754 755 
3 756 757 758 
3 759 760 761 
3 762 763 764 
3 765 766 767 
3 768 769 770 
3 771 772 773 
3 774 775 776 
3 777 778 779 
3 780 781 782 
3 783 784 785 
3 786 787 788 
3 789 790 791 
3 792 793 794 
3 795 796 797 
3 798 799 800 
3 801 802 803 
3 804 805 806 
3 807 808 809 
3 810 811 812 
3 813 814 815 
3 816 817 818 
3 819 820 821 
3 822 823 824 
3 825 826 827 
3 828 829 830 
3 831 832 833 
3 834 835 836 
3 837 838 839 
3 840 841 842 
3 843 844 845 
3 846 847 848 
3 849 850 851 
3 852 853 854 
3 855 856 857 
3 858 859 860 
3 861 862 863 
3 864 865 866 
3 867 868 869 
3 870 871 872 
3 873 874 875 
3 876 877 878 
3 879 880 881 
3 882 883 884 
3 885 886 887 
3 888 889 890 
3 891 892 893 
3 894 895 896 
3 897 898 899 
3 900 901 902 
3 903 904 905 
3 906 907 908 
3 909 910 911 
3 912 913 914 
3 915 916 917 
3 918 919 920 
3 921 922 923 
3 924 925 926 
3 927 928 929 
3 930 931 932 
3 933 934 935 
3 936 937 938 
3 939 940 941 
3 942 943 944 
3 945 946 947 
3 948 949 950 
3 951 952 953 
3 954 955 956 
3 957 958 959 
3 960 961 962 
3 963 964 965 
3 966 967 968 
3 969 970 971 
3 972 973 974 
3 975 976 977 
3 978 979 980 
3 981 982 983 
3 984 985 986 
3 987 988 989 
3 990 991 992 
3 993 994 995 
3 996 997 998 
3 999 1000 1001 
3 1002 1003 1004 
3 1005 1006 1007 
3 1008 1009 1010 
3 1011 1012 1013 
3 1014 1015 1016 
3 1017 1018 1019 
3 1020 1021 1022 
3 1023 1024 1025 
3 1026 1027 1028 
3 1029 1030 1031 
3 1032 1033 1034 
3 1035 1036 1037 
3 1038 1039 1040 
3 1041 1042 1043 
3 1044 1045 1046 
3 1047 1048 1049 
3 1050 1051 1052 
3 1053 1054 1055 
3 1056 1057 1058 
3 1059 1060 1061 
3 1062 1063 1064 
3 1065 1066 1067 
3 1068 1069 1070 
3 1071 1072 1073 
3 1074 1075 1076 
3 1077 1078 1079 
3 1080 1081 1082 
3 1083 1084 1085 
3 1086 1087 1088 
3 1089 1090 1091 
3 1092 1093 1094 
3 1095 1096 1097 
3 1098 1099 1100 
3 1101 1102 1103 
3 1104 1105 1106 
3 1107 1108 1109 
3 1110 1111 1112 
3 1113 1114 1115 
3 1116 1117 1118 
3 1119 1120 1121 
3 1122 1123 1124 
3 1125 1126 1127 
3 1128 1129 1130 
3 1131 1132 1133 
3 1134 1135 1136 
3 1137 1138 1139 
3 1140 1141 1142 
3 1143 1144 1145 
3 1146 1147 1148 
3 1149 1150 1151 
3 1152 1153 1154 
3 1155 1156 1157 
3 1158 1159 1160 
3 1161 1162 1163 
3 1164 1165 1166 
3 1167 1168 1169 
3 1170 1171 1172 
3 1173 1174 1175 
3 1176 1177 1178 
3 1179 1180 1181 
3 1182 1183 1184 
3 1185 1186 1187 
3 1188 1189 1190 
3 1191 1192 1193 
3 1194 1195 1196 
3 1197 1198 1199 
3 1200 1201 1202 
3 1203 1204 1205 
3 1206 1207 1208 
3 1209 1210 1211 
3 1212 1213 1214 
3 1215 1216 1217 
3 1218 1219 1220 
3 1221 1222 1223 
3 1224 1225 1226 
3 1227 1228 1229 
3 1230 1231 1232 
3 1233 1234 1235 
3 1236 1237 1238 
3 1239 1240 1241 
3 1242 1243 1244 
3 1245 1246 1247 
3 1248 1249 1250 
3 1251 1252 1253 
3 1254 1255 1256 
3 1257 1258 1259 
3 1260 1261 1262 
3 1263 1264 1265 
3 1266 1267 1268 
3 1269 1270 1271 
3 1272 1273 1274 
3 1275 1276 1277 
3 1278 1279 1280 
3 1281 1282 1283 
3 1284 1285 1286 
3 1287 1288 1289 
3 1290 1291 1292 
3 1293 1294 1295 
3 1296 1297 1298 
3 1299 1300 1301 
3 1302 1303 1304 
3 1305 1306 1307 
3 1308 1309 1310 
3 1311 1312 1313 
3 1314 1315 1316 
3 1317 1318 1319 
3 1320 1321 1322 
3 1323 1324 1325 
3 1326 1327 1328 
3 1329 1330 1331 
3 1332 1333 1334 
3 1335 1336 1337 
3 1338 1339 1340 
3 1341 1342 1343 
3 1344 1345 1346 
3 1347 1348 1349 
3 1350 1351 1352 
3 1353 1354 1355 
3 1356 1357 1358 
3 1359 1360 1361 
3 1362 1363 1364 
3 1365 1366 1367 
3 1368 1369 1370 
3 1371 1372 1373 
3 1374 1375 1376 
3 1377 1378 1379 
3 1380 1381 1382 
3 1383 1384 1385 
3 1386 1387 1388 
3 1389 1390 1391 
3 1392 1393 1394 
3 1395 1396 1397 
3 1398 1399 1400 
3 1401 1402 1403 
3 1404 1405 1406 
3 1407 1408 1409 
3 1410 1411 1412 
3 1413 1414 1415 
3 1416 1417 1418 
3 1419 1420 1421 
3 1422 1423 1424 
3 1425 1426 1427 
3 1428 1429 1430 
3 1431 1432 1433 
3 1434 1435 1436 
3 1437 1438 1439 
3 1440 1441 1442 
3 1443 1444 1445 
3 1446 1447 1448 
3 1449 1450 1451 
3 1452 1453 1454 
3 1455 1456 1457 
3 1458 1459 1460 
3 1461 1462 1463 
3 1464 1465 1466 
3 1467 1468 1469 
3 1470 1471 1472 
3 1473 1474 1475 
3 1476 1477 1478 
3 1479 1480 1481 
3 1482 1483 1484 
3 1485 1486 1487 
3 1488 1489 1490 
3 1491 1492 1493 
3 1494 1495 1496 
3 1497 1498 1499 
3 1500 1501 1502 
3 1503 1504 1505 
3 1506 1507 1508 
3 1509 1510 1511 
3 1512 1513 1514 
3 1515 1516 1517 
3 1518 1519 1520 
3 1521 1522 1523 
3 1524 1525 1526 
3 1527 1528 1529 
3 1530 1531 1532 
3 1533 1534 1535 
3 1536 1537 1538 
3 1539 1540 1541 
3 1542 1543 1544 
3 1545 1546 1547 
3 1548 1549 1550 
3 1551 1552 1553 
3 1554 1555 1556 
3 1557 1558 1559 
3 1560 1561 1562 
3 1563 1564 1565 
3 1566 1567 1568 
3 1569 1570 1571 
3 1572 1573 1574 
3 1575 1576 1577 
3 1578 1579 1580 
3 1581 1582 1583 
3 1584 1585 1586 
3 1587 1588 1589 
3 1590 1591 1592 
3 1593 1594 1595 
3 1596 1597 1598 
3 1599 1600 1601 
3 1602 1603 1604 
3 1605 1606 1607 
3 1608 1609 1610 
3 1611 1612 1613 
3 1614 1615 1616 
3 1617 1618 1619 
3 1620 1621 1622 
3 1623 1624 1625 
3 1626 1627 1628 
3 1629 1630 1631 
3 1632 1633 1634 
3 1635 1636 1637 
3 1638 1639 1640 
3 1641 1642 1643 
3 1644 1645 1646 
3 1647 1648 1649 
3 1650 1651 1652 
3 1653 1654 1655 
3 1656 1657 1658 
3 1659 1660 1661 
3 1662 1663 1664 
3 1665 1666 1667 
3 1668 1669 1670 
3 1671 1672 1673 
3 1674 1675 1676 
3 1677 1678 1679 
3 1680 1681 1682 
3 1683 1684 1685 
3 1686 1687 1688 
3 1689 1690 1691 
3 1692 1693 1694 
3 1695 1696 1697 
3 1698 1699 1700 
3 1701 1702 1703 
3 1704 1705 1706 
3 1707 1708 1709 
3 1710 1711 1712 
3 1713 1714 1715 
3 1716 1717 1718 
3 1719 1720 1721 
3 1722 1723 1724 
3 1725 1726 1727 
3 1728 1729 1730 
3 1731 1732 1733 
3 1734 1735 1736 
3 1737 1738 1739 
3 1740 1741 1742 
3 1743 1744 1745 
3 1746 1747 1748 
3 1749 1750 1751 
3 1752 1753 1754 
3 1755 1756 1757 
3 1758 1759 1760 
3 1761 1762 1763 
3 1764 1765 1766 
3 1767 1768 1769 
3 1770 1771 1772 
3 1773 1774 1775 
3 1776 1777 1778 
3 1779 1780 1781 
3 1782 1783 1784 
3 1785 1786 1787 
3 1788 1789 1790 
3 1791 1792 1793 
3 1794 1795 1796 
3 1797 1798 1799 
3 1800 1801 1802 
3 1803 1804 1805 
3 1806 1807 1808 
3 1809 1810 1811 
3 1812 1813 1814 
3 1815 1816 1817 
3 1818 1819 1820 
3 1821 1822 1823 
3 1824 1825 1826 
3 1827 1828 1829 
3 1830 1831 1832 
3 1833 1834 1835 
3 1836 1837 1838 
3 1839 1840 1841 
3 1842 1843 1844 
3 1845 1846 1847 
3 1848 1849 1850 
3 1851 1852 1853 
3 1854 1855 1856 
3 1857 1858 1859 
3 1860 1861 1862 
3 1863 1864 1865 
3 1866 1867 1868 
3 1869 1870 1871 
3 1872 1873 1874 
3 1875 1876 1877 
3 1878 1879 1880 
3 1881 1882 1883 
3 1884 1885 1886 
3 1887 1888 1889 
3 1890 1891 1892 
3 1893 1894 1895 
3 1896 1897 1898 
3 1899 1900 1901 
3 1902 1903 1904 
3 1905 1906 1907 
3 1908 1909 1910 
3 1911 1912 1913 
3 1914 1915 1916 
3 1917 1918 1919 
3 1920 1921 1922 
3 1923 1924 1925 
3 1926 1927 1928 
3 1929 1930 1931 
3 1932 1933 1934 
3 1935 1936 1937 
3 1938 1939 1940 
3 1941 1942 1943 
3 1944 1945 1946 
3 1947 1948 1949 
3 1950 1951 1952 
3 1953 1954 1955 
3 1956 1957 1958 
3 1959 1960 1961 
3 1962 1963 1964 
3 1965 1966 1967 
3 1968 1969 1970 
3 1971 1972 1973 
3 1974 1975 1976 
3 1977 1978 1979 
3 1980 1981 1982 
3 1983 1984 1985 
3 1986 1987 1988 
3 1989 1990 1991 
3 1992 1993 1994 
3 1995 1996 1997 
3 1998 1999 2000 
3 2001 2002 2003 
3 2004 2005 2006 
3 2007 2008 2009 
3 2010 2011 2012 
3 2013 2014 2015 
3 2016 2017 2018 
3 2019 2020 2021 
3 2022 2023 2024 
3 2025 2026 2027 
3 2028 2029 2030 
3 2031 2032 2033 
3 2034 2035 2036 
3 2037 2038 2039 
3 2040 2041 2042 
3 2043 2044 2045 
3 2046 2047 2048 
3 2049 2050 2051 
3 2052 2053 2054 
3 2055 2056 2057 
3 2058 2059 2060 
3 2061 2062 2063 
3 2064 2065 2066 
3 2067 2068 2069 
3 2070 2071 2072 
3 2073 2074 2075 
3 2076 2077 2078 
3 2079 2080 2081 
3 2082 2083 2084 
3 2085 2086 2087 
3 2088 2089 2090 
3 2091 2092 2093 
3 2094 2095 2096 
3 2097 2098 2099 
3 2100 2101 2102 
3 2103 2104 2105 
3 2106 2107 2108 
3 2109 2110 2111 
3 2112 2113 2114 
3 2115 2116 2117 
3 2118 2119 2120 
3 2121 2122 2123 
3 2124 2125 2126 
3 2127 2128 2129 
3 2130 2131 2132 
3 2133 2134 2135 
3 2136 2137 2138 
3 2139 2140 2141 
3 2142 2143 2144 
3 2145 2146 2147 
3 2148 2149 2150 
3 2151 2152 2153 
3 2154 2155 2156 
3 2157 2158 2159 
3 2160 2161 2162 
3 2163 2164 2165 
3 2166 2167 2168 
3 2169 2170 2171 
3 2172 2173 2174 
3 2175 2176 2177 
3 2178 2179 2180 
3 2181 2182 2183 
3 2184 2185 2186 
3 2187 2188 2189 
3 2190 2191 2192 
3 2193 2194 2195 
3 2196 2197 2198 
3 2199 2200 2201 
3 2202 2203 2204 
3 2205 2206 2207 
3 2208 2209 2210 
3 2211 2212 2213 
3 2214 2215 2216 
3 2217 2218 2219 
3 2220 2221 2222 
3 2223 2224 2225 
3 2226 2227 2228 
3 2229 2230 2231 
3 2232 2233 2234 
3 2235 2236 2237 
3 2238 2239 2240 
3 2241 2242 2243 
3 2244 2245 2246 
3 2247 2248 2249 
3 2250 2251 2252 
3 2253 2254 2255 
3 2256 2257 2258 
3 2259 2260 2261 
3 2262 2263 2264 
3 2265 2266 2267 
3 2268 2269 2270 
3 2271 2272 2273 
3 2274 2275 2276 
3 2277 2278 2279 
3 2280 2281 2282 
3 2283 2284 2285 
3 2286 2287 2288 
3 2289 2290 2291 
3 2292 2293 2294 
3 2295 2296 2297 
3 2298 2299 2300 
3 2301 2302 2303 
3 2304 2305 2306 
3 2307 2308 2309 
3 2310 2311 2312 
3 2313 2314 2315 
3 2316 2317 2318 
3 2319 2320 2321 
3 2322 2323 2324 
3 2325 2326 2327 
3 2328 2329 2330 
3 2331 2332 2333 
3 2334 2335 2336 
3 2337 2338 2339 
3 2340 2341 2342 
3 2343 2344 2345 
3 2346 2347 2348 
3 2349 2350 2351 
3 2352 2353 2354 
3 2355 2356 2357 
3 2358 2359 2360 
3 2361 2362 2363 
3 2364 2365 2366 
3 2367 2368 2369 
3 2370 2371 2372 
3 2373 2374 2375 
3 2376 2377 2378 
3 2379 2380 2381 
3 2382 2383 2384 
3 2385 2386 2387 
3 2388 2389 2390 
3 2391 2392 2393 
3 2394 2395 2396 
3 2397 2398 2399 
3 2400 2401 2402 
3 2403 2404 2405 
3 2406 2407 2408 
3 2409 2410 2411 
3 2412 2413 2414 
3 2415 2416 2417 
3 2418 2419 2420 
3 2421 2422 2423 
3 2424 2425 2426 
3 2427 2428 2429 
3 2430 2431 2432 
3 2433 2434 2435 
3 2436 2437 2438 
3 2439 2440 2441 
3 2442 2443 2444 
3 2445 2446 2447 
3 2448 2449 2450 
3 2451 2452 2453 
3 2454 2455 2456 
3 2457 2458 2459 
3 2460 2461 2462 
3 2463 2464 2465 
3 2466 2467 2468 
3 2469 2470 2471 
3 2472 2473 2474 
3 2475 2476 2477 
3 2478 2479 2480 
3 2481 2482 2483 
3 2484 2485 2486 
3 2487 2488 2489 
3 2490 2491 2492 
3 2493 2494 2495 
3 2496 2497 2498 
3 2499 2500 2501 
3 2502 2503 2504 
3 2505 2506 2507 
3 2508 2509 2510 
3 2511 2512 2513 
3 2514 2515 2516 
3 2517 2518 2519 
3 2520 2521 2522 
3 2523 2524 2525 
3 2526 2527 2528 
3 2529 2530 2531 
3 2532 2533 2534 
3 2535 2536 2537 
3 2538 2539 2540 
3 2541 2542 2543 
3 2544 2545 2546 
3 2547 2548 2549 
3 2550 2551 2552 
3 2553 2554 2555 
3 2556 2557 2558 
3 2559 2560 2561 
3 2562 2563 2564 
3 2565 2566 2567 
3 2568 2569 2570 
3 2571 2572 2573 
3 2574 2575 2576 
3 2577 2578 2579 
3 2580 2581 2582 
3 2583 2584 2585 
3 2586 2587 2588 
3 2589 2590 2591 
3 2592 2593 2594 
3 2595 2596 2597 
3 2598 2599 2600 
3 2601 2602 2603 
3 2604 2605 2606 
3 2607 2608 2609 
3 2610 2611 2612 
3 2613 2614 2615 
3 2616 2617 2618 
3 2619 2620 2621 
3 2622 2623 2624 
3 2625 2626 2627 
3 2628 2629 2630 
3 2631 2632 2633 
3 2634 2635 2636 
3 2637 2638 2639 
3 2640 2641 2642 
3 2643 2644 2645 
3 2646 2647 2648 
3 2649 2650 2651 
3 2652 2653 2654 
3 2655 2656 2657 
3 2658 2659 2660 
3 2661 2662 2663 
3 2664 2665 2666 
3 2667 2668 2669 
3 2670 2671 2672 
3 2673 2674 2675 
3 2676 2677 2678 
3 2679 2680 2681 
3 2682 2683 2684 
3 2685 2686 2687 
3 2688 2689 2690 
3 2691 2692 2693 
3 2694 2695 2696 
3 2697 2698 2699 
3 2700 2701 2702 
3 2703 2704 2705 
3 2706 2707 2708 
3 2709 2710 2711 
3 2712 2713 2714 
3 2715 2716 2717 
3 2718 2719 2720 
3 2721 2722 2723 
3 2724 2725 2726 
3 2727 2728 2729 
3 2730 2731 2732 
3 2733 2734 2735 
3 2736 2737 2738 
3 2739 2740 2741 
3 2742 2743 2744 
3 2745 2746 2747 
3 2748 2749 2750 
3 2751 2752 2753 
3 2754 2755 2756 
3 2757 2758 2759 
3 2760 2761 2762 
3 2763 2764 2765 
3 2766 2767 2768 
3 2769 2770 2771 
3 2772 2773 2774 
3 2775 2776 2777 
3 2778 2779 2780 
3 2781 2782 2783 
3 2784 2785 2786 
3 2787 2788 2789 
3 2790 2791 2792 
3 2793 2794 2795 
3 2796 2797 2798 
3 2799 2800 2801 
3 2802 2803 2804 
3 2805 2806 2807 
3 2808 2809 2810 
3 2811 2812 2813 
3 2814 2815 2816 
3 2817 2818 2819 
3 2820 2821 2822 
3 2823 2824 2825 
3 2826 2827 2828 
3 2829 2830 2831 
3 2832 2833 2834 
3 2835 2836 2837 
3 2838 2839 2840 
3 2841 2842 2843 
3 2844 2845 2846 
3 2847 2848 2849 
3 2850 2851 2852 
3 2853 2854 2855 
3 2856 2857 2858 
3 2859 2860 2861 
3 2862 2863 2864 
3 2865 2866 2867 
3 2868 2869 2870 
3 2871 2872 2873 
3 2874 2875 2876 
3 2877 2878 2879 
3 2880 2881 2882 
3 2883 2884 2885 
3 2886 2887 2888 
3 2889 2890 2891 
3 2892 2893 2894 
3 2895 2896 2897 
3 2898 2899 2900 
3 2901 2902 2903 
3 2904 2905 2906 
3 2907 2908 2909 
3 2910 2911 2912 
3 2913 2914 2915 
3 2916 2917 2918 
3 2919 2920 2921 
3 2922 2923 2924 
3 2925 2926 2927 
3 2928 2929 2930 
3 2931 2932 2933 
3 2934 2935 2936 
3 2937 2938 2939 
3 2940 2941 2942 
3 2943 2944 2945 
3 2946 2947 2948 
3 2949 2950 2951 
3 2952 2953 2954 
3 2955 2956 2957 
3 2958 2959 2960 
3 2961 2962 2963 
3 2964 2965 2966 
3 2967 2968 2969 
3 2970 2971 2972 
3 2973 2974 2975 
3 2976 2977 2978 
3 2979 2980 2981 
3 2982 2983 2984 
3 2985 2986 2987 
3 2988 2989 2990 
3 2991 2992 2993 
3 2994 2995 2996 
3 2997 2998 2999 
3 3000 3001 3002 
3 3003 3004 3005 
3 3006 3007 3008 
3 3009 3010 3011 
3 3012 3013 3014 
3 3015 3016 3017 
3 3018 3019 3020 
3 3021 3022 3023 
3 3024 3025 3026 
3 3027 3028 3029 
3 3030 3031 3032 
3 3033 3034 3035 
3 3036 3037 3038 
3 3039 3040 3041 
3 3042 3043 3044 
3 3045 3046 3047 
3 3048 3049 3050 
3 3051 3052 3053 
3 3054 3055 3056 
3 3057 3058 3059 
3 3060 3061 3062 
3 3063 3064 3065 
3 3066 3067 3068 
3 3069 3070 3071 
3 3072 3073 3074 
3 3075 3076 3077 
3 3078 3079 3080 
3 3081 3082 3083 
3 3084 3085 3086 
3 3087 3088 3089 
3 3090 3091 3092 
3 3093 3094 3095 
3 3096 3097 3098 
3 3099 3100 3101 
3 3102 3103 3104 
3 3105 3106 3107 
3 3108 3109 3110 
3 3111 3112 3113 
3 3114 3115 3116 
3 3117 3118 3119 
3 3120 3121 3122 
3 3123 3124 3125 
3 3126 3127 3128 
3 3129 3130 3131 
3 3132 3133 3134 
3 3135 3136 3137 
3 3138 3139 3140 
3 3141 3142 3143 
3 3144 3145 3146 
3 3147 3148 3149 
3 3150 3151 3152 
3 3153 3154 3155 
3 3156 3157 3158 
3 3159 3160 3161 
3 3162 3163 3164 
3 3165 3166 3167 
3 3168 3169 3170 
3 3171 3172 3173 
3 3174 3175 3176 
3 3177 3178 3179 
3 3180 3181 3182 
3 3183 3184 3185 
3 3186 3187 3188 
3 3189 3190 3191 
3 3192 3193 3194 
3 3195 3196 3197 
3 3198 3199 3200 
3 3201 3202 3203 
3 3204 3205 3206 
3 3207 3208 3209 
3 3210 3211 3212 
3 3213 3214 3215 
3 3216 3217 3218 
3 3219 3220 3221 
3 3222 3223 3224 
3 3225 3226 3227 
3 3228 3229 3230 
3 3231 3232 3233 
3 3234 3235 3236 
3 3237 3238 3239 
3 3240 3241 3242 
3 3243 3244 3245 
3 3246 3247 3248 
3 3249 3250 3251 
3 3252 3253 3254 
3 3255 3256 3257 
3 3258 3259 3260 
3 3261 3262 3263 
3 3264 3265 3266 
3 3267 3268 3269 
3 3270 3271 3272 
3 3273 3274 3275 
3 3276 3277 3278 
3 3279 3280 3281 
3 3282 3283 3284 
3 3285 3286 3287 
3 3288 3289 3290 
3 3291 3292 3293 
3 3294 3295 3296 
3 3297 3298 3299 
3 3300 3301 3302 
3 3303 3304 3305 
3 3306 3307 3308 
3 3309 3310 3311 
3 3312 3313 3314 
3 3315 3316 3317 
3 3318 3319 3320 
3 3321 3322 3323 
3 3324 3325 3326 
3 3327 3328 3329 
3 3330 3331 3332 
3 3333 3334 3335 
3 3336 3337 3338 
3 3339 3340 3341 
3 3342 3343 3344 
3 3345 3346 3347 
3 3348 3349 3350 
3 3351 3352 3353 
3 3354 3355 3356 
3 3357 3358 3359 
3 3360 3361 3362 
3 3363 3364 3365 
3 3366 3367 3368 
3 3369 3370 3371 
3 3372 3373 3374 
3 3375 3376 3377 
3 3378 3379 3380 
3 3381 3382 3383 
3 3384 3385 3386 
3 3387 3388 3389 
3 3390 3391 3392 
3 3393 3394 3395 
3 3396 3397 3398 
3 3399 3400 3401 
3 3402 3403 3404 
3 3405 3406 3407 
3 3408 3409 3410 
3 3411 3412 3413 
3 3414 3415 3416 
3 3417 3418 3419 
3 3420 3421 3422 
3 3423 3424 3425 
3 3426 3427 3428 
3 3429 3430 3431 
3 3432 3433 3434 
3 3435 3436 3437 
3 3438 3439 3440 
3 3441 3442 3443 
3 3444 3445 3446 
3 3447 3448 3449 
3 3450 3451 3452 
3 3453 3454 3455 
3 3456 3457 3458 
3 3459 3460 3461 
3 3462 3463 3464 
3 3465 3466 3467 
3 3468 3469 3470 
3 3471 3472 3473 
3 3474 3475 3476 
3 3477 3478 3479 
3 3480 3481 3482 
3 3483 3484 3485 
3 3486 3487 3488 
3 3489 3490 3491 
3 3492 3493 3494 
3 3495 3496 3497 
3 3498 3499 3500 
3 3501 3502 3503 
3 3504 3505 3506 
3 3507 3508 3509 
3 3510 3511 3512 
3 3513 3514 3515 
3 3516 3517 3518 
3 3519 3520 3521 
3 3522 3523 3524 
3 3525 3526 3527 
3 3528 3529 3530 
3 3531 3532 3533 
3 3534 3535 3536 
3 3537 3538 3539 
3 3540 3541 3542 
3 3543 3544 3545 
3 3546 3547 3548 
3 3549 3550 3551 
3 3552 3553 3554 
3 3555 3556 3557 
3 3558 3559 3560 
3 3561 3562 3563 
3 3564 3565 3566 
3 3567 3568 3569 
3 3570 3571 3572 
3 3573 3574 3575 
3 3576 3577 3578 
3 3579 3580 3581 
3 3582 3583 3584 
3 3585 3586 3587 
3 3588 3589 3590 
3 3591 3592 3593 
3 3594 3595 3596 
3 3597 3598 3599 
3 3600 3601 3602 
3 3603 3604 3605 
3 3606 3607 3608 
3 3609 3610 3611 
3 3612 3613 3614 
3 3615 3616 3617 
3 3618 3619 3620 
3 3621 3622 3623 
3 3624 3625 3626 
3 3627 3628 3629 
3 3630 3631 3632 
3 3633 3634 3635 
3 3636 3637 3638 
3 3639 3640 3641 
3 3642 3643 3644 
3 3645 3646 3647 
3 3648 3649 3650 
3 3651 3652 3653 
3 3654 3655 3656 
3 3657 3658 3659 
3 3660 3661 3662 
3 3663 3664 3665 
3 3666 3667 3668 
3 3669 3670 3671 
3 3672 3673 3674 
3 3675 3676 3677 
3 3678 3679 3680 
3 3681 3682 3683 
3 3684 3685 3686 
3 3687 3688 3689 
3 3690 3691 3692 
3 3693 3694 3695 
3 3696 3697 3698 
3 3699 3700 3701 
3 3702 3703 3704 
3 3705 3706 3707 
3 3708 3709 3710 
3 3711 3712 3713 
3 3714 3715 3716 
3 3717 3718 3719 
3 3720 3721 3722 
3 3723 3724 3725 
3 3726 3727 3728 
3 3729 3730 3731 
3 3732 3733 3734 
3 3735 3736 3737 
3 3738 3739 3740 
3 3741 3742 3743 
3 3744 3745 3746 
3 3747 3748 3749 
3 3750 3751 3752 
3 3753 3754 3755 
3 3756 3757 3758 
3 3759 3760 3761 
3 3762 3763 3764 
3 3765 3766 3767 
3 3768 3769 3770 
3 3771 3772 3773 
3 3774 3775 3776 
3 3777 3778 3779 
3 3780 3781 3782 
3 3783 3784 3785 
3 3786 3787 3788 
3 3789 3790 3791 
3 3792 3793 3794 
3 3795 3796 3797 
3 3798 3799 3800 
3 3801 3802 3803 
3 3804 3805 3806 
3 3807 3808 3809 
3 3810 3811 3812 
3 3813 3814 3815 
3 3816 3817 3818 
3 3819 3820 3821 
3 3822 3823 3824 
3 3825 3826 3827 
3 3828 3829 3830 
3 3831 3832 3833 
3 3834 3835 3836 
3 3837 3838 3839 
3 3840 3841 3842 
3 3843 3844 3845 
3 3846 3847 3848 
3 3849 3850 3851 
3 3852 3853 3854 
3 3855 3856 3857 
3 3858 3859 3860 
3 3861 3862 3863 
3 3864 3865 3866 
3 3867 3868 3869 
3 3870 3871 3872 
3 3873 3874 3875 
3 3876 3877 3878 
3 3879 3880 3881 
3 3882 3883 3884 
3 3885 3886 3887 
3 3888 3889 3890 
3 3891 3892 3893 
3 3894 3895 3896 
3 3897 3898 3899 
3 3900 3901 3902 
3 3903 3904 3905 
3 3906 3907 3908 
3 3909 3910 3911 
3 3912 3913 3914 
3 3915 3916 3917 
3 3918 3919 3920 
3 3921 3922 3923 
3 3924 3925 3926 
3 3927 3928 3929 
3 3930 3931 3932 
3 3933 3934 3935 
3 3936 3937 3938 
3 3939 3940 3941 
3 3942 3943 3944 
3 3945 3946 3947 
3 3948 3949 3950 
3 3951 3952 3953 
3 3954 3955 3956 
3 3957 3958 3959 
3 3960 3961 3962 
3 3963 3964 3965 
3 3966 3967 3968 
3 3969 3970 3971 
3 3972 3973 3974 
3 3975 3976 3977 
3 3978 3979 3980 
3 3981 3982 3983 
3 3984 3985 3986 
3 3987 3988 3989 
3 3990 3991 3992 
3 3993 3994 3995 
3 3996 3997 3998 
3 3999 4000 4001 
3 4002 4003 4004 
3 4005 4006 4007 
3 4008 4009 4010 
3 4011 4012 4013 
3 4014 4015 4016 
3 4017 4018 4019 
3 4020 4021 4022 
3 4023 4024 4025 
3 4026 4027 4028 
3 4029 4030 4031 
3 4032 4033 4034 
3 4035 4036 4037 
3 4038 4039 4040 
3 4041 4042 4043 
3 4044 4045 4046 
3 4047 4048 4049 
3 4050 4051 4052 
3 4053 4054 4055 
3 4056 4057 4058 
3 4059 4060 4061 
3 4062 4063 4064 
3 4065 4066 4067 
3 4068 4069 4070 
3 4071 4072 4073 
3 4074 4075 4076 
3 4077 4078 4079 
3 4080 4081 4082 
3 4083 4084 4085 
3 4086 4087 4088 
3 4089 4090 4091 
3 4092 4093 4094 
3 4095 4096 4097 
3 4098 4099 4100 
3 4101 4102 4103 
3 4104 4105 4106 
3 4107 4108 4109 
3 4110 4111 4112 
3 4113 4114 4115 
3 4116 4117 4118 
3 4119 4120 4121 
3 4122 4123 4124 
3 4125 4126 4127 
3 4128 4129 4130 
3 4131 4132 4133 
3 4134 4135 4136 
3 4137 4138 4139 
3 4140 4141 4142 
3 4143 4144 4145 
3 4146 4147 4148 
3 4149 4150 4151 
3 4152 4153 4154 
3 4155 4156 4157 
3 4158 4159 4160 
3 4161 4162 4163 
3 4164 4165 4166 
3 4167 4168 4169 
3 4170 4171 4172 
3 4173 4174 4175 
3 4176 4177 4178 
3 4179 4180 4181 
3 4182 4183 4184 
3 4185 4186 4187 
3 4188 4189 4190 
3 4191 4192 4193 
3 4194 4195 4196 
3 4197 4198 4199 
3 4200 4201 4202 
3 4203 4204 4205 
3 4206 4207 4208 
3 4209 4210 4211 
3 4212 4213 4214 
3 4215 4216 4217 
3 4218 4219 4220 
3 4221 4222 4223 
3 4224 4225 4226 
3 4227 4228 4229 
3 4230 4231 4232 
3 4233 4234 4235 
3 4236 4237 4238 
3 4239 4240 4241 
3 4242 4243 4244 
3 4245 4246 4247 
3 4248 4249 4250 
3 4251 4252 4253 
3 4254 4255 4256 
3 4257 4258 4259 
3 4260 4261 4262 
3 4263 4264 4265 
3 4266 4267 4268 
3 4269 4270 4271 
3 4272 4273 4274 
3 4275 4276 4277 
3 4278 4279 4280 
3 4281 4282 4283 
3 4284 4285 4286 
3 4287 4288 4289 
3 4290 4291 4292 
3 4293 4294 4295 
3 4296 4297 4298 
3 4299 4300 4301 
3 4302 4303 4304 
3 4305 4306 4307 
3 4308 4309 4310 
3 4311 4312 4313 
3 4314 4315 4316 
3 4317 4318 4319 
3 4320 4321 4322 
3 4323 4324 4325 
3 4326 4327 4328 
3 4329 4330 4331 
3 4332 4333 4334 
3 4335 4336 4337 
3 4338 4339 4340 
3 4341 4342 4343 
3 4344 4345 4346 
3 4347 4348 4349 
3 4350 4351 4352 
3 4353 4354 4355 
3 4356 4357 4358 
3 4359 4360 4361 
3 4362 4363 4364 
3 4365 4366 4367 
3 4368 4369 4370 
3 4371 4372 4373 
3 4374 4375 4376 
3 4377 4378 4379 
3 4380 4381 4382 
3 4383 4384 4385 
3 4386 4387 4388 
3 4389 4390 4391 
3 4392 4393 4394 
3 4395 4396 4397 
3 4398 4399 4400 
3 4401 4402 4403 
3 4404 4405 4406 
3 4407 4408 4409 
3 4410 4411 4412 
3 4413 4414 4415 
3 4416 4417 4418 
3 4419 4420 4421 
3 4422 4423 4424 
3 4425 4426 4427 
3 4428 4429 4430 
3 4431 4432 4433 
3 4434 4435 4436 
3 4437 4438 4439 
3 4440 4441 4442 
3 4443 4444 4445 
3 4446 4447 4448 
3 4449 4450 4451 
3 4452 4453 4454 
3 4455 4456 4457 
3 4458 4459 4460 
3 4461 4462 4463 
3 4464 4465 4466 
3 4467 4468 4469 
3 4470 4471 4472 
3 4473 4474 4475 
3 4476 4477 4478 
3 4479 4480 4481 
3 4482 4483 4484 
3 4485 4486 4487 
3 4488 4489 4490 
3 4491 4492 4493 
3 4494 4495 4496 
3 4497 4498 4499 
3 4500 4501 4502 
3 4503 4504 4505 
3 4506 4507 4508 
3 4509 4510 4511 
3 4512 4513 4514 
3 4515 4516 4517 
3 4518 4519 4520 
3 4521 4522 4523 
3 4524 4525 4526 
3 4527 4528 4529 
3 4530 4531 4532 
3 4533 4534 4535 
3 4536 4537 4538 
3 4539 4540 4541 
3 4542 4543 4544 
3 4545 4546 4547 
3 4548 4549 4550 
3 4551 4552 4553 
3 4554 4555 4556 
3 4557 4558 4559 
3 4560 4561 4562 
3 4563 4564 4565 
3 4566 4567 4568 
3 4569 4570 4571 
3 4572 4573 4574 
3 4575 4576 4577 
3 4578 4579 4580 
3 4581 4582 4583 
3 4584 4585 4586 
3 4587 4588 4589 
3 4590 4591 4592 
3 4593 4594 4595 
3 4596 4597 4598 
3 4599 4600 4601 
3 4602 4603 4604 
3 4605 4606 4607 
3 4608 4609 4610 
3 4611 4612 4613 
3 4614 4615 4616 
3 4617 4618 4619 
3 4620 4621 4622 
3 4623 4624 4625 
3 4626 4627 4628 
3 4629 4630 4631 
3 4632 4633 4634 
3 4635 4636 4637 
3 4638 4639 4640 
3 4641 4642 4643 
3 4644 4645 4646 
3 4647 4648 4649 
3 4650 4651 4652 
3 4653 4654 4655 
3 4656 4657 4658 
3 4659 4660 4661 
3 4662 4663 4664 
3 4665 4666 4667 
3 4668 4669 4670 
3 4671 4672 4673 
3 4674 4675 4676 
3 4677 4678 4679 
3 4680 4681 4682 
3 4683 4684 4685 
3 4686 4687 4688 
3 4689 4690 4691 
3 4692 4693 4694 
3 4695 4696 4697 
3 4698 4699 4700 
3 4701 4702 4703 
3 4704 4705 4706 
3 4707 4708 4709 
3 4710 4711 4712 
3 4713 4714 4715 
3 4716 4717 4718 
3 4719 4720 4721 
3 4722 4723 4724 
3 4725 4726 4727 
3 4728 4729 4730 
3 4731 4732 4733 
3 4734 4735 4736 
3 4737 4738 4739 
3 4740 4741 4742 
3 4743 4744 4745 
3 4746 4747 4748 
3 4749 4750 4751 
3 4752 4753 4754 
3 4755 4756 4757 
3 4758 4759 4760 
3 4761 4762 4763 
3 4764 4765 4766 
3 4767 4768 4769 
3 4770 4771 4772 
3 4773 4774 4775 
3 4776 4777 4778 
3 4779 4780 4781 
3 4782 4783 4784 
3 4785 4786 4787 
3 4788 4789 4790 
3 4791 4792 4793 
3 4794 4795 4796 
3 4797 4798 4799 
3 4800 4801 4802 
3 4803 4804 4805 
3 4806 4807 4808 
3 4809 4810 4811 
3 4812 4813 4814 
3 4815 4816 4817 
3 4818 4819 4820 
3 4821 4822 4823 
3 4824 4825 4826 
3 4827 4828 4829 
3 4830 4831 4832 
3 4833 4834 4835 
3 4836 4837 4838 
3 4839 4840 4841 
3 4842 4843 4844 
3 4845 4846 4847 
3 4848 4849 4850 
3 4851 4852 4853 
3 4854 4855 4856 
3 4857 4858 4859 
3 4860 4861 4862 
3 4863 4864 4865 
3 4866 4867 4868 
3 4869 4870 4871 
3 4872 4873 4874 
3 4875 4876 4877 
3 4878 4879 4880 
3 4881 4882 4883 
3 4884 4885 4886 
3 4887 4888 4889 
3 4890 4891 4892 
3 4893 4894 4895 
3 4896 4897 4898 
3 4899 4900 4901 
3 4902 4903 4904 
3 4905 4906 4907 
3 4908 4909 4910 
3 4911 4912 4913 
3 4914 4915 4916 
3 4917 4918 4919 
3 4920 4921 4922 
3 4923 4924 4925 
3 4926 4927 4928 
3 4929 4930 4931 
3 4932 4933 4934 
3 4935 4936 4937 
3 4938 4939 4940 
3 4941 4942 4943 
3 4944 4945 4946 
3 4947 4948 4949 
3 4950 4951 4952 
3 4953 4954 4955 
3 4956 4957 4958 
3 4959 4960 4961 
3 4962 4963 4964 
3 4965 4966 4967 
3 4968 4969 4970 
3 4971 4972 4973 
3 4974 4975 4976 
3 4977 4978 4979 
3 4980 4981 4982 
3 4983 4984 4985 
3 4986 4987 4988 
3 4989 4990 4991 
3 4992 4993 4994 
3 4995 4996 4997 
3 4998 4999 5000 
3 5001 5002 5003 
3 5004 5005 5006 
3 5007 5008 5009 
3 5010 5011 5012 
3 5013 5014 5015 
3 5016 5017 5018 
3 5019 5020 5021 
3 5022 5023 5024 
3 5025 5026 5027 
3 5028 5029 5030 
3 5031 5032 5033 
3 5034 5035 5036 
3 5037 5038 5039 
3 5040 5041 5042 
3 5043 5044 5045 
3 5046 5047 5048 
3 5049 5050 5051 
3 5052 5053 5054 
3 5055 5056 5057 
3 5058 5059 5060 
3 5061 5062 5063 
3 5064 5065 5066 
3 5067 5068 5069 
3 5070 5071 5072 
3 5073 5074 5075 
3 5076 5077 5078 
3 5079 5080 5081 
3 5082 5083 5084 
3 5085 5086 5087 
3 5088 5089 5090 
3 5091 5092 5093 
3 5094 5095 5096 
3 5097 5098 5099 
3 5100 5101 5102 
3 5103 5104 5105 
3 5106 5107 5108 
3 5109 5110 5111 
3 5112 5113 5114 
3 5115 5116 5117 
3 5118 5119 5120 
3 5121 5122 5123 
3 5124 5125 5126 
3 5127 5128 5129 
3 5130 5131 5132 
3 5133 5134 5135 
3 5136 5137 5138 
3 5139 5140 5141 
3 5142 5143 5144 
3 5145 5146 5147 
3 5148 5149 5150 
3 5151 5152 5153 
3 5154 5155 5156 
3 5157 5158 5159 
3 5160 5161 5162 
3 5163 5164 5165 
3 5166 5167 5168 
3 5169 5170 5171 
3 5172 5173 5174 
3 5175 5176 5177 
3 5178 5179 5180 
3 5181 5182 5183 
3 5184 5185 5186 
3 5187 5188 5189 
3 5190 5191 5192 
3 5193 5194 5195 
3 5196 5197 5198 
3 5199 5200 5201 
3 5202 5203 5204 
3 5205 5206 5207 
3 5208 5209 5210 
3 5211 5212 5213 
3 5214 5215 5216 
3 5217 5218 5219 
3 5220 5221 5222 
3 5223 5224 5225 
3 5226 5227 5228 
3 5229 5230 5231 
3 5232 5233 5234 
3 5235 5236 5237 
3 5238 5239 5240 
3 5241 5242 5243 
3 5244 5245 5246 
3 5247 5248 5249 
3 5250 5251 5252 
3 5253 5254 5255 
3 5256 5257 5258 
3 5259 5260 5261 
3 5262 5263 5264 
3 5265 5266 5267 
3 5268 5269 5270 
3 5271 5272 5273 
3 5274 5275 5276 
3 5277 5278 5279 
3 5280 5281 5282 
3 5283 5284 5285 
3 5286 5287 5288 
3 5289 5290 5291 
3 5292 5293 5294 
3 5295 5296 5297 
3 5298 5299 5300 
3 5301 5302 5303 
3 5304 5305 5306 
3 5307 5308 5309 
3 5310 5311 5312 
3 5313 5314 5315 
3 5316 5317 5318 
3 5319 5320 5321 
3 5322 5323 5324 
3 5325 5326 5327 
3 5328 5329 5330 
3 5331 5332 5333 
3 5334 5335 5336 
3 5337 5338 5339 
3 5340 5341 5342 
3 5343 5344 5345 
3 5346 5347 5348 
3 5349 5350 5351 
3 5352 5353 5354 
3 5355 5356 5357 
3 5358 5359 5360 
3 5361 5362 5363 
3 5364 5365 5366 
3 5367 5368 5369 
3 5370 5371 5372 
3 5373 5374 5375 
3 5376 5377 5378 
3 5379 5380 5381 
3 5382 5383 5384 
3 5385 5386 5387 
3 5388 5389 5390 
3 5391 5392 5393 
3 5394 5395 5396 
3 5397 5398 5399 
3 5400 5401 5402 
3 5403 5404 5405 
3 5406 5407 5408 
3 5409 5410 5411 
3 5412 5413 5414 
3 5415 5416 5417 
3 5418 5419 5420 
3 5421 5422 5423 
3 5424 5425 5426 
3 5427 5428 5429 
3 5430 5431 5432 
3 5433 5434 5435 
3 5436 5437 5438 
3 5439 5440 5441 
3 5442 5443 5444 
3 5445 5446 5447 
3 5448 5449 5450 
3 5451 5452 5453 
3 5454 5455 5456 
3 5457 5458 5459 
3 5460 5461 5462 
3 5463 5464 5465 
3 5466 5467 5468 
3 5469 5470 5471 
3 5472 5473 5474 
3 5475 5476 5477 
3 5478 5479 5480 
3 5481 5482 5483 
3 5484 5485 5486 
3 5487 5488 5489 
3 5490 5491 5492 
3 5493 5494 5495 
3 5496 5497 5498 
3 5499 5500 5501 
3 5502 5503 5504 
3 5505 5506 5507 
3 5508 5509 5510 
3 5511 5512 5513 
3 5514 5515 5516 
3 5517 5518 5519 
3 5520 5521 5522 
3 5523 5524 5525 
3 5526 5527 5528 
3 5529 5530 5531 
3 5532 5533 5534 
3 5535 5536 5537 
3 5538 5539 5540 
3 5541 5542 5543 
3 5544 5545 5546 
3 5547 5548 5549 
3 5550 5551 5552 
3 5553 5554 5555 
3 5556 5557 5558 
3 5559 5560 5561 
3 5562 5563 5564 
3 5565 5566 5567 
3 5568 5569 5570 
3 5571 5572 5573 
3 5574 5575 5576 
3 5577 5578 5579 
3 5580 5581 5582 
3 5583 5584 5585 
3 5586 5587 5588 
3 5589 5590 5591 
3 5592 5593 5594 
3 5595 5596 5597 
3 5598 5599 5600 
3 5601 5602 5603 
3 5604 5605 5606 
3 5607 5608 5609 
3 5610 5611 5612 
3 5613 5614 5615 
3 5616 5617 5618 
3 5619 5620 5621 
3 5622 5623 5624 
3 5625 5626 5627 
3 5628 5629 5630 
3 5631 5632 5633 
3 5634 5635 5636 
3 5637 5638 5639 
3 5640 5641 5642 
3 5643 5644 5645 
3 5646 5647 5648 
3 5649 5650 5651 
3 5652 5653 5654 
3 5655 5656 5657 
3 5658 5659 5660 
3 5661 5662 5663 
3 5664 5665 5666 
3 5667 5668 5669 
3 5670 5671 5672 
3 5673 5674 5675 
3 5676 5677 5678 
3 5679 5680 5681 
3 5682 5683 5684 
3 5685 5686 5687 
3 5688 5689 5690 
3 5691 5692 5693 
3 5694 5695 5696 
3 5697 5698 5699 
3 5700 5701 5702 
3 5703 5704 5705 
3 5706 5707 5708 
3 5709 5710 5711 
3 5712 5713 5714 
3 5715 5716 5717 
3 5718 5719 5720 
3 5721 5722 5723 
3 5724 5725 5726 
3 5727 5728 5729 
3 5730 5731 5732 
3 5733 5734 5735 
3 5736 5737 5738 
3 5739 5740 5741 
3 5742 5743 5744 
3 5745 5746 5747 
3 5748 5749 5750 
3 5751 5752 5753 
3 5754 5755 5756 
3 5757 5758 5759 
3 5760 5761 5762 
3 5763 5764 5765 
3 5766 5767 5768 
3 5769 5770 5771 
3 5772 5773 5774 
3 5775 5776 5777 
3 5778 5779 5780 
3 5781 5782 5783 
3 5784 5785 5786 
3 5787 5788 5789 
3 5790 5791 5792 
3 5793 5794 5795 
3 5796 5797 5798 
3 5799 5800 5801 
3 5802 5803 5804 
3 5805 5806 5807 
3 5808 5809 5810 
3 5811 5812 5813 
3 5814 5815 5816 
3 5817 5818 5819 
3 5820 5821 5822 
3 5823 5824 5825 
3 5826 5827 5828 
3 5829 5830 5831 
3 5832 5833 5834 
3 5835 5836 5837 
3 5838 5839 5840 
3 5841 5842 5843 
3 5844 5845 5846 
3 5847 5848 5849 
3 5850 5851 5852 
3 5853 5854 5855 
3 5856 5857 5858 
3 5859 5860 5861 
3 5862 5863 5864 
3 5865 5866 5867 
3 5868 5869 5870 
3 5871 5872 5873 
3 5874 5875 5876 
3 5877 5878 5879 
3 5880 5881 5882 
3 5883 5884 5885 
3 5886 5887 5888 
3 5889 5890 5891 
3 5892 5893 5894 
3 5895 5896 5897 
3 5898 5899 5900 
3 5901 5902 5903 
3 5904 5905 5906 
3 5907 5908 5909 
3 5910 5911 5912 
3 5913 5914 5915 
3 5916 5917 5918 
3 5919 5920 5921 
3 5922 5923 5924 
3 5925 5926 5927 
3 5928 5929 5930 
3 5931 5932 5933 
3 5934 5935 5936 
3 5937 5938 5939 
3 5940 5941 5942 
3 5943 5944 5945 
3 5946 5947 5948 
3 5949 5950 5951 
3 5952 5953 5954 
3 5955 5956 5957 
3 5958 5959 5960 
3 5961 5962 5963 
3 5964 5965 5966 
3 5967 5968 5969 
3 5970 5971 5972 
3 5973 5974 5975 
3 5976 5977 5978 
3 5979 5980 5981 
3 5982 5983 5984 
3 5985 5986 5987 
3 5988 5989 5990 
3 5991 5992 5993 
3 5994 5995 5996 
3 5997 5998 5999 
3 6000 6001 6002 
3 6003 6004 6005 
3 6006 6007 6008 
3 6009 6010 6011 
3 6012 6013 6014 
3 6015 6016 6017 
3 6018 6019 6020 
3 6021 6022 6023 
3 6024 6025 6026 
3 6027 6028 6029 
3 6030 6031 6032 
3 6033 6034 6035 
3 6036 6037 6038 
3 6039 6040 6041 
3 6042 6043 6044 
3 6045 6046 6047 
3 6048 6049 6050 
3 6051 6052 6053 
3 6054 6055 6056 
3 6057 6058 6059 
3 6060 6061 6062 
3 6063 6064 6065 
3 6066 6067 6068 
3 6069 6070 6071 
3 6072 6073 6074 
3 6075 6076 6077 
3 6078 6079 6080 
3 6081 6082 6083 
3 6084 6085 6086 
3 6087 6088 6089 
3 6090 6091 6092 
3 6093 6094 6095 
3 6096 6097 6098 
3 6099 6100 6101 
3 6102 6103 6104 
3 6105 6106 6107 
3 6108 6109 6110 
3 6111 6112 6113 
3 6114 6115 6116 
3 6117 6118 6119 
3 6120 6121 6122 
3 6123 6124 6125 
3 6126 6127 6128 
3 6129 6130 6131 
3 6132 6133 6134 
3 6135 6136 6137 
3 6138 6139 6140 
3 6141 6142 6143 
3 6144 6145 6146 
3 6147 6148 6149 
3 6150 6151 6152 
3 6153 6154 6155 
3 6156 6157 6158 
3 6159 6160 6161 
3 6162 6163 6164 
3 6165 6166 6167 
3 6168 6169 6170 
3 6171 6172 6173 
3 6174 6175 6176 
3 6177 6178 6179 
3 6180 6181 6182 
3 6183 6184 6185 
3 6186 6187 6188 
3 6189 6190 6191 
3 6192 6193 6194 
3 6195 6196 6197 
3 6198 6199 6200 
3 6201 6202 6203 
3 6204 6205 6206 
3 6207 6208 6209 
3 6210 6211 6212 
3 6213 6214 6215 
3 6216 6217 6218 
3 6219 6220 6221 
3 6222 6223 6224 
3 6225 6226 6227 
3 6228 6229 6230 
3 6231 6232 6233 
3 6234 6235 6236 
3 6237 6238 6239 
3 6240 6241 6242 
3 6243 6244 6245 
3 6246 6247 6248 
3 6249 6250 6251 
3 6252 6253 6254 
3 6255 6256 6257 
3 6258 6259 6260 
3 6261 6262 6263 
3 6264 6265 6266 
3 6267 6268 6269 
3 6270 6271 6272 
3 6273 6274 6275 
3 6276 6277 6278 
3 6279 6280 6281 
3 6282 6283 6284 
3 6285 6286 6287 
3 6288 6289 6290 
3 6291 6292 6293 
3 6294 6295 6296 
3 6297 6298 6299 
3 6300 6301 6302 
3 6303 6304 6305 
3 6306 6307 6308 
3 6309 6310 6311 
3 6312 6313 6314 
3 6315 6316 6317 
3 6318 6319 6320 
3 6321 6322 6323 
3 6324 6325 6326 
3 6327 6328 6329 
3 6330 6331 6332 
3 6333 6334 6335 
3 6336 6337 6338 
3 6339 6340 6341 
3 6342 6343 6344 
3 6345 6346 6347 
3 6348 6349 6350 
3 6351 6352 6353 
3 6354 6355 6356 
3 6357 6358 6359 
3 6360 6361 6362 
3 6363 6364 6365 
3 6366 6367 6368 
3 6369 6370 6371 
3 6372 6373 6374 
3 6375 6376 6377 
3 6378 6379 6380 
3 6381 6382 6383 
3 6384 6385 6386 
3 6387 6388 6389 
3 6390 6391 6392 
3 6393 6394 6395 
3 6396 6397 6398 
3 6399 6400 6401 
3 6402 6403 6404 
3 6405 6406 6407 
3 6408 6409 6410 
3 6411 6412 6413 
3 6414 6415 6416 
3 6417 6418 6419 
3 6420 6421 6422 
3 6423 6424 6425 
3 6426 6427 6428 
3 6429 6430 6431 
3 6432 6433 6434 
3 6435 6436 6437 
3 6438 6439 6440 
3 6441 6442 6443 
3 6444 6445 6446 
3 6447 6448 6449 
3 6450 6451 6452 
3 6453 6454 6455 
3 6456 6457 6458 
3 6459 6460 6461 
3 6462 6463 6464 
3 6465 6466 6467 
3 6468 6469 6470 
3 6471 6472 6473 
3 6474 6475 6476 
3 6477 6478 6479 
3 6480 6481 6482 
3 6483 6484 6485 
3 6486 6487 6488 
3 6489 6490 6491 
3 6492 6493 6494 
3 6495 6496 6497 
3 6498 6499 6500 
3 6501 6502 6503 
3 6504 6505 6506 
3 6507 6508 6509 
3 6510 6511 6512 
3 6513 6514 6515 
3 6516 6517 6518 
3 6519 6520 6521 
3 6522 6523 6524 
3 6525 6526 6527 
3 6528 6529 6530 
3 6531 6532 6533 
3 6534 6535 6536 
3 6537 6538 6539 
3 6540 6541 6542 
3 6543 6544 6545 
3 6546 6547 6548 
3 6549 6550 6551 
3 6552 6553 6554 
3 6555 6556 6557 
3 6558 6559 6560 
3 6561 6562 6563 
3 6564 6565 6566 
3 6567 6568 6569 
3 6570 6571 6572 
3 6573 6574 6575 
3 6576 6577 6578 
3 6579 6580 6581 
3 6582 6583 6584 
3 6585 6586 6587 
3 6588 6589 6590 
3 6591 6592 6593 
3 6594 6595 6596 
3 6597 6598 6599 
3 6600 6601 6602 
3 6603 6604 6605 
3 6606 6607 6608 
3 6609 6610 6611 
3 6612 6613 6614 
3 6615 6616 6617 
3 6618 6619 6620 
3 6621 6622 6623 
3 6624 6625 6626 
3 6627 6628 6629 
3 6630 6631 6632 
3 6633 6634 6635 
3 6636 6637 6638 
3 6639 6640 6641 
3 6642 6643 6644 
3 6645 6646 6647 
3 6648 6649 6650 
3 6651 6652 6653 
3 6654 6655 6656 
3 6657 6658 6659 
3 6660 6661 6662 
3 6663 6664 6665 
3 6666 6667 6668 
3 6669 6670 6671 
3 6672 6673 6674 
3 6675 6676 6677 
3 6678 6679 6680 
3 6681 6682 6683 
3 6684 6685 6686 
3 6687 6688 6689 
3 6690 6691 6692 
3 6693 6694 6695 
3 6696 6697 6698 
3 6699 6700 6701 
3 6702 6703 6704 
3 6705 6706 6707 
3 6708 6709 6710 
3 6711 6712 6713 
3 6714 6715 6716 
3 6717 6718 6719 
3 6720 6721 6722 
3 6723 6724 6725 
3 6726 6727 6728 
3 6729 6730 6731 
3 6732 6733 6734 
3 6735 6736 6737 
3 6738 6739 6740 
3 6741 6742 6743 
3 6744 6745 6746 
3 6747 6748 6749 
3 6750 6751 6752 
3 6753 6754 6755 
3 6756 6757 6758 
3 6759 6760 6761 
3 6762 6763 6764 
3 6765 6766 6767 
3 6768 6769 6770 
3 6771 6772 6773 
3 6774 6775 6776 
3 6777 6778 6779 
3 6780 6781 6782 
3 6783 6784 6785 
3 6786 6787 6788 
3 6789 6790 6791 
3 6792 6793 6794 
3 6795 6796 6797 
3 6798 6799 6800 
3 6801 6802 6803 
3 6804 6805 6806 
3 6807 6808 6809 
3 6810 6811 6812 
3 6813 6814 6815 
3 6816 6817 6818 
3 6819 6820 6821 
3 6822 6823 6824 
3 6825 6826 6827 
3 6828 6829 6830 
3 6831 6832 6833 
3 6834 6835 6836 
3 6837 6838 6839 
3 6840 6841 6842 
3 6843 6844 6845 
3 6846 6847 6848 
3 6849 6850 6851 
3 6852 6853 6854 
3 6855 6856 6857 
3 6858 6859 6860 
3 6861 6862 6863 
3 6864 6865 6866 
3 6867 6868 6869 
3 6870 6871 6872 
3 6873 6874 6875 
3 6876 6877 6878 
3 6879 6880 6881 
3 6882 6883 6884 
3 6885 6886 6887 
3 6888 6889 6890 
3 6891 6892 6893 
3 6894 6895 6896 
3 6897 6898 6899 
3 6900 6901 6902 
3 6903 6904 6905 
3 6906 6907 6908 
3 6909 6910 6911 
3 6912 6913 6914 
3 6915 6916 6917 
3 6918 6919 6920 
3 6921 6922 6923 
3 6924 6925 6926 
3 6927 6928 6929 
3 6930 6931 6932 
3 6933 6934 6935 
3 6936 6937 6938 
3 6939 6940 6941 
3 6942 6943 6944 
3 6945 6946 6947 
3 6948 6949 6950 
3 6951 6952 6953 
3 6954 6955 6956 
3 6957 6958 6959 
3 6960 6961 6962 
3 6963 6964 6965 
3 6966 6967 6968 
3 6969 6970 6971 
3 6972 6973 6974 
3 6975 6976 6977 
3 6978 6979 6980 
3 6981 6982 6983 
3 6984 6985 6986 
3 6987 6988 6989 
3 6990 6991 6992 
3 6993 6994 6995 
3 6996 6997 6998 
3 6999 7000 7001 
3 7002 7003 7004 
3 7005 7006 7007 
3 7008 7009 7010 
3 7011 7012 7013 
3 7014 7015 7016 
3 7017 7018 7019 
3 7020 7021 7022 
3 7023 7024 7025 
3 7026 7027 7028 
3 7029 7030 7031 
3 7032 7033 7034 
3 7035 7036 7037 
3 7038 7039 7040 
3 7041 7042 7043 
3 7044 7045 7046 
3 7047 7048 7049 
3 7050 7051 7052 
3 7053 7054 7055 
3 7056 7057 7058 
3 7059 7060 7061 
3 7062 7063 7064 
3 7065 7066 7067 
3 7068 7069 7070 
3 7071 7072 7073 
3 7074 7075 7076 
3 7077 7078 7079 
3 7080 7081 7082 
3 7083 7084 7085 
3 7086 7087 7088 
3 7089 7090 7091 
3 7092 7093 7094 
3 7095 7096 7097 
3 7098 7099 7100 
3 7101 7102 7103 
3 7104 7105 7106 
3 7107 7108 7109 
3 7110 7111 7112 
3 7113 7114 7115 
3 7116 7117 7118 
3 7119 7120 7121 
3 7122 7123 7124 
3 7125 7126 7127 
3 7128 7129 7130 
3 7131 7132 7133 
3 7134 7135 7136 
3 7137 7138 7139 
3 7140 7141 7142 
3 7143 7144 7145 
3 7146 7147 7148 
3 7149 7150 7151 
3 7152 7153 7154 
3 7155 7156 7157 
3 7158 7159 7160 
3 7161 7162 7163 
3 7164 7165 7166 
3 7167 7168 7169 
3 7170 7171 7172 
3 7173 7174 7175 
3 7176 7177 7178 
3 7179 7180 7181 
3 7182 7183 7184 
3 7185 7186 7187 
3 7188 7189 7190 
3 7191 7192 7193 
3 7194 7195 7196 
3 7197 7198 7199 
3 7200 7201 7202 
3 7203 7204 7205 
3 7206 7207 7208 
3 7209 7210 7211 
3 7212 7213 7214 
3 7215 7216 7217 
3 7218 7219 7220 
3 7221 7222 7223 
3 7224 7225 7226 
3 7227 7228 7229 
3 7230 7231 7232 
3 7233 7234 7235 
3 7236 7237 7238 
3 7239 7240 7241 
3 7242 7243 7244 
3 7245 7246 7247 
3 7248 7249 7250 
3 7251 7252 7253 
3 7254 7255 7256 
3 7257 7258 7259 
3 7260 7261 7262 
3 7263 7264 7265 
3 7266 7267 7268 
3 7269 7270 7271 
3 7272 7273 7274 
3 7275 7276 7277 
3 7278 7279 7280 
3 7281 7282 7283 
3 7284 7285 7286 
3 7287 7288 7289 
3 7290 7291 7292 
3 7293 7294 7295 
3 7296 7297 7298 
3 7299 7300 7301 
3 7302 7303 7304 
3 7305 7306 7307 
3 7308 7309 7310 
3 7311 7312 7313 
3 7314 7315 7316 
3 7317 7318 7319 
3 7320 7321 7322 
3 7323 7324 7325 
3 7326 7327 7328 
3 7329 7330 7331 
3 7332 7333 7334 
3 7335 7336 7337 
3 7338 7339 7340 
3 7341 7342 7343 
3 7344 7345 7346 
3 7347 7348 7349 
3 7350 7351 7352 
3 7353 7354 7355 
3 7356 7357 7358 
3 7359 7360 7361 
3 7362 7363 7364 
3 7365 7366 7367 
3 7368 7369 7370 
3 7371 7372 7373 
3 7374 7375 7376 
3 7377 7378 7379 
3 7380 7381 7382 
3 7383 7384 7385 
3 7386 7387 7388 
3 7389 7390 7391 
3 7392 7393 7394 
3 7395 7396 7397 
3 7398 7399 7400 
3 7401 7402 7403 
3 7404 7405 7406 
3 7407 7408 7409 
3 7410 7411 7412 
3 7413 7414 7415 
3 7416 7417 7418 
3 7419 7420 7421 
3 7422 7423 7424 
3 7425 7426 7427 
3 7428 7429 7430 
3 7431 7432 7433 
3 7434 7435 7436 
3 7437 7438 7439 
3 7440 7441 7442 
3 7443 7444 7445 
3 7446 7447 7448 
3 7449 7450 7451 
3 7452 7453 7454 
3 7455 7456 7457 
3 7458 7459 7460 
3 7461 7462 7463 
3 7464 7465 7466 
3 7467 7468 7469 
3 7470 7471 7472 
3 7473 7474 7475 
3 7476 7477 7478 
3 7479 7480 7481 
3 7482 7483 7484 
3 7485 7486 7487 
3 7488 7489 7490 
3 7491 7492 7493 
3 7494 7495 7496 
3 7497 7498 7499 
3 7500 7501 7502 
3 7503 7504 7505 
3 7506 7507 7508 
3 7509 7510 7511 
3 7512 7513 7514 
3 7515 7516 7517 
3 7518 7519 7520 
3 7521 7522 7523 
3 7524 7525 7526 
3 7527 7528 7529 
3 7530 7531 7532 
3 7533 7534 7535 
3 7536 7537 7538 
3 7539 7540 7541 
3 7542 7543 7544 
3 7545 7546 7547 
3 7548 7549 7550 
3 7551 7552 7553 
3 7554 7555 7556 
3 7557 7558 7559 
3 7560 7561 7562 
3 7563 7564 7565 
3 7566 7567 7568 
3 7569 7570 7571 
3 7572 7573 7574 
3 7575 7576 7577 
3 7578 7579 7580 
3 7581 7582 7583 
3 7584 7585 7586 
3 7587 7588 7589 
3 7590 7591 7592 
3 7593 7594 7595 
3 7596 7597 7598 
3 7599 7600 7601 
3 7602 7603 7604 
3 7605 7606 7607 
3 7608 7609 7610 
3 7611 7612 7613 
3 7614 7615 7616 
3 7617 7618 7619 
3 7620 7621 7622 
3 7623 7624 7625 
3 7626 7627 7628 
3 7629 7630 7631 
3 7632 7633 7634 
3 7635 7636 7637 
3 7638 7639 7640 
3 7641 7642 7643 
3 7644 7645 7646 
3 7647 7648 7649 
3 7650 7651 7652 
3 7653 7654 7655 
3 7656 7657 7658 
3 7659 7660 7661 
3 7662 7663 7664 
3 7665 7666 7667 
3 7668 7669 7670 
3 7671 7672 7673 
3 7674 7675 7676 
3 7677 7678 7679 
3 7680 7681 7682 
3 7683 7684 7685 
3 7686 7687 7688 
3 7689 7690 7691 
3 7692 7693 7694 
3 7695 7696 7697 
3 7698 7699 7700 
3 7701 7702 7703 
3 7704 7705 7706 
3 7707 7708 7709 
3 7710 7711 7712 
3 7713 7714 7715 
3 7716 7717 7718 
3 7719 7720 7721 
3 7722 7723 7724 
3 7725 7726 7727 
3 7728 7729 7730 
3 7731 7732 7733 
3 7734 7735 7736 
3 7737 7738 7739 
3 7740 7741 7742 
3 7743 7744 7745 
3 7746 7747 7748 
3 7749 7750 7751 
3 7752 7753 7754 
3 7755 7756 7757 
3 7758 7759 7760 
3 7761 7762 7763 
3 7764 7765 7766 
3 7767 7768 7769 
3 7770 7771 7772 
3 7773 7774 7775 
3 7776 7777 7778 
3 7779 7780 7781 
3 7782 7783 7784 
3 7785 7786 7787 
3 7788 7789 7790 
3 7791 7792 7793 
3 7794 7795 7796 
3 7797 7798 7799 
3 7800 7801 7802 
3 7803 7804 7805 
3 7806 7807 7808 
3 7809 7810 7811 
3 7812 7813 7814 
3 7815 7816 7817 
3 7818 7819 7820 
3 7821 7822 7823 
3 7824 7825 7826 
3 7827 7828 7829 
3 7830 7831 7832 
3 7833 7834 7835 
3 7836 7837 7838 
3 7839 7840 7841 
3 7842 7843 7844 
3 7845 7846 7847 
3 7848 7849 7850 
3 7851 7852 7853 
3 7854 7855 7856 
3 7857 7858 7859 
3 7860 7861 7862 
3 7863 7864 7865 
3 7866 7867 7868 
3 7869 7870 7871 
3 7872 7873 7874 
3 7875 7876 7877 
3 7878 7879 7880 
3 7881 7882 7883 
3 7884 7885 7886 
3 7887 7888 7889 
3 7890 7891 7892 
3 7893 7894 7895 
3 7896 7897 7898 
3 7899 7900 7901 
3 7902 7903 7904 
3 7905 7906 7907 
3 7908 7909 7910 
3 7911 7912 7913 
3 7914 7915 7916 
3 7917 7918 7919 
3 7920 7921 7922 
3 7923 7924 7925 
3 7926 7927 7928 
3 7929 7930 7931 
3 7932 7933 7934 
3 7935 7936 7937 
3 7938 7939 7940 
3 7941 7942 7943 
3 7944 7945 7946 
3 7947 7948 7949 
3 7950 7951 7952 
3 7953 7954 7955 
3 7956 7957 7958 
3 7959 7960 7961 
3 7962 7963 7964 
3 7965 7966 7967 
3 7968 7969 7970 
3 7971 7972 7973 
3 7974 7975 7976 
3 7977 7978 7979 
3 7980 7981 7982 
3 7983 7984 7985 
3 7986 7987 7988 
3 7989 7990 7991 
3 7992 7993 7994 
3 7995 7996 7997 
3 7998 7999 8000 
3 8001 8002 8003 
3 8004 8005 8006 
3 8007 8008 8009 
3 8010 8011 8012 
3 8013 8014 8015 
3 8016 8017 8018 
3 8019 8020 8021 
3 8022 8023 8024 
3 8025 8026 8027 
3 8028 8029 8030 
3 8031 8032 8033 
3 8034 8035 8036 
3 8037 8038 8039 
3 8040 8041 8042 
3 8043 8044 8045 
3 8046 8047 8048 
3 8049 8050 8051 
3 8052 8053 8054 
3 8055 8056 8057 
3 8058 8059 8060 
3 8061 8062 8063 
3 8064 8065 8066 
3 8067 8068 8069 
3 8070 8071 8072 
3 8073 8074 8075 
3 8076 8077 8078 
3 8079 8080 8081 
3 8082 8083 8084 
3 8085 8086 8087 
3 8088 8089 8090 
3 8091 8092 8093 
3 8094 8095 8096 
3 8097 8098 8099 
3 8100 8101 8102 
3 8103 8104 8105 
3 8106 8107 8108 
3 8109 8110 8111 
3 8112 8113 8114 
3 8115 8116 8117 
3 8118 8119 8120 
3 8121 8122 8123 
3 8124 8125 8126 
3 8127 8128 8129 
3 8130 8131 8132 
3 8133 8134 8135 
3 8136 8137 8138 
3 8139 8140 8141 
3 8142 8143 8144 
3 8145 8146 8147 
3 8148 8149 8150 
3 8151 8152 8153 
3 8154 8155 8156 
3 8157 8158 8159 
3 8160 8161 8162 
3 8163 8164 8165 
3 8166 8167 8168 
3 8169 8170 8171 
3 8172 8173 8174 
3 8175 8176 8177 
3 8178 8179 8180 
3 8181 8182 8183 
3 8184 8185 8186 
3 8187 8188 8189 
3 8190 8191 8192 
3 8193 8194 8195 
3 8196 8197 8198 
3 8199 8200 8201 
3 8202 8203 8204 
3 8205 8206 8207 
3 8208 8209 8210 
3 8211 8212 8213 
3 8214 8215 8216 
3 8217 8218 8219 
3 8220 8221 8222 
3 8223 8224 8225 
3 8226 8227 8228 
3 8229 8230 8231 
3 8232 8233 8234 
3 8235 8236 8237 
3 8238 8239 8240 
3 8241 8242 8243 
3 8244 8245 8246 
3 8247 8248 8249 
3 8250 8251 8252 
3 8253 8254 8255 
3 8256 8257 8258 
3 8259 8260 8261 
3 8262 8263 8264 
3 8265 8266 8267 
3 8268 8269 8270 
3 8271 8272 8273 
3 8274 8275 8276 
3 8277 8278 8279 
3 8280 8281 8282 
3 8283 8284 8285 
3 8286 8287 8288 
3 8289 8290 8291 
3 8292 8293 8294 
3 8295 8296 8297 
3 8298 8299 8300 
3 8301 8302 8303 
3 8304 8305 8306 
3 8307 8308 8309 
3 8310 8311 8312 
3 8313 8314 8315 
3 8316 8317 8318 
3 8319 8320 8321 
3 8322 8323 8324 
3 8325 8326 8327 
3 8328 8329 8330 
3 8331 8332 8333 
3 8334 8335 8336 
3 8337 8338 8339 
3 8340 8341 8342 
3 8343 8344 8345 
3 8346 8347 8348 
3 8349 8350 8351 
3 8352 8353 8354 
3 8355 8356 8357 
3 8358 8359 8360 
3 8361 8362 8363 
3 8364 8365 8366 
3 8367 8368 8369 
3 8370 8371 8372 
3 8373 8374 8375 
3 8376 8377 8378 
3 8379 8380 8381 
3 8382 8383 8384 
3 8385 8386 8387 
3 8388 8389 8390 
3 8391 8392 8393 
3 8394 8395 8396 
3 8397 8398 8399 
3 8400 8401 8402 
3 8403 8404 8405 
3 8406 8407 8408 
3 8409 8410 8411 
3 8412 8413 8414 
3 8415 8416 8417 
3 8418 8419 8420 
3 8421 8422 8423 
3 8424 8425 8426 
3 8427 8428 8429 
3 8430 8431 8432 
3 8433 8434 8435 
3 8436 8437 8438 
3 8439 8440 8441 
3 8442 8443 8444 
3 8445 8446 8447 
3 8448 8449 8450 
3 8451 8452 8453 
3 8454 8455 8456 
3 8457 8458 8459 
3 8460 8461 8462 
3 8463 8464 8465 
3 8466 8467 8468 
3 8469 8470 8471 
3 8472 8473 8474 
3 8475 8476 8477 
3 8478 8479 8480 
3 8481 8482 8483 
3 8484 8485 8486 
3 8487 8488 8489 
3 8490 8491 8492 
3 8493 8494 8495 
3 8496 8497 8498 
3 8499 8500 8501 
3 8502 8503 8504 
3 8505 8506 8507 
3 8508 8509 8510 
3 8511 8512 8513 
3 8514 8515 8516 
3 8517 8518 8519 
3 8520 8521 8522 
3 8523 8524 8525 
3 8526 8527 8528 
3 8529 8530 8531 
3 8532 8533 8534 
3 8535 8536 8537 
3 8538 8539 8540 
3 8541 8542 8543 
3 8544 8545 8546 
3 8547 8548 8549 
3 8550 8551 8552 
3 8553 8554 8555 
3 8556 8557 8558 
3 8559 8560 8561 
3 8562 8563 8564 
3 8565 8566 8567 
3 8568 8569 8570 
3 8571 8572 8573 
3 8574 8575 8576 
3 8577 8578 8579 
3 8580 8581 8582 
3 8583 8584 8585 
3 8586 8587 8588 
3 8589 8590 8591 
3 8592 8593 8594 
3 8595 8596 8597 
3 8598 8599 8600 
3 8601 8602 8603 
3 8604 8605 8606 
3 8607 8608 8609 
3 8610 8611 8612 
3 8613 8614 8615 
3 8616 8617 8618 
3 8619 8620 8621 
3 8622 8623 8624 
3 8625 8626 8627 
3 8628 8629 8630 
3 8631 8632 8633 
3 8634 8635 8636 
3 8637 8638 8639 
3 8640 8641 8642 
3 8643 8644 8645 
3 8646 8647 8648 
3 8649 8650 8651 
3 8652 8653 8654 
3 8655 8656 8657 
3 8658 8659 8660 
3 8661 8662 8663 
3 8664 8665 8666 
3 8667 8668 8669 
3 8670 8671 8672 
3 8673 8674 8675 
3 8676 8677 8678 
3 8679 8680 8681 
3 8682 8683 8684 
3 8685 8686 8687 
3 8688 8689 8690 
3 8691 8692 8693 
3 8694 8695 8696 
3 8697 8698 8699 
3 8700 8701 8702 
3 8703 8704 8705 
3 8706 8707 8708 
3 8709 8710 8711 
3 8712 8713 8714 
3 8715 8716 8717 
3 8718 8719 8720 
3 8721 8722 8723 
3 8724 8725 8726 
3 8727 8728 8729 
3 8730 8731 8732 
3 8733 8734 8735 
3 8736 8737 8738 
3 8739 8740 8741 
3 8742 8743 8744 
3 8745 8746 8747 
3 8748 8749 8750 
3 8751 8752 8753 
3 8754 8755 8756 
3 8757 8758 8759 
3 8760 8761 8762 
3 8763 8764 8765 
3 8766 8767 8768 
3 8769 8770 8771 
3 8772 8773 8774 
3 8775 8776 8777 
3 8778 8779 8780 
3 8781 8782 8783 
3 8784 8785 8786 
3 8787 8788 8789 
3 8790 8791 8792 
3 8793 8794 8795 
3 8796 8797 8798 
3 8799 8800 8801 
3 8802 8803 8804 
3 8805 8806 8807 
3 8808 8809 8810 
3 8811 8812 8813 
3 8814 8815 8816 
3 8817 8818 8819 
3 8820 8821 8822 
3 8823 8824 8825 
3 8826 8827 8828 
3 8829 8830 8831 
3 8832 8833 8834 
3 8835 8836 8837 
3 8838 8839 8840 
3 8841 8842 8843 
3 8844 8845 8846 
3 8847 8848 8849 
3 8850 8851 8852 
3 8853 8854 8855 
3 8856 8857 8858 
3 8859 8860 8861 
3 8862 8863 8864 
3 8865 8866 8867 
3 8868 8869 8870 
3 8871 8872 8873 
3 8874 8875 8876 
3 8877 8878 8879 
3 8880 8881 8882 
3 8883 8884 8885 
3 8886 8887 8888 
3 8889 8890 8891 
3 8892 8893 8894 
3 8895 8896 8897 
3 8898 8899 8900 
3 8901 8902 8903 
3 8904 8905 8906 
3 8907 8908 8909 
3 8910 8911 8912 
3 8913 8914 8915 
3 8916 8917 8918 
3 8919 8920 8921 
3 8922 8923 8924 
3 8925 8926 8927 
3 8928 8929 8930 
3 8931 8932 8933 
3 8934 8935 8936 
3 8937 8938 8939 
3 8940 8941 8942 
3 8943 8944 8945 
3 8946 8947 8948 
3 8949 8950 8951 
3 8952 8953 8954 
3 8955 8956 8957 
3 8958 8959 8960 
3 8961 8962 8963 
3 8964 8965 8966 
3 8967 8968 8969 
3 8970 8971 8972 
3 8973 8974 8975 
3 8976 8977 8978 
3 8979 8980 8981 
3 8982 8983 8984 
3 8985 8986 8987 
3 8988 8989 8990 
3 8991 8992 8993 
3 8994 8995 8996 
3 8997 8998 8999 
3 9000 9001 9002 
3 9003 9004 9005 
3 9006 9007 9008 
3 9009 9010 9011 
3 9012 9013 9014 
3 9015 9016 9017 
3 9018 9019 9020 
3 9021 9022 9023 
3 9024 9025 9026 
3 9027 9028 9029 
3 9030 9031 9032 
3 9033 9034 9035 
3 9036 9037 9038 
3 9039 9040 9041 
3 9042 9043 9044 
3 9045 9046 9047 
3 9048 9049 9050 
3 9051 9052 9053 
3 9054 9055 9056 
3 9057 9058 9059 
3 9060 9061 9062 
3 9063 9064 9065 
3 9066 9067 9068 
3 9069 9070 9071 
3 9072 9073 9074 
3 9075 9076 9077 
3 9078 9079 9080 
3 9081 9082 9083 
3 9084 9085 9086 
3 9087 9088 9089 
3 9090 9091 9092 
3 9093 9094 9095 
3 9096 9097 9098 
3 9099 9100 9101 
3 9102 9103 9104 
3 9105 9106 9107 
3 9108 9109 9110 
3 9111 9112 9113 
3 9114 9115 9116 
3 9117 9118 9119 
3 9120 9121 9122 
3 9123 9124 9125 
3 9126 9127 9128 
3 9129 9130 9131 
3 9132 9133 9134 
3 9135 9136 9137 
3 9138 9139 9140 
3 9141 9142 9143 
3 9144 9145 9146 
3 9147 9148 9149 
3 9150 9151 9152 
3 9153 9154 9155 
3 9156 9157 9158 
3 9159 9160 9161 
3 9162 9163 9164 
3 9165 9166 9167 
3 9168 9169 9170 
3 9171 9172 9173 
3 9174 9175 9176 
3 9177 9178 9179 
3 9180 9181 9182 
3 9183 9184 9185 
3 9186 9187 9188 
3 9189 9190 9191 
3 9192 9193 9194 
3 9195 9196 9197 
3 9198 9199 9200 
3 9201 9202 9203 
3 9204 9205 9206 
3 9207 9208 9209 
3 9210 9211 9212 
3 9213 9214 9215 
3 9216 9217 9218 
3 9219 9220 9221 
3 9222 9223 9224 
3 9225 9226 9227 
3 9228 9229 9230 
3 9231 9232 9233 
3 9234 9235 9236 
3 9237 9238 9239 
3 9240 9241 9242 
3 9243 9244 9245 
3 9246 9247 9248 
3 9249 9250 9251 
3 9252 9253 9254 
3 9255 9256 9257 
3 9258 9259 9260 
3 9261 9262 9263 
3 9264 9265 9266 
3 9267 9268 9269 
3 9270 9271 9272 
3 9273 9274 9275 
3 9276 9277 9278 
3 9279 9280 9281 
3 9282 9283 9284 
3 9285 9286 9287 
3 9288 9289 9290 
3 9291 9292 9293 
3 9294 9295 9296 
3 9297 9298 9299 
3 9300 9301 9302 
3 9303 9304 9305 
3 9306 9307 9308 
3 9309 9310 9311 
3 9312 9313 9314 
3 9315 9316 9317 
3 9318 9319 9320 
3 9321 9322 9323 
3 9324 9325 9326 
3 9327 9328 9329 
3 9330 9331 9332 
3 9333 9334 9335 
3 9336 9337 9338 
3 9339 9340 9341 
3 9342 9343 9344 
3 9345 9346 9347 
3 9348 9349 9350 
3 9351 9352 9353 
3 9354 9355 9356 
3 9357 9358 9359 
3 9360 9361 9362 
3 9363 9364 9365 
3 9366 9367 9368 
3 9369 9370 9371 
3 9372 9373 9374 
3 9375 9376 9377 
3 9378 9379 9380 
3 9381 9382 9383 
3 9384 9385 9386 
3 9387 9388 9389 
3 9390 9391 9392 
3 9393 9394 9395 
3 9396 9397 9398 
3 9399 9400 9401 
3 9402 9403 9404 
3 9405 9406 9407 
3 9408 9409 9410 
3 9411 9412 9413 
3 9414 9415 9416 
3 9417 9418 9419 
3 9420 9421 9422 
3 9423 9424 9425 
3 9426 9427 9428 
3 9429 9430 9431 
3 9432 9433 9434 
3 9435 9436 9437 
3 9438 9439 9440 
3 9441 9442 9443 
3 9444 9445 9446 
3 9447 9448 9449 
3 9450 9451 9452 
3 9453 9454 9455 
3 9456 9457 9458 
3 9459 9460 9461 
3 9462 9463 9464 
3 9465 9466 9467 
3 9468 9469 9470 
3 9471 9472 9473 
3 9474 9475 9476 
3 9477 9478 9479 
3 9480 9481 9482 
3 9483 9484 9485 
3 9486 9487 9488 
3 9489 9490 9491 
3 9492 9493 9494 
3 9495 9496 9497 
3 9498 9499 9500 
3 9501 9502 9503 
3 9504 9505 9506 
3 9507 9508 9509 
3 9510 9511 9512 
3 9513 9514 9515 
3 9516 9517 9518 
3 9519 9520 9521 
3 9522 9523 9524 
3 9525 9526 9527 
3 9528 9529 9530 
3 9531 9532 9533 
3 9534 9535 9536 
3 9537 9538 9539 
3 9540 9541 9542 
3 9543 9544 9545 
3 9546 9547 9548 
3 9549 9550 9551 
3 9552 9553 9554 
3 9555 9556 9557 
3 9558 9559 9560 
3 9561 9562 9563 
3 9564 9565 9566 
3 9567 9568 9569 
3 9570 9571 9572 
3 9573 9574 9575 
3 9576 9577 9578 
3 9579 9580 9581 
3 9582 9583 9584 
3 9585 9586 9587 
3 9588 9589 9590 
3 9591 9592 9593 
3 9594 9595 9596 
3 9597 9598 9599 
3 9600 9601 9602 
3 9603 9604 9605 
3 9606 9607 9608 
3 9609 9610 9611 
3 9612 9613 9614 
3 9615 9616 9617 
3 9618 9619 9620 
3 9621 9622 9623 
3 9624 9625 9626 
3 9627 9628 9629 
3 9630 9631 9632 
3 9633 9634 9635 
3 9636 9637 9638 
3 9639 9640 9641 
3 9642 9643 9644 
3 9645 9646 9647 
3 9648 9649 9650 
3 9651 9652 9653 
3 9654 9655 9656 
3 9657 9658 9659 
3 9660 9661 9662 
3 9663 9664 9665 
3 9666 9667 9668 
3 9669 9670 9671 
3 9672 9673 9674 
3 9675 9676 9677 
3 9678 9679 9680 
3 9681 9682 9683 
3 9684 9685 9686 
3 9687 9688 9689 
3 9690 9691 9692 
3 9693 9694 9695 
3 9696 9697 9698 
3 9699 9700 9701 
3 9702 9703 9704 
3 9705 9706 9707 
3 9708 9709 9710 
3 9711 9712 9713 
3 9714 9715 9716 
3 9717 9718 9719 
3 9720 9721 9722 
3 9723 9724 9725 
3 9726 9727 9728 
3 9729 9730 9731 
3 9732 9733 9734 
3 9735 9736 9737 
3 9738 9739 9740 
3 9741 9742 9743 
3 9744 9745 9746 
3 9747 9748 9749 
3 9750 9751 9752 
3 9753 9754 9755 
3 9756 9757 9758 
3 9759 9760 9761 
3 9762 9763 9764 
3 9765 9766 9767 
3 9768 9769 9770 
3 9771 9772 9773 
3 9774 9775 9776 
3 9777 9778 9779 
3 9780 9781 9782 
3 9783 9784 9785 
3 9786 9787 9788 
3 9789 9790 9791 
3 9792 9793 9794 
3 9795 9796 9797 
3 9798 9799 9800 
3 9801 9802 9803 
3 9804 9805 9806 
3 9807 9808 9809 
3 9810 9811 9812 
3 9813 9814 9815 
3 9816 9817 9818 
3 9819 9820 9821 
3 9822 9823 9824 
3 9825 9826 9827 
3 9828 9829 9830 
3 9831 9832 9833 
3 9834 9835 9836 
3 9837 9838 9839 
3 9840 9841 9842 
3 9843 9844 9845 
3 9846 9847 9848 
3 9849 9850 9851 
3 9852 9853 9854 
3 9855 9856 9857 
3 9858 9859 9860 
3 9861 9862 9863 
3 9864 9865 9866 
3 9867 9868 9869 
3 9870 9871 9872 
3 9873 9874 9875 
3 9876 9877 9878 
3 9879 9880 9881 
3 9882 9883 9884 
3 9885 9886 9887 
3 9888 9889 9890 
3 9891 9892 9893 
3 9894 9895 9896 
3 9897 9898 9899 
3 9900 9901 9902 
3 9903 9904 9905 
3 9906 9907 9908 
3 9909 9910 9911 
3 9912 9913 9914 
3 9915 9916 9917 
3 9918 9919 9920 
3 9921 9922 9923 
3 9924 9925 9926 
3 9927 9928 9929 
3 9930 9931 9932 
3 9933 9934 9935 
3 9936 9937 9938 
3 9939 9940 9941 
3 9942 9943 9944 
3 9945 9946 9947 
3 9948 9949 9950 
3 9951 9952 9953 
3 9954 9955 9956 
3 9957 9958 9959 
3 9960 9961 9962 
3 9963 9964 9965 
3 9966 9967 9968 
3 9969 9970 9971 
3 9972 9973 9974 
3 9975 9976 9977 
3 9978 9979 9980 
3 9981 9982 9983 
3 9984 9985 9986 
3 9987 9988 9989 
3 9990 9991 9992 
3 9993 9994 9995 
3 9996 9997 9998 
3 9999 10000 10001 
3 10002 10003 10004 
3 10005 10006 10007 
3 10008 10009 10010 
3 10011 10012 10013 
3 10014 10015 10016 
3 10017 10018 10019 
3 10020 10021 10022 
3 10023 10024 10025 
3 10026 10027 10028 
3 10029 10030 10031 
3 10032 10033 10034 
3 10035 10036 10037 
3 10038 10039 10040 
3 10041 10042 10043 
3 10044 10045 10046 
3 10047 10048 10049 
3 10050 10051 10052 
3 10053 10054 10055 
3 10056 10057 10058 
3 10059 10060 10061 
3 10062 10063 10064 
3 10065 10066 10067 
3 10068 10069 10070 
3 10071 10072 10073 
3 10074 10075 10076 
3 10077 10078 10079 
3 10080 10081 10082 
3 10083 10084 10085 
3 10086 10087 10088 
3 10089 10090 10091 
3 10092 10093 10094 
3 10095 10096 10097 
3 10098 10099 10100 
3 10101 10102 10103 
3 10104 10105 10106 
3 10107 10108 10109 
3 10110 10111 10112 
3 10113 10114 10115 
3 10116 10117 10118 
3 10119 10120 10121 
3 10122 10123 10124 
3 10125 10126 10127 
3 10128 10129 10130 
3 10131 10132 10133 
3 10134 10135 10136 
3 10137 10138 10139 
3 10140 10141 10142 
3 10143 10144 10145 
3 10146 10147 10148 
3 10149 10150 10151 
3 10152 10153 10154 
3 10155 10156 10157 
3 10158 10159 10160 
3 10161 10162 10163 
3 10164 10165 10166 
3 10167 10168 10169 
3 10170 10171 10172 
3 10173 10174 10175 
3 10176 10177 10178 
3 10179 10180 10181 
3 10182 10183 10184 
3 10185 10186 10187 
3 10188 10189 10190 
3 10191 10192 10193 
3 10194 10195 10196 
3 10197 10198 10199 
3 10200 10201 10202 
3 10203 10204 10205 
3 10206 10207 10208 
3 10209 10210 10211 
3 10212 10213 10214 
3 10215 10216 10217 
3 10218 10219 10220 
3 10221 10222 10223 
3 10224 10225 10226 
3 10227 10228 10229 
3 10230 10231 10232 
3 10233 10234 10235 
3 10236 10237 10238 
3 10239 10240 10241 
3 10242 10243 10244 
3 10245 10246 10247 
3 10248 10249 10250 
3 10251 10252 10253 
3 10254 10255 10256 
3 10257 10258 10259 
3 10260 10261 10262 
3 10263 10264 10265 
3 10266 10267 10268 
3 10269 10270 10271 
3 10272 10273 10274 
3 10275 10276 10277 
3 10278 10279 10280 
3 10281 10282 10283 
3 10284 10285 10286 
3 10287 10288 10289 
3 10290 10291 10292 
3 10293 10294 10295 
3 10296 10297 10298 
3 10299 10300 10301 
3 10302 10303 10304 
3 10305 10306 10307 
3 10308 10309 10310 
3 10311 10312 10313 
3 10314 10315 10316 
3 10317 10318 10319 
3 10320 10321 10322 
3 10323 10324 10325 
3 10326 10327 10328 
3 10329 10330 10331 
3 10332 10333 10334 
3 10335 10336 10337 
3 10338 10339 10340 
3 10341 10342 10343 
3 10344 10345 10346 
3 10347 10348 10349 
3 10350 10351 10352 
3 10353 10354 10355 
3 10356 10357 10358 
3 10359 10360 10361 
3 10362 10363 10364 
3 10365 10366 10367 
3 10368 10369 10370 
3 10371 10372 10373 
3 10374 10375 10376 
3 10377 10378 10379 
3 10380 10381 10382 
3 10383 10384 10385 
3 10386 10387 10388 
3 10389 10390 10391 
3 10392 10393 10394 
3 10395 10396 10397 
3 10398 10399 10400 
3 10401 10402 10403 
3 10404 10405 10406 
3 10407 10408 10409 
3 10410 10411 10412 
3 10413 10414 10415 
3 10416 10417 10418 
3 10419 10420 10421 
3 10422 10423 10424 
3 10425 10426 10427 
3 10428 10429 10430 
3 10431 10432 10433 
3 10434 10435 10436 
3 10437 10438 10439 
3 10440 10441 10442 
3 10443 10444 10445 
3 10446 10447 10448 
3 10449 10450 10451 
3 10452 10453 10454 
3 10455 10456 10457 
3 10458 10459 10460 
3 10461 10462 10463 
3 10464 10465 10466 
3 10467 10468 10469 
3 10470 10471 10472 
3 10473 10474 10475 
3 10476 10477 10478 
3 10479 10480 10481 
3 10482 10483 10484 
3 10485 10486 10487 
3 10488 10489 10490 
3 10491 10492 10493 
3 10494 10495 10496 
3 10497 10498 10499 
3 10500 10501 10502 
3 10503 10504 10505 
3 10506 10507 10508 
3 10509 10510 10511 
3 10512 10513 10514 
3 10515 10516 10517 
3 10518 10519 10520 
3 10521 10522 10523 
3 10524 10525 10526 
3 10527 10528 10529 
3 10530 10531 10532 
3 10533 10534 10535 
3 10536 10537 10538 
3 10539 10540 10541 
3 10542 10543 10544 
3 10545 10546 10547 
3 10548 10549 10550 
3 10551 10552 10553 
3 10554 10555 10556 
3 10557 10558 10559 
3 10560 10561 10562 
3 10563 10564 10565 
3 10566 10567 10568 
3 10569 10570 10571 
3 10572 10573 10574 
3 10575 10576 10577 
3 10578 10579 10580 
3 10581 10582 10583 
3 10584 10585 10586 
3 10587 10588 10589 
3 10590 10591 10592 
3 10593 10594 10595 
3 10596 10597 10598 
3 10599 10600 10601 
3 10602 10603 10604 
3 10605 10606 10607 
3 10608 10609 10610 
3 10611 10612 10613 
3 10614 10615 10616 
3 10617 10618 10619 
3 10620 10621 10622 
3 10623 10624 10625 
3 10626 10627 10628 
3 10629 10630 10631 
3 10632 10633 10634 
3 10635 10636 10637 
3 10638 10639 10640 
3 10641 10642 10643 
3 10644 10645 10646 
3 10647 10648 10649 
3 10650 10651 10652 
3 10653 10654 10655 
3 10656 10657 10658 
3 10659 10660 10661 
3 10662 10663 10664 
3 10665 10666 10667 
3 10668 10669 10670 
3 10671 10672 10673 
3 10674 10675 10676 
3 10677 10678 10679 
3 10680 10681 10682 
3 10683 10684 10685 
3 10686 10687 10688 
3 10689 10690 10691 
3 10692 10693 10694 
3 10695 10696 10697 
3 10698 10699 10700 
3 10701 10702 10703 
3 10704 10705 10706 
3 10707 10708 10709 
3 10710 10711 10712 
3 10713 10714 10715 
3 10716 10717 10718 
3 10719 10720 10721 
3 10722 10723 10724 
3 10725 10726 10727 
3 10728 10729 10730 
3 10731 10732 10733 
3 10734 10735 10736 
3 10737 10738 10739 
3 10740 10741 10742 
3 10743 10744 10745 
3 10746 10747 10748 
3 10749 10750 10751 
3 10752 10753 10754 
3 10755 10756 10757 
3 10758 10759 10760 
3 10761 10762 10763 
3 10764 10765 10766 
3 10767 10768 10769 
3 10770 10771 10772 
3 10773 10774 10775 
3 10776 10777 10778 
3 10779 10780 10781 
3 10782 10783 10784 
3 10785 10786 10787 
3 10788 10789 10790 
3 10791 10792 10793 
3 10794 10795 10796 
3 10797 10798 10799 
3 10800 10801 10802 
3 10803 10804 10805 
3 10806 10807 10808 
3 10809 10810 10811 
3 10812 10813 10814 
3 10815 10816 10817 
3 10818 10819 10820 
3 10821 10822 10823 
3 10824 10825 10826 
3 10827 10828 10829 
3 10830 10831 10832 
3 10833 10834 10835 
3 10836 10837 10838 
3 10839 10840 10841 
3 10842 10843 10844 
3 10845 10846 10847 
3 10848 10849 10850 
3 10851 10852 10853 
3 10854 10855 10856 
3 10857 10858 10859 
3 10860 10861 10862 
3 10863 10864 10865 
3 10866 10867 10868 
3 10869 10870 10871 
3 10872 10873 10874 
3 10875 10876 10877 
3 10878 10879 10880 
3 10881 10882 10883 
3 10884 10885 10886 
3 10887 10888 10889 
3 10890 10891 10892 
3 10893 10894 10895 
3 10896 10897 10898 
3 10899 10900 10901 
3 10902 10903 10904 
3 10905 10906 10907 
3 10908 10909 10910 
3 10911 10912 10913 
3 10914 10915 10916 
3 10917 10918 10919 
3 10920 10921 10922 
3 10923 10924 10925 
3 10926 10927 10928 
3 10929 10930 10931 
3 10932 10933 10934 
3 10935 10936 10937 
3 10938 10939 10940 
3 10941 10942 10943 
3 10944 10945 10946 
3 10947 10948 10949 
3 10950 10951 10952 
3 10953 10954 10955 
3 10956 10957 10958 
3 10959 10960 10961 
3 10962 10963 10964 
3 10965 10966 10967 
3 10968 10969 10970 
3 10971 10972 10973 
3 10974 10975 10976 
3 10977 10978 10979 
3 10980 10981 10982 
3 10983 10984 10985 
3 10986 10987 10988 
3 10989 10990 10991 
3 10992 10993 10994 
3 10995 10996 10997 
3 10998 10999 11000 
3 11001 11002 11003 
3 11004 11005 11006 
3 11007 11008 11009 
3 11010 11011 11012 
3 11013 11014 11015 
3 11016 11017 11018 
3 11019 11020 11021 
3 11022 11023 11024 
3 11025 11026 11027 
3 11028 11029 11030 
3 11031 11032 11033 
3 11034 11035 11036 
3 11037 11038 11039 
3 11040 11041 11042 
3 11043 11044 11045 
3 11046 11047 11048 
3 11049 11050 11051 
3 11052 11053 11054 
3 11055 11056 11057 
3 11058 11059 11060 
3 11061 11062 11063 
3 11064 11065 11066 
3 11067 11068 11069 
3 11070 11071 11072 
3 11073 11074 11075 
3 11076 11077 11078 
3 11079 11080 11081 
3 11082 11083 11084 
3 11085 11086 11087 
3 11088 11089 11090 
3 11091 11092 11093 
3 11094 11095 11096 
3 11097 11098 11099 
3 11100 11101 11102 
3 11103 11104 11105 
3 11106 11107 11108 
3 11109 11110 11111 
3 11112 11113 11114 
3 11115 11116 11117 
3 11118 11119 11120 
3 11121 11122 11123 
3 11124 11125 11126 
3 11127 11128 11129 
3 11130 11131 11132 
3 11133 11134 11135 
3 11136 11137 11138 
3 11139 11140 11141 
3 11142 11143 11144 
3 11145 11146 11147 
3 11148 11149 11150 
3 11151 11152 11153 
3 11154 11155 11156 
3 11157 11158 11159 
3 11160 11161 11162 
3 11163 11164 11165 
3 11166 11167 11168 
3 11169 11170 11171 
3 11172 11173 11174 
3 11175 11176 11177 
3 11178 11179 11180 
3 11181 11182 11183 
3 11184 11185 11186 
3 11187 11188 11189 
3 11190 11191 11192 
3 11193 11194 11195 
3 11196 11197 11198 
3 11199 11200 11201 
3 11202 11203 11204 
3 11205 11206 11207 
3 11208 11209 11210 
3 11211 11212 11213 
3 11214 11215 11216 
3 11217 11218 11219 
3 11220 11221 11222 
3 11223 11224 11225 
3 11226 11227 11228 
3 11229 11230 11231 
3 11232 11233 11234 
3 11235 11236 11237 
3 11238 11239 11240 
3 11241 11242 11243 
3 11244 11245 11246 
3 11247 11248 11249 
3 11250 11251 11252 
3 11253 11254 11255 
3 11256 11257 11258 
3 11259 11260 11261 
3 11262 11263 11264 
3 11265 11266 11267 
3 11268 11269 11270 
3 11271 11272 11273 
3 11274 11275 11276 
3 11277 11278 11279 
3 11280 11281 11282 
3 11283 11284 11285 
3 11286 11287 11288 
3 11289 11290 11291 
3 11292 11293 11294 
3 11295 11296 11297 
3 11298 11299 11300 
3 11301 11302 11303 
3 11304 11305 11306 
3 11307 11308 11309 
3 11310 11311 11312 
3 11313 11314 11315 
3 11316 11317 11318 
3 11319 11320 11321 
3 11322 11323 11324 
3 11325 11326 11327 
3 11328 11329 11330 
3 11331 11332 11333 
3 11334 11335 11336 
3 11337 11338 11339 
3 11340 11341 11342 
3 11343 11344 11345 
3 11346 11347 11348 
3 11349 11350 11351 
3 11352 11353 11354 
3 11355 11356 11357 
3 11358 11359 11360 
3 11361 11362 11363 
3 11364 11365 11366 
3 11367 11368 11369 
3 11370 11371 11372 
3 11373 11374 11375 
3 11376 11377 11378 
3 11379 11380 11381 
3 11382 11383 11384 
3 11385 11386 11387 
3 11388 11389 11390 
3 11391 11392 11393 
3 11394 11395 11396 
3 11397 11398 11399 
3 11400 11401 11402 
3 11403 11404 11405 
3 11406 11407 11408 
3 11409 11410 11411 
3 11412 11413 11414 
3 11415 11416 11417 
3 11418 11419 11420 
3 11421 11422 11423 
3 11424 11425 11426 
3 11427 11428 11429 
3 11430 11431 11432 
3 11433 11434 11435 
3 11436 11437 11438 
3 11439 11440 11441 
3 11442 11443 11444 
3 11445 11446 11447 
3 11448 11449 11450 
3 11451 11452 11453 
3 11454 11455 11456 
3 11457 11458 11459 
3 11460 11461 11462 
3 11463 11464 11465 
3 11466 11467 11468 
3 11469 11470 11471 
3 11472 11473 11474 
3 11475 11476 11477 
3 11478 11479 11480 
3 11481 11482 11483 
3 11484 11485 11486 
3 11487 11488 11489 
3 11490 11491 11492 
3 11493 11494 11495 
3 11496 11497 11498 
3 11499 11500 11501 
3 11502 11503 11504 
3 11505 11506 11507 
3 11508 11509 11510 
3 11511 11512 11513 
3 11514 11515 11516 
3 11517 11518 11519 
3 11520 11521 11522 
3 11523 11524 11525 
3 11526 11527 11528 
3 11529 11530 11531 
3 11532 11533 11534 
3 11535 11536 11537 
3 11538 11539 11540 
3 11541 11542 11543 
3 11544 11545 11546 
3 11547 11548 11549 
3 11550 11551 11552 
3 11553 11554 11555 
3 11556 11557 11558 
3 11559 11560 11561 
3 11562 11563 11564 
3 11565 11566 11567 
3 11568 11569 11570 
3 11571 11572 11573 
3 11574 11575 11576 
3 11577 11578 11579 
3 11580 11581 11582 
3 11583 11584 11585 
3 11586 11587 11588 
3 11589 11590 11591 
3 11592 11593 11594 
3 11595 11596 11597 
3 11598 11599 11600 
3 11601 11602 11603 
3 11604 11605 11606 
3 11607 11608 11609 
3 11610 11611 11612 
3 11613 11614 11615 
3 11616 11617 11618 
3 11619 11620 11621 
3 11622 11623 11624 
3 11625 11626 11627 
3 11628 11629 11630 
3 11631 11632 11633 
3 11634 11635 11636 
3 11637 11638 11639 
3 11640 11641 11642 
3 11643 11644 11645 
3 11646 11647 11648 
3 11649 11650 11651 
3 11652 11653 11654 
3 11655 11656 11657 
3 11658 11659 11660 
3 11661 11662 11663 
3 11664 11665 11666 
3 11667 11668 11669 
3 11670 11671 11672 
3 11673 11674 11675 
3 11676 11677 11678 
3 11679 11680 11681 
3 11682 11683 11684 
3 11685 11686 11687 
3 11688 11689 11690 
3 11691 11692 11693 
3 11694 11695 11696 
3 11697 11698 11699 
3 11700 11701 11702 
3 11703 11704 11705 
3 11706 11707 11708 
3 11709 11710 11711 
3 11712 11713 11714 
3 11715 11716 11717 
3 11718 11719 11720 
3 11721 11722 11723 
3 11724 11725 11726 
3 11727 11728 11729 
3 11730 11731 11732 
3 11733 11734 11735 
3 11736 11737 11738 
3 11739 11740 11741 
3 11742 11743 11744 
3 11745 11746 11747 
3 11748 11749 11750 
3 11751 11752 11753 
3 11754 11755 11756 
3 11757 11758 11759 
3 11760 11761 11762 
3 11763 11764 11765 
3 11766 11767 11768 
3 11769 11770 11771 
3 11772 11773 11774 
3 11775 11776 11777 
3 11778 11779 11780 
3 11781 11782 11783 
3 11784 11785 11786 
3 11787 11788 11789 
3 11790 11791 11792 
3 11793 11794 11795 
3 11796 11797 11798 
3 11799 11800 11801 
3 11802 11803 11804 
3 11805 11806 11807 
3 11808 11809 11810 
3 11811 11812 11813 
3 11814 11815 11816 
3 11817 11818 11819 
3 11820 11821 11822 
3 11823 11824 11825 
3 11826 11827 11828 
3 11829 11830 11831 
3 11832 11833 11834 
3 11835 11836 11837 
3 11838 11839 11840 
3 11841 11842 11843 
3 11844 11845 11846 
3 11847 11848 11849 
3 11850 11851 11852 
3 11853 11854 11855 
3 11856 11857 11858 
3 11859 11860 11861 
3 11862 11863 11864 
3 11865 11866 11867 
3 11868 11869 11870 
3 11871 11872 11873 
3 11874 11875 11876 
3 11877 11878 11879 
3 11880 11881 11882 
3 11883 11884 11885 
3 11886 11887 11888 
3 11889 11890 11891 
3 11892 11893 11894 
3 11895 11896 11897 
3 11898 11899 11900 
3 11901 11902 11903 
3 11904 11905 11906 
3 11907 11908 11909 
3 11910 11911 11912 
3 11913 11914 11915 
3 11916 11917 11918 
3 11919 11920 11921 
3 11922 11923 11924 
3 11925 11926 11927 
3 11928 11929 11930 
3 11931 11932 11933 
3 11934 11935 11936 
3 11937 11938 11939 
3 11940 11941 11942 
3 11943 11944 11945 
3 11946 11947 11948 
3 11949 11950 11951 
3 11952 11953 11954 
3 11955 11956 11957 
3 11958 11959 11960 
3 11961 11962 11963 
3 11964 11965 11966 
3 11967 11968 11969 
3 11970 11971 11972 
3 11973 11974 11975 
3 11976 11977 11978 
3 11979 11980 11981 
3 11982 11983 11984 
3 11985 11986 11987 
3 11988 11989 11990 
3 11991 11992 11993 
3 11994 11995 11996 
3 11997 11998 11999 
3 12000 12001 12002 
3 12003 12004 12005 
3 12006 12007 12008 
3 12009 12010 12011 
3 12012 12013 12014 
3 12015 12016 12017 
3 12018 12019 12020 
3 12021 12022 12023 
3 12024 12025 12026 
3 12027 12028 12029 
3 12030 12031 12032 
3 12033 12034 12035 
3 12036 12037 12038 
3 12039 12040 12041 
3 12042 12043 12044 
3 12045 12046 12047 
3 12048 12049 12050 
3 12051 12052 12053 
3 12054 12055 12056 
3 12057 12058 12059 
3 12060 12061 12062 
3 12063 12064 12065 
3 12066 12067 12068 
3 12069 12070 12071 
3 12072 12073 12074 
3 12075 12076 12077 
3 12078 12079 12080 
3 12081 12082 12083 
3 12084 12085 12086 
3 12087 12088 12089 
3 12090 12091 12092 
3 12093 12094 12095 
3 12096 12097 12098 
3 12099 12100 12101 
3 12102 12103 12104 
3 12105 12106 12107 
3 12108 12109 12110 
3 12111 12112 12113 
3 12114 12115 12116 
3 12117 12118 12119 
3 12120 12121 12122 
3 12123 12124 12125 
3 12126 12127 12128 
3 12129 12130 12131 
3 12132 12133 12134 
3 12135 12136 12137 
3 12138 12139 12140 
3 12141 12142 12143 
3 12144 12145 12146 
3 12147 12148 12149 
3 12150 12151 12152 
3 12153 12154 12155 
3 12156 12157 12158 
3 12159 12160 12161 
3 12162 12163 12164 
3 12165 12166 12167 
3 12168 12169 12170 
3 12171 12172 12173 
3 12174 12175 12176 
3 12177 12178 12179 
3 12180 12181 12182 
3 12183 12184 12185 
3 12186 12187 12188 
3 12189 12190 12191 
3 12192 12193 12194 
3 12195 12196 12197 
3 12198 12199 12200 
3 12201 12202 12203 
3 12204 12205 12206 
3 12207 12208 12209 
3 12210 12211 12212 
3 12213 12214 12215 
3 12216 12217 12218 
3 12219 12220 12221 
3 12222 12223 12224 
3 12225 12226 12227 
3 12228 12229 12230 
3 12231 12232 12233 
3 12234 12235 12236 
3 12237 12238 12239 
3 12240 12241 12242 
3 12243 12244 12245 
3 12246 12247 12248 
3 12249 12250 12251 
3 12252 12253 12254 
3 12255 12256 12257 
3 12258 12259 12260 
3 12261 12262 12263 
3 12264 12265 12266 
3 12267 12268 12269 
3 12270 12271 12272 
3 12273 12274 12275 
3 12276 12277 12278 
3 12279 12280 12281 
3 12282 12283 12284 
3 12285 12286 12287 
3 12288 12289 12290 
3 12291 12292 12293 
3 12294 12295 12296 
3 12297 12298 12299 
3 12300 12301 12302 
3 12303 12304 12305 
3 12306 12307 12308 
3 12309 12310 12311 
3 12312 12313 12314 
3 12315 12316 12317 
3 12318 12319 12320 
3 12321 12322 12323 
3 12324 12325 12326 
3 12327 12328 12329 
3 12330 12331 12332 
3 12333 12334 12335 
3 12336 12337 12338 
3 12339 12340 12341 
3 12342 12343 12344 
3 12345 12346 12347 
3 12348 12349 12350 
3 12351 12352 12353 
3 12354 12355 12356 
3 12357 12358 12359 
3 12360 12361 12362 
3 12363 12364 12365 
3 12366 12367 12368 
3 12369 12370 12371 
3 12372 12373 12374 
3 12375 12376 12377 
3 12378 12379 12380 
3 12381 12382 12383 
3 12384 12385 12386 
3 12387 12388 12389 
3 12390 12391 12392 
3 12393 12394 12395 
3 12396 12397 12398 
3 12399 12400 12401 
3 12402 12403 12404 
3 12405 12406 12407 
3 12408 12409 12410 
3 12411 12412 12413 
3 12414 12415 12416 
3 12417 12418 12419 
3 12420 12421 12422 
3 12423 12424 12425 
3 12426 12427 12428 
3 12429 12430 12431 
3 12432 12433 12434 
3 12435 12436 12437 
3 12438 12439 12440 
3 12441 12442 12443 
3 12444 12445 12446 
3 12447 12448 12449 
3 12450 12451 12452 
3 12453 12454 12455 
3 12456 12457 12458 
3 12459 12460 12461 
3 12462 12463 12464 
3 12465 12466 12467 
3 12468 12469 12470 
3 12471 12472 12473 
3 12474 12475 12476 
3 12477 12478 12479 
3 12480 12481 12482 
3 12483 12484 12485 
3 12486 12487 12488 
3 12489 12490 12491 
3 12492 12493 12494 
3 12495 12496 12497 
3 12498 12499 12500 
3 12501 12502 12503 
3 12504 12505 12506 
3 12507 12508 12509 
3 12510 12511 12512 
3 12513 12514 12515 
3 12516 12517 12518 
3 12519 12520 12521 
3 12522 12523 12524 
3 12525 12526 12527 
3 12528 12529 12530 
3 12531 12532 12533 
3 12534 12535 12536 
3 12537 12538 12539 
3 12540 12541 12542 
3 12543 12544 12545 
3 12546 12547 12548 
3 12549 12550 12551 
3 12552 12553 12554 
3 12555 12556 12557 
3 12558 12559 12560 
3 12561 12562 12563 
3 12564 12565 12566 
3 12567 12568 12569 
3 12570 12571 12572 
3 12573 12574 12575 
3 12576 12577 12578 
3 12579 12580 12581 
3 12582 12583 12584 
3 12585 12586 12587 
3 12588 12589 12590 
3 12591 12592 12593 
3 12594 12595 12596 
3 12597 12598 12599 
3 12600 12601 12602 
3 12603 12604 12605 
3 12606 12607 12608 
3 12609 12610 12611 
3 12612 12613 12614 
3 12615 12616 12617 
3 12618 12619 12620 
3 12621 12622 12623 
3 12624 12625 12626 
3 12627 12628 12629 
3 12630 12631 12632 
3 12633 12634 12635 
3 12636 12637 12638 
3 12639 12640 12641 
3 12642 12643 12644 
3 12645 12646 12647 
3 12648 12649 12650 
3 12651 12652 12653 
3 12654 12655 12656 
3 12657 12658 12659 
3 12660 12661 12662 
3 12663 12664 12665 
3 12666 12667 12668 
3 12669 12670 12671 
3 12672 12673 12674 
3 12675 12676 12677 
3 12678 12679 12680 
3 12681 12682 12683 
3 12684 12685 12686 
3 12687 12688 12689 
3 12690 12691 12692 
3 12693 12694 12695 
3 12696 12697 12698 
3 12699 12700 12701 
3 12702 12703 12704 
3 12705 12706 12707 
3 12708 12709 12710 
3 12711 12712 12713 
3 12714 12715 12716 
3 12717 12718 12719 
3 12720 12721 12722 
3 12723 12724 12725 
3 12726 12727 12728 
3 12729 12730 12731 
3 12732 12733 12734 
3 12735 12736 12737 
3 12738 12739 12740 
3 12741 12742 12743 
3 12744 12745 12746 
3 12747 12748 12749 
3 12750 12751 12752 
3 12753 12754 12755 
3 12756 12757 12758 
3 12759 12760 12761 
3 12762 12763 12764 
3 12765 12766 12767 
3 12768 12769 12770 
3 12771 12772 12773 
3 12774 12775 12776 
3 12777 12778 12779 
3 12780 12781 12782 
3 12783 12784 12785 
3 12786 12787 12788 
3 12789 12790 12791 
3 12792 12793 12794 
3 12795 12796 12797 
3 12798 12799 12800 
3 12801 12802 12803 
3 12804 12805 12806 
3 12807 12808 12809 
3 12810 12811 12812 
3 12813 12814 12815 
3 12816 12817 12818 
3 12819 12820 12821 
3 12822 12823 12824 
3 12825 12826 12827 
3 12828 12829 12830 
3 12831 12832 12833 
3 12834 12835 12836 
3 12837 12838 12839 
3 12840 12841 12842 
3 12843 12844 12845 
3 12846 12847 12848 
3 12849 12850 12851 
3 12852 12853 12854 
3 12855 12856 12857 
3 12858 12859 12860 
3 12861 12862 12863 
3 12864 12865 12866 
3 12867 12868 12869 
3 12870 12871 12872 
3 12873 12874 12875 
3 12876 12877 12878 
3 12879 12880 12881 
3 12882 12883 12884 
3 12885 12886 12887 
3 12888 12889 12890 
3 12891 12892 12893 
3 12894 12895 12896 
3 12897 12898 12899 
3 12900 12901 12902 
3 12903 12904 12905 
3 12906 12907 12908 
3 12909 12910 12911 
3 12912 12913 12914 
3 12915 12916 12917 
3 12918 12919 12920 
3 12921 12922 12923 
3 12924 12925 12926 
3 12927 12928 12929 
3 12930 12931 12932 
3 12933 12934 12935 
3 12936 12937 12938 
3 12939 12940 12941 
3 12942 12943 12944 
3 12945 12946 12947 
3 12948 12949 12950 
3 12951 12952 12953 
3 12954 12955 12956 
3 12957 12958 12959 
3 12960 12961 12962 
3 12963 12964 12965 
3 12966 12967 12968 
3 12969 12970 12971 
3 12972 12973 12974 
3 12975 12976 12977 
3 12978 12979 12980 
3 12981 12982 12983 
3 12984 12985 12986 
3 12987 12988 12989 
3 12990 12991 12992 
3 12993 12994 12995 
3 12996 12997 12998 
3 12999 13000 13001 
3 13002 13003 13004 
3 13005 13006 13007 
3 13008 13009 13010 
3 13011 13012 13013 
3 13014 13015 13016 
3 13017 13018 13019 
3 13020 13021 13022 
3 13023 13024 13025 
3 13026 13027 13028 
3 13029 13030 13031 
3 13032 13033 13034 
3 13035 13036 13037 
3 13038 13039 13040 
3 13041 13042 13043 
3 13044 13045 13046 
3 13047 13048 13049 
3 13050 13051 13052 
3 13053 13054 13055 
3 13056 13057 13058 
3 13059 13060 13061 
3 13062 13063 13064 
3 13065 13066 13067 
3 13068 13069 13070 
3 13071 13072 13073 
3 13074 13075 13076 
3 13077 13078 13079 
3 13080 13081 13082 
3 13083 13084 13085 
3 13086 13087 13088 
3 13089 13090 13091 
3 13092 13093 13094 
3 13095 13096 13097 
3 13098 13099 13100 
3 13101 13102 13103 
3 13104 13105 13106 
3 13107 13108 13109 
3 13110 13111 13112 
3 13113 13114 13115 
3 13116 13117 13118 
3 13119 13120 13121 
3 13122 13123 13124 
3 13125 13126 13127 
3 13128 13129 13130 
3 13131 13132 13133 
3 13134 13135 13136 
3 13137 13138 13139 
3 13140 13141 13142 
3 13143 13144 13145 
3 13146 13147 13148 
3 13149 13150 13151 
3 13152 13153 13154 
3 13155 13156 13157 
3 13158 13159 13160 
3 13161 13162 13163 
3 13164 13165 13166 
3 13167 13168 13169 
3 13170 13171 13172 
3 13173 13174 13175 
3 13176 13177 13178 
3 13179 13180 13181 
3 13182 13183 13184 
3 13185 13186 13187 
3 13188 13189 13190 
3 13191 13192 13193 
3 13194 13195 13196 
3 13197 13198 13199 
3 13200 13201 13202 
3 13203 13204 13205 
3 13206 13207 13208 
3 13209 13210 13211 
3 13212 13213 13214 
3 13215 13216 13217 
3 13218 13219 13220 
3 13221 13222 13223 
3 13224 13225 13226 
3 13227 13228 13229 
3 13230 13231 13232 
3 13233 13234 13235 
3 13236 13237 13238 
3 13239 13240 13241 
3 13242 13243 13244 
3 13245 13246 13247 
3 13248 13249 13250 
3 13251 13252 13253 
3 13254 13255 13256 
3 13257 13258 13259 
3 13260 13261 13262 
3 13263 13264 13265 
3 13266 13267 13268 
3 13269 13270 13271 
3 13272 13273 13274 
3 13275 13276 13277 
3 13278 13279 13280 
3 13281 13282 13283 
3 13284 13285 13286 
3 13287 13288 13289 
3 13290 13291 13292 
3 13293 13294 13295 
3 13296 13297 13298 
3 13299 13300 13301 
3 13302 13303 13304 
3 13305 13306 13307 
3 13308 13309 13310 
3 13311 13312 13313 
3 13314 13315 13316 
3 13317 13318 13319 
3 13320 13321 13322 
3 13323 13324 13325 
3 13326 13327 13328 
3 13329 13330 13331 
3 13332 13333 13334 
3 13335 13336 13337 
3 13338 13339 13340 
3 13341 13342 13343 
3 13344 13345 13346 
3 13347 13348 13349 
3 13350 13351 13352 
3 13353 13354 13355 
3 13356 13357 13358 
3 13359 13360 13361 
3 13362 13363 13364 
3 13365 13366 13367 
3 13368 13369 13370 
3 13371 13372 13373 
3 13374 13375 13376 
3 13377 13378 13379 
3 13380 13381 13382 
3 13383 13384 13385 
3 13386 13387 13388 
3 13389 13390 13391 
3 13392 13393 13394 
3 13395 13396 13397 
3 13398 13399 13400 
3 13401 13402 13403 
3 13404 13405 13406 
3 13407 13408 13409 
3 13410 13411 13412 
3 13413 13414 13415 
3 13416 13417 13418 
3 13419 13420 13421 
3 13422 13423 13424 
3 13425 13426 13427 
3 13428 13429 13430 
3 13431 13432 13433 
3 13434 13435 13436 
3 13437 13438 13439 
3 13440 13441 13442 
3 13443 13444 13445 
3 13446 13447 13448 
3 13449 13450 13451 
3 13452 13453 13454 
3 13455 13456 13457 
3 13458 13459 13460 
3 13461 13462 13463 
3 13464 13465 13466 
3 13467 13468 13469 
3 13470 13471 13472 
3 13473 13474 13475 
3 13476 13477 13478 
3 13479 13480 13481 
3 13482 13483 13484 
3 13485 13486 13487 
3 13488 13489 13490 
3 13491 13492 13493 
3 13494 13495 13496 
3 13497 13498 13499 
3 13500 13501 13502 
3 13503 13504 13505 
3 13506 13507 13508 
3 13509 13510 13511 
3 13512 13513 13514 
3 13515 13516 13517 
3 13518 13519 13520 
3 13521 13522 13523 
3 13524 13525 13526 
3 13527 13528 13529 
3 13530 13531 13532 
3 13533 13534 13535 
3 13536 13537 13538 
3 13539 13540 13541 
3 13542 13543 13544 
3 13545 13546 13547 
3 13548 13549 13550 
3 13551 13552 13553 
3 13554 13555 13556 
3 13557 13558 13559 
3 13560 13561 13562 
3 13563 13564 13565 
3 13566 13567 13568 
3 13569 13570 13571 
3 13572 13573 13574 
3 13575 13576 13577 
3 13578 13579 13580 
3 13581 13582 13583 
3 13584 13585 13586 
3 13587 13588 13589 
3 13590 13591 13592 
3 13593 13594 13595 
3 13596 13597 13598 
3 13599 13600 13601 
3 13602 13603 13604 
3 13605 13606 13607 
3 13608 13609 13610 
3 13611 13612 13613 
3 13614 13615 13616 
3 13617 13618 13619 
3 13620 13621 13622 
3 13623 13624 13625 
3 13626 13627 13628 
3 13629 13630 13631 
3 13632 13633 13634 
3 13635 13636 13637 
3 13638 13639 13640 
3 13641 13642 13643 
3 13644 13645 13646 
3 13647 13648 13649 
3 13650 13651 13652 
3 13653 13654 13655 
3 13656 13657 13658 
3 13659 13660 13661 
3 13662 13663 13664 
3 13665 13666 13667 
3 13668 13669 13670 
3 13671 13672 13673 
3 13674 13675 13676 
3 13677 13678 13679 
3 13680 13681 13682 
3 13683 13684 13685 
3 13686 13687 13688 
3 13689 13690 13691 
3 13692 13693 13694 
3 13695 13696 13697 
3 13698 13699 13700 
3 13701 13702 13703 
3 13704 13705 13706 
3 13707 13708 13709 
3 13710 13711 13712 
3 13713 13714 13715 
3 13716 13717 13718 
3 13719 13720 13721 
3 13722 13723 13724 
3 13725 13726 13727 
3 13728 13729 13730 
3 13731 13732 13733 
3 13734 13735 13736 
3 13737 13738 13739 
3 13740 13741 13742 
3 13743 13744 13745 
3 13746 13747 13748 
3 13749 13750 13751 
3 13752 13753 13754 
3 13755 13756 13757 
3 13758 13759 13760 
3 13761 13762 13763 
3 13764 13765 13766 
3 13767 13768 13769 
3 13770 13771 13772 
3 13773 13774 13775 
3 13776 13777 13778 
3 13779 13780 13781 
3 13782 13783 13784 
3 13785 13786 13787 
3 13788 13789 13790 
3 13791 13792 13793 
3 13794 13795 13796 
3 13797 13798 13799 
3 13800 13801 13802 
3 13803 13804 13805 
3 13806 13807 13808 
3 13809 13810 13811 
3 13812 13813 13814 
3 13815 13816 13817 
3 13818 13819 13820 
3 13821 13822 13823 
3 13824 13825 13826 
3 13827 13828 13829 
3 13830 13831 13832 
3 13833 13834 13835 
3 13836 13837 13838 
3 13839 13840 13841 
3 13842 13843 13844 
3 13845 13846 13847 
3 13848 13849 13850 
3 13851 13852 13853 
3 13854 13855 13856 
3 13857 13858 13859 
3 13860 13861 13862 
3 13863 13864 13865 
3 13866 13867 13868 
3 13869 13870 13871 
3 13872 13873 13874 
3 13875 13876 13877 
3 13878 13879 13880 
3 13881 13882 13883 
3 13884 13885 13886 
3 13887 13888 13889 
3 13890 13891 13892 
3 13893 13894 13895 
3 13896 13897 13898 
3 13899 13900 13901 
3 13902 13903 13904 
3 13905 13906 13907 
3 13908 13909 13910 
3 13911 13912 13913 
3 13914 13915 13916 
3 13917 13918 13919 
3 13920 13921 13922 
3 13923 13924 13925 
3 13926 13927 13928 
3 13929 13930 13931 
3 13932 13933 13934 
3 13935 13936 13937 
3 13938 13939 13940 
3 13941 13942 13943 
3 13944 13945 13946 
3 13947 13948 13949 
3 13950 13951 13952 
3 13953 13954 13955 
3 13956 13957 13958 
3 13959 13960 13961 
3 13962 13963 13964 
3 13965 13966 13967 
3 13968 13969 13970 
3 13971 13972 13973 
3 13974 13975 13976 
3 13977 13978 13979 
3 13980 13981 13982 
3 13983 13984 13985 
3 13986 13987 13988 
3 13989 13990 13991 
3 13992 13993 13994 
3 13995 13996 13997 
3 13998 13999 14000 
3 14001 14002 14003 
3 14004 14005 14006 
3 14007 14008 14009 
3 14010 14011 14012 
3 14013 14014 14015 
3 14016 14017 14018 
3 14019 14020 14021 
3 14022 14023 14024 
3 14025 14026 14027 
3 14028 14029 14030 
3 14031 14032 14033 
3 14034 14035 14036 
3 14037 14038 14039 
3 14040 14041 14042 
3 14043 14044 14045 
3 14046 14047 14048 
3 14049 14050 14051 
3 14052 14053 14054 
3 14055 14056 14057 
3 14058 14059 14060 
3 14061 14062 14063 
3 14064 14065 14066 
3 14067 14068 14069 
3 14070 14071 14072 
3 14073 14074 14075 
3 14076 14077 14078 
3 14079 14080 14081 
3 14082 14083 14084 
3 14085 14086 14087 
3 14088 14089 14090 
3 14091 14092 14093 
3 14094 14095 14096 
3 14097 14098 14099 
3 14100 14101 14102 
3 14103 14104 14105 
3 14106 14107 14108 
3 14109 14110 14111 
3 14112 14113 14114 
3 14115 14116 14117 
3 14118 14119 14120 
3 14121 14122 14123 
3 14124 14125 14126 
3 14127 14128 14129 
3 14130 14131 14132 
3 14133 14134 14135 
3 14136 14137 14138 
3 14139 14140 14141 
3 14142 14143 14144 
3 14145 14146 14147 
3 14148 14149 14150 
3 14151 14152 14153 
3 14154 14155 14156 
3 14157 14158 14159 
3 14160 14161 14162 
3 14163 14164 14165 
3 14166 14167 14168 
3 14169 14170 14171 
3 14172 14173 14174 
3 14175 14176 14177 
3 14178 14179 14180 
3 14181 14182 14183 
3 14184 14185 14186 
3 14187 14188 14189 
3 14190 14191 14192 
3 14193 14194 14195 
3 14196 14197 14198 
3 14199 14200 14201 
3 14202 14203 14204 
3 14205 14206 14207 
3 14208 14209 14210 
3 14211 14212 14213 
3 14214 14215 14216 
3 14217 14218 14219 
3 14220 14221 14222 
3 14223 14224 14225 
3 14226 14227 14228 
3 14229 14230 14231 
3 14232 14233 14234 
3 14235 14236 14237 
3 14238 14239 14240 
3 14241 14242 14243 
3 14244 14245 14246 
3 14247 14248 14249 
3 14250 14251 14252 
3 14253 14254 14255 
3 14256 14257 14258 
3 14259 14260 14261 
3 14262 14263 14264 
3 14265 14266 14267 
3 14268 14269 14270 
3 14271 14272 14273 
3 14274 14275 14276 
3 14277 14278 14279 
3 14280 14281 14282 
3 14283 14284 14285 
3 14286 14287 14288 
3 14289 14290 14291 
3 14292 14293 14294 
3 14295 14296 14297 
3 14298 14299 14300 
3 14301 14302 14303 
3 14304 14305 14306 
3 14307 14308 14309 
3 14310 14311 14312 
3 14313 14314 14315 
3 14316 14317 14318 
3 14319 14320 14321 
3 14322 14323 14324 
3 14325 14326 14327 
3 14328 14329 14330 
3 14331 14332 14333 
3 14334 14335 14336 
3 14337 14338 14339 
3 14340 14341 14342 
3 14343 14344 14345 
3 14346 14347 14348 
3 14349 14350 14351 
3 14352 14353 14354 
3 14355 14356 14357 
3 14358 14359 14360 
3 14361 14362 14363 
3 14364 14365 14366 
3 14367 14368 14369 
3 14370 14371 14372 
3 14373 14374 14375 
3 14376 14377 14378 
3 14379 14380 14381 
3 14382 14383 14384 
3 14385 14386 14387 
3 14388 14389 14390 
3 14391 14392 14393 
3 14394 14395 14396 
3 14397 14398 14399 
3 14400 14401 14402 
3 14403 14404 14405 
3 14406 14407 14408 
3 14409 14410 14411 
3 14412 14413 14414 
3 14415 14416 14417 
3 14418 14419 14420 
3 14421 14422 14423 
3 14424 14425 14426 
3 14427 14428 14429 
3 14430 14431 14432 
3 14433 14434 14435 
3 14436 14437 14438 
3 14439 14440 14441 
3 14442 14443 14444 
3 14445 14446 14447 
3 14448 14449 14450 
3 14451 14452 14453 
3 14454 14455 14456 
3 14457 14458 14459 
3 14460 14461 14462 
3 14463 14464 14465 
3 14466 14467 14468 
3 14469 14470 14471 
3 14472 14473 14474 
3 14475 14476 14477 
3 14478 14479 14480 
3 14481 14482 14483 
3 14484 14485 14486 
3 14487 14488 14489 
3 14490 14491 14492 
3 14493 14494 14495 
3 14496 14497 14498 
3 14499 14500 14501 
3 14502 14503 14504 
3 14505 14506 14507 
3 14508 14509 14510 
3 14511 14512 14513 
3 14514 14515 14516 
3 14517 14518 14519 
3 14520 14521 14522 
3 14523 14524 14525 
3 14526 14527 14528 
3 14529 14530 14531 
3 14532 14533 14534 
3 14535 14536 14537 
3 14538 14539 14540 
3 14541 14542 14543 
3 14544 14545 14546 
3 14547 14548 14549 
3 14550 14551 14552 
3 14553 14554 14555 
3 14556 14557 14558 
3 14559 14560 14561 
3 14562 14563 14564 
3 14565 14566 14567 
3 14568 14569 14570 
3 14571 14572 14573 
3 14574 14575 14576 
3 14577 14578 14579 
3 14580 14581 14582 
3 14583 14584 14585 
3 14586 14587 14588 
3 14589 14590 14591 
3 14592 14593 14594 
3 14595 14596 14597 
3 14598 14599 14600 
3 14601 14602 14603 
3 14604 14605 14606 
3 14607 14608 14609 
3 14610 14611 14612 
3 14613 14614 14615 
3 14616 14617 14618 
3 14619 14620 14621 
3 14622 14623 14624 
3 14625 14626 14627 
3 14628 14629 14630 
3 14631 14632 14633 
3 14634 14635 14636 
3 14637 14638 14639 
3 14640 14641 14642 
3 14643 14644 14645 
3 14646 14647 14648 
3 14649 14650 14651 
3 14652 14653 14654 
3 14655 14656 14657 
3 14658 14659 14660 
3 14661 14662 14663 
3 14664 14665 14666 
3 14667 14668 14669 
3 14670 14671 14672 
3 14673 14674 14675 
3 14676 14677 14678 
3 14679 14680 14681 
3 14682 14683 14684 
3 14685 14686 14687 
3 14688 14689 14690 
3 14691 14692 14693 
3 14694 14695 14696 
3 14697 14698 14699 
3 14700 14701 14702 
3 14703 14704 14705 
3 14706 14707 14708 
3 14709 14710 14711 
3 14712 14713 14714 
3 14715 14716 14717 
3 14718 14719 14720 
3 14721 14722 14723 
3 14724 14725 14726 
3 14727 14728 14729 
3 14730 14731 14732 
3 14733 14734 14735 
3 14736 14737 14738 
3 14739 14740 14741 
3 14742 14743 14744 
3 14745 14746 14747 
3 14748 14749 14750 
3 14751 14752 14753 
3 14754 14755 14756 
3 14757 14758 14759 
3 14760 14761 14762 
3 14763 14764 14765 
3 14766 14767 14768 
3 14769 14770 14771 
3 14772 14773 14774 
3 14775 14776 14777 
3 14778 14779 14780 
3 14781 14782 14783 
3 14784 14785 14786 
3 14787 14788 14789 
3 14790 14791 14792 
3 14793 14794 14795 
3 14796 14797 14798 
3 14799 14800 14801 
3 14802 14803 14804 
3 14805 14806 14807 
3 14808 14809 14810 
3 14811 14812 14813 
3 14814 14815 14816 
3 14817 14818 14819 
3 14820 14821 14822 
3 14823 14824 14825 
3 14826 14827 14828 
3 14829 14830 14831 
3 14832 14833 14834 
3 14835 14836 14837 
3 14838 14839 14840 
3 14841 14842 14843 
3 14844 14845 14846 
3 14847 14848 14849 
3 14850 14851 14852 
3 14853 14854 14855 
3 14856 14857 14858 
3 14859 14860 14861 
3 14862 14863 14864 
3 14865 14866 14867 
3 14868 14869 14870 
3 14871 14872 14873 
3 14874 14875 14876 
3 14877 14878 14879 
3 14880 14881 14882 
3 14883 14884 14885 
3 14886 14887 14888 
3 14889 14890 14891 
3 14892 14893 14894 
3 14895 14896 14897 
3 14898 14899 14900 
3 14901 14902 14903 
3 14904 14905 14906 
3 14907 14908 14909 
3 14910 14911 14912 
3 14913 14914 14915 
3 14916 14917 14918 
3 14919 14920 14921 
3 14922 14923 14924 
3 14925 14926 14927 
3 14928 14929 14930 
3 14931 14932 14933 
3 14934 14935 14936 
3 14937 14938 14939 
3 14940 14941 14942 
3 14943 14944 14945 
3 14946 14947 14948 
3 14949 14950 14951 
3 14952 14953 14954 
3 14955 14956 14957 
3 14958 14959 14960 
3 14961 14962 14963 
3 14964 14965 14966 
3 14967 14968 14969 
3 14970 14971 14972 
3 14973 14974 14975 
3 14976 14977 14978 
3 14979 14980 14981 
3 14982 14983 14984 
3 14985 14986 14987 
3 14988 14989 14990 
3 14991 14992 14993 
3 14994 14995 14996 
3 14997 14998 14999 
3 15000 15001 15002 
3 15003 15004 15005 
3 15006 15007 15008 
3 15009 15010 15011 
3 15012 15013 15014 
3 15015 15016 15017 
3 15018 15019 15020 
3 15021 15022 15023 
3 15024 15025 15026 
3 15027 15028 15029 
3 15030 15031 15032 
3 15033 15034 15035 
3 15036 15037 15038 
3 15039 15040 15041 
3 15042 15043 15044 
3 15045 15046 15047 
3 15048 15049 15050 
3 15051 15052 15053 
3 15054 15055 15056 
3 15057 15058 15059 
3 15060 15061 15062 
3 15063 15064 15065 
3 15066 15067 15068 
3 15069 15070 15071 
3 15072 15073 15074 
3 15075 15076 15077 
3 15078 15079 15080 
3 15081 15082 15083 
3 15084 15085 15086 
3 15087 15088 15089 
3 15090 15091 15092 
3 15093 15094 15095 
3 15096 15097 15098 
3 15099 15100 15101 
3 15102 15103 15104 
3 15105 15106 15107 
3 15108 15109 15110 
3 15111 15112 15113 
3 15114 15115 15116 
3 15117 15118 15119 
3 15120 15121 15122 
3 15123 15124 15125 
3 15126 15127 15128 
3 15129 15130 15131 
3 15132 15133 15134 
3 15135 15136 15137 
3 15138 15139 15140 
3 15141 15142 15143 
3 15144 15145 15146 
3 15147 15148 15149 
3 15150 15151 15152 
3 15153 15154 15155 
3 15156 15157 15158 
3 15159 15160 15161 
3 15162 15163 15164 
3 15165 15166 15167 
3 15168 15169 15170 
3 15171 15172 15173 
3 15174 15175 15176 
3 15177 15178 15179 
3 15180 15181 15182 
3 15183 15184 15185 
3 15186 15187 15188 
3 15189 15190 15191 
3 15192 15193 15194 
3 15195 15196 15197 
3 15198 15199 15200 
3 15201 15202 15203 
3 15204 15205 15206 
3 15207 15208 15209 
3 15210 15211 15212 
3 15213 15214 15215 
3 15216 15217 15218 
3 15219 15220 15221 
3 15222 15223 15224 
3 15225 15226 15227 
3 15228 15229 15230 
3 15231 15232 15233 
3 15234 15235 15236 
3 15237 15238 15239 
3 15240 15241 15242 
3 15243 15244 15245 
3 15246 15247 15248 
3 15249 15250 15251 
3 15252 15253 15254 
3 15255 15256 15257 
3 15258 15259 15260 
3 15261 15262 15263 
3 15264 15265 15266 
3 15267 15268 15269 
3 15270 15271 15272 
3 15273 15274 15275 
3 15276 15277 15278 
3 15279 15280 15281 
3 15282 15283 15284 
3 15285 15286 15287 
3 15288 15289 15290 
3 15291 15292 15293 
3 15294 15295 15296 
3 15297 15298 15299 
3 15300 15301 15302 
3 15303 15304 15305 
3 15306 15307 15308 
3 15309 15310 15311 
3 15312 15313 15314 
3 15315 15316 15317 
3 15318 15319 15320 
3 15321 15322 15323 
3 15324 15325 15326 
3 15327 15328 15329 
3 15330 15331 15332 
3 15333 15334 15335 
3 15336 15337 15338 
3 15339 15340 15341 
3 15342 15343 15344 
3 15345 15346 15347 
3 15348 15349 15350 
3 15351 15352 15353 
3 15354 15355 15356 
3 15357 15358 15359 
3 15360 15361 15362 
3 15363 15364 15365 
3 15366 15367 15368 
3 15369 15370 15371 
3 15372 15373 15374 
3 15375 15376 15377 
3 15378 15379 15380 
3 15381 15382 15383 
3 15384 15385 15386 
3 15387 15388 15389 
3 15390 15391 15392 
3 15393 15394 15395 
3 15396 15397 15398 
3 15399 15400 15401 
3 15402 15403 15404 
3 15405 15406 15407 
3 15408 15409 15410 
3 15411 15412 15413 
3 15414 15415 15416 
3 15417 15418 15419 
3 15420 15421 15422 
3 15423 15424 15425 
3 15426 15427 15428 
3 15429 15430 15431 
3 15432 15433 15434 
3 15435 15436 15437 
3 15438 15439 15440 
3 15441 15442 15443 
3 15444 15445 15446 
3 15447 15448 15449 
3 15450 15451 15452 
3 15453 15454 15455 
3 15456 15457 15458 
3 15459 15460 15461 
3 15462 15463 15464 
3 15465 15466 15467 
3 15468 15469 15470 
3 15471 15472 15473 
3 15474 15475 15476 
3 15477 15478 15479 
3 15480 15481 15482 
3 15483 15484 15485 
3 15486 15487 15488 
3 15489 15490 15491 
3 15492 15493 15494 
3 15495 15496 15497 
3 15498 15499 15500 
3 15501 15502 15503 
3 15504 15505 15506 
3 15507 15508 15509 
3 15510 15511 15512 
3 15513 15514 15515 
3 15516 15517 15518 
3 15519 15520 15521 
3 15522 15523 15524 
3 15525 15526 15527 
3 15528 15529 15530 
3 15531 15532 15533 
3 15534 15535 15536 
3 15537 15538 15539 
3 15540 15541 15542 
3 15543 15544 15545 
3 15546 15547 15548 
3 15549 15550 15551 
3 15552 15553 15554 
3 15555 15556 15557 
3 15558 15559 15560 
3 15561 15562 15563 
3 15564 15565 15566 
3 15567 15568 15569 
3 15570 15571 15572 
3 15573 15574 15575 
3 15576 15577 15578 
3 15579 15580 15581 
3 15582 15583 15584 
3 15585 15586 15587 
3 15588 15589 15590 
3 15591 15592 15593 
3 15594 15595 15596 
3 15597 15598 15599 
3 15600 15601 15602 
3 15603 15604 15605 
3 15606 15607 15608 
3 15609 15610 15611 
3 15612 15613 15614 
3 15615 15616 15617 
3 15618 15619 15620 
3 15621 15622 15623 
3 15624 15625 15626 
3 15627 15628 15629 
3 15630 15631 15632 
3 15633 15634 15635 
3 15636 15637 15638 
3 15639 15640 15641 
3 15642 15643 15644 
3 15645 15646 15647 
3 15648 15649 15650 
3 15651 15652 15653 
3 15654 15655 15656 
3 15657 15658 15659 
3 15660 15661 15662 
3 15663 15664 15665 
3 15666 15667 15668 
3 15669 15670 15671 
3 15672 15673 15674 
3 15675 15676 15677 
3 15678 15679 15680 
3 15681 15682 15683 
3 15684 15685 15686 
3 15687 15688 15689 
3 15690 15691 15692 
3 15693 15694 15695 
3 15696 15697 15698 
3 15699 15700 15701 
3 15702 15703 15704 
3 15705 15706 15707 
3 15708 15709 15710 
3 15711 15712 15713 
3 15714 15715 15716 
3 15717 15718 15719 
3 15720 15721 15722 
3 15723 15724 15725 
3 15726 15727 15728 
3 15729 15730 15731 
3 15732 15733 15734 
3 15735 15736 15737 
3 15738 15739 15740 
3 15741 15742 15743 
3 15744 15745 15746 
3 15747 15748 15749 
3 15750 15751 15752 
3 15753 15754 15755 
3 15756 15757 15758 
3 15759 15760 15761 
3 15762 15763 15764 
3 15765 15766 15767 
3 15768 15769 15770 
3 15771 15772 15773 
3 15774 15775 15776 
3 15777 15778 15779 
3 15780 15781 15782 
3 15783 15784 15785 
3 15786 15787 15788 
3 15789 15790 15791 
3 15792 15793 15794 
3 15795 15796 15797 
3 15798 15799 15800 
3 15801 15802 15803 
3 15804 15805 15806 
3 15807 15808 15809 
3 15810 15811 15812 
3 15813 15814 15815 
3 15816 15817 15818 
3 15819 15820 15821 
3 15822 15823 15824 
3 15825 15826 15827 
3 15828 15829 15830 
3 15831 15832 15833 
3 15834 15835 15836 
3 15837 15838 15839 
3 15840 15841 15842 
3 15843 15844 15845 
3 15846 15847 15848 
3 15849 15850 15851 
3 15852 15853 15854 
3 15855 15856 15857 
3 15858 15859 15860 
3 15861 15862 15863 
3 15864 15865 15866 
3 15867 15868 15869 
3 15870 15871 15872 
3 15873 15874 15875 
3 15876 15877 15878 
3 15879 15880 15881 
3 15882 15883 15884 
3 15885 15886 15887 
3 15888 15889 15890 
3 15891 15892 15893 
3 15894 15895 15896 
3 15897 15898 15899 
3 15900 15901 15902 
3 15903 15904 15905 
3 15906 15907 15908 
3 15909 15910 15911 
3 15912 15913 15914 
3 15915 15916 15917 
3 15918 15919 15920 
3 15921 15922 15923 
3 15924 15925 15926 
3 15927 15928 15929 
3 15930 15931 15932 
3 15933 15934 15935 
3 15936 15937 15938 
3 15939 15940 15941 
3 15942 15943 15944 
3 15945 15946 15947 
3 15948 15949 15950 
3 15951 15952 15953 
3 15954 15955 15956 
3 15957 15958 15959 
3 15960 15961 15962 
3 15963 15964 15965 
3 15966 15967 15968 
3 15969 15970 15971 
3 15972 15973 15974 
3 15975 15976 15977 
3 15978 15979 15980 
3 15981 15982 15983 
3 15984 15985 15986 
3 15987 15988 15989 
3 15990 15991 15992 
3 15993 15994 15995 
3 15996 15997 15998 
3 15999 16000 16001 
3 16002 16003 16004 
3 16005 16006 16007 
3 16008 16009 16010 
3 16011 16012 16013 
3 16014 16015 16016 
3 16017 16018 16019 
3 16020 16021 16022 
3 16023 16024 16025 
3 16026 16027 16028 
3 16029 16030 16031 
3 16032 16033 16034 
3 16035 16036 16037 
3 16038 16039 16040 
3 16041 16042 16043 
3 16044 16045 16046 
3 16047 16048 16049 
3 16050 16051 16052 
3 16053 16054 16055 
3 16056 16057 16058 
3 16059 16060 16061 
3 16062 16063 16064 
3 16065 16066 16067 
3 16068 16069 16070 
3 16071 16072 16073 
3 16074 16075 16076 
3 16077 16078 16079 
3 16080 16081 16082 
3 16083 16084 16085 
3 16086 16087 16088 
3 16089 16090 16091 
3 16092 16093 16094 
3 16095 16096 16097 
3 16098 16099 16100 
3 16101 16102 16103 
3 16104 16105 16106 
3 16107 16108 16109 
3 16110 16111 16112 
3 16113 16114 16115 
3 16116 16117 16118 
3 16119 16120 16121 
3 16122 16123 16124 
3 16125 16126 16127 
3 16128 16129 16130 
3 16131 16132 16133 
3 16134 16135 16136 
3 16137 16138 16139 
3 16140 16141 16142 
3 16143 16144 16145 
3 16146 16147 16148 
3 16149 16150 16151 
3 16152 16153 16154 
3 16155 16156 16157 
3 16158 16159 16160 
3 16161 16162 16163 
3 16164 16165 16166 
3 16167 16168 16169 
3 16170 16171 16172 
3 16173 16174 16175 
3 16176 16177 16178 
3 16179 16180 16181 
3 16182 16183 16184 
3 16185 16186 16187 
3 16188 16189 16190 
3 16191 16192 16193 
3 16194 16195 16196 
3 16197 16198 16199 
3 16200 16201 16202 
3 16203 16204 16205 
3 16206 16207 16208 
3 16209 16210 16211 
3 16212 16213 16214 
3 16215 16216 16217 
3 16218 16219 16220 
3 16221 16222 16223 
3 16224 16225 16226 
3 16227 16228 16229 
3 16230 16231 16232 
3 16233 16234 16235 
3 16236 16237 16238 
3 16239 16240 16241 
3 16242 16243 16244 
3 16245 16246 16247 
3 16248 16249 16250 
3 16251 16252 16253 
3 16254 16255 16256 
3 16257 16258 16259 
3 16260 16261 16262 
3 16263 16264 16265 
3 16266 16267 16268 
3 16269 16270 16271 
3 16272 16273 16274 
3 16275 16276 16277 
3 16278 16279 16280 
3 16281 16282 16283 
3 16284 16285 16286 
3 16287 16288 16289 
3 16290 16291 16292 
3 16293 16294 16295 
3 16296 16297 16298 
3 16299 16300 16301 
3 16302 16303 16304 
3 16305 16306 16307 
3 16308 16309 16310 
3 16311 16312 16313 
3 16314 16315 16316 
3 16317 16318 16319 
3 16320 16321 16322 
3 16323 16324 16325 
3 16326 16327 16328 
3 16329 16330 16331 
3 16332 16333 16334 
3 16335 16336 16337 
3 16338 16339 16340 
3 16341 16342 16343 
3 16344 16345 16346 
3 16347 16348 16349 
3 16350 16351 16352 
3 16353 16354 16355 
3 16356 16357 16358 
3 16359 16360 16361 
3 16362 16363 16364 
3 16365 16366 16367 
3 16368 16369 16370 
3 16371 16372 16373 
3 16374 16375 16376 
3 16377 16378 16379 
3 16380 16381 16382 
3 16383 16384 16385 
3 16386 16387 16388 
3 16389 16390 16391 
3 16392 16393 16394 
3 16395 16396 16397 
3 16398 16399 16400 
3 16401 16402 16403 
3 16404 16405 16406 
3 16407 16408 16409 
3 16410 16411 16412 
3 16413 16414 16415 
3 16416 16417 16418 
3 16419 16420 16421 
3 16422 16423 16424 
3 16425 16426 16427 
3 16428 16429 16430 
3 16431 16432 16433 
3 16434 16435 16436 
3 16437 16438 16439 
3 16440 16441 16442 
3 16443 16444 16445 
3 16446 16447 16448 
3 16449 16450 16451 
3 16452 16453 16454 
3 16455 16456 16457 
3 16458 16459 16460 
3 16461 16462 16463 
3 16464 16465 16466 
3 16467 16468 16469 
3 16470 16471 16472 
3 16473 16474 16475 
3 16476 16477 16478 
3 16479 16480 16481 
3 16482 16483 16484 
3 16485 16486 16487 
3 16488 16489 16490 
3 16491 16492 16493 
3 16494 16495 16496 
3 16497 16498 16499 
3 16500 16501 16502 
3 16503 16504 16505 
3 16506 16507 16508 
3 16509 16510 16511 
3 16512 16513 16514 
3 16515 16516 16517 
3 16518 16519 16520 
3 16521 16522 16523 
3 16524 16525 16526 
3 16527 16528 16529 
3 16530 16531 16532 
3 16533 16534 16535 
3 16536 16537 16538 
3 16539 16540 16541 
3 16542 16543 16544 
3 16545 16546 16547 
3 16548 16549 16550 
3 16551 16552 16553 
3 16554 16555 16556 
3 16557 16558 16559 
3 16560 16561 16562 
3 16563 16564 16565 
3 16566 16567 16568 
3 16569 16570 16571 
3 16572 16573 16574 
3 16575 16576 16577 
3 16578 16579 16580 
3 16581 16582 16583 
3 16584 16585 16586 
3 16587 16588 16589 
3 16590 16591 16592 
3 16593 16594 16595 
3 16596 16597 16598 
3 16599 16600 16601 
3 16602 16603 16604 
3 16605 16606 16607 
3 16608 16609 16610 
3 16611 16612 16613 
3 16614 16615 16616 
3 16617 16618 16619 
3 16620 16621 16622 
3 16623 16624 16625 
3 16626 16627 16628 
3 16629 16630 16631 
3 16632 16633 16634 
3 16635 16636 16637 
3 16638 16639 16640 
3 16641 16642 16643 
3 16644 16645 16646 
3 16647 16648 16649 
3 16650 16651 16652 
3 16653 16654 16655 
3 16656 16657 16658 
3 16659 16660 16661 
3 16662 16663 16664 
3 16665 16666 16667 
3 16668 16669 16670 
3 16671 16672 16673 
3 16674 16675 16676 
3 16677 16678 16679 
3 16680 16681 16682 
3 16683 16684 16685 
3 16686 16687 16688 
3 16689 16690 16691 
3 16692 16693 16694 
3 16695 16696 16697 
3 16698 16699 16700 
3 16701 16702 16703 
3 16704 16705 16706 
3 16707 16708 16709 
3 16710 16711 16712 
3 16713 16714 16715 
3 16716 16717 16718 
3 16719 16720 16721 
3 16722 16723 16724 
3 16725 16726 16727 
3 16728 16729 16730 
3 16731 16732 16733 
3 16734 16735 16736 
3 16737 16738 16739 
3 16740 16741 16742 
3 16743 16744 16745 
3 16746 16747 16748 
3 16749 16750 16751 
3 16752 16753 16754 
3 16755 16756 16757 
3 16758 16759 16760 
3 16761 16762 16763 
3 16764 16765 16766 
3 16767 16768 16769 
3 16770 16771 16772 
3 16773 16774 16775 
3 16776 16777 16778 
3 16779 16780 16781 
3 16782 16783 16784 
3 16785 16786 16787 
3 16788 16789 16790 
3 16791 16792 16793 
3 16794 16795 16796 
3 16797 16798 16799 
3 16800 16801 16802 
3 16803 16804 16805 
3 16806 16807 16808 
3 16809 16810 16811 
3 16812 16813 16814 
3 16815 16816 16817 
3 16818 16819 16820 
3 16821 16822 16823 
3 16824 16825 16826 
3 16827 16828 16829 
3 16830 16831 16832 
3 16833 16834 16835 
3 16836 16837 16838 
3 16839 16840 16841 
3 16842 16843 16844 
3 16845 16846 16847 
3 16848 16849 16850 
3 16851 16852 16853 
3 16854 16855 16856 
3 16857 16858 16859 
3 16860 16861 16862 
3 16863 16864 16865 
3 16866 16867 16868 
3 16869 16870 16871 
3 16872 16873 16874 
3 16875 16876 16877 
3 16878 16879 16880 
3 16881 16882 16883 
3 16884 16885 16886 
3 16887 16888 16889 
3 16890 16891 16892 
3 16893 16894 16895 
3 16896 16897 16898 
3 16899 16900 16901 
3 16902 16903 16904 
3 16905 16906 16907 
3 16908 16909 16910 
3 16911 16912 16913 
3 16914 16915 16916 
3 16917 16918 16919 
3 16920 16921 16922 
3 16923 16924 16925 
3 16926 16927 16928 
3 16929 16930 16931 
3 16932 16933 16934 
3 16935 16936 16937 
3 16938 16939 16940 
3 16941 16942 16943 
3 16944 16945 16946 
3 16947 16948 16949 
3 16950 16951 16952 
3 16953 16954 16955 
3 16956 16957 16958 
3 16959 16960 16961 
3 16962 16963 16964 
3 16965 16966 16967 
3 16968 16969 16970 
3 16971 16972 16973 
3 16974 16975 16976 
3 16977 16978 16979 
3 16980 16981 16982 
3 16983 16984 16985 
3 16986 16987 16988 
3 16989 16990 16991 
3 16992 16993 16994 
3 16995 16996 16997 
3 16998 16999 17000 
3 17001 17002 17003 
3 17004 17005 17006 
3 17007 17008 17009 
3 17010 17011 17012 
3 17013 17014 17015 
3 17016 17017 17018 
3 17019 17020 17021 
3 17022 17023 17024 
3 17025 17026 17027 
3 17028 17029 17030 
3 17031 17032 17033 
3 17034 17035 17036 
3 17037 17038 17039 
3 17040 17041 17042 
3 17043 17044 17045 
3 17046 17047 17048 
3 17049 17050 17051 
3 17052 17053 17054 
3 17055 17056 17057 
3 17058 17059 17060 
3 17061 17062 17063 
3 17064 17065 17066 
3 17067 17068 17069 
3 17070 17071 17072 
3 17073 17074 17075 
3 17076 17077 17078 
3 17079 17080 17081 
3 17082 17083 17084 
3 17085 17086 17087 
3 17088 17089 17090 
3 17091 17092 17093 
3 17094 17095 17096 
3 17097 17098 17099 
3 17100 17101 17102 
3 17103 17104 17105 
3 17106 17107 17108 
3 17109 17110 17111 
3 17112 17113 17114 
3 17115 17116 17117 
3 17118 17119 17120 
3 17121 17122 17123 
3 17124 17125 17126 
3 17127 17128 17129 
3 17130 17131 17132 
3 17133 17134 17135 
3 17136 17137 17138 
3 17139 17140 17141 
3 17142 17143 17144 
3 17145 17146 17147 
3 17148 17149 17150 
3 17151 17152 17153 
3 17154 17155 17156 
3 17157 17158 17159 
3 17160 17161 17162 
3 17163 17164 17165 
3 17166 17167 17168 
3 17169 17170 17171 
3 17172 17173 17174 
3 17175 17176 17177 
3 17178 17179 17180 
3 17181 17182 17183 
3 17184 17185 17186 
3 17187 17188 17189 
3 17190 17191 17192 
3 17193 17194 17195 
3 17196 17197 17198 
3 17199 17200 17201 
3 17202 17203 17204 
3 17205 17206 17207 
3 17208 17209 17210 
3 17211 17212 17213 
3 17214 17215 17216 
3 17217 17218 17219 
3 17220 17221 17222 
3 17223 17224 17225 
3 17226 17227 17228 
3 17229 17230 17231 

CELL_DATA 5744
FIELD FieldData 5
normal_stress_average 1 5744 double
0 0 0 0 0 0 0 0 0 
0 0 0 0 0 0 0 0 0 
0 0 0 0 0 0 0 0 0 
0 0 0 0 0 0 0 0 0 
0 0 0 0 0 0 0 0 0 
0 0 0 0 0 0 0 0 0 
0 0 0 0 0 0 0 0 0 
0 0 0 0 0 0 0 0 0 
0 0 0 0 0 0 0 0 0 
0 0 0 0 0 0 0 0 0 
0 0 0 0 0 0 0 0 0 
0 0 0 0 0 0 0 0 0 
0 0 0 0 0 0 0 0 0 
0 0 0 0 0 0 0 0 0 
0 0 0 0 0 0 0 0 0 
0 0 0 0 0 0 0 0 0 
0 0 0 0 0 0 0 0 0 
0 0 0 0 0 0 0 0 0 
0 0 0 0 0 0 0 0 0 
0 0 0 0 0 0 0 0 0 
0 0 0 0 0 0 0 0 0 
0 0 0 0 0 0 0 0 0 
0 0 0 0 0 0 0 0 0 
0 0 0 0 0 0 0 0 0 
0 0 0 0 0 0 0 0 0 
0 0 0 0 0 0 0 0 0 
0 0 0 0 0 0 0 0 0 
0 0 0 0 0 0 0 0 0 
0 0 0 0 0 0 0 0 -0 
-0 -0 -0 -0 -0 -0 -0 -0 -0 
-0 -0 -0 -0 -0 -0 -0 -0 -0 
-0 -0 -0 -0 -0 -0 -0 -0 -0 
-0 -0 -0 -0 -0 -0 -0 -0 -0 
-0 -0 -0 -0 -0 -0 -0 -0 -0 
-0 -0 -0 -0 -0 -0 -0 -0 -0 
-0 -0 -0 -0 -0 -0 -0 -0 -0 
-0 -0 -0 -0 0 0 0 0 0 
0 0 0 0 0 0 0 0 0 
0 0 0 0 0 0 0 0 0 
0 0 0 0 0 0 0 0 0 
0 0 0 0 0 0 0 0 0 
0 0 0 0 0 0 0 0 0 
0 0 0 0 0 0 0 0 0 
0 0 0 0 0 0 0 0 0 
0 0 0 0 0 0 0 0 0 
0 0 0 0 0 0 0 0 0 
0 0 0 0 0 0 0 0 0 
0 0 0 0 0 0 0 0 0 
0 0 0 0 0 0 0 0 0 
0 0 0 0 0 0 0 0 0 
0 0 0 0 0 0 0 0 0 
0 0 0 0 0 0 0 0 0 
0 0 0 0 0 0 0 0 0 
0 0 0 0 0 0 0 0 0 
0 0 0 0 0 0 0 -0 -0 
-0 -0 -0 -0 -0 -0 -0 -0 -0 
-0 -0 -0 -0 -0 -0 -0 -0 -0 
-0 -0 -0 -0 -0 -0 -0 -0 -0 
-0 -0 -0 -0 -0 -0 -0 -0 0 
0 0 0 0 0 0 0 0 0 
0 0 0 0 -0 -0 -0 0 0 
0 0 0 0 0 0 0 0 0 
0 0 0 0 0 0 0 0 0 
0 0 0 0 0 0 0 0 0 
0 0 0 0 0 0 0 0 0 
0 0 0 -0 -0 -0 -0 -0 -0 
-0 -0 -0 -0 -0 -0 -0 0 0 
0 0 0 0 0 0 0 0 0 
0 0 0 0 0 0 0 0 0 
0 0 0 0 0 0 0 0 0 
0 0 0 0 0 0 0 0 0 
0 0 0 0 0 0 -0 -0 -0 
-0 -0 -0 -0 -0 -0 -0 -0 -0 
-0 -0 0 0 0 0 0 0 0 
0 0 -0 0 0 0 0 0 0 
0 0 0 0 0 0 0 0 0 
0 0 0 0 0 0 0 0 0 
0 0 0 0 0 0 0 0 0 
0 0 0 0 0 0 0 0 0 
0 0 0 0 0 0 -0 -0 -0 
-0 -0 -0 -0 -0 -0 -0 -0 -0 
-0 -0 -0 0 0 0 0 0 0 
0 0 0 0 0 0 0 0 0 
0 0 0 0 0 0 0 0 0 
-0 -0 -0 -0 -0 0 0 0 0 
0 0 0 0 0 0 0 0 0 
0 0 0 0 0 0 0 0 0 
0 0 0 0 0 0 0 0 0 
0 0 -0 -0 -0 -0 -0 -0 -0 
-0 -0 -0 -0 0 0 0 0 0 
0 0 0 0 0 0 0 0 0 
0 0 0 0 0 0 -0 -0 -0 
-0 -0 -0 -0 0 0 0 0 0 
0 0 0 0 0 0 0 0 0 
0 0 0 0 0 0 0 0 0 
0 0 0 0 0 0 0 0 0 
0 0 0 0 0 0 0 0 -0 
-0 -0 -0 -0 -0 -0 -0 -0 -0 
-0 0 0 0 0 0 0 0 -0 
-0 -0 0 0 0 0 0 0 0 
0 0 0 0 0 0 0 0 0 
0 0 0 0 0 0 0 0 0 
0 0 0 0 0 0 0 0 0 
0 0 0 0 0 0 0 0 0 
0 -0 -0 -0 -0 -0 -0 -0 -0 
-0 -0 0 0 0 0 0 0 -0 
-0 -0 -0 -0 -0 -0 -0 -0 -0 
-0 0 0 0 0 0 0 0 0 
0 0 0 0 0 0 0 0 0 
0 0 0 0 0 0 0 0 0 
0 0 0 0 0 0 0 0 0 
0 0 0 0 0 0 0 0 0 
0 0 0 0 -0 0 0 0 0 
0 -0 -0 -0 -0 -0 -0 -0 -0 
-0 -0 -0 -0 0 0 0 0 0 
0 0 0 0 0 0 0 0 0 
0 0 0 0 0 0 0 0 0 
0 0 0 0 0 0 0 0 0 
0 0 0 0 0 0 0 0 0 
0 -0 -0 -0 0 0 0 0 0 
0 0 0 0 0 0 0 0 0 
0 -0 -0 -0 -0 -0 -0 -0 -0 
-0 0 0 0 0 0 0 0 0 
0 0 0 0 0 0 0 0 0 
0 0 0 0 0 0 0 0 0 
0 0 0 -0 -0 -0 -0 0 0 
0 0 0 0 0 0 0 0 0 
0 0 0 0 0 0 0 0 0 
0 0 0 -0 -0 -0 -0 -0 -0 
-0 -0 -0 -0 -0 -0 -0 -0 0 
0 0 0 0 0 0 0 0 0 
0 0 0 0 0 0 0 0 0 
0 0 0 0 0 0 0 0 0 
0 0 0 0 0 0 0 0 0 
0 0 0 0 0 0 -0 -0 0 
0 0 0 0 0 0 0 0 0 
0 0 0 -0 -0 -0 -0 -0 -0 
-0 -0 -0 -0 -0 -0 -0 -0 -0 
-0 -0 -0 0 0 0 0 0 0 
0 0 0 0 0 0 0 0 0 
0 0 0 0 0 0 0 0 0 
0 0 0 0 0 0 0 0 0 
0 0 0 0 0 0 0 0 0 
-0 -0 -0 -0 -0 -0 -0 -0 -0 
-0 -0 -0 -0 0 0 0 0 0 
0 0 0 0 0 0 0 0 0 
0 0 0 0 0 0 0 0 0 
0 0 0 0 0 0 0 0 0 
0 0 0 0 -0 0 0 0 0 
0 0 0 -0 -0 -0 -0 -0 -0 
-0 -0 -0 -0 -0 -0 -0 -0 -0 
-0 -0 -0 -0 -0 -0 -0 -0 -0 
0 0 0 0 0 0 0 0 0 
0 0 0 0 0 0 0 0 0 
0 0 0 0 0 0 0 0 0 
0 0 0 0 0 0 0 0 0 
0 0 0 0 0 0 0 0 0 
0 0 0 0 0 0 0 0 0 
0 0 0 0 0 0 0 0 0 
0 0 0 0 0 0 0 0 0 
0 0 0 0 0 0 0 0 0 
0 0 0 0 0 0 0 0 0 
0 0 0 0 0 0 0 -0 -0 
-0 -0 -0 -0 -0 -0 -0 -0 -0 
-0 -0 -0 -0 -0 -0 0 0 0 
0 0 0 0 0 0 0 0 0 
0 0 0 0 0 0 0 0 0 
0 0 0 0 0 -0 -0 -0 -0 
-0 0 0 0 0 0 0 0 0 
-0 -0 0 0 0 0 0 0 0 
0 0 -0 -0 0 0 0 0 0 
0 0 0 0 0 0 0 -0 -0 
-0 -0 18377203.152 12076588.752 0 0 0 0 0 
0 0 0 0 0 0 0 -0 -0 
-0 8226623.9425 0 0 0 0 0 0 0 
0 0 21855384.34 18080294.853 16532210.438 0 0 0 0 
0 0 0 0 0 0 0 0 0 
-0 -0 -0 12936228.391 4494542.7874 0 0 0 0 
0 0 0 0 0 0 0 0 0 
0 0 0 0 -0 -0 -0 0 0 
0 0 0 0 0 0 -0 -0 -0 
-0 -0 -0 -0 0 0 0 0 0 
0 0 0 0 0 0 0 0 0 
0 0 -0 -0 -0 -0 -0 0 0 
0 0 0 0 0 0 0 0 0 
0 0 0 0 0 0 -0 -0 -0 
-0 0 0 0 0 0 0 0 0 
0 0 0 0 0 0 0 0 0 
0 -0 -0 -0 -0 -0 0 0 0 
0 0 0 0 0 0 0 0 0 
0 0 0 0 0 0 0 0 -0 
-0 -0 -0 0 0 0 0 0 0 
0 0 0 0 0 0 0 0 0 
0 0 -0 -0 -0 -0 -0 -0 0 
0 0 0 0 0 0 0 0 0 
0 0 0 0 0 0 0 0 0 
0 0 0 -0 -0 -0 0 0 0 
0 0 0 0 0 0 0 0 0 
0 0 0 0 -0 -0 -0 -0 -0 
-0 -0 -0 -0 -0 0 0 0 0 
0 0 0 0 0 0 0 0 0 
0 0 0 0 0 0 0 0 0 
0 -0 -0 -0 -0 0 0 0 0 
0 0 0 0 0 0 0 0 0 
0 0 0 0 0 0 0 0 0 
0 0 -0 -0 -0 -0 -0 -0 -0 
-0 -0 -0 0 0 0 0 0 0 
0 0 0 0 0 0 0 0 0 
0 0 0 0 0 0 -0 -0 -0 
-0 -0 -0 -0 -0 -0 -0 -0 0 
0 0 0 0 0 0 0 0 0 
0 0 0 0 0 0 0 0 0 
0 0 0 0 0 0 0 0 0 
0 0 -0 0 0 0 0 0 0 
0 0 0 0 0 0 0 0 0 
0 0 0 0 0 0 0 0 0 
0 0 0 -0 -0 -0 -0 -0 -0 
-0 -0 -0 -0 -0 0 0 0 0 
0 0 0 0 0 0 0 0 0 
0 0 0 0 0 0 0 0 0 
0 -0 -0 -0 -0 -0 -0 -0 -0 
-0 -0 0 0 0 0 0 0 0 
0 0 0 0 0 0 0 0 0 
0 0 0 0 0 0 0 0 0 
0 0 0 0 0 0 0 -0 -0 
-0 -0 -0 -0 0 0 0 0 0 
0 0 0 0 0 0 0 0 0 
0 0 0 0 0 0 0 0 0 
0 0 0 0 0 0 0 0 0 
-0 -0 -0 -0 -0 -0 -0 0 0 
0 0 0 0 0 0 0 0 0 
0 0 0 0 0 0 0 0 0 
0 0 0 0 0 0 0 0 0 
0 0 0 0 0 0 0 0 0 
0 -0 -0 -0 -0 -0 -0 -0 -0 
-0 -0 0 0 0 0 0 0 0 
0 0 0 0 0 0 0 0 0 
0 0 0 0 0 0 0 0 -0 
-0 -0 -0 -0 0 0 0 0 0 
0 0 0 0 0 0 0 0 0 
0 0 0 0 0 0 0 0 0 
0 0 0 0 0 0 0 0 0 
0 0 0 0 -0 -0 -0 -0 -0 
-0 -0 -0 -0 0 0 0 0 0 
0 0 0 0 0 0 0 0 0 
0 0 0 0 0 0 0 0 0 
0 0 0 0 0 0 0 0 0 
0 0 0 0 0 0 0 0 0 
0 0 0 0 0 0 0 0 0 
0 0 -0 -0 -0 -0 -0 -0 -0 
-0 -0 -0 -0 -0 -0 0 0 0 
0 0 0 0 0 0 0 0 0 
0 0 0 0 0 0 0 0 0 
0 0 0 0 0 0 0 0 0 
0 0 0 -0 -0 -0 -0 -0 -0 
-0 -0 -0 -0 -0 -0 0 0 0 
0 0 0 0 0 0 0 0 0 
0 0 0 0 0 0 0 0 0 
0 0 0 0 0 0 0 0 0 
0 0 0 0 0 0 0 0 0 
0 -0 -0 -0 -0 -0 -0 0 0 
0 0 0 0 0 0 0 0 0 
0 0 0 0 0 0 0 0 0 
0 0 0 0 0 0 0 0 0 
0 0 0 -0 -0 -0 -0 -0 -0 
-0 0 0 0 0 0 0 0 0 
0 0 0 0 0 0 0 0 0 
0 0 0 0 0 0 0 0 0 
0 0 0 0 0 -0 -0 -0 -0 
-0 -0 -0 -0 -0 -0 -0 -0 0 
0 0 0 0 0 0 0 0 0 
0 0 0 0 0 0 0 0 0 
0 0 0 0 0 0 0 0 0 
0 0 0 0 0 0 0 0 0 
0 0 0 -0 -0 -0 -0 -0 -0 
-0 0 0 0 0 0 0 0 0 
0 0 0 0 0 0 0 0 0 
0 0 0 0 0 0 0 0 0 
0 0 0 0 0 0 0 0 -0 
-0 -0 -0 -0 -0 -0 0 0 0 
0 0 0 0 0 0 0 0 0 
0 0 0 0 0 0 0 0 0 
0 0 0 0 0 0 0 0 0 
0 -0 -0 -0 -0 -0 -0 -0 -0 
-0 0 0 0 0 0 0 0 0 
0 0 0 0 0 0 0 0 0 
0 0 0 0 0 0 0 0 0 
0 0 -0 -0 -0 -0 -0 -0 -0 
-0 -0 -0 -0 0 0 0 0 0 
0 0 0 0 0 0 0 0 0 
0 0 0 0 0 0 0 0 0 
0 0 0 0 0 0 0 -0 0 
0 0 0 0 0 0 0 0 0 
0 0 0 0 0 0 0 0 0 
0 0 0 0 0 0 0 0 0 
0 0 0 -0 -0 -0 -0 -0 -0 
-0 -0 -0 -0 -0 -0 0 0 0 
0 0 0 0 0 0 0 0 0 
0 0 0 0 0 -0 -0 -0 -0 
-0 -0 -0 0 0 0 0 0 0 
0 0 0 0 0 0 0 0 0 
0 0 0 0 0 0 0 0 0 
0 0 0 0 0 0 -0 -0 -0 
-0 0 0 0 0 0 0 0 0 
0 0 0 0 0 0 0 0 0 
0 0 0 0 0 0 0 0 0 
0 -0 -0 -0 -0 -0 -0 -0 -0 
-0 -0 -0 0 0 0 0 0 0 
0 0 0 0 0 0 0 0 0 
0 0 -0 -0 -0 0 0 0 0 
0 0 0 0 0 0 0 0 0 
0 0 0 0 0 0 0 0 -0 
-0 -0 -0 -0 -0 -0 -0 -0 0 
0 0 0 0 0 0 0 0 0 
0 0 0 0 0 0 -0 -0 -0 
-0 -0 0 0 0 0 0 0 0 
0 0 0 0 0 0 0 0 0 
0 0 0 0 0 0 0 -0 -0 
-0 -0 -0 -0 -0 0 0 0 0 
0 0 0 0 0 0 0 -0 -0 
-0 -0 -0 0 0 0 0 0 0 
0 0 0 0 0 0 0 0 -0 
-0 -0 -0 -0 -0 0 0 0 0 
0 0 0 0 0 0 0 0 0 
0 0 0 0 -0 -0 -0 -0 0 
0 0 0 0 0 0 0 -0 0 
0 0 0 0 0 0 0 0 0 
0 0 0 0 0 0 0 0 2425090.7877 
1811348.4274 10109232.125 13860905.849 -0 -0 -0 -0 -0 0 
0 0 0 0 0 0 0 14098022.282 5658339.4096 
1379389.7342 0 0 0 0 0 0 -0 -0 
-0 0 0 0 0 0 0 0 0 
0 0 0 0 7065212.5926 7227305.9625 18416946.562 2927766.1237 -0 
-0 -0 0 0 0 0 0 0 0 
0 0 0 -0 -0 -0 -0 0 0 
0 0 0 0 0 -0 0 0 0 
0 0 0 0 0 -0 -0 -0 -0 
0 0 0 0 0 0 0 0 0 
0 0 0 0 0 -0 -0 -0 -0 
-0 -0 0 0 0 0 0 0 0 
0 0 0 0 0 0 0 0 0 
0 0 0 0 0 0 0 0 0 
0 0 0 0 0 0 0 0 0 
0 0 0 0 0 0 0 0 0 
0 0 0 0 0 0 0 0 0 
0 0 0 0 0 0 0 0 0 
0 0 -0 -0 -0 -0 -0 -0 -0 
-0 -0 -0 -0 -0 -0 -0 -0 -0 
-0 -0 -0 -0 -0 -0 -0 -0 -0 
0 0 0 0 0 0 0 0 0 
0 0 0 0 0 0 0 0 0 
0 0 0 0 0 0 0 0 0 
-0 -0 0 0 0 0 0 0 0 
0 0 0 0 0 0 0 0 0 
0 0 0 0 0 0 0 0 0 
0 0 0 0 0 0 0 0 0 
0 0 0 0 0 0 0 0 0 
0 0 0 0 0 0 0 0 0 
0 0 0 0 0 0 0 0 0 
0 0 0 0 0 0 0 0 0 
0 0 0 0 0 0 0 0 513158.48125 
225042.51364 4462351.4587 995952.76151 4161176.3072 3189898.7457 248942.26412 6288862.9578 1277430.4744 2924178.627 
246146.56762 13412110.495 1397171.0127 3779179.7329 7989965.7141 253394.37205 4868156.9796 826821.99501 6010594.5103 
2451307.1645 2758971.8752 128596.9935 1139388.793 673216.58312 534137.47916 2819343.8494 4099927.7724 2962284.7376 
374891.08103 475399.02426 1364442.9515 7020114.1244 6905867.3881 471013.74508 10611617.777 5177487.6197 3470886.2376 
515184.78172 433625.83397 1496039.4835 0 1583224.6825 174672.45551 0 0 0 
-0 -0 -0 -0 -0 -0 -0 -0 -0 
-0 -0 -0 -0 -0 -0 -0 -0 -0 
-0 -0 -0 -0 -0 -0 -0 -0 0 
0 0 0 0 0 0 0 0 0 
0 0 0 0 0 0 0 0 0 
0 0 0 0 0 0 0 0 0 
0 0 0 0 0 0 0 0 0 
0 0 0 0 0 0 0 0 0 
0 0 0 0 0 0 0 0 0 
0 0 0 0 0 0 0 0 0 
0 0 0 0 0 0 0 0 0 
0 0 0 0 0 0 0 0 0 
0 0 0 0 0 0 0 0 0 
0 0 0 0 0 0 0 0 0 
0 0 0 0 0 0 0 0 0 
0 0 0 0 0 0 0 0 0 
0 0 0 0 0 0 0 0 0 
0 0 0 0 0 0 0 0 0 
0 0 0 0 0 0 0 0 0 
0 0 0 0 0 0 0 0 0 
0 0 0 0 0 0 0 0 0 
0 0 0 0 0 0 0 0 0 
0 0 0 0 0 0 0 0 0 
0 0 0 0 0 0 0 0 0 
0 0 0 0 0 0 0 0 0 
0 0 0 0 0 0 0 0 0 
0 0 0 0 0 0 0 0 0 
0 0 0 0 0 0 0 0 0 
0 0 0 0 0 0 0 0 0 
0 0 0 0 0 0 0 0 0 
0 -0 0 0 0 0 -0 0 0 
565239.3236 6609.848965 10837641.341 0 -0 -0 -0 -0 -0 
0 0 0 0 0 0 5802371.4244 236729566.62 34998385.987 
33948334.219 0 24713223.014 36311018.848 25662758.432 48226758.741 40802213.244 24859483.961 0 
0 17435957.674 169621952.28 105985203.8 264444698.22 265020661.55 108271566.79 36861470.713 6566023.3704 
515522.24112 29631931.874 24949266.646 76312510 121181239.12 34208672.49 2864522.9859 195195136.24 89029311.149 
197846571.54 93725839.937 111405853.07 108024557.53 41617272.255 14228245.51 0 0 24473515.789 
26960973.454 0 0 0 0 0 0 0 0 
0 0 0 0 0 0 0 -0 -0 
-0 -0 -0 -0 -0 -0 -0 -0 -0 
-0 -0 -0 -0 0 12343360.099 1250495.6242 14168979.942 0 
0 -0 -0 0 15935084.452 25440952.365 0 -0 0 
0 0 0 0 0 0 0 0 0 
0 0 0 0 0 0 0 0 0 
0 0 0 0 0 0 0 0 0 
0 0 0 0 0 0 0 0 0 
0 0 0 0 0 0 0 0 0 
0 0 0 0 0 0 0 0 0 
0 0 0 0 0 0 0 0 0 
0 0 0 0 0 0 0 0 0 
0 0 0 0 0 0 0 0 0 
0 0 0 0 0 0 0 0 0 
0 0 0 0 0 0 0 0 0 
0 0 0 0 0 0 0 0 0 
0 0 0 0 0 0 0 0 0 
0 0 0 0 0 0 0 0 0 
0 0 0 0 0 0 0 0 0 
0 0 0 0 0 0 0 0 0 
0 0 0 0 0 0 0 0 0 
0 0 0 0 0 0 0 0 0 
0 0 0 0 0 0 0 0 0 
0 0 0 0 0 0 0 0 0 
0 0 0 0 0 0 0 0 0 
0 0 0 0 0 0 0 0 0 
0 0 0 0 0 0 0 0 0 
0 0 0 0 0 0 0 0 0 
0 0 0 0 0 0 0 0 0 
0 0 0 0 0 0 0 0 0 
0 0 0 0 0 0 0 0 0 
0 0 0 0 0 0 0 0 0 
0 0 0 0 0 0 0 0 0 
0 0 0 0 0 0 0 0 0 
0 0 0 0 0 0 0 0 0 
0 0 0 0 0 0 0 0 0 
0 0 0 0 0 0 0 0 0 
0 0 0 0 0 0 0 0 0 
0 0 0 0 0 0 0 0 0 
0 0 0 0 0 0 0 0 0 
0 0 0 0 0 0 0 0 0 
0 0 0 0 0 0 0 0 0 
0 0 0 0 0 0 0 0 0 
0 0 0 0 0 0 0 0 0 
0 0 0 0 0 0 0 0 0 
0 0 0 0 0 0 0 0 0 
0 0 0 0 0 0 0 0 0 
0 0 0 0 0 0 0 0 0 
0 0 0 0 0 0 0 0 0 
0 0 0 0 0 0 0 0 0 
0 0 0 0 0 0 0 0 0 
0 0 0 0 0 0 0 0 0 
0 0 0 0 0 0 0 0 0 
0 0 0 0 0 0 0 0 0 
0 0 0 0 0 0 0 0 0 
0 0 0 0 0 0 0 0 0 
0 0 0 0 0 0 0 0 0 
0 0 0 0 0 0 0 0 0 
0 0 0 0 0 0 0 0 0 
0 0 0 0 0 0 0 0 0 
0 0 0 0 0 0 0 0 0 
0 0 0 0 0 0 0 0 0 
0 0 0 0 0 0 0 0 0 
0 0 0 0 0 0 0 0 0 
0 0 0 0 0 0 0 0 0 
0 0 0 0 0 0 0 0 0 
0 0 0 0 0 0 0 0 0 
0 0 0 0 0 0 0 0 0 
0 0 0 0 0 0 0 0 0 
0 0 0 0 0 0 0 0 0 
0 0 0 0 0 0 0 0 0 
0 0 0 0 0 0 0 0 0 
0 0 0 0 0 0 0 0 0 
0 0 0 0 0 0 0 0 0 
0 0 0 0 0 0 0 0 0 
0 0 0 0 0 0 0 0 0 
0 0 0 0 0 0 0 0 0 
0 0 0 0 0 0 0 0 0 
0 0 0 0 0 0 0 0 0 
0 0 0 0 0 0 0 0 0 
0 0 0 0 0 0 0 0 0 
0 0 0 0 0 0 0 0 0 
0 0 0 0 0 0 0 0 0 
0 0 0 0 0 0 0 0 0 
0 0 0 0 0 0 0 0 0 
0 0 0 0 0 0 0 0 0 
0 0 0 0 0 0 0 0 0 
0 0 0 0 0 0 0 0 0 
0 0 0 0 0 0 0 0 0 
0 0 0 0 0 0 0 0 0 
0 0 0 0 0 0 0 0 0 
0 0 0 0 0 0 0 0 0 
0 0 0 0 0 0 0 0 0 
0 0 0 0 0 0 0 0 0 
0 0 0 0 0 0 0 0 0 
0 0 0 0 0 0 0 0 0 
0 0 0 0 0 0 0 0 0 
0 0 0 0 0 0 0 0 0 
0 0 0 0 0 0 0 0 0 
0 0 0 0 0 0 0 0 0 
0 0 0 0 0 0 0 0 0 
0 0 0 0 0 0 0 0 0 
0 0 0 0 0 0 0 0 0 
0 0 0 0 0 0 0 0 0 
0 -0 -0 -0 -0 -0 -0 -0 0 
0 0 0 0 0 0 0 0 0 
0 0 0 0 0 0 0 0 0 
0 0 0 0 0 0 0 0 0 
0 0 0 0 0 0 0 0 0 
0 0 -0 0 0 0 0 0 0 
0 0 0 0 0 0 0 0 0 
0 0 0 0 0 0 0 0 0 
0 0 0 0 0 0 0 0 0 
0 0 0 0 0 0 0 -0 -0 
-0 -0 -0 -0 -0 -0 -0 -0 -0 
-0 -0 -0 -0 -0 -0 -0 -0 -0 
-0 -0 -0 -0 -0 -0 -0 -0 -0 
-0 -0 0 0 0 0 0 0 0 
0 0 0 0 0 0 0 0 0 
0 0 0 0 0 0 0 0 0 
0 0 0 0 0 0 0 0 0 
0 0 0 0 0 0 0 0 0 
0 0 0 0 0 0 0 0 0 
0 0 0 0 0 0 0 0 0 
0 0 0 0 0 0 0 0 0 
0 0 0 0 0 0 0 0 0 
0 0 0 0 0 0 0 0 0 
0 0 0 0 0 0 0 0 0 
0 0 0 0 0 0 0 0 0 
0 0 0 0 0 0 0 0 0 
0 0 0 0 0 0 0 0 0 
0 0 0 -0 -0 -0 -0 -0 -0 
-0 -0 -0 -0 -0 -0 -0 -0 -0 
-0 -0 -0 -0 -0 -0 -0 0 0 
0 0 0 0 0 0 0 0 0 
0 0 0 0 0 0 0 0 0 
0 0 0 0 0 0 0 0 0 
0 0 0 0 -0 -0 -0 0 0 
0 0 0 0 0 0 0 0 0 
0 0 0 0 0 0 0 0 0 
0 0 0 0 0 0 0 0 0 
0 0 0 0 0 0 0 0 0 
0 0 0 -0 -0 -0 -0 -0 -0 
-0 -0 0 0 0 0 0 0 0 
0 0 0 0 0 0 0 0 0 
0 0 0 0 0 0 0 0 0 
0 0 0 0 0 0 0 0 0 
0 0 0 0 0 0 0 0 0 
0 0 0 0 0 0 0 0 0 
0 0 0 0 0 0 0 0 0 
0 0 0 0 0 0 0 0 0 
0 0 0 0 0 0 0 0 0 
0 0 0 0 0 0 0 0 0 
0 0 0 0 0 0 0 0 0 
0 0 0 0 0 0 0 0 0 
0 0 0 0 0 0 0 0 0 
0 0 0 0 0 0 0 0 0 
0 0 0 0 0 0 0 0 0 
0 0 0 0 0 0 0 0 0 
0 0 0 0 0 0 0 0 0 
0 0 0 0 0 0 0 0 0 
0 0 0 0 0 0 0 0 0 
0 0 0 0 0 0 0 0 0 
0 0 0 0 0 0 0 0 0 
0 0 0 0 0 0 0 0 0 
0 0 0 0 0 0 0 0 0 
0 0 0 0 0 0 0 0 0 
0 0 0 0 0 0 0 0 0 
0 0 0 0 0 0 0 0 0 
0 0 0 0 0 0 0 0 0 
0 0 0 0 0 0 0 0 0 
0 0 0 0 0 0 0 0 0 
0 0 0 0 0 0 0 0 0 
0 0 0 0 0 0 0 0 0 
0 0 0 0 0 0 0 0 0 
0 0 0 0 0 0 0 0 0 
0 0 0 0 0 0 0 0 0 
0 0 0 0 0 0 0 0 0 
0 0 0 0 0 0 0 0 0 
0 0 0 0 0 0 0 0 0 
0 0 0 0 0 0 0 0 0 
0 0 0 0 0 0 0 0 0 
0 0 0 0 0 0 0 0 0 
0 0 0 0 0 0 0 0 0 
0 0 0 0 0 0 0 0 0 
0 0 0 0 0 0 0 0 0 
0 0 0 0 0 0 0 0 0 
0 0 0 0 0 0 0 0 0 
0 0 0 0 0 0 0 0 0 
0 0 0 0 0 0 0 0 0 
0 0 0 0 0 0 0 0 0 
0 0 0 0 0 0 0 0 0 
0 0 0 0 0 0 0 0 0 
0 0 0 0 0 0 0 0 0 
0 0 0 0 0 0 0 0 0 
0 0 0 0 0 0 0 0 0 
0 0 0 0 0 0 0 0 0 
0 0 0 0 0 0 0 0 0 
0 0 0 0 0 0 0 0 0 
0 0 0 0 0 0 0 0 0 
0 0 0 0 0 0 0 0 0 
0 0 0 0 0 0 0 0 0 
0 0 0 0 0 0 0 0 0 
0 0 0 0 0 0 0 0 0 
0 0 0 0 0 0 0 0 0 
0 0 0 -0 -0 -0 -0 -0 -0 
-0 -0 -0 -0 -0 -0 -0 -0 -0 
-0 -0 -0 -0 -0 -0 -0 -0 -0 
-0 -0 -0 -0 -0 -0 -0 -0 -0 
-0 -0 -0 -0 -0 -0 -0 -0 -0 
-0 -0 -0 -0 -0 -0 -0 -0 0 
0 0 0 0 0 0 0 0 0 
0 0 0 0 0 0 0 0 0 
0 0 0 0 0 0 0 0 0 
0 0 0 0 0 0 0 0 0 
0 0 0 0 0 0 0 0 0 
0 0 0 0 0 0 0 0 0 
0 0 0 0 0 0 0 0 0 
0 0 -0 -0 -0 -0 -0 -0 -0 
-0 -0 -0 -0 -0 -0 -0 -0 -0 
0 0 0 0 0 0 0 0 0 
0 0 0 0 0 0 0 0 0 
0 0 0 0 0 0 0 0 0 
0 0 0 0 0 0 0 0 0 
0 0 0 0 0 0 0 0 0 
0 0 0 0 0 0 0 0 0 
0 0 0 0 0 0 0 0 0 
0 0 0 0 0 0 0 0 0 
0 0 0 0 0 0 0 0 0 
0 0 0 0 0 0 0 0 0 
0 0 0 0 0 0 0 0 0 
0 0 0 0 0 0 0 0 0 
0 0 0 0 0 0 0 0 0 
0 0 0 0 0 0 0 0 0 
0 0 
shear_stress_average 1 5744 double
0 0 0 0 0 0 0 0 0 
0 0 0 0 0 0 0 0 0 
0 0 0 0 0 0 0 0 0 
0 0 0 0 0 0 0 0 0 
0 0 0 0 0 0 0 0 0 
0 0 0 0 0 0 0 0 0 
0 0 0 0 0 0 0 0 0 
0 0 0 0 0 0 0 0 0 
0 0 0 0 0 0 0 0 0 
0 0 0 0 0 0 0 0 0 
0 0 0 0 0 0 0 0 0 
0 0 0 0 0 0 0 0 0 
0 0 0 0 0 0 0 0 0 
0 0 0 0 0 0 0 0 0 
0 0 0 0 0 0 0 0 0 
0 0 0 0 0 0 0 0 0 
0 0 0 0 0 0 0 0 0 
0 0 0 0 0 0 0 0 0 
0 0 0 0 0 0 0 0 0 
0 0 0 0 0 0 0 0 0 
0 0 0 0 0 0 0 0 0 
0 0 0 0 0 0 0 0 0 
0 0 0 0 0 0 0 0 0 
0 0 0 0 0 0 0 0 0 
0 0 0 0 0 0 0 0 0 
0 0 0 0 0 0 0 0 0 
0 0 0 0 0 0 0 0 0 
0 0 0 0 0 0 0 0 0 
0 0 0 0 0 0 0 0 0 
0 0 0 0 0 0 0 0 0 
0 0 0 0 0 0 0 0 0 
0 0 0 0 0 0 0 0 0 
0 0 0 0 0 0 0 0 0 
0 0 0 0 0 0 0 0 0 
0 0 0 0 0 0 0 0 0 
0 0 0 0 0 0 0 0 0 
0 0 0 0 0 0 0 0 0 
0 0 0 0 0 0 0 0 0 
0 0 0 0 0 0 0 0 0 
0 0 0 0 0 0 0 0 0 
0 0 0 0 0 0 0 0 0 
0 0 0 0 0 0 0 0 0 
0 0 0 0 0 0 0 0 0 
0 0 0 0 0 0 0 0 0 
0 0 0 0 0 0 0 0 0 
0 0 0 0 0 0 0 0 0 
0 0 0 0 0 0 0 0 0 
0 0 0 0 0 0 0 0 0 
0 0 0 0 0 0 0 0 0 
0 0 0 0 0 0 0 0 0 
0 0 0 0 0 0 0 0 0 
0 0 0 0 0 0 0 0 0 
0 0 0 0 0 0 0 0 0 
0 0 0 0 0 0 0 0 0 
0 0 0 0 0 0 0 0 0 
0 0 0 0 0 0 0 0 0 
0 0 0 0 0 0 0 0 0 
0 0 0 0 0 0 0 0 0 
0 0 0 0 0 0 0 0 0 
0 0 0 0 0 0 0 0 0 
0 0 0 0 0 0 0 0 0 
0 0 0 0 0 0 0 0 0 
0 0 0 0 0 0 0 0 0 
0 0 0 0 0 0 0 0 0 
0 0 0 0 0 0 0 0 0 
0 0 0 0 0 0 0 0 0 
0 0 0 0 0 0 0 0 0 
0 0 0 0 0 0 0 0 0 
0 0 0 0 0 0 0 0 0 
0 0 0 0 0 0 0 0 0 
0 0 0 0 0 0 0 0 0 
0 0 0 0 0 0 0 0 0 
0 0 0 0 0 0 0 0 0 
0 0 0 0 0 0 0 0 0 
0 0 0 0 0 0 0 0 0 
0 0 0 0 0 0 0 0 0 
0 0 0 0 0 0 0 0 0 
0 0 0 0 0 0 0 0 0 
0 0 0 0 0 0 0 0 0 
0 0 0 0 0 0 0 0 0 
0 0 0 0 0 0 0 0 0 
0 0 0 0 0 0 0 0 0 
0 0 0 0 0 0 0 0 0 
0 0 0 0 0 0 0 0 0 
0 0 0 0 0 0 0 0 0 
0 0 0 0 0 0 0 0 0 
0 0 0 0 0 0 0 0 0 
0 0 0 0 0 0 0 0 0 
0 0 0 0 0 0 0 0 0 
0 0 0 0 0 0 0 0 0 
0 0 0 0 0 0 0 0 0 
0 0 0 0 0 0 0 0 0 
0 0 0 0 0 0 0 0 0 
0 0 0 0 0 0 0 0 0 
0 0 0 0 0 0 0 0 0 
0 0 0 0 0 0 0 0 0 
0 0 0 0 0 0 0 0 0 
0 0 0 0 0 0 0 0 0 
0 0 0 0 0 0 0 0 0 
0 0 0 0 0 0 0 0 0 
0 0 0 0 0 0 0 0 0 
0 0 0 0 0 0 0 0 0 
0 0 0 0 0 0 0 0 0 
0 0 0 0 0 0 0 0 0 
0 0 0 0 0 0 0 0 0 
0 0 0 0 0 0 0 0 0 
0 0 0 0 0 0 0 0 0 
0 0 0 0 0 0 0 0 0 
0 0 0 0 0 0 0 0 0 
0 0 0 0 0 0 0 0 0 
0 0 0 0 0 0 0 0 0 
0 0 0 0 0 0 0 0 0 
0 0 0 0 0 0 0 0 0 
0 0 0 0 0 0 0 0 0 
0 0 0 0 0 0 0 0 0 
0 0 0 0 0 0 0 0 0 
0 0 0 0 0 0 0 0 0 
0 0 0 0 0 0 0 0 0 
0 0 0 0 0 0 0 0 0 
0 0 0 0 0 0 0 0 0 
0 0 0 0 0 0 0 0 0 
0 0 0 0 0 0 0 0 0 
0 0 0 0 0 0 0 0 0 
0 0 0 0 0 0 0 0 0 
0 0 0 0 0 0 0 0 0 
0 0 0 0 0 0 0 0 0 
0 0 0 0 0 0 0 0 0 
0 0 0 0 0 0 0 0 0 
0 0 0 0 0 0 0 0 0 
0 0 0 0 0 0 0 0 0 
0 0 0 0 0 0 0 0 0 
0 0 0 0 0 0 0 0 0 
0 0 0 0 0 0 0 0 0 
0 0 0 0 0 0 0 0 0 
0 0 0 0 0 0 0 0 0 
0 0 0 0 0 0 0 0 0 
0 0 0 0 0 0 0 0 0 
0 0 0 0 0 0 0 0 0 
0 0 0 0 0 0 0 0 0 
0 0 0 0 0 0 0 0 0 
0 0 0 0 0 0 0 0 0 
0 0 0 0 0 0 0 0 0 
0 0 0 0 0 0 0 0 0 
0 0 0 0 0 0 0 0 0 
0 0 0 0 0 0 0 0 0 
0 0 0 0 0 0 0 0 0 
0 0 0 0 0 0 0 0 0 
0 0 0 0 0 0 0 0 0 
0 0 0 0 0 0 0 0 0 
0 0 0 0 0 0 0 0 0 
0 0 0 0 0 0 0 0 0 
0 0 0 0 0 0 0 0 0 
0 0 0 0 0 0 0 0 0 
0 0 0 0 0 0 0 0 0 
0 0 0 0 0 0 0 0 0 
0 0 0 0 0 0 0 0 0 
0 0 0 0 0 0 0 0 0 
0 0 0 0 0 0 0 0 0 
0 0 0 0 0 0 0 0 0 
0 0 0 0 0 0 0 0 0 
0 0 0 0 0 0 0 0 0 
0 0 0 0 0 0 0 0 0 
0 0 0 0 0 0 0 0 0 
0 0 0 0 0 0 0 0 0 
0 0 0 0 0 0 0 0 0 
0 0 0 0 0 0 0 0 0 
0 0 0 0 0 0 0 0 0 
0 0 0 0 0 0 0 0 0 
0 0 0 0 0 0 0 0 0 
0 0 0 0 0 0 0 0 0 
0 0 0 0 0 0 0 0 0 
0 0 0 0 0 0 0 0 0 
0 0 9188594.698 13883949.961 0 0 0 0 0 
0 0 0 0 0 0 0 0 0 
0 4113311.9712 0 0 0 0 0 0 0 
0 0 26967106.035 9040147.4263 9413536.0066 0 0 0 0 
0 0 0 0 0 0 0 0 0 
0 0 0 9242892.9325 13995348.498 0 0 0 0 
0 0 0 0 0 0 0 0 0 
0 0 0 0 0 0 0 0 0 
0 0 0 0 0 0 0 0 0 
0 0 0 0 0 0 0 0 0 
0 0 0 0 0 0 0 0 0 
0 0 0 0 0 0 0 0 0 
0 0 0 0 0 0 0 0 0 
0 0 0 0 0 0 0 0 0 
0 0 0 0 0 0 0 0 0 
0 0 0 0 0 0 0 0 0 
0 0 0 0 0 0 0 0 0 
0 0 0 0 0 0 0 0 0 
0 0 0 0 0 0 0 0 0 
0 0 0 0 0 0 0 0 0 
0 0 0 0 0 0 0 0 0 
0 0 0 0 0 0 0 0 0 
0 0 0 0 0 0 0 0 0 
0 0 0 0 0 0 0 0 0 
0 0 0 0 0 0 0 0 0 
0 0 0 0 0 0 0 0 0 
0 0 0 0 0 0 0 0 0 
0 0 0 0 0 0 0 0 0 
0 0 0 0 0 0 0 0 0 
0 0 0 0 0 0 0 0 0 
0 0 0 0 0 0 0 0 0 
0 0 0 0 0 0 0 0 0 
0 0 0 0 0 0 0 0 0 
0 0 0 0 0 0 0 0 0 
0 0 0 0 0 0 0 0 0 
0 0 0 0 0 0 0 0 0 
0 0 0 0 0 0 0 0 0 
0 0 0 0 0 0 0 0 0 
0 0 0 0 0 0 0 0 0 
0 0 0 0 0 0 0 0 0 
0 0 0 0 0 0 0 0 0 
0 0 0 0 0 0 0 0 0 
0 0 0 0 0 0 0 0 0 
0 0 0 0 0 0 0 0 0 
0 0 0 0 0 0 0 0 0 
0 0 0 0 0 0 0 0 0 
0 0 0 0 0 0 0 0 0 
0 0 0 0 0 0 0 0 0 
0 0 0 0 0 0 0 0 0 
0 0 0 0 0 0 0 0 0 
0 0 0 0 0 0 0 0 0 
0 0 0 0 0 0 0 0 0 
0 0 0 0 0 0 0 0 0 
0 0 0 0 0 0 0 0 0 
0 0 0 0 0 0 0 0 0 
0 0 0 0 0 0 0 0 0 
0 0 0 0 0 0 0 0 0 
0 0 0 0 0 0 0 0 0 
0 0 0 0 0 0 0 0 0 
0 0 0 0 0 0 0 0 0 
0 0 0 0 0 0 0 0 0 
0 0 0 0 0 0 0 0 0 
0 0 0 0 0 0 0 0 0 
0 0 0 0 0 0 0 0 0 
0 0 0 0 0 0 0 0 0 
0 0 0 0 0 0 0 0 0 
0 0 0 0 0 0 0 0 0 
0 0 0 0 0 0 0 0 0 
0 0 0 0 0 0 0 0 0 
0 0 0 0 0 0 0 0 0 
0 0 0 0 0 0 0 0 0 
0 0 0 0 0 0 0 0 0 
0 0 0 0 0 0 0 0 0 
0 0 0 0 0 0 0 0 0 
0 0 0 0 0 0 0 0 0 
0 0 0 0 0 0 0 0 0 
0 0 0 0 0 0 0 0 0 
0 0 0 0 0 0 0 0 0 
0 0 0 0 0 0 0 0 0 
0 0 0 0 0 0 0 0 0 
0 0 0 0 0 0 0 0 0 
0 0 0 0 0 0 0 0 0 
0 0 0 0 0 0 0 0 0 
0 0 0 0 0 0 0 0 0 
0 0 0 0 0 0 0 0 0 
0 0 0 0 0 0 0 0 0 
0 0 0 0 0 0 0 0 0 
0 0 0 0 0 0 0 0 0 
0 0 0 0 0 0 0 0 0 
0 0 0 0 0 0 0 0 0 
0 0 0 0 0 0 0 0 0 
0 0 0 0 0 0 0 0 0 
0 0 0 0 0 0 0 0 0 
0 0 0 0 0 0 0 0 0 
0 0 0 0 0 0 0 0 0 
0 0 0 0 0 0 0 0 0 
0 0 0 0 0 0 0 0 0 
0 0 0 0 0 0 0 0 0 
0 0 0 0 0 0 0 0 0 
0 0 0 0 0 0 0 0 0 
0 0 0 0 0 0 0 0 0 
0 0 0 0 0 0 0 0 0 
0 0 0 0 0 0 0 0 0 
0 0 0 0 0 0 0 0 0 
0 0 0 0 0 0 0 0 0 
0 0 0 0 0 0 0 0 0 
0 0 0 0 0 0 0 0 0 
0 0 0 0 0 0 0 0 0 
0 0 0 0 0 0 0 0 0 
0 0 0 0 0 0 0 0 0 
0 0 0 0 0 0 0 0 0 
0 0 0 0 0 0 0 0 0 
0 0 0 0 0 0 0 0 0 
0 0 0 0 0 0 0 0 0 
0 0 0 0 0 0 0 0 0 
0 0 0 0 0 0 0 0 0 
0 0 0 0 0 0 0 0 0 
0 0 0 0 0 0 0 0 0 
0 0 0 0 0 0 0 0 0 
0 0 0 0 0 0 0 0 0 
0 0 0 0 0 0 0 0 0 
0 0 0 0 0 0 0 0 0 
0 0 0 0 0 0 0 0 0 
0 0 0 0 0 0 0 0 0 
0 0 0 0 0 0 0 0 0 
0 0 0 0 0 0 0 0 0 
0 0 0 0 0 0 0 0 0 
0 0 0 0 0 0 0 0 0 
0 0 0 0 0 0 0 0 0 
0 0 0 0 0 0 0 0 0 
0 0 0 0 0 0 0 0 0 
0 0 0 0 0 0 0 0 0 
0 0 0 0 0 0 0 0 0 
0 0 0 0 0 0 0 0 0 
0 0 0 0 0 0 0 0 0 
0 0 0 0 0 0 0 0 0 
0 0 0 0 0 0 0 0 0 
0 0 0 0 0 0 0 0 0 
0 0 0 0 0 0 0 0 0 
0 0 0 0 0 0 0 0 0 
0 0 0 0 0 0 0 0 0 
0 0 0 0 0 0 0 0 0 
0 0 0 0 0 0 0 0 0 
0 0 0 0 0 0 0 0 0 
0 0 0 0 0 0 0 0 0 
0 0 0 0 0 0 0 0 0 
0 0 0 0 0 0 0 0 0 
0 0 0 0 0 0 0 0 0 
0 0 0 0 0 0 0 0 0 
0 0 0 0 0 0 0 0 0 
0 0 0 0 0 0 0 0 0 
0 0 0 0 0 0 0 0 0 
0 0 0 0 0 0 0 0 0 
0 0 0 0 0 0 0 0 0 
0 0 0 0 0 0 0 0 0 
0 0 0 0 0 0 0 0 1212545.3939 
8338312.3107 15313082.871 13981460.002 0 0 0 0 0 0 
0 0 0 0 0 0 0 14712032.834 31974699.907 
21345171.98 0 0 0 0 0 0 0 0 
0 0 0 0 0 0 0 0 0 
0 0 0 0 11974059.569 26942689.243 16811673.128 7551747.3344 0 
0 0 0 0 0 0 0 0 0 
0 0 0 0 0 0 0 0 0 
0 0 0 0 0 0 0 0 0 
0 0 0 0 0 0 0 0 0 
0 0 0 0 0 0 0 0 0 
0 0 0 0 0 0 0 0 0 
0 0 0 0 0 0 0 0 0 
0 0 0 0 0 0 0 0 0 
0 0 0 0 0 0 0 0 0 
0 0 0 0 0 0 0 0 0 
0 0 0 0 0 0 0 0 0 
0 0 0 0 0 0 0 0 0 
0 0 0 0 0 0 0 0 0 
0 0 0 0 0 0 0 0 0 
0 0 0 0 0 0 0 0 0 
0 0 0 0 0 0 0 0 0 
0 0 0 0 0 0 0 0 0 
0 0 0 0 0 0 0 0 0 
0 0 0 0 0 0 0 0 0 
0 0 0 0 0 0 0 0 0 
0 0 0 0 0 0 0 0 0 
0 0 0 0 0 0 0 0 0 
0 0 0 0 0 0 0 0 0 
0 0 0 0 0 0 0 0 0 
0 0 0 0 0 0 0 0 0 
0 0 0 0 0 0 0 0 0 
0 0 0 0 0 0 0 0 0 
0 0 0 0 0 0 0 0 256579.24063 
445702.8614 2230254.2664 3203055.0587 7960422.7722 2687172.5387 1383430.7017 7866261.7062 4265940.7133 2446478.0203 
1692626.1178 8072353.666 3127039.4109 6115460.9132 15404183.94 5979030.9021 13849097.402 6529612.4716 6588798.7399 
8212870.5893 3306503.1579 19691302.247 7007497.903 15422704.052 5724674.09 8755658.2476 6291387.8038 13533282.65 
6876666.3347 2674847.3112 4738529.8984 7492301.7544 6074336.712 4077757.5012 10907638.472 2588641.195 7942270.3451 
4712979.8859 216811.67072 2504861.8481 0 1703930.6801 91773.952424 0 0 0 
0 0 0 0 0 0 0 0 0 
0 0 0 0 0 0 0 0 0 
0 0 0 0 0 0 0 0 0 
0 0 0 0 0 0 0 0 0 
0 0 0 0 0 0 0 0 0 
0 0 0 0 0 0 0 0 0 
0 0 0 0 0 0 0 0 0 
0 0 0 0 0 0 0 0 0 
0 0 0 0 0 0 0 0 0 
0 0 0 0 0 0 0 0 0 
0 0 0 0 0 0 0 0 0 
0 0 0 0 0 0 0 0 0 
0 0 0 0 0 0 0 0 0 
0 0 0 0 0 0 0 0 0 
0 0 0 0 0 0 0 0 0 
0 0 0 0 0 0 0 0 0 
0 0 0 0 0 0 0 0 0 
0 0 0 0 0 0 0 0 0 
0 0 0 0 0 0 0 0 0 
0 0 0 0 0 0 0 0 0 
0 0 0 0 0 0 0 0 0 
0 0 0 0 0 0 0 0 0 
0 0 0 0 0 0 0 0 0 
0 0 0 0 0 0 0 0 0 
0 0 0 0 0 0 0 0 0 
0 0 0 0 0 0 0 0 0 
0 0 0 0 0 0 0 0 0 
0 0 0 0 0 0 0 0 0 
0 0 0 0 0 0 0 0 0 
0 0 0 0 0 0 0 0 0 
0 0 0 0 0 0 0 0 0 
282619.6618 3304.9244825 5418820.6705 0 0 0 0 0 0 
0 0 0 0 0 0 1066958.8484 118364783.31 17499192.994 
16974167.11 0 12356611.507 18155485.516 6640677.5853 22381063.845 20286860.152 12429741.981 0 
0 8585880.612 79985567.847 51873302.794 166753407.65 134561466.2 191508182.57 94842449.169 75300505.964 
48516097.515 29904985.268 37059256.947 125827663.71 60997070.206 17104336.245 52352031.699 136402373.99 177207210.14 
153276058.37 48024910.894 81569405.646 182324633.83 130293422.83 60346290.466 0 0 12236757.894 
13661886.195 0 0 0 0 0 0 0 0 
0 0 0 0 0 0 0 0 0 
0 0 0 0 0 0 0 0 0 
0 0 0 0 0 13669281.903 31348304.347 25511422.022 0 
0 0 0 0 7967542.2261 19710819.787 0 0 0 
0 0 0 0 0 0 0 0 0 
0 0 0 0 0 0 0 0 0 
0 0 0 0 0 0 0 0 0 
0 0 0 0 0 0 0 0 0 
0 0 0 0 0 0 0 0 0 
0 0 0 0 0 0 0 0 0 
0 0 0 0 0 0 0 0 0 
0 0 0 0 0 0 0 0 0 
0 0 0 0 0 0 0 0 0 
0 0 0 0 0 0 0 0 0 
0 0 0 0 0 0 0 0 0 
0 0 0 0 0 0 0 0 0 
0 0 0 0 0 0 0 0 0 
0 0 0 0 0 0 0 0 0 
0 0 0 0 0 0 0 0 0 
0 0 0 0 0 0 0 0 0 
0 0 0 0 0 0 0 0 0 
0 0 0 0 0 0 0 0 0 
0 0 0 0 0 0 0 0 0 
0 0 0 0 0 0 0 0 0 
0 0 0 0 0 0 0 0 0 
0 0 0 0 0 0 0 0 0 
0 0 0 0 0 0 0 0 0 
0 0 0 0 0 0 0 0 0 
0 0 0 0 0 0 0 0 0 
0 0 0 0 0 0 0 0 0 
0 0 0 0 0 0 0 0 0 
0 0 0 0 0 0 0 0 0 
0 0 0 0 0 0 0 0 0 
0 0 0 0 0 0 0 0 0 
0 0 0 0 0 0 0 0 0 
0 0 0 0 0 0 0 0 0 
0 0 0 0 0 0 0 0 0 
0 0 0 0 0 0 0 0 0 
0 0 0 0 0 0 0 0 0 
0 0 0 0 0 0 0 0 0 
0 0 0 0 0 0 0 0 0 
0 0 0 0 0 0 0 0 0 
0 0 0 0 0 0 0 0 0 
0 0 0 0 0 0 0 0 0 
0 0 0 0 0 0 0 0 0 
0 0 0 0 0 0 0 0 0 
0 0 0 0 0 0 0 0 0 
0 0 0 0 0 0 0 0 0 
0 0 0 0 0 0 0 0 0 
0 0 0 0 0 0 0 0 0 
0 0 0 0 0 0 0 0 0 
0 0 0 0 0 0 0 0 0 
0 0 0 0 0 0 0 0 0 
0 0 0 0 0 0 0 0 0 
0 0 0 0 0 0 0 0 0 
0 0 0 0 0 0 0 0 0 
0 0 0 0 0 0 0 0 0 
0 0 0 0 0 0 0 0 0 
0 0 0 0 0 0 0 0 0 
0 0 0 0 0 0 0 0 0 
0 0 0 0 0 0 0 0 0 
0 0 0 0 0 0 0 0 0 
0 0 0 0 0 0 0 0 0 
0 0 0 0 0 0 0 0 0 
0 0 0 0 0 0 0 0 0 
0 0 0 0 0 0 0 0 0 
0 0 0 0 0 0 0 0 0 
0 0 0 0 0 0 0 0 0 
0 0 0 0 0 0 0 0 0 
0 0 0 0 0 0 0 0 0 
0 0 0 0 0 0 0 0 0 
0 0 0 0 0 0 0 0 0 
0 0 0 0 0 0 0 0 0 
0 0 0 0 0 0 0 0 0 
0 0 0 0 0 0 0 0 0 
0 0 0 0 0 0 0 0 0 
0 0 0 0 0 0 0 0 0 
0 0 0 0 0 0 0 0 0 
0 0 0 0 0 0 0 0 0 
0 0 0 0 0 0 0 0 0 
0 0 0 0 0 0 0 0 0 
0 0 0 0 0 0 0 0 0 
0 0 0 0 0 0 0 0 0 
0 0 0 0 0 0 0 0 0 
0 0 0 0 0 0 0 0 0 
0 0 0 0 0 0 0 0 0 
0 0 0 0 0 0 0 0 0 
0 0 0 0 0 0 0 0 0 
0 0 0 0 0 0 0 0 0 
0 0 0 0 0 0 0 0 0 
0 0 0 0 0 0 0 0 0 
0 0 0 0 0 0 0 0 0 
0 0 0 0 0 0 0 0 0 
0 0 0 0 0 0 0 0 0 
0 0 0 0 0 0 0 0 0 
0 0 0 0 0 0 0 0 0 
0 0 0 0 0 0 0 0 0 
0 0 0 0 0 0 0 0 0 
0 0 0 0 0 0 0 0 0 
0 0 0 0 0 0 0 0 0 
0 0 0 0 0 0 0 0 0 
0 0 0 0 0 0 0 0 0 
0 0 0 0 0 0 0 0 0 
0 0 0 0 0 0 0 0 0 
0 0 0 0 0 0 0 0 0 
0 0 0 0 0 0 0 0 0 
0 0 0 0 0 0 0 0 0 
0 0 0 0 0 0 0 0 0 
0 0 0 0 0 0 0 0 0 
0 0 0 0 0 0 0 0 0 
0 0 0 0 0 0 0 0 0 
0 0 0 0 0 0 0 0 0 
0 0 0 0 0 0 0 0 0 
0 0 0 0 0 0 0 0 0 
0 0 0 0 0 0 0 0 0 
0 0 0 0 0 0 0 0 0 
0 0 0 0 0 0 0 0 0 
0 0 0 0 0 0 0 0 0 
0 0 0 0 0 0 0 0 0 
0 0 0 0 0 0 0 0 0 
0 0 0 0 0 0 0 0 0 
0 0 0 0 0 0 0 0 0 
0 0 0 0 0 0 0 0 0 
0 0 0 0 0 0 0 0 0 
0 0 0 0 0 0 0 0 0 
0 0 0 0 0 0 0 0 0 
0 0 0 0 0 0 0 0 0 
0 0 0 0 0 0 0 0 0 
0 0 0 0 0 0 0 0 0 
0 0 0 0 0 0 0 0 0 
0 0 0 0 0 0 0 0 0 
0 0 0 0 0 0 0 0 0 
0 0 0 0 0 0 0 0 0 
0 0 0 0 0 0 0 0 0 
0 0 0 0 0 0 0 0 0 
0 0 0 0 0 0 0 0 0 
0 0 0 0 0 0 0 0 0 
0 0 0 0 0 0 0 0 0 
0 0 0 0 0 0 0 0 0 
0 0 0 0 0 0 0 0 0 
0 0 0 0 0 0 0 0 0 
0 0 0 0 0 0 0 0 0 
0 0 0 0 0 0 0 0 0 
0 0 0 0 0 0 0 0 0 
0 0 0 0 0 0 0 0 0 
0 0 0 0 0 0 0 0 0 
0 0 0 0 0 0 0 0 0 
0 0 0 0 0 0 0 0 0 
0 0 0 0 0 0 0 0 0 
0 0 0 0 0 0 0 0 0 
0 0 0 0 0 0 0 0 0 
0 0 0 0 0 0 0 0 0 
0 0 0 0 0 0 0 0 0 
0 0 0 0 0 0 0 0 0 
0 0 0 0 0 0 0 0 0 
0 0 0 0 0 0 0 0 0 
0 0 0 0 0 0 0 0 0 
0 0 0 0 0 0 0 0 0 
0 0 0 0 0 0 0 0 0 
0 0 0 0 0 0 0 0 0 
0 0 0 0 0 0 0 0 0 
0 0 0 0 0 0 0 0 0 
0 0 0 0 0 0 0 0 0 
0 0 0 0 0 0 0 0 0 
0 0 0 0 0 0 0 0 0 
0 0 0 0 0 0 0 0 0 
0 0 0 0 0 0 0 0 0 
0 0 0 0 0 0 0 0 0 
0 0 0 0 0 0 0 0 0 
0 0 0 0 0 0 0 0 0 
0 0 0 0 0 0 0 0 0 
0 0 0 0 0 0 0 0 0 
0 0 0 0 0 0 0 0 0 
0 0 0 0 0 0 0 0 0 
0 0 0 0 0 0 0 0 0 
0 0 0 0 0 0 0 0 0 
0 0 0 0 0 0 0 0 0 
0 0 0 0 0 0 0 0 0 
0 0 0 0 0 0 0 0 0 
0 0 0 0 0 0 0 0 0 
0 0 0 0 0 0 0 0 0 
0 0 0 0 0 0 0 0 0 
0 0 0 0 0 0 0 0 0 
0 0 0 0 0 0 0 0 0 
0 0 0 0 0 0 0 0 0 
0 0 0 0 0 0 0 0 0 
0 0 0 0 0 0 0 0 0 
0 0 0 0 0 0 0 0 0 
0 0 0 0 0 0 0 0 0 
0 0 0 0 0 0 0 0 0 
0 0 0 0 0 0 0 0 0 
0 0 0 0 0 0 0 0 0 
0 0 0 0 0 0 0 0 0 
0 0 0 0 0 0 0 0 0 
0 0 0 0 0 0 0 0 0 
0 0 0 0 0 0 0 0 0 
0 0 0 0 0 0 0 0 0 
0 0 0 0 0 0 0 0 0 
0 0 0 0 0 0 0 0 0 
0 0 0 0 0 0 0 0 0 
0 0 0 0 0 0 0 0 0 
0 0 0 0 0 0 0 0 0 
0 0 0 0 0 0 0 0 0 
0 0 0 0 0 0 0 0 0 
0 0 0 0 0 0 0 0 0 
0 0 0 0 0 0 0 0 0 
0 0 0 0 0 0 0 0 0 
0 0 0 0 0 0 0 0 0 
0 0 0 0 0 0 0 0 0 
0 0 0 0 0 0 0 0 0 
0 0 0 0 0 0 0 0 0 
0 0 0 0 0 0 0 0 0 
0 0 0 0 0 0 0 0 0 
0 0 0 0 0 0 0 0 0 
0 0 0 0 0 0 0 0 0 
0 0 0 0 0 0 0 0 0 
0 0 0 0 0 0 0 0 0 
0 0 0 0 0 0 0 0 0 
0 0 0 0 0 0 0 0 0 
0 0 0 0 0 0 0 0 0 
0 0 0 0 0 0 0 0 0 
0 0 0 0 0 0 0 0 0 
0 0 0 0 0 0 0 0 0 
0 0 0 0 0 0 0 0 0 
0 0 0 0 0 0 0 0 0 
0 0 0 0 0 0 0 0 0 
0 0 0 0 0 0 0 0 0 
0 0 0 0 0 0 0 0 0 
0 0 0 0 0 0 0 0 0 
0 0 0 0 0 0 0 0 0 
0 0 0 0 0 0 0 0 0 
0 0 0 0 0 0 0 0 0 
0 0 0 0 0 0 0 0 0 
0 0 0 0 0 0 0 0 0 
0 0 
stress 3 5744 double
0 0 0 0 0 0 0 0 0 
0 0 0 0 0 0 0 0 0 
0 0 0 0 0 0 0 0 0 
0 0 0 0 0 0 0 0 0 
0 0 0 0 0 0 0 0 0 
0 0 0 0 0 0 0 0 0 
0 0 0 0 0 0 0 0 0 
0 0 0 0 0 0 0 0 0 
0 0 0 0 0 0 0 0 0 
0 0 0 0 0 0 0 0 0 
0 0 0 0 0 0 0 0 0 
0 0 0 0 0 0 0 0 0 
0 0 0 0 0 0 0 0 0 
0 0 0 0 0 0 0 0 0 
0 0 0 0 0 0 0 0 0 
0 0 0 0 0 0 0 0 0 
0 0 0 0 0 0 0 0 0 
0 0 0 0 0 0 0 0 0 
0 0 0 0 0 0 0 0 0 
0 0 0 0 0 0 0 0 0 
0 0 0 0 0 0 0 0 0 
0 0 0 0 0 0 0 0 0 
0 0 0 0 0 0 0 0 0 
0 0 0 0 0 0 0 0 0 
0 0 0 0 0 0 0 0 0 
0 0 0 0 0 0 0 0 0 
0 0 0 0 0 0 0 0 0 
0 0 0 0 0 0 0 0 0 
0 0 0 0 0 0 0 0 0 
0 0 0 0 0 0 0 0 0 
0 0 0 0 0 0 0 0 0 
0 0 0 0 0 0 0 0 0 
0 0 0 0 0 0 0 0 0 
0 0 0 0 0 0 0 0 0 
0 0 0 0 0 0 0 0 0 
0 0 0 0 0 0 0 0 0 
0 0 0 0 0 0 0 0 0 
0 0 0 0 0 0 0 0 0 
0 0 0 0 0 0 0 0 0 
0 0 0 0 0 0 0 0 0 
0 0 0 0 0 0 0 0 0 
0 0 0 0 0 0 0 0 0 
0 0 0 0 0 0 0 0 0 
0 0 0 0 0 0 0 0 0 
0 0 0 0 0 0 0 0 0 
0 0 0 0 0 0 0 0 0 
0 0 0 0 0 0 0 0 0 
0 0 0 0 0 0 0 0 0 
0 0 0 0 0 0 0 0 0 
0 0 0 0 0 0 0 0 0 
0 0 0 0 0 0 0 0 0 
0 0 0 0 0 0 0 0 0 
0 0 0 0 0 0 0 0 0 
0 0 0 0 0 0 0 0 0 
0 0 0 0 0 0 0 0 0 
0 0 0 0 0 0 0 0 0 
0 0 0 0 0 0 0 0 0 
0 0 0 0 0 0 0 0 0 
0 0 0 0 0 0 0 0 0 
0 0 0 0 0 0 0 0 0 
0 0 0 0 0 0 0 0 0 
0 0 0 0 0 0 0 0 0 
0 0 0 0 0 0 0 0 0 
0 0 0 0 0 0 0 0 0 
0 0 0 0 0 0 0 0 0 
0 0 0 0 0 0 0 0 0 
0 0 0 0 0 0 0 0 0 
0 0 0 0 0 0 0 0 0 
0 0 0 0 0 0 0 0 0 
0 0 0 0 0 0 0 0 0 
0 0 0 0 0 0 0 0 0 
0 0 0 0 0 0 0 0 0 
0 0 0 0 0 0 0 0 0 
0 0 0 0 0 0 0 0 0 
0 0 0 0 0 0 0 0 0 
0 0 0 0 0 0 0 0 0 
0 0 0 0 0 0 0 0 0 
0 0 0 0 0 0 0 0 0 
0 0 0 0 0 0 0 0 0 
0 0 0 0 0 0 0 0 0 
0 0 0 0 0 0 0 0 0 
0 0 0 0 0 0 0 0 0 
0 0 0 0 0 0 0 0 0 
0 0 0 0 0 0 0 0 0 
0 0 0 0 0 0 0 0 0 
0 0 0 0 0 0 0 0 0 
0 0 0 0 0 0 0 0 0 
0 0 0 0 0 0 0 0 0 
0 0 0 0 0 0 0 0 0 
0 0 0 0 0 0 0 0 0 
0 0 0 0 0 0 0 0 0 
0 0 0 0 0 0 0 0 0 
0 0 0 0 0 0 0 0 0 
0 0 0 0 0 0 0 0 0 
0 0 0 0 0 0 0 0 0 
0 0 0 0 0 0 0 0 0 
0 0 0 0 0 0 0 0 0 
0 0 0 0 0 0 0 0 0 
0 0 0 0 0 0 0 0 0 
0 0 0 0 0 0 0 0 0 
0 0 0 0 0 0 0 0 0 
0 0 0 0 0 0 0 0 0 
0 0 0 0 0 0 0 0 0 
0 0 0 0 0 0 0 0 0 
0 0 0 0 0 0 0 0 0 
0 0 0 0 0 0 0 0 0 
0 0 0 0 0 0 0 0 0 
0 0 0 0 0 0 0 0 0 
0 0 0 0 0 0 0 0 0 
0 0 0 0 0 0 0 0 0 
0 0 0 0 0 0 0 0 0 
0 0 0 0 0 0 0 0 0 
0 0 0 0 0 0 0 0 0 
0 0 0 0 0 0 0 0 0 
0 0 0 0 0 0 0 0 0 
0 0 0 0 0 0 0 0 0 
0 0 0 0 0 0 0 0 0 
0 0 0 0 0 0 0 0 0 
0 0 0 0 0 0 0 0 0 
0 0 0 0 0 0 0 0 0 
0 0 0 0 0 0 0 0 0 
0 0 0 0 0 0 0 0 0 
0 0 0 0 0 0 0 0 0 
0 0 0 0 0 0 0 0 0 
0 0 0 0 0 0 0 0 0 
0 0 0 0 0 0 0 0 0 
0 0 0 0 0 0 0 0 0 
0 0 0 0 0 0 0 0 0 
0 0 0 0 0 0 0 0 0 
0 0 0 0 0 0 0 0 0 
0 0 0 0 0 0 0 0 0 
0 0 0 0 0 0 0 0 0 
0 0 0 0 0 0 0 0 0 
0 0 0 0 0 0 0 0 0 
0 0 0 0 0 0 0 0 0 
0 0 0 0 0 0 0 0 0 
0 0 0 0 0 0 0 0 0 
0 0 0 0 0 0 0 0 0 
0 0 0 0 0 0 0 0 0 
0 0 0 0 0 0 0 0 0 
0 0 0 0 0 0 0 0 0 
0 0 0 0 0 0 0 0 0 
0 0 0 0 0 0 0 0 0 
0 0 0 0 0 0 0 0 0 
0 0 0 0 0 0 0 0 0 
0 0 0 0 0 0 0 0 0 
0 0 0 0 0 0 0 0 0 
0 0 0 0 0 0 0 0 0 
0 0 0 0 0 0 0 0 0 
0 0 0 0 0 0 0 0 0 
0 0 0 0 0 0 0 0 0 
0 0 0 0 0 0 0 0 0 
0 0 0 0 0 0 0 0 0 
0 0 0 0 0 0 0 0 0 
0 0 0 0 0 0 0 0 0 
0 0 0 0 0 0 0 0 0 
0 0 0 0 0 0 0 0 0 
0 0 0 0 0 0 0 0 0 
0 0 0 0 0 0 0 0 0 
0 0 0 0 0 0 0 0 0 
0 0 0 0 0 0 0 0 0 
0 0 0 0 0 0 0 0 0 
0 0 0 0 0 0 0 0 0 
0 0 0 0 0 0 0 0 0 
0 0 0 0 0 0 0 0 0 
0 0 0 0 0 0 0 0 0 
0 0 0 0 0 0 0 0 0 
0 0 0 0 0 0 0 0 0 
0 0 0 0 0 0 0 0 0 
0 0 0 0 0 0 0 0 0 
0 0 0 0 0 0 0 0 0 
0 0 0 0 0 0 0 0 0 
0 0 0 0 0 0 0 0 0 
0 0 0 0 0 0 0 0 0 
0 0 0 0 0 0 0 0 0 
0 0 0 0 0 0 0 0 0 
0 0 0 0 0 0 0 0 0 
0 0 0 0 0 0 0 0 0 
0 0 0 0 0 0 0 0 0 
0 0 0 0 0 0 0 0 0 
0 0 0 0 0 0 0 0 0 
0 0 0 0 0 0 0 0 0 
0 0 0 0 0 0 0 0 0 
0 0 0 0 0 0 0 0 0 
0 0 0 0 0 0 0 0 0 
0 0 0 0 0 0 0 0 0 
0 0 0 0 0 0 0 0 0 
0 0 0 0 0 0 0 0 0 
0 0 0 0 0 0 0 0 0 
0 0 0 0 0 0 0 0 0 
0 0 0 0 0 0 0 0 0 
0 0 0 0 0 0 0 0 0 
0 0 0 0 0 0 0 0 0 
0 0 0 0 0 0 0 0 0 
0 0 0 0 0 0 0 0 0 
0 0 0 0 0 0 0 0 0 
0 0 0 0 0 0 0 0 0 
0 0 0 0 0 0 0 0 0 
0 0 0 0 0 0 0 0 0 
0 0 0 0 0 0 0 0 0 
0 0 0 0 0 0 0 0 0 
0 0 0 0 0 0 0 0 0 
0 0 0 0 0 0 0 0 0 
0 0 0 0 0 0 0 0 0 
0 0 0 0 0 0 0 0 0 
0 0 0 0 0 0 0 0 0 
0 0 0 0 0 0 0 0 0 
0 0 0 0 0 0 0 0 0 
0 0 0 0 0 0 0 0 0 
0 0 0 0 0 0 0 0 0 
0 0 0 0 0 0 0 0 0 
0 0 0 0 0 0 0 0 0 
0 0 0 0 0 0 0 0 0 
0 0 0 0 0 0 0 0 0 
0 0 0 0 0 0 0 0 0 
0 0 0 0 0 0 0 0 0 
0 0 0 0 0 0 0 0 0 
0 0 0 0 0 0 0 0 0 
0 0 0 0 0 0 0 0 0 
0 0 0 0 0 0 0 0 0 
0 0 0 0 0 0 0 0 0 
0 0 0 0 0 0 0 0 0 
0 0 0 0 0 0 0 0 0 
0 0 0 0 0 0 0 0 0 
0 0 0 0 0 0 0 0 0 
0 0 0 0 0 0 0 0 0 
0 0 0 0 0 0 0 0 0 
0 0 0 0 0 0 0 0 0 
0 0 0 0 0 0 0 0 0 
0 0 0 0 0 0 0 0 0 
0 0 0 0 0 0 0 0 0 
0 0 0 0 0 0 0 0 0 
0 0 0 0 0 0 0 0 0 
0 0 0 0 0 0 0 0 0 
0 0 0 0 0 0 0 0 0 
0 0 0 0 0 0 0 0 0 
0 0 0 0 0 0 0 0 0 
0 0 0 0 0 0 0 0 0 
0 0 0 0 0 0 0 0 0 
0 0 0 0 0 0 0 0 0 
0 0 0 0 0 0 0 0 0 
0 0 0 0 0 0 0 0 0 
0 0 0 0 0 0 0 0 0 
0 0 0 0 0 0 0 0 0 
0 0 0 0 0 0 0 0 0 
0 0 0 0 0 0 0 0 0 
0 0 0 0 0 0 0 0 0 
0 0 0 0 0 0 0 0 0 
0 0 0 0 0 0 0 0 0 
0 0 0 0 0 0 0 0 0 
0 0 0 0 0 0 0 0 0 
0 0 0 0 0 0 0 0 0 
0 0 0 0 0 0 0 0 0 
0 0 0 0 0 0 0 0 0 
0 0 0 0 0 0 0 0 0 
0 0 0 0 0 0 0 0 0 
0 0 0 0 0 0 0 0 0 
0 0 0 0 0 0 0 0 0 
0 0 0 0 0 0 0 0 0 
0 0 0 0 0 0 0 0 0 
0 0 0 0 0 0 0 0 0 
0 0 0 0 0 0 0 0 0 
0 0 0 0 0 0 0 0 0 
0 0 0 0 0 0 0 0 0 
0 0 0 0 0 0 0 0 0 
0 0 0 0 0 0 0 0 0 
0 0 0 0 0 0 0 0 0 
0 0 0 0 0 0 0 0 0 
0 0 0 0 0 0 0 0 0 
0 0 0 0 0 0 0 0 0 
0 0 0 0 0 0 0 0 0 
0 0 0 0 0 0 0 0 0 
0 0 0 0 0 0 0 0 0 
0 0 0 0 0 0 0 0 0 
0 0 0 0 0 0 0 0 0 
0 0 0 0 0 0 0 0 0 
0 0 0 0 0 0 0 0 0 
0 0 0 0 0 0 0 0 0 
0 0 0 0 0 0 0 0 0 
0 0 0 0 0 0 0 0 0 
0 0 0 0 0 0 0 0 0 
0 0 0 0 0 0 0 0 0 
0 0 0 0 0 0 0 0 0 
0 0 0 0 0 0 0 0 0 
0 0 0 0 0 0 0 0 0 
0 0 0 0 0 0 0 0 0 
0 0 0 0 0 0 0 0 0 
0 0 0 0 0 0 0 0 0 
0 0 0 0 0 0 0 0 0 
0 0 0 0 0 0 0 0 0 
0 0 0 0 0 0 0 0 0 
0 0 0 0 0 0 0 0 0 
0 0 0 0 0 0 0 0 0 
0 0 0 0 0 0 0 0 0 
0 0 0 0 0 0 0 0 0 
0 0 0 0 0 0 0 0 0 
0 0 0 0 0 0 0 0 0 
0 0 0 0 0 0 0 0 0 
0 0 0 0 0 0 0 0 0 
0 0 0 0 0 0 0 0 0 
0 0 0 0 0 0 0 0 0 
0 0 0 0 0 0 0 0 0 
0 0 0 0 0 0 0 0 0 
0 0 0 0 0 0 0 0 0 
0 0 0 0 0 0 0 0 0 
0 0 0 0 0 0 0 0 0 
0 0 0 0 0 0 0 0 0 
0 0 0 0 0 0 0 0 0 
0 0 0 0 0 0 0 0 0 
0 0 0 0 0 0 0 0 0 
0 0 0 0 0 0 0 0 0 
0 0 0 0 0 0 0 0 0 
0 0 0 0 0 0 0 0 0 
0 0 0 0 0 0 0 0 0 
0 0 0 0 0 0 0 0 0 
0 0 0 0 0 0 0 0 0 
0 0 0 0 0 0 0 0 0 
0 0 0 0 0 0 0 0 0 
0 0 0 0 0 0 0 0 0 
0 0 0 0 0 0 0 0 0 
0 0 0 0 0 0 0 0 0 
0 0 0 0 0 0 0 0 0 
0 0 0 0 0 0 0 0 0 
0 0 0 0 0 0 0 0 0 
0 0 0 0 0 0 0 0 0 
0 0 0 0 0 0 0 0 0 
0 0 0 0 0 0 0 0 0 
0 0 0 0 0 0 0 0 0 
0 0 0 0 0 0 0 0 0 
0 0 0 0 0 0 0 0 0 
0 0 0 0 0 0 0 0 0 
0 0 0 0 0 0 0 0 0 
0 0 0 0 0 0 0 0 0 
0 0 0 0 0 0 0 0 0 
0 0 0 0 0 0 0 0 0 
0 0 0 0 0 0 0 0 0 
0 0 0 0 0 0 0 0 0 
0 0 0 0 0 0 0 0 0 
0 0 0 0 0 0 0 0 0 
0 0 0 0 0 0 0 0 0 
0 0 0 0 0 0 0 0 0 
0 0 0 0 0 0 0 0 0 
0 0 0 0 0 0 0 0 0 
0 0 0 0 0 0 0 0 0 
0 0 0 0 0 0 0 0 0 
0 0 0 0 0 0 0 0 0 
0 0 0 0 0 0 0 0 0 
0 0 0 0 0 0 0 0 0 
0 0 0 0 0 0 0 0 0 
0 0 0 0 0 0 0 0 0 
0 0 0 0 0 0 0 0 0 
0 0 0 0 0 0 0 0 0 
0 0 0 0 0 0 0 0 0 
0 0 0 0 0 0 0 0 0 
0 0 0 0 0 0 0 0 0 
0 0 0 0 0 0 0 0 0 
0 0 0 0 0 0 0 0 0 
0 0 0 0 0 0 0 0 0 
0 0 0 0 0 0 0 0 0 
0 0 0 0 0 0 0 0 0 
0 0 0 0 0 0 0 0 0 
0 0 0 0 0 0 0 0 0 
0 0 0 0 0 0 0 0 0 
0 0 0 0 0 0 0 0 0 
0 0 0 0 0 0 0 0 0 
0 0 0 0 0 0 0 0 0 
0 0 0 0 0 0 0 0 0 
0 0 0 0 0 0 0 0 0 
0 0 0 0 0 0 0 0 0 
0 0 0 0 0 0 0 0 0 
0 0 0 0 0 0 0 0 0 
0 0 0 0 0 0 0 0 0 
0 0 0 0 0 0 0 0 0 
0 0 0 0 0 0 0 0 0 
0 0 0 0 0 0 0 0 0 
0 0 0 0 0 0 0 0 0 
0 0 0 0 0 0 0 0 0 
0 0 0 0 0 0 0 0 0 
0 0 0 0 0 0 0 0 0 
0 0 0 0 0 0 0 0 0 
0 0 0 0 0 0 0 0 0 
0 0 0 0 0 0 0 0 0 
0 0 0 0 0 0 0 0 0 
0 0 0 0 0 0 0 0 0 
0 0 0 0 0 0 0 0 0 
0 0 0 0 0 0 0 0 0 
0 0 0 0 0 0 0 0 0 
0 0 0 0 0 0 0 0 0 
0 0 0 0 0 0 0 0 0 
0 0 0 0 0 0 0 0 0 
0 0 0 0 0 0 0 0 0 
0 0 0 0 0 0 0 0 0 
0 0 0 0 0 0 0 0 0 
0 0 0 0 0 0 0 0 0 
0 0 0 0 0 0 0 0 0 
0 0 0 0 0 0 0 0 0 
0 0 0 0 0 0 0 0 0 
0 0 0 0 0 0 0 0 0 
0 0 0 0 0 0 0 0 0 
0 0 0 0 0 0 0 0 0 
0 0 0 0 0 0 0 0 0 
0 0 0 0 0 0 0 0 0 
0 0 0 0 0 0 0 0 0 
0 0 0 0 0 0 0 0 0 
0 0 0 0 0 0 0 0 0 
0 0 0 0 0 0 0 0 0 
0 0 0 0 0 0 0 0 0 
0 0 0 0 0 0 0 0 0 
0 0 0 0 0 0 0 0 0 
0 0 0 0 0 0 0 0 0 
0 0 0 0 0 0 0 0 0 
0 0 0 0 0 0 0 0 0 
0 0 0 0 0 0 0 0 0 
0 0 0 0 0 0 0 0 0 
0 0 0 0 0 0 0 0 0 
0 0 0 0 0 0 0 0 0 
0 0 0 0 0 0 0 0 0 
0 0 0 0 0 0 0 0 0 
0 0 0 0 0 0 0 0 0 
0 0 0 0 0 0 0 0 0 
0 0 0 0 0 0 0 0 0 
0 0 0 0 0 0 0 0 0 
0 0 0 0 0 0 0 0 0 
0 0 0 0 0 0 0 0 0 
0 0 0 0 0 0 0 0 0 
0 0 0 0 0 0 0 0 0 
0 0 0 0 0 0 0 0 0 
0 0 0 0 0 0 0 0 0 
0 0 0 0 0 0 0 0 0 
0 0 0 0 0 0 0 0 0 
0 0 0 0 0 0 0 0 0 
0 0 0 0 0 0 0 0 0 
0 0 0 0 0 0 0 0 0 
0 0 0 0 0 0 0 0 0 
0 0 0 0 0 0 0 0 0 
0 0 0 0 0 0 0 0 0 
0 0 0 0 0 0 0 0 0 
0 0 0 0 0 0 0 0 0 
0 0 0 0 0 0 0 0 0 
0 0 0 0 0 0 0 0 0 
0 0 0 0 0 0 0 0 0 
0 0 0 0 0 0 0 0 0 
0 0 0 0 0 0 0 0 0 
0 0 0 0 0 0 0 0 0 
0 0 0 0 0 0 0 0 0 
0 0 0 0 0 0 0 0 0 
0 0 0 0 0 0 0 0 0 
0 0 0 0 0 0 0 0 0 
0 0 0 0 0 0 0 0 0 
0 0 0 0 0 0 0 0 0 
0 0 0 0 0 0 0 0 0 
0 0 0 0 0 0 0 0 0 
0 0 0 0 0 0 0 0 0 
0 0 0 0 0 0 0 0 0 
0 0 0 0 0 0 0 0 0 
0 0 0 0 0 0 0 0 0 
0 0 0 0 0 0 0 0 0 
0 0 0 0 0 0 0 0 0 
0 0 0 0 0 0 0 0 0 
0 0 0 0 0 0 0 0 0 
0 0 0 0 0 0 0 0 0 
0 0 0 0 0 0 0 0 0 
0 0 0 0 0 0 0 0 0 
0 0 0 0 0 0 0 0 0 
0 0 0 0 0 0 0 0 0 
0 0 0 0 0 0 0 0 0 
0 0 0 0 0 0 0 0 0 
0 0 0 0 0 0 0 0 0 
0 0 0 0 0 0 0 0 0 
0 0 0 0 0 0 0 0 0 
0 0 0 0 0 0 0 0 0 
0 0 0 0 0 0 0 0 0 
0 0 0 0 0 0 0 0 0 
0 0 0 0 0 0 0 0 0 
0 0 0 0 0 0 0 0 0 
0 0 0 0 0 0 0 0 0 
0 0 0 0 0 0 0 0 0 
0 0 0 0 0 0 0 0 0 
0 0 0 0 0 0 0 0 0 
0 0 0 0 0 0 0 0 0 
0 0 0 0 0 0 0 0 0 
0 0 0 0 0 0 0 0 0 
0 0 0 0 0 0 0 0 0 
0 0 0 0 0 0 0 0 0 
0 0 0 0 0 0 0 0 0 
0 0 0 0 0 0 0 0 0 
0 0 0 0 0 0 0 0 0 
0 0 0 0 0 0 0 0 0 
0 0 0 0 0 0 0 0 0 
0 0 0 0 0 0 0 0 0 
0 0 0 0 0 0 0 0 0 
0 0 0 0 0 0 0 0 0 
0 0 0 0 0 0 0 0 0 
0 0 0 0 0 0 0 0 0 
0 0 0 0 0 0 0 0 0 
0 0 0 0 0 0 0 0 0 
0 0 0 0 0 0 0 0 0 
0 0 0 0 0 0 0 0 0 
0 0 0 0 0 0 0 0 0 
0 0 0 0 0 0 0 0 0 
0 0 0 0 0 0 0 0 0 
0 0 0 0 0 0 0 0 0 
0 0 0 0 0 0 0 0 0 
0 0 0 0 0 0 0 0 0 
0 0 0 0 0 0 0 0 0 
0 0 0 0 0 0 0 0 0 
0 0 0 0 0 0 0 0 0 
0 0 0 0 0 0 0 0 0 
0 0 0 0 0 0 0 0 0 
0 0 0 0 0 0 0 0 0 
0 0 0 0 0 0 0 0 0 
0 0 0 0 0 0 0 0 0 
0 0 0 0 0 0 0 0 0 
0 0 0 0 0 0 0 0 0 
0 0 0 0 0 0 0 0 0 
0 0 0 0 0 0 0 0 0 
0 0 0 0 0 0 2953115.934 13159727.599 15500082.065 
-1407077.3649 5597132.7106 17472844.677 0 0 0 0 0 0 
0 0 0 0 0 0 0 0 0 
0 0 0 0 0 0 0 0 0 
0 0 0 0 0 0 0 0 0 
0 0 0 0 0 0 0 0 0 
0 0 0 3008097.2789 4942177.6803 7150028.4895 0 0 0 
0 0 0 0 0 0 0 0 0 
0 0 0 0 0 0 0 0 0 
0 0 0 0 0 0 3021190.178 7233110.8279 33814747.525 
1614750.2789 -20149761.51 -31938.306699 -4242104.9483 10077435.387 15568509.362 0 0 0 
0 0 0 0 0 0 0 0 0 
0 0 0 0 0 0 0 0 0 
0 0 0 0 0 0 0 0 0 
0 0 0 0 0 0 0 0 0 
0 0 0 0 0 0 0 0 0 
-4238489.8682 -15195144.262 1979865.9635 -138894.2224 -10784164.94 9987651.8453 0 0 0 
0 0 0 0 0 0 0 0 0 
0 0 0 0 0 0 0 0 0 
0 0 0 0 0 0 0 0 0 
0 0 0 0 0 0 0 0 0 
0 0 0 0 0 0 0 0 0 
0 0 0 0 0 0 0 0 0 
0 0 0 0 0 0 0 0 0 
0 0 0 0 0 0 0 0 0 
0 0 0 0 0 0 0 0 0 
0 0 0 0 0 0 0 0 0 
0 0 0 0 0 0 0 0 0 
0 0 0 0 0 0 0 0 0 
0 0 0 0 0 0 0 0 0 
0 0 0 0 0 0 0 0 0 
0 0 0 0 0 0 0 0 0 
0 0 0 0 0 0 0 0 0 
0 0 0 0 0 0 0 0 0 
0 0 0 0 0 0 0 0 0 
0 0 0 0 0 0 0 0 0 
0 0 0 0 0 0 0 0 0 
0 0 0 0 0 0 0 0 0 
0 0 0 0 0 0 0 0 0 
0 0 0 0 0 0 0 0 0 
0 0 0 0 0 0 0 0 0 
0 0 0 0 0 0 0 0 0 
0 0 0 0 0 0 0 0 0 
0 0 0 0 0 0 0 0 0 
0 0 0 0 0 0 0 0 0 
0 0 0 0 0 0 0 0 0 
0 0 0 0 0 0 0 0 0 
0 0 0 0 0 0 0 0 0 
0 0 0 0 0 0 0 0 0 
0 0 0 0 0 0 0 0 0 
0 0 0 0 0 0 0 0 0 
0 0 0 0 0 0 0 0 0 
0 0 0 0 0 0 0 0 0 
0 0 0 0 0 0 0 0 0 
0 0 0 0 0 0 0 0 0 
0 0 0 0 0 0 0 0 0 
0 0 0 0 0 0 0 0 0 
0 0 0 0 0 0 0 0 0 
0 0 0 0 0 0 0 0 0 
0 0 0 0 0 0 0 0 0 
0 0 0 0 0 0 0 0 0 
0 0 0 0 0 0 0 0 0 
0 0 0 0 0 0 0 0 0 
0 0 0 0 0 0 0 0 0 
0 0 0 0 0 0 0 0 0 
0 0 0 0 0 0 0 0 0 
0 0 0 0 0 0 0 0 0 
0 0 0 0 0 0 0 0 0 
0 0 0 0 0 0 0 0 0 
0 0 0 0 0 0 0 0 0 
0 0 0 0 0 0 0 0 0 
0 0 0 0 0 0 0 0 0 
0 0 0 0 0 0 0 0 0 
0 0 0 0 0 0 0 0 0 
0 0 0 0 0 0 0 0 0 
0 0 0 0 0 0 0 0 0 
0 0 0 0 0 0 0 0 0 
0 0 0 0 0 0 0 0 0 
0 0 0 0 0 0 0 0 0 
0 0 0 0 0 0 0 0 0 
0 0 0 0 0 0 0 0 0 
0 0 0 0 0 0 0 0 0 
0 0 0 0 0 0 0 0 0 
0 0 0 0 0 0 0 0 0 
0 0 0 0 0 0 0 0 0 
0 0 0 0 0 0 0 0 0 
0 0 0 0 0 0 0 0 0 
0 0 0 0 0 0 0 0 0 
0 0 0 0 0 0 0 0 0 
0 0 0 0 0 0 0 0 0 
0 0 0 0 0 0 0 0 0 
0 0 0 0 0 0 0 0 0 
0 0 0 0 0 0 0 0 0 
0 0 0 0 0 0 0 0 0 
0 0 0 0 0 0 0 0 0 
0 0 0 0 0 0 0 0 0 
0 0 0 0 0 0 0 0 0 
0 0 0 0 0 0 0 0 0 
0 0 0 0 0 0 0 0 0 
0 0 0 0 0 0 0 0 0 
0 0 0 0 0 0 0 0 0 
0 0 0 0 0 0 0 0 0 
0 0 0 0 0 0 0 0 0 
0 0 0 0 0 0 0 0 0 
0 0 0 0 0 0 0 0 0 
0 0 0 0 0 0 0 0 0 
0 0 0 0 0 0 0 0 0 
0 0 0 0 0 0 0 0 0 
0 0 0 0 0 0 0 0 0 
0 0 0 0 0 0 0 0 0 
0 0 0 0 0 0 0 0 0 
0 0 0 0 0 0 0 0 0 
0 0 0 0 0 0 0 0 0 
0 0 0 0 0 0 0 0 0 
0 0 0 0 0 0 0 0 0 
0 0 0 0 0 0 0 0 0 
0 0 0 0 0 0 0 0 0 
0 0 0 0 0 0 0 0 0 
0 0 0 0 0 0 0 0 0 
0 0 0 0 0 0 0 0 0 
0 0 0 0 0 0 0 0 0 
0 0 0 0 0 0 0 0 0 
0 0 0 0 0 0 0 0 0 
0 0 0 0 0 0 0 0 0 
0 0 0 0 0 0 0 0 0 
0 0 0 0 0 0 0 0 0 
0 0 0 0 0 0 0 0 0 
0 0 0 0 0 0 0 0 0 
0 0 0 0 0 0 0 0 0 
0 0 0 0 0 0 0 0 0 
0 0 0 0 0 0 0 0 0 
0 0 0 0 0 0 0 0 0 
0 0 0 0 0 0 0 0 0 
0 0 0 0 0 0 0 0 0 
0 0 0 0 0 0 0 0 0 
0 0 0 0 0 0 0 0 0 
0 0 0 0 0 0 0 0 0 
0 0 0 0 0 0 0 0 0 
0 0 0 0 0 0 0 0 0 
0 0 0 0 0 0 0 0 0 
0 0 0 0 0 0 0 0 0 
0 0 0 0 0 0 0 0 0 
0 0 0 0 0 0 0 0 0 
0 0 0 0 0 0 0 0 0 
0 0 0 0 0 0 0 0 0 
0 0 0 0 0 0 0 0 0 
0 0 0 0 0 0 0 0 0 
0 0 0 0 0 0 0 0 0 
0 0 0 0 0 0 0 0 0 
0 0 0 0 0 0 0 0 0 
0 0 0 0 0 0 0 0 0 
0 0 0 0 0 0 0 0 0 
0 0 0 0 0 0 0 0 0 
0 0 0 0 0 0 0 0 0 
0 0 0 0 0 0 0 0 0 
0 0 0 0 0 0 0 0 0 
0 0 0 0 0 0 0 0 0 
0 0 0 0 0 0 0 0 0 
0 0 0 0 0 0 0 0 0 
0 0 0 0 0 0 0 0 0 
0 0 0 0 0 0 0 0 0 
0 0 0 0 0 0 0 0 0 
0 0 0 0 0 0 0 0 0 
0 0 0 0 0 0 0 0 0 
0 0 0 0 0 0 0 0 0 
0 0 0 0 0 0 0 0 0 
0 0 0 0 0 0 0 0 0 
0 0 0 0 0 0 0 0 0 
0 0 0 0 0 0 0 0 0 
0 0 0 0 0 0 0 0 0 
0 0 0 0 0 0 0 0 0 
0 0 0 0 0 0 0 0 0 
0 0 0 0 0 0 0 0 0 
0 0 0 0 0 0 0 0 0 
0 0 0 0 0 0 0 0 0 
0 0 0 0 0 0 0 0 0 
0 0 0 0 0 0 0 0 0 
0 0 0 0 0 0 0 0 0 
0 0 0 0 0 0 0 0 0 
0 0 0 0 0 0 0 0 0 
0 0 0 0 0 0 0 0 0 
0 0 0 0 0 0 0 0 0 
0 0 0 0 0 0 0 0 0 
0 0 0 0 0 0 0 0 0 
0 0 0 0 0 0 0 0 0 
0 0 0 0 0 0 0 0 0 
0 0 0 0 0 0 0 0 0 
0 0 0 0 0 0 0 0 0 
0 0 0 0 0 0 0 0 0 
0 0 0 0 0 0 0 0 0 
0 0 0 0 0 0 0 0 0 
0 0 0 0 0 0 0 0 0 
0 0 0 0 0 0 0 0 0 
0 0 0 0 0 0 0 0 0 
0 0 0 0 0 0 0 0 0 
0 0 0 0 0 0 0 0 0 
0 0 0 0 0 0 0 0 0 
0 0 0 0 0 0 0 0 0 
0 0 0 0 0 0 0 0 0 
0 0 0 0 0 0 0 0 0 
0 0 0 0 0 0 0 0 0 
0 0 0 0 0 0 0 0 0 
0 0 0 0 0 0 0 0 0 
0 0 0 0 0 0 0 0 0 
0 0 0 0 0 0 0 0 0 
0 0 0 0 0 0 0 0 0 
0 0 0 0 0 0 0 0 0 
0 0 0 0 0 0 0 0 0 
0 0 0 0 0 0 0 0 0 
0 0 0 0 0 0 0 0 0 
0 0 0 0 0 0 0 0 0 
0 0 0 0 0 0 0 0 0 
0 0 0 0 0 0 0 0 0 
0 0 0 0 0 0 0 0 0 
0 0 0 0 0 0 0 0 0 
0 0 0 0 0 0 0 0 0 
0 0 0 0 0 0 0 0 0 
0 0 0 0 0 0 0 0 0 
0 0 0 0 0 0 0 0 0 
0 0 0 0 0 0 0 0 0 
0 0 0 0 0 0 0 0 0 
0 0 0 0 0 0 0 0 0 
0 0 0 0 0 0 0 0 0 
0 0 0 0 0 0 0 0 0 
0 0 0 0 0 0 0 0 0 
0 0 0 0 0 0 0 0 0 
0 0 0 0 0 0 0 0 0 
0 0 0 0 0 0 0 0 0 
0 0 0 0 0 0 0 0 0 
0 0 0 0 0 0 0 0 0 
0 0 0 0 0 0 0 0 0 
0 0 0 0 0 0 0 0 0 
0 0 0 0 0 0 0 0 0 
0 0 0 0 0 0 0 0 0 
0 0 0 0 0 0 0 0 0 
0 0 0 0 0 0 0 0 0 
0 0 0 0 0 0 0 0 0 
0 0 0 0 0 0 0 0 0 
0 0 0 0 0 0 0 0 0 
0 0 0 0 0 0 0 0 0 
0 0 0 0 0 0 0 0 0 
0 0 0 0 0 0 0 0 0 
0 0 0 0 0 0 0 0 0 
0 0 0 0 0 0 0 0 0 
0 0 0 0 0 0 0 0 0 
0 0 0 0 0 0 0 0 0 
0 0 0 0 0 0 0 0 0 
0 0 0 0 0 0 0 0 0 
0 0 0 0 0 0 0 0 0 
0 0 0 0 0 0 0 0 0 
0 0 0 0 0 0 0 0 0 
0 0 0 0 0 0 0 0 0 
0 0 0 0 0 0 0 0 0 
0 0 0 0 0 0 0 0 0 
0 0 0 0 0 0 0 0 0 
0 0 0 0 0 0 0 0 0 
0 0 0 0 0 0 0 0 0 
0 0 0 0 0 0 0 0 0 
0 0 0 0 0 0 0 0 0 
0 0 0 0 0 0 0 0 0 
0 0 0 0 0 0 0 0 0 
0 0 0 0 0 0 0 0 0 
0 0 0 0 0 0 0 0 0 
0 0 0 0 0 0 0 0 0 
0 0 0 0 0 0 0 0 0 
0 0 0 0 0 0 0 0 0 
0 0 0 0 0 0 0 0 0 
0 0 0 0 0 0 0 0 0 
0 0 0 0 0 0 0 0 0 
0 0 0 0 0 0 0 0 0 
0 0 0 0 0 0 0 0 0 
0 0 0 0 0 0 0 0 0 
0 0 0 0 0 0 0 0 0 
0 0 0 0 0 0 0 0 0 
0 0 0 0 0 0 0 0 0 
0 0 0 0 0 0 0 0 0 
0 0 0 0 0 0 0 0 0 
0 0 0 0 0 0 0 0 0 
0 0 0 0 0 0 0 0 0 
0 0 0 0 0 0 0 0 0 
0 0 0 0 0 0 0 0 0 
0 0 0 0 0 0 0 0 0 
0 0 0 0 0 0 0 0 0 
0 0 0 0 0 0 0 0 0 
0 0 0 0 0 0 0 0 0 
0 0 0 0 0 0 0 0 0 
0 0 0 0 0 0 0 0 0 
0 0 0 0 0 0 0 0 0 
0 0 0 0 0 0 0 0 0 
0 0 0 0 0 0 0 0 0 
0 0 0 0 0 0 0 0 0 
0 0 0 0 0 0 0 0 0 
0 0 0 0 0 0 0 0 0 
0 0 0 0 0 0 0 0 0 
0 0 0 0 0 0 0 0 0 
0 0 0 0 0 0 0 0 0 
0 0 0 0 0 0 0 0 0 
0 0 0 0 0 0 0 0 0 
0 0 0 0 0 0 0 0 0 
0 0 0 0 0 0 0 0 0 
0 0 0 0 0 0 0 0 0 
0 0 0 0 0 0 0 0 0 
0 0 0 0 0 0 0 0 0 
0 0 0 0 0 0 0 0 0 
0 0 0 0 0 0 0 0 0 
0 0 0 0 0 0 0 0 0 
0 0 0 0 0 0 0 0 0 
0 0 0 0 0 0 0 0 0 
0 0 0 0 0 0 0 0 0 
0 0 0 0 0 0 0 0 0 
0 0 0 0 0 0 0 0 0 
0 0 0 0 0 0 0 0 0 
0 0 0 0 0 0 0 0 0 
0 0 0 0 0 0 0 0 0 
0 0 0 0 0 0 0 0 0 
0 0 0 0 0 0 0 0 0 
0 0 0 0 0 0 0 0 0 
0 0 0 0 0 0 0 0 0 
0 0 0 0 0 0 0 0 0 
0 0 0 0 0 0 0 0 0 
0 0 0 0 0 0 0 0 0 
0 0 0 0 0 0 0 0 0 
0 0 0 0 0 0 0 0 0 
0 0 0 0 0 0 0 0 0 
0 0 0 0 0 0 0 0 0 
0 0 0 0 0 0 0 0 0 
0 0 0 0 0 0 0 0 0 
0 0 0 0 0 0 0 0 0 
0 0 0 0 0 0 0 0 0 
0 0 0 0 0 0 0 0 0 
0 0 0 0 0 0 0 0 0 
0 0 0 0 0 0 0 0 0 
0 0 0 0 0 0 0 0 0 
0 0 0 0 0 0 0 0 0 
0 0 0 0 0 0 0 0 0 
0 0 0 0 0 0 0 0 0 
0 0 0 0 0 0 0 0 0 
0 0 0 0 0 0 0 0 0 
0 0 0 0 0 0 0 0 0 
0 0 0 0 0 0 0 0 0 
0 0 0 0 0 0 0 0 0 
0 0 0 0 0 0 0 0 0 
0 0 0 0 0 0 0 0 0 
0 0 0 0 0 0 0 0 0 
0 0 0 0 0 0 0 0 0 
0 0 0 0 0 0 0 0 0 
0 0 0 0 0 0 0 0 0 
0 0 0 0 0 0 0 0 0 
0 0 0 0 0 0 0 0 0 
0 0 0 0 0 0 0 0 0 
0 0 0 0 0 0 0 0 0 
0 0 0 0 0 0 0 0 0 
0 0 0 0 0 0 0 0 0 
0 0 0 0 0 0 0 0 0 
0 0 0 0 0 0 0 0 0 
0 0 0 0 0 0 0 0 0 
0 0 0 0 0 0 0 0 0 
0 0 0 0 0 0 0 0 0 
0 0 0 0 0 0 0 0 0 
0 0 0 0 0 0 0 0 0 
0 0 0 0 0 0 0 0 0 
0 0 0 0 0 0 0 0 0 
0 0 0 0 0 0 0 0 0 
0 0 0 0 0 0 0 0 0 
0 0 0 0 0 0 0 0 0 
0 0 0 0 0 0 0 0 0 
0 0 0 0 0 0 0 0 0 
0 0 0 0 0 0 0 0 0 
0 0 0 0 0 0 0 0 0 
0 0 0 0 0 0 0 0 0 
0 0 0 0 0 0 0 0 0 
0 0 0 0 0 0 0 0 0 
0 0 0 0 0 0 0 0 0 
0 0 0 0 0 0 0 0 0 
0 0 0 0 0 0 0 0 0 
0 0 0 0 0 0 0 0 0 
0 0 0 0 0 0 0 0 0 
0 0 0 0 0 0 0 0 0 
0 0 0 0 0 0 0 0 0 
0 0 0 0 0 0 0 0 0 
0 0 0 0 0 0 0 0 0 
0 0 0 0 0 0 0 0 0 
0 0 0 0 0 0 0 0 0 
0 0 0 0 0 0 0 0 0 
0 0 0 0 0 0 0 0 0 
0 0 0 0 0 0 0 0 0 
0 0 0 0 0 0 0 0 0 
0 0 0 0 0 0 0 0 0 
0 0 0 0 0 0 0 0 0 
0 0 0 0 0 0 0 0 0 
0 0 0 0 0 0 0 0 0 
0 0 0 0 0 0 0 0 0 
0 0 0 0 0 0 0 0 0 
0 0 0 0 0 0 0 0 0 
0 0 0 0 0 0 0 0 0 
0 0 0 0 0 0 0 0 0 
0 0 0 0 0 0 0 0 0 
0 0 0 0 0 0 0 0 0 
0 0 0 0 0 0 0 0 0 
0 0 0 0 0 0 0 0 0 
0 0 0 0 0 0 0 0 0 
0 0 0 0 0 0 0 0 0 
0 0 0 0 0 0 0 0 0 
0 0 0 0 0 0 0 0 0 
0 0 0 0 0 0 0 0 0 
0 0 0 0 0 0 0 0 0 
0 0 0 0 0 0 0 0 0 
0 0 0 0 0 0 0 0 0 
0 0 0 0 0 0 0 0 0 
0 0 0 0 0 0 0 0 0 
0 0 0 0 0 0 0 0 0 
0 0 0 0 0 0 0 0 0 
0 0 0 0 0 0 0 0 0 
0 0 0 0 0 0 0 0 0 
0 0 0 0 0 0 0 0 0 
0 0 0 0 0 0 0 0 0 
0 0 0 0 0 0 0 0 0 
0 0 0 0 0 0 0 0 0 
0 0 0 0 0 0 0 0 0 
0 0 0 0 0 0 0 0 0 
0 0 0 0 0 0 0 0 0 
0 0 0 0 0 0 0 0 0 
0 0 0 0 0 0 0 0 0 
0 0 0 0 0 0 0 0 0 
0 0 0 0 0 0 0 0 0 
0 0 0 0 0 0 0 0 0 
0 0 0 0 0 0 0 0 0 
0 0 0 0 0 0 0 0 0 
0 0 0 0 0 0 0 0 0 
0 0 0 0 0 0 0 0 0 
0 0 0 0 0 0 0 0 0 
0 0 0 0 0 0 0 0 0 
0 0 0 0 0 0 0 0 0 
0 0 0 0 0 0 0 0 0 
0 0 0 0 0 0 0 0 0 
0 0 0 0 0 0 0 0 0 
0 0 0 0 0 0 0 0 0 
0 0 0 0 0 0 0 0 0 
0 0 0 0 0 0 0 0 0 
0 0 0 0 0 0 0 0 0 
0 0 0 0 0 0 0 0 0 
0 0 0 0 0 0 0 0 0 
0 0 0 0 0 0 0 0 0 
0 0 0 0 0 0 0 0 0 
0 0 0 0 0 0 0 0 0 
0 0 0 0 0 0 0 0 0 
0 0 0 0 0 0 0 0 0 
0 0 0 0 0 0 0 0 0 
0 0 0 0 0 0 0 0 0 
0 0 0 0 0 0 0 0 0 
0 0 0 0 0 0 0 0 0 
0 0 0 0 0 0 0 0 0 
0 0 0 0 0 0 0 0 0 
0 0 0 0 0 0 0 0 0 
0 0 0 0 0 0 0 0 0 
0 0 0 0 0 0 0 0 0 
0 0 0 0 0 0 0 0 0 
0 0 0 0 0 0 0 0 0 
0 0 0 0 0 0 0 0 0 
0 0 0 0 0 0 0 0 0 
0 0 0 0 0 0 0 0 0 
0 0 0 0 0 0 0 0 0 
0 0 0 0 0 0 0 0 0 
0 0 0 0 0 0 0 0 0 
0 0 0 0 0 0 0 0 0 
0 0 0 0 0 0 0 0 0 
0 0 0 0 0 0 0 0 0 
0 0 0 0 0 0 976799.28568 -2526922.9361 -108882.00758 
641517.06512 -5439873.5235 6542527.5866 1730363.4988 -15983799.598 8843702.4915 -3642956.5435 -18373913.664 6060866.1964 
0 0 0 0 0 0 0 0 0 
0 0 0 0 0 0 0 0 0 
0 0 0 0 0 0 0 0 0 
0 0 0 0 0 0 0 0 0 
0 0 0 -4046592.8051 5448534.5768 19212930.542 -7789420.9247 -7841336.6839 30532549.84 
-5155747.2385 -8739173.8181 18829875.047 0 0 0 0 0 0 
0 0 0 0 0 0 0 0 0 
0 0 0 0 0 0 0 0 0 
0 0 0 0 0 0 0 0 0 
0 0 0 0 0 0 0 0 0 
0 0 0 0 0 0 0 0 0 
0 0 0 0 0 0 0 0 0 
0 0 0 4429519.8112 -10046044.259 8529459.5683 5551635.9005 -16464939.415 21822638.795 
-2609230.0909 -23324368.267 8425083.8144 -2911556.4808 -4538806.3295 6043407.8334 0 0 0 
0 0 0 0 0 0 0 0 0 
0 0 0 0 0 0 0 0 0 
0 0 0 0 0 0 0 0 0 
0 0 0 0 0 0 0 0 0 
0 0 0 0 0 0 0 0 0 
0 0 0 0 0 0 0 0 0 
0 0 0 0 0 0 0 0 0 
0 0 0 0 0 0 0 0 0 
0 0 0 0 0 0 0 0 0 
0 0 0 0 0 0 0 0 0 
0 0 0 0 0 0 0 0 0 
0 0 0 0 0 0 0 0 0 
0 0 0 0 0 0 0 0 0 
0 0 0 0 0 0 0 0 0 
0 0 0 0 0 0 0 0 0 
0 0 0 0 0 0 0 0 0 
0 0 0 0 0 0 0 0 0 
0 0 0 0 0 0 0 0 0 
0 0 0 0 0 0 0 0 0 
0 0 0 0 0 0 0 0 0 
0 0 0 0 0 0 0 0 0 
0 0 0 0 0 0 0 0 0 
0 0 0 0 0 0 0 0 0 
0 0 0 0 0 0 0 0 0 
0 0 0 0 0 0 0 0 0 
0 0 0 0 0 0 0 0 0 
0 0 0 0 0 0 0 0 0 
0 0 0 0 0 0 0 0 0 
0 0 0 0 0 0 0 0 0 
0 0 0 0 0 0 0 0 0 
0 0 0 0 0 0 0 0 0 
0 0 0 0 0 0 0 0 0 
0 0 0 0 0 0 0 0 0 
0 0 0 0 0 0 0 0 0 
0 0 0 0 0 0 0 0 0 
0 0 0 0 0 0 0 0 0 
0 0 0 0 0 0 0 0 0 
0 0 0 0 0 0 0 0 0 
0 0 0 0 0 0 0 0 0 
0 0 0 0 0 0 0 0 0 
0 0 0 0 0 0 0 0 0 
0 0 0 0 0 0 0 0 0 
0 0 0 0 0 0 0 0 0 
0 0 0 0 0 0 0 0 0 
0 0 0 0 0 0 0 0 0 
0 0 0 0 0 0 0 0 0 
0 0 0 0 0 0 0 0 0 
0 0 0 0 0 0 0 0 0 
0 0 0 0 0 0 0 0 0 
0 0 0 0 0 0 0 0 0 
0 0 0 0 0 0 0 0 0 
0 0 0 0 0 0 0 0 0 
0 0 0 0 0 0 0 0 0 
0 0 0 0 0 0 0 0 0 
0 0 0 0 0 0 0 0 0 
0 0 0 0 0 0 0 0 0 
0 0 0 0 0 0 0 0 0 
0 0 0 0 0 0 0 0 0 
0 0 0 0 0 0 0 0 0 
0 0 0 0 0 0 0 0 0 
0 0 0 0 0 0 0 0 0 
0 0 0 0 0 0 0 0 0 
0 0 0 0 0 0 0 0 0 
0 0 0 0 0 0 0 0 0 
0 0 0 0 0 0 0 0 0 
0 0 0 0 0 0 0 0 0 
0 0 0 0 0 0 0 0 0 
0 0 0 0 0 0 0 0 0 
0 0 0 0 0 0 0 0 0 
0 0 0 0 0 0 0 0 0 
0 0 0 0 0 0 0 0 0 
0 0 0 0 0 0 0 0 0 
0 0 0 0 0 0 0 0 0 
0 0 0 0 0 0 0 0 0 
0 0 0 0 0 0 0 0 0 
0 0 0 0 0 0 0 0 0 
0 0 0 0 0 0 0 0 0 
0 0 0 0 0 0 0 0 0 
0 0 0 0 0 0 0 0 0 
0 0 0 0 0 0 0 0 0 
0 0 0 0 0 0 0 0 0 
0 0 0 0 0 0 0 0 0 
0 0 0 0 0 0 0 0 0 
0 0 0 0 0 0 -470587.56554 -259025.35258 201538.4417 
-364863.90001 188911.46144 283693.43984 -3967277.8701 -2508094.8829 1690201.4652 782347.77668 -148290.5602 3258439.1169 
-6481345.5011 926373.48239 6149610.69 -3592391.6737 -903529.24143 1916952.5903 -161470.13507 -507657.3945 1300793.651 
6645776.1807 255301.61092 7562826.8905 1782688.4501 -929999.54875 3973311.1526 -1641197.7038 -2925132.0711 1812773.513 
939837.33458 -670835.6947 1261846.4893 -5810638.2028 -13684965.898 4899570.7638 659004.3356 468279.40944 3328196.2076 
-3848985.6773 -3614217.992 4878913.7312 2560101.0497 -12703555.396 11540970.405 -23350.548236 -1643167.818 5754343.8818 
-7612805.6139 4951085.1425 11533793.731 2751022.1019 -1280044.6974 5840619.5398 506268.25561 4285167.4814 7805161.5814 
-1978044.7149 712965.78902 8308981.2264 -202679.97502 1903152.0402 3857696.4734 13625495.978 -3056470.3334 13884083.327 
733247.33392 -2679379.8324 6533491.0839 9705286.3129 -2069922.4766 11825221.324 -158731.09219 -840304.15453 5685586.1308 
-3276781.2666 34982.714886 8594866.5976 -1811450.3141 2107919.8186 6976122.8511 8440953.9448 -2472368.7076 10703390.1 
529839.91763 -1765255.5134 6635678.2498 -334157.73762 -287597.12349 2680753.4149 3839090.1773 312050.51046 3078860.3826 
7342174.0788 -4519613.5854 5575137.7322 -4786304.9512 3421212.1968 7069311.3449 -1533044.3324 -1708863.0061 3402869.7429 
-4414916.2602 8426360.6983 11878045.659 4396409.3146 -3263546.5355 1878374.4135 832004.55321 -6211650.812 5987476.2733 
-39097.733083 -270214.92497 4733186.0333 396322.78361 -221758.73491 169676.10064 2236826.3881 897598.25624 1644199.5299 
0 0 0 1920183.1642 427783.23558 1240918.3202 175373.80572 -40408.336009 80895.733552 
0 0 0 0 0 0 0 0 0 
0 0 0 0 0 0 0 0 0 
0 0 0 0 0 0 0 0 0 
0 0 0 0 0 0 0 0 0 
0 0 0 0 0 0 0 0 0 
0 0 0 0 0 0 0 0 0 
0 0 0 0 0 0 0 0 0 
0 0 0 0 0 0 0 0 0 
0 0 0 0 0 0 0 0 0 
0 0 0 0 0 0 0 0 0 
0 0 0 0 0 0 0 0 0 
0 0 0 0 0 0 0 0 0 
0 0 0 0 0 0 0 0 0 
0 0 0 0 0 0 0 0 0 
0 0 0 0 0 0 0 0 0 
0 0 0 0 0 0 0 0 0 
0 0 0 0 0 0 0 0 0 
0 0 0 0 0 0 0 0 0 
0 0 0 0 0 0 0 0 0 
0 0 0 0 0 0 0 0 0 
0 0 0 0 0 0 0 0 0 
0 0 0 0 0 0 0 0 0 
0 0 0 0 0 0 0 0 0 
0 0 0 0 0 0 0 0 0 
0 0 0 0 0 0 0 0 0 
0 0 0 0 0 0 0 0 0 
0 0 0 0 0 0 0 0 0 
0 0 0 0 0 0 0 0 0 
0 0 0 0 0 0 0 0 0 
0 0 0 0 0 0 0 0 0 
0 0 0 0 0 0 0 0 0 
0 0 0 0 0 0 0 0 0 
0 0 0 0 0 0 0 0 0 
0 0 0 0 0 0 0 0 0 
0 0 0 0 0 0 0 0 0 
0 0 0 0 0 0 0 0 0 
0 0 0 0 0 0 0 0 0 
0 0 0 0 0 0 0 0 0 
0 0 0 0 0 0 0 0 0 
0 0 0 0 0 0 0 0 0 
0 0 0 0 0 0 0 0 0 
0 0 0 0 0 0 0 0 0 
0 0 0 0 0 0 0 0 0 
0 0 0 0 0 0 0 0 0 
0 0 0 0 0 0 0 0 0 
0 0 0 0 0 0 0 0 0 
0 0 0 0 0 0 0 0 0 
0 0 0 0 0 0 0 0 0 
0 0 0 0 0 0 0 0 0 
0 0 0 0 0 0 0 0 0 
0 0 0 0 0 0 0 0 0 
0 0 0 0 0 0 0 0 0 
0 0 0 0 0 0 0 0 0 
0 0 0 0 0 0 0 0 0 
0 0 0 0 0 0 0 0 0 
0 0 0 0 0 0 0 0 0 
0 0 0 0 0 0 0 0 0 
0 0 0 0 0 0 0 0 0 
0 0 0 0 0 0 0 0 0 
0 0 0 0 0 0 0 0 0 
0 0 0 0 0 0 0 0 0 
0 0 0 0 0 0 0 0 0 
0 0 0 0 0 0 0 0 0 
0 0 0 0 0 0 0 0 0 
0 0 0 0 0 0 0 0 0 
0 0 0 0 0 0 0 0 0 
0 0 0 0 0 0 0 0 0 
0 0 0 0 0 0 0 0 0 
0 0 0 0 0 0 0 0 0 
0 0 0 0 0 0 0 0 0 
0 0 0 0 0 0 0 0 0 
0 0 0 0 0 0 0 0 0 
0 0 0 0 0 0 0 0 0 
0 0 0 0 0 0 0 0 0 
0 0 0 0 0 0 0 0 0 
0 0 0 0 0 0 0 0 0 
0 0 0 0 0 0 0 0 0 
0 0 0 0 0 0 0 0 0 
0 0 0 0 0 0 0 0 0 
0 0 0 0 0 0 0 0 0 
0 0 0 0 0 0 0 0 0 
0 0 0 0 0 0 0 0 0 
0 0 0 0 0 0 0 0 0 
0 0 0 0 0 0 0 0 0 
0 0 0 0 0 0 0 0 0 
0 0 0 0 0 0 0 0 0 
0 0 0 0 0 0 0 0 0 
0 0 0 0 0 0 0 0 0 
0 0 0 0 0 0 0 0 0 
0 0 0 0 0 0 0 0 0 
0 0 0 0 0 0 0 0 0 
0 0 0 0 0 0 0 0 0 
0 0 0 0 0 0 0 0 0 
0 0 0 0 0 0 0 0 0 
-590417.06606 -123920.95744 188203.74754 -5665.0477446 -4475.4413007 1578.0647614 8642721.7353 -8006542.3678 2831382.6333 
0 0 0 0 0 0 0 0 0 
0 0 0 0 0 0 0 0 0 
0 0 0 0 0 0 0 0 0 
0 0 0 0 0 0 0 0 0 
-5775618.3484 -749701.95294 941326.19524 -180765918.26 -177277223.68 77120544.627 -26851981.762 -26076740.504 11405413.509 
14717948.877 25189195.142 24279583.486 0 0 0 -404677.77136 20304955.392 18734307.089 
-11360934.462 28119829.041 26987332.713 8908018.0295 -24964426.06 -316883.95536 35626508.834 -37971081.322 10755516.212 
38383091.47 -18762370.91 15845788.951 24103864.559 -9922010.5363 9646234.9531 0 0 0 
0 0 0 17727645.012 -4260091.9181 6731432.6177 172475524.98 -44919692.347 58341342.805 
85747922.925 -75188358.575 30293686.081 199290452.72 -216427707.19 105735804.68 197122639.81 -207651294.36 79789373.094 
-19962906.702 -198853397.19 91961540.599 -42525417.125 -91147978.993 15410808.266 -21343257.19 -44989113.592 56865841.17 
-10883752.633 -18301116.044 43596909.998 -23972821.098 16118749.781 30624325.046 -3132800.7134 -35255813.809 27259266.021 
89539617.331 56666072.319 102116665.2 7086567.0029 100813803.48 90509076.253 -8551988.741 -36633346.529 6903115.4215 
-6846239.5662 -9732494.0571 51062200.091 44057334.619 148384501.38 180963366.07 -80987311.935 104356309.37 147916968.5 
8890937.8351 187178628.17 165897342.72 38101793.205 70777004.359 68042590.682 45976045.852 88970768.231 95053867.068 
-194487791.25 62920409.097 55920464.118 -104863612.61 75061335.821 45582803.737 -41174436.973 37188686.986 27672821.388 
0 0 0 0 0 0 -24083851.731 -9859431.0688 8452864.8172 
-26988768.433 -4968105.3868 12667499.017 0 0 0 0 0 0 
0 0 0 0 0 0 0 0 0 
0 0 0 0 0 0 0 0 0 
0 0 0 0 0 0 0 0 0 
0 0 0 0 0 0 0 0 0 
0 0 0 0 0 0 0 0 0 
0 0 0 0 0 0 0 0 0 
0 0 0 0 0 0 0 0 0 
0 0 0 0 0 0 0 0 0 
0 0 0 0 0 0 0 0 0 
0 0 0 0 0 0 14175076.403 -5007668.9657 10639467.411 
-8134217.1832 -6596637.1726 29573616.849 -18429729.017 -10061725.675 20265720.095 0 0 0 
0 0 0 0 0 0 0 0 0 
0 0 0 7748294.6731 -16014968.292 945180.35338 -6069633.7724 -30409174.891 8613948.1214 
0 0 0 0 0 0 0 0 0 
0 0 0 0 0 0 0 0 0 
0 0 0 0 0 0 0 0 0 
0 0 0 0 0 0 0 0 0 
0 0 0 0 0 0 0 0 0 
0 0 0 0 0 0 0 0 0 
0 0 0 0 0 0 0 0 0 
0 0 0 0 0 0 0 0 0 
0 0 0 0 0 0 0 0 0 
0 0 0 0 0 0 0 0 0 
0 0 0 0 0 0 0 0 0 
0 0 0 0 0 0 0 0 0 
0 0 0 0 0 0 0 0 0 
0 0 0 0 0 0 0 0 0 
0 0 0 0 0 0 0 0 0 
0 0 0 0 0 0 0 0 0 
0 0 0 0 0 0 0 0 0 
0 0 0 0 0 0 0 0 0 
0 0 0 0 0 0 0 0 0 
0 0 0 0 0 0 0 0 0 
0 0 0 0 0 0 0 0 0 
0 0 0 0 0 0 0 0 0 
0 0 0 0 0 0 0 0 0 
0 0 0 0 0 0 0 0 0 
0 0 0 0 0 0 0 0 0 
0 0 0 0 0 0 0 0 0 
0 0 0 0 0 0 0 0 0 
0 0 0 0 0 0 0 0 0 
0 0 0 0 0 0 0 0 0 
0 0 0 0 0 0 0 0 0 
0 0 0 0 0 0 0 0 0 
0 0 0 0 0 0 0 0 0 
0 0 0 0 0 0 0 0 0 
0 0 0 0 0 0 0 0 0 
0 0 0 0 0 0 0 0 0 
0 0 0 0 0 0 0 0 0 
0 0 0 0 0 0 0 0 0 
0 0 0 0 0 0 0 0 0 
0 0 0 0 0 0 0 0 0 
0 0 0 0 0 0 0 0 0 
0 0 0 0 0 0 0 0 0 
0 0 0 0 0 0 0 0 0 
0 0 0 0 0 0 0 0 0 
0 0 0 0 0 0 0 0 0 
0 0 0 0 0 0 0 0 0 
0 0 0 0 0 0 0 0 0 
0 0 0 0 0 0 0 0 0 
0 0 0 0 0 0 0 0 0 
0 0 0 0 0 0 0 0 0 
0 0 0 0 0 0 0 0 0 
0 0 0 0 0 0 0 0 0 
0 0 0 0 0 0 0 0 0 
0 0 0 0 0 0 0 0 0 
0 0 0 0 0 0 0 0 0 
0 0 0 0 0 0 0 0 0 
0 0 0 0 0 0 0 0 0 
0 0 0 0 0 0 0 0 0 
0 0 0 0 0 0 0 0 0 
0 0 0 0 0 0 0 0 0 
0 0 0 0 0 0 0 0 0 
0 0 0 0 0 0 0 0 0 
0 0 0 0 0 0 0 0 0 
0 0 0 0 0 0 0 0 0 
0 0 0 0 0 0 0 0 0 
0 0 0 0 0 0 0 0 0 
0 0 0 0 0 0 0 0 0 
0 0 0 0 0 0 0 0 0 
0 0 0 0 0 0 0 0 0 
0 0 0 0 0 0 0 0 0 
0 0 0 0 0 0 0 0 0 
0 0 0 0 0 0 0 0 0 
0 0 0 0 0 0 0 0 0 
0 0 0 0 0 0 0 0 0 
0 0 0 0 0 0 0 0 0 
0 0 0 0 0 0 0 0 0 
0 0 0 0 0 0 0 0 0 
0 0 0 0 0 0 0 0 0 
0 0 0 0 0 0 0 0 0 
0 0 0 0 0 0 0 0 0 
0 0 0 0 0 0 0 0 0 
0 0 0 0 0 0 0 0 0 
0 0 0 0 0 0 0 0 0 
0 0 0 0 0 0 0 0 0 
0 0 0 0 0 0 0 0 0 
0 0 0 0 0 0 0 0 0 
0 0 0 0 0 0 0 0 0 
0 0 0 0 0 0 0 0 0 
0 0 0 0 0 0 0 0 0 
0 0 0 0 0 0 0 0 0 
0 0 0 0 0 0 0 0 0 
0 0 0 0 0 0 0 0 0 
0 0 0 0 0 0 0 0 0 
0 0 0 0 0 0 0 0 0 
0 0 0 0 0 0 0 0 0 
0 0 0 0 0 0 0 0 0 
0 0 0 0 0 0 0 0 0 
0 0 0 0 0 0 0 0 0 
0 0 0 0 0 0 0 0 0 
0 0 0 0 0 0 0 0 0 
0 0 0 0 0 0 0 0 0 
0 0 0 0 0 0 0 0 0 
0 0 0 0 0 0 0 0 0 
0 0 0 0 0 0 0 0 0 
0 0 0 0 0 0 0 0 0 
0 0 0 0 0 0 0 0 0 
0 0 0 0 0 0 0 0 0 
0 0 0 0 0 0 0 0 0 
0 0 0 0 0 0 0 0 0 
0 0 0 0 0 0 0 0 0 
0 0 0 0 0 0 0 0 0 
0 0 0 0 0 0 0 0 0 
0 0 0 0 0 0 0 0 0 
0 0 0 0 0 0 0 0 0 
0 0 0 0 0 0 0 0 0 
0 0 0 0 0 0 0 0 0 
0 0 0 0 0 0 0 0 0 
0 0 0 0 0 0 0 0 0 
0 0 0 0 0 0 0 0 0 
0 0 0 0 0 0 0 0 0 
0 0 0 0 0 0 0 0 0 
0 0 0 0 0 0 0 0 0 
0 0 0 0 0 0 0 0 0 
0 0 0 0 0 0 0 0 0 
0 0 0 0 0 0 0 0 0 
0 0 0 0 0 0 0 0 0 
0 0 0 0 0 0 0 0 0 
0 0 0 0 0 0 0 0 0 
0 0 0 0 0 0 0 0 0 
0 0 0 0 0 0 0 0 0 
0 0 0 0 0 0 0 0 0 
0 0 0 0 0 0 0 0 0 
0 0 0 0 0 0 0 0 0 
0 0 0 0 0 0 0 0 0 
0 0 0 0 0 0 0 0 0 
0 0 0 0 0 0 0 0 0 
0 0 0 0 0 0 0 0 0 
0 0 0 0 0 0 0 0 0 
0 0 0 0 0 0 0 0 0 
0 0 0 0 0 0 0 0 0 
0 0 0 0 0 0 0 0 0 
0 0 0 0 0 0 0 0 0 
0 0 0 0 0 0 0 0 0 
0 0 0 0 0 0 0 0 0 
0 0 0 0 0 0 0 0 0 
0 0 0 0 0 0 0 0 0 
0 0 0 0 0 0 0 0 0 
0 0 0 0 0 0 0 0 0 
0 0 0 0 0 0 0 0 0 
0 0 0 0 0 0 0 0 0 
0 0 0 0 0 0 0 0 0 
0 0 0 0 0 0 0 0 0 
0 0 0 0 0 0 0 0 0 
0 0 0 0 0 0 0 0 0 
0 0 0 0 0 0 0 0 0 
0 0 0 0 0 0 0 0 0 
0 0 0 0 0 0 0 0 0 
0 0 0 0 0 0 0 0 0 
0 0 0 0 0 0 0 0 0 
0 0 0 0 0 0 0 0 0 
0 0 0 0 0 0 0 0 0 
0 0 0 0 0 0 0 0 0 
0 0 0 0 0 0 0 0 0 
0 0 0 0 0 0 0 0 0 
0 0 0 0 0 0 0 0 0 
0 0 0 0 0 0 0 0 0 
0 0 0 0 0 0 0 0 0 
0 0 0 0 0 0 0 0 0 
0 0 0 0 0 0 0 0 0 
0 0 0 0 0 0 0 0 0 
0 0 0 0 0 0 0 0 0 
0 0 0 0 0 0 0 0 0 
0 0 0 0 0 0 0 0 0 
0 0 0 0 0 0 0 0 0 
0 0 0 0 0 0 0 0 0 
0 0 0 0 0 0 0 0 0 
0 0 0 0 0 0 0 0 0 
0 0 0 0 0 0 0 0 0 
0 0 0 0 0 0 0 0 0 
0 0 0 0 0 0 0 0 0 
0 0 0 0 0 0 0 0 0 
0 0 0 0 0 0 0 0 0 
0 0 0 0 0 0 0 0 0 
0 0 0 0 0 0 0 0 0 
0 0 0 0 0 0 0 0 0 
0 0 0 0 0 0 0 0 0 
0 0 0 0 0 0 0 0 0 
0 0 0 0 0 0 0 0 0 
0 0 0 0 0 0 0 0 0 
0 0 0 0 0 0 0 0 0 
0 0 0 0 0 0 0 0 0 
0 0 0 0 0 0 0 0 0 
0 0 0 0 0 0 0 0 0 
0 0 0 0 0 0 0 0 0 
0 0 0 0 0 0 0 0 0 
0 0 0 0 0 0 0 0 0 
0 0 0 0 0 0 0 0 0 
0 0 0 0 0 0 0 0 0 
0 0 0 0 0 0 0 0 0 
0 0 0 0 0 0 0 0 0 
0 0 0 0 0 0 0 0 0 
0 0 0 0 0 0 0 0 0 
0 0 0 0 0 0 0 0 0 
0 0 0 0 0 0 0 0 0 
0 0 0 0 0 0 0 0 0 
0 0 0 0 0 0 0 0 0 
0 0 0 0 0 0 0 0 0 
0 0 0 0 0 0 0 0 0 
0 0 0 0 0 0 0 0 0 
0 0 0 0 0 0 0 0 0 
0 0 0 0 0 0 0 0 0 
0 0 0 0 0 0 0 0 0 
0 0 0 0 0 0 0 0 0 
0 0 0 0 0 0 0 0 0 
0 0 0 0 0 0 0 0 0 
0 0 0 0 0 0 0 0 0 
0 0 0 0 0 0 0 0 0 
0 0 0 0 0 0 0 0 0 
0 0 0 0 0 0 0 0 0 
0 0 0 0 0 0 0 0 0 
0 0 0 0 0 0 0 0 0 
0 0 0 0 0 0 0 0 0 
0 0 0 0 0 0 0 0 0 
0 0 0 0 0 0 0 0 0 
0 0 0 0 0 0 0 0 0 
0 0 0 0 0 0 0 0 0 
0 0 0 0 0 0 0 0 0 
0 0 0 0 0 0 0 0 0 
0 0 0 0 0 0 0 0 0 
0 0 0 0 0 0 0 0 0 
0 0 0 0 0 0 0 0 0 
0 0 0 0 0 0 0 0 0 
0 0 0 0 0 0 0 0 0 
0 0 0 0 0 0 0 0 0 
0 0 0 0 0 0 0 0 0 
0 0 0 0 0 0 0 0 0 
0 0 0 0 0 0 0 0 0 
0 0 0 0 0 0 0 0 0 
0 0 0 0 0 0 0 0 0 
0 0 0 0 0 0 0 0 0 
0 0 0 0 0 0 0 0 0 
0 0 0 0 0 0 0 0 0 
0 0 0 0 0 0 0 0 0 
0 0 0 0 0 0 0 0 0 
0 0 0 0 0 0 0 0 0 
0 0 0 0 0 0 0 0 0 
0 0 0 0 0 0 0 0 0 
0 0 0 0 0 0 0 0 0 
0 0 0 0 0 0 0 0 0 
0 0 0 0 0 0 0 0 0 
0 0 0 0 0 0 0 0 0 
0 0 0 0 0 0 0 0 0 
0 0 0 0 0 0 0 0 0 
0 0 0 0 0 0 0 0 0 
0 0 0 0 0 0 0 0 0 
0 0 0 0 0 0 0 0 0 
0 0 0 0 0 0 0 0 0 
0 0 0 0 0 0 0 0 0 
0 0 0 0 0 0 0 0 0 
0 0 0 0 0 0 0 0 0 
0 0 0 0 0 0 0 0 0 
0 0 0 0 0 0 0 0 0 
0 0 0 0 0 0 0 0 0 
0 0 0 0 0 0 0 0 0 
0 0 0 0 0 0 0 0 0 
0 0 0 0 0 0 0 0 0 
0 0 0 0 0 0 0 0 0 
0 0 0 0 0 0 0 0 0 
0 0 0 0 0 0 0 0 0 
0 0 0 0 0 0 0 0 0 
0 0 0 0 0 0 0 0 0 
0 0 0 0 0 0 0 0 0 
0 0 0 0 0 0 0 0 0 
0 0 0 0 0 0 0 0 0 
0 0 0 0 0 0 0 0 0 
0 0 0 0 0 0 0 0 0 
0 0 0 0 0 0 0 0 0 
0 0 0 0 0 0 0 0 0 
0 0 0 0 0 0 0 0 0 
0 0 0 0 0 0 0 0 0 
0 0 0 0 0 0 0 0 0 
0 0 0 0 0 0 0 0 0 
0 0 0 0 0 0 0 0 0 
0 0 0 0 0 0 0 0 0 
0 0 0 0 0 0 0 0 0 
0 0 0 0 0 0 0 0 0 
0 0 0 0 0 0 0 0 0 
0 0 0 0 0 0 0 0 0 
0 0 0 0 0 0 0 0 0 
0 0 0 0 0 0 0 0 0 
0 0 0 0 0 0 0 0 0 
0 0 0 0 0 0 0 0 0 
0 0 0 0 0 0 0 0 0 
0 0 0 0 0 0 0 0 0 
0 0 0 0 0 0 0 0 0 
0 0 0 0 0 0 0 0 0 
0 0 0 0 0 0 0 0 0 
0 0 0 0 0 0 0 0 0 
0 0 0 0 0 0 0 0 0 
0 0 0 0 0 0 0 0 0 
0 0 0 0 0 0 0 0 0 
0 0 0 0 0 0 0 0 0 
0 0 0 0 0 0 0 0 0 
0 0 0 0 0 0 0 0 0 
0 0 0 0 0 0 0 0 0 
0 0 0 0 0 0 0 0 0 
0 0 0 0 0 0 0 0 0 
0 0 0 0 0 0 0 0 0 
0 0 0 0 0 0 0 0 0 
0 0 0 0 0 0 0 0 0 
0 0 0 0 0 0 0 0 0 
0 0 0 0 0 0 0 0 0 
0 0 0 0 0 0 0 0 0 
0 0 0 0 0 0 0 0 0 
0 0 0 0 0 0 0 0 0 
0 0 0 0 0 0 0 0 0 
0 0 0 0 0 0 0 0 0 
0 0 0 0 0 0 0 0 0 
0 0 0 0 0 0 0 0 0 
0 0 0 0 0 0 0 0 0 
0 0 0 0 0 0 0 0 0 
0 0 0 0 0 0 0 0 0 
0 0 0 0 0 0 0 0 0 
0 0 0 0 0 0 0 0 0 
0 0 0 0 0 0 0 0 0 
0 0 0 0 0 0 0 0 0 
0 0 0 0 0 0 0 0 0 
0 0 0 0 0 0 0 0 0 
0 0 0 0 0 0 0 0 0 
0 0 0 0 0 0 0 0 0 
0 0 0 0 0 0 0 0 0 
0 0 0 0 0 0 0 0 0 
0 0 0 0 0 0 0 0 0 
0 0 0 0 0 0 0 0 0 
0 0 0 0 0 0 0 0 0 
0 0 0 0 0 0 0 0 0 
0 0 0 0 0 0 0 0 0 
0 0 0 0 0 0 0 0 0 
0 0 0 0 0 0 0 0 0 
0 0 0 0 0 0 0 0 0 
0 0 0 0 0 0 0 0 0 
0 0 0 0 0 0 0 0 0 
0 0 0 0 0 0 0 0 0 
0 0 0 0 0 0 0 0 0 
0 0 0 0 0 0 0 0 0 
0 0 0 0 0 0 0 0 0 
0 0 0 0 0 0 0 0 0 
0 0 0 0 0 0 0 0 0 
0 0 0 0 0 0 0 0 0 
0 0 0 0 0 0 0 0 0 
0 0 0 0 0 0 0 0 0 
0 0 0 0 0 0 0 0 0 
0 0 0 0 0 0 0 0 0 
0 0 0 0 0 0 0 0 0 
0 0 0 0 0 0 0 0 0 
0 0 0 0 0 0 0 0 0 
0 0 0 0 0 0 0 0 0 
0 0 0 0 0 0 0 0 0 
0 0 0 0 0 0 0 0 0 
0 0 0 0 0 0 0 0 0 
0 0 0 0 0 0 0 0 0 
0 0 0 0 0 0 0 0 0 
0 0 0 0 0 0 0 0 0 
0 0 0 0 0 0 0 0 0 
0 0 0 0 0 0 0 0 0 
0 0 0 0 0 0 0 0 0 
0 0 0 0 0 0 0 0 0 
0 0 0 0 0 0 0 0 0 
0 0 0 0 0 0 0 0 0 
0 0 0 0 0 0 0 0 0 
0 0 0 0 0 0 0 0 0 
0 0 0 0 0 0 0 0 0 
0 0 0 0 0 0 0 0 0 
0 0 0 0 0 0 0 0 0 
0 0 0 0 0 0 0 0 0 
0 0 0 0 0 0 0 0 0 
0 0 0 0 0 0 0 0 0 
0 0 0 0 0 0 0 0 0 
0 0 0 0 0 0 0 0 0 
0 0 0 0 0 0 0 0 0 
0 0 0 0 0 0 0 0 0 
0 0 0 0 0 0 0 0 0 
0 0 0 0 0 0 0 0 0 
0 0 0 0 0 0 0 0 0 
0 0 0 0 0 0 0 0 0 
0 0 0 0 0 0 0 0 0 
0 0 0 0 0 0 0 0 0 
0 0 0 0 0 0 0 0 0 
0 0 0 0 0 0 0 0 0 
0 0 0 0 0 0 0 0 0 
0 0 0 0 0 0 0 0 0 
0 0 0 0 0 0 0 0 0 
0 0 0 0 0 0 0 0 0 
0 0 0 0 0 0 0 0 0 
0 0 0 0 0 0 0 0 0 
0 0 0 0 0 0 0 0 0 
0 0 0 0 0 0 0 0 0 
0 0 0 0 0 0 0 0 0 
0 0 0 0 0 0 0 0 0 
0 0 0 0 0 0 0 0 0 
0 0 0 0 0 0 0 0 0 
0 0 0 0 0 0 0 0 0 
0 0 0 0 0 0 0 0 0 
0 0 0 0 0 0 0 0 0 
0 0 0 0 0 0 0 0 0 
0 0 0 0 0 0 0 0 0 
0 0 0 0 0 0 0 0 0 
0 0 0 0 0 0 0 0 0 
0 0 0 0 0 0 0 0 0 
0 0 0 0 0 0 0 0 0 
0 0 0 0 0 0 0 0 0 
0 0 0 0 0 0 0 0 0 
0 0 0 0 0 0 0 0 0 
0 0 0 0 0 0 0 0 0 
0 0 0 0 0 0 0 0 0 
0 0 0 0 0 0 0 0 0 
0 0 0 0 0 0 0 0 0 
0 0 0 0 0 0 0 0 0 
0 0 0 0 0 0 0 0 0 
0 0 0 0 0 0 0 0 0 
0 0 0 0 0 0 0 0 0 
0 0 0 0 0 0 0 0 0 
0 0 0 0 0 0 0 0 0 
0 0 0 0 0 0 0 0 0 
0 0 0 0 0 0 0 0 0 
0 0 0 0 0 0 0 0 0 
0 0 0 0 0 0 0 0 0 
0 0 0 0 0 0 0 0 0 
0 0 0 0 0 0 0 0 0 
0 0 0 0 0 0 0 0 0 
0 0 0 0 0 0 0 0 0 
0 0 0 0 0 0 0 0 0 
0 0 0 0 0 0 0 0 0 
0 0 0 0 0 0 0 0 0 
0 0 0 0 0 0 0 0 0 
0 0 0 0 0 0 0 0 0 
0 0 0 0 0 0 0 0 0 
0 0 0 0 0 0 0 0 0 
0 0 0 0 0 0 0 0 0 
0 0 0 0 0 0 0 0 0 
0 0 0 0 0 0 0 0 0 
0 0 0 0 0 0 0 0 0 
0 0 0 0 0 0 0 0 0 
0 0 0 0 0 0 0 0 0 
0 0 0 0 0 0 0 0 0 
0 0 0 0 0 0 0 0 0 
0 0 0 0 0 0 0 0 0 
0 0 0 0 0 0 0 0 0 
0 0 0 0 0 0 0 0 0 
0 0 0 0 0 0 0 0 0 
0 0 0 0 0 0 0 0 0 
0 0 0 0 0 0 0 0 0 
0 0 0 0 0 0 0 0 0 
0 0 0 0 0 0 0 0 0 
0 0 0 0 0 0 0 0 0 
0 0 0 0 0 0 0 0 0 
0 0 0 0 0 0 0 0 0 
0 0 0 0 0 0 0 0 0 
0 0 0 0 0 0 0 0 0 
0 0 0 0 0 0 0 0 0 
0 0 0 0 0 0 0 0 0 
0 0 0 0 0 0 0 0 0 
0 0 0 0 0 0 0 0 0 
0 0 0 0 0 0 0 0 0 
0 0 0 0 0 0 0 0 0 
0 0 0 0 0 0 0 0 0 
0 0 0 0 0 0 0 0 0 
0 0 0 0 0 0 0 0 0 
0 0 0 0 0 0 0 0 0 
0 0 0 0 0 0 0 0 0 
0 0 0 0 0 0 0 0 0 
0 0 0 0 0 0 0 0 0 
0 0 0 0 0 0 0 0 0 
0 0 0 0 0 0 0 0 0 
0 0 0 0 0 0 0 0 0 
0 0 0 0 0 0 0 0 0 
0 0 0 0 0 0 0 0 0 
0 0 0 0 0 0 0 0 0 
0 0 0 0 0 0 0 0 0 
0 0 0 0 0 0 0 0 0 
0 0 0 0 0 0 0 0 0 
0 0 0 0 0 0 0 0 0 
0 0 0 0 0 0 0 0 0 
0 0 0 0 0 0 0 0 0 
0 0 0 0 0 0 0 0 0 
0 0 0 0 0 0 0 0 0 
0 0 0 0 0 0 0 0 0 
0 0 0 0 0 0 0 0 0 
0 0 0 0 0 0 0 0 0 
0 0 0 0 0 0 0 0 0 
0 0 0 0 0 0 0 0 0 
0 0 0 0 0 0 0 0 0 
0 0 0 0 0 0 0 0 0 
0 0 0 0 0 0 0 0 0 
0 0 0 0 0 0 0 0 0 
0 0 0 0 0 0 0 0 0 
0 0 0 0 0 0 0 0 0 
0 0 0 0 0 0 0 0 0 
0 0 0 0 0 0 0 0 0 
0 0 0 0 0 0 0 0 0 
0 0 0 0 0 0 0 0 0 
0 0 0 0 0 0 0 0 0 
0 0 0 0 0 0 0 0 0 
0 0 0 0 0 0 0 0 0 
0 0 0 0 0 0 0 0 0 
0 0 0 0 0 0 0 0 0 
0 0 0 0 0 0 0 0 0 
0 0 0 0 0 0 0 0 0 
0 0 0 0 0 0 0 0 0 
0 0 0 0 0 0 0 0 0 
0 0 0 0 0 0 0 0 0 
0 0 0 0 0 0 0 0 0 
0 0 0 0 0 0 0 0 0 
0 0 0 0 0 0 0 0 0 
0 0 0 0 0 0 0 0 0 
0 0 0 0 0 0 0 0 0 
0 0 0 0 0 0 0 0 0 
0 0 0 0 0 0 0 0 0 
0 0 0 0 0 0 0 0 0 
0 0 0 0 0 0 0 0 0 
0 0 0 0 0 0 0 0 0 
0 0 0 0 0 0 0 0 0 
0 0 0 0 0 0 0 0 0 
0 0 0 0 0 0 0 0 0 
0 0 0 0 0 0 0 0 0 
0 0 0 0 0 0 0 0 0 
0 0 0 0 0 0 0 0 0 
0 0 0 0 0 0 0 0 0 
0 0 0 0 0 0 0 0 0 
0 0 0 0 0 0 0 0 0 
0 0 0 0 0 0 0 0 0 
0 0 0 0 0 0 0 0 0 
0 0 0 0 0 0 0 0 0 
0 0 0 0 0 0 0 0 0 
0 0 0 0 0 0 0 0 0 
0 0 0 0 0 0 0 0 0 
0 0 0 0 0 0 0 0 0 
0 0 0 0 0 0 0 0 0 
0 0 0 0 0 0 0 0 0 
0 0 0 0 0 0 0 0 0 
0 0 0 0 0 0 0 0 0 
0 0 0 0 0 0 0 0 0 
0 0 0 0 0 0 0 0 0 
0 0 0 0 0 0 0 0 0 
0 0 0 0 0 0 0 0 0 
0 0 0 0 0 0 0 0 0 
0 0 0 0 0 0 0 0 0 
0 0 0 0 0 0 0 0 0 
0 0 0 0 0 0 0 0 0 
0 0 0 0 0 0 0 0 0 
0 0 0 0 0 0 0 0 0 
0 0 0 0 0 0 0 0 0 
0 0 0 0 0 0 0 0 0 
0 0 0 0 0 0 0 0 0 
0 0 0 0 0 0 0 0 0 
0 0 0 0 0 0 0 0 0 
0 0 0 0 0 0 0 0 0 
0 0 0 0 0 0 0 0 0 
0 0 0 0 0 0 0 0 0 
0 0 0 0 0 0 0 0 0 
0 0 0 0 0 0 0 0 0 
0 0 0 0 0 0 0 0 0 
0 0 0 0 0 0 0 0 0 
0 0 0 0 0 0 0 0 0 
0 0 0 0 0 0 0 0 0 
0 0 0 0 0 0 0 0 0 
0 0 0 0 0 0 0 0 0 
0 0 0 0 0 0 0 0 0 
0 0 0 0 0 0 0 0 0 
0 0 0 0 0 0 0 0 0 
0 0 0 0 0 0 0 0 0 
0 0 0 0 0 0 0 0 0 
0 0 0 0 0 0 0 0 0 
0 0 0 0 0 0 0 0 0 
0 0 0 0 0 0 0 0 0 
0 0 0 0 0 0 0 0 0 
0 0 0 0 0 0 0 0 0 
0 0 0 0 0 0 0 0 0 
0 0 0 0 0 0 0 0 0 
0 0 0 0 0 0 0 0 0 
0 0 0 0 0 0 0 0 0 
0 0 0 0 0 0 0 0 0 
0 0 0 0 0 0 0 0 0 
0 0 0 0 0 0 0 0 0 
0 0 0 0 0 0 0 0 0 
0 0 0 0 0 0 0 0 0 
0 0 0 0 0 0 0 0 0 
0 0 0 0 0 0 0 0 0 
0 0 0 0 0 0 0 0 0 
0 0 0 0 0 0 0 0 0 
0 0 0 0 0 0 0 0 0 
0 0 0 0 0 0 0 0 0 
0 0 0 0 0 0 0 0 0 
0 0 0 0 0 0 0 0 0 
0 0 0 0 0 0 0 0 0 
0 0 0 0 0 0 0 0 0 
0 0 0 0 0 0 0 0 0 
0 0 0 0 0 0 0 0 0 
0 0 0 0 0 0 0 0 0 
0 0 0 0 0 0 0 0 0 
0 0 0 0 0 0 0 0 0 
0 0 0 0 0 0 0 0 0 
0 0 0 0 0 0 0 0 0 
0 0 0 0 0 0 0 0 0 
0 0 0 0 0 0 0 0 0 
0 0 0 0 0 0 0 0 0 
0 0 0 0 0 0 0 0 0 
0 0 0 0 0 0 0 0 0 
0 0 0 0 0 0 0 0 0 
0 0 0 0 0 0 0 0 0 
0 0 0 0 0 0 0 0 0 
0 0 0 0 0 0 0 0 0 
0 0 0 0 0 0 0 0 0 
0 0 0 0 0 0 0 0 0 
0 0 0 0 0 0 0 0 0 
0 0 0 0 0 0 0 0 0 
0 0 0 0 0 0 0 0 0 
0 0 0 0 0 0 0 0 0 
0 0 0 0 0 0 0 0 0 
0 0 0 0 0 0 0 0 0 
0 0 0 0 0 0 0 0 0 
0 0 0 0 0 0 0 0 0 
0 0 0 0 0 0 0 0 0 
0 0 0 0 0 0 0 0 0 
0 0 0 0 0 0 0 0 0 
0 0 0 0 0 0 0 0 0 
0 0 0 0 0 0 0 0 0 
0 0 0 0 0 0 0 0 0 
0 0 0 0 0 0 0 0 0 
0 0 0 0 0 0 0 0 0 
0 0 0 0 0 0 0 0 0 
0 0 0 0 0 0 0 0 0 
0 0 0 0 0 0 0 0 0 
0 0 0 0 0 0 0 0 0 
0 0 0 0 0 0 0 0 0 
0 0 0 0 0 0 0 0 0 
0 0 0 0 0 0 0 0 0 
0 0 0 0 0 0 0 0 0 
0 0 0 0 0 0 0 0 0 
0 0 0 0 0 0 0 0 0 
0 0 0 0 0 0 0 0 0 
0 0 0 0 0 0 0 0 0 
0 0 0 0 0 0 0 0 0 
0 0 0 0 0 0 0 0 0 
0 0 0 0 0 0 0 0 0 
0 0 0 0 0 0 0 0 0 
0 0 0 0 0 0 0 0 0 
0 0 0 0 0 0 0 0 0 
0 0 0 0 0 0 0 0 0 
0 0 0 0 0 0 0 0 0 
0 0 0 0 0 0 0 0 0 
0 0 0 0 0 0 0 0 0 
0 0 0 0 0 0 0 0 0 
0 0 0 0 0 0 0 0 0 
0 0 0 0 0 0 0 0 0 
0 0 0 0 0 0 0 0 0 
0 0 0 0 0 0 0 0 0 
0 0 0 0 0 0 0 0 0 
0 0 0 0 0 0 0 0 0 
0 0 0 0 0 0 0 0 0 
0 0 0 0 0 0 0 0 0 
0 0 0 0 0 0 0 0 0 
0 0 0 0 0 0 0 0 0 
0 0 0 0 0 0 0 0 0 
0 0 0 0 0 0 0 0 0 
0 0 0 0 0 0 0 0 0 
0 0 0 0 0 0 0 0 0 
0 0 0 0 0 0 0 0 0 
0 0 0 0 0 0 0 0 0 
0 0 0 0 0 0 0 0 0 
0 0 0 0 0 0 0 0 0 
0 0 0 0 0 0 0 0 0 
0 0 0 0 0 0 0 0 0 
0 0 0 0 0 0 0 0 0 
0 0 0 0 0 0 0 0 0 
0 0 0 0 0 0 0 0 0 
0 0 0 0 0 0 0 0 0 
0 0 0 0 0 0 0 0 0 
0 0 0 0 0 0 0 0 0 
0 0 0 0 0 0 0 0 0 
0 0 0 0 0 0 0 0 0 
0 0 0 0 0 0 0 0 0 
0 0 0 0 0 0 0 0 0 
0 0 0 0 0 0 0 0 0 
0 0 0 0 0 0 0 0 0 
0 0 0 0 0 0 0 0 0 
0 0 0 0 0 0 0 0 0 
0 0 0 0 0 0 0 0 0 
0 0 0 0 0 0 0 0 0 
0 0 0 0 0 0 0 0 0 
0 0 0 0 0 0 0 0 0 
0 0 0 0 0 0 0 0 0 
0 0 0 0 0 0 
meshid 1 5744 int
0 1 2 3 4 5 6 7 8 
9 10 11 12 13 14 15 16 17 
18 19 20 21 22 23 24 25 26 
27 28 29 30 31 32 33 34 35 
36 37 38 39 40 41 42 43 44 
45 46 47 48 49 50 51 52 53 
54 55 56 57 58 59 60 61 62 
63 64 65 66 67 68 69 70 71 
72 73 74 75 76 77 78 79 80 
81 82 83 84 85 86 87 88 89 
90 91 92 93 94 95 96 97 98 
99 100 101 102 103 104 105 106 107 
108 109 110 111 112 113 114 115 116 
117 118 119 120 121 122 123 124 125 
126 127 128 129 130 131 132 133 134 
135 136 137 138 139 140 141 142 143 
144 145 146 147 148 149 150 151 152 
153 154 155 156 157 158 159 160 161 
162 163 164 165 166 167 168 169 170 
171 172 173 174 175 176 177 178 179 
180 181 182 183 184 185 186 187 188 
189 190 191 192 193 194 195 196 197 
198 199 200 201 202 203 204 205 206 
207 208 209 210 211 212 213 214 215 
216 217 218 219 220 221 222 223 224 
225 226 227 228 229 230 231 232 233 
234 235 236 237 238 239 240 241 242 
243 244 245 246 247 248 249 250 251 
252 253 254 255 256 257 258 259 260 
261 262 263 264 265 266 267 268 269 
270 271 272 273 274 275 276 277 278 
279 280 281 282 283 284 285 286 287 
288 289 290 291 292 293 294 295 296 
297 298 299 300 301 302 303 304 305 
306 307 308 309 310 311 312 313 314 
315 316 317 318 319 320 321 322 323 
324 325 326 327 328 329 330 331 332 
333 334 335 336 337 338 339 340 341 
342 343 344 345 346 347 348 349 350 
351 352 353 354 355 356 357 358 359 
360 361 362 363 364 365 366 367 368 
369 370 371 372 373 374 375 376 377 
378 379 380 381 382 383 384 385 386 
387 388 389 390 391 392 393 394 395 
396 397 398 399 400 401 402 403 404 
405 406 407 408 409 410 411 412 413 
414 415 416 417 418 419 420 421 422 
423 424 425 426 427 428 429 430 431 
432 433 434 435 436 437 438 439 440 
441 442 443 444 445 446 447 448 449 
450 451 452 453 454 455 456 457 458 
459 460 461 462 463 464 465 466 467 
468 469 470 471 472 473 474 475 476 
477 478 479 480 481 482 483 484 485 
486 487 488 489 490 491 492 493 494 
495 496 497 498 499 500 501 502 503 
504 505 506 507 508 509 510 511 512 
513 514 515 516 517 518 519 520 521 
522 523 524 525 526 527 528 529 530 
531 532 533 534 535 536 537 538 539 
540 541 542 543 544 545 546 547 548 
549 550 551 552 553 554 555 556 557 
558 559 560 561 562 563 564 565 566 
567 568 569 570 571 572 573 574 575 
576 577 578 579 580 581 582 583 584 
585 586 587 588 589 590 591 592 593 
594 595 596 597 598 599 600 601 602 
603 604 605 606 607 608 609 610 611 
612 613 614 615 616 617 618 619 620 
621 622 623 624 625 626 627 628 629 
630 631 632 633 634 635 636 637 638 
639 640 641 642 643 644 645 646 647 
648 649 650 651 652 653 654 655 656 
657 658 659 660 661 662 663 664 665 
666 667 668 669 670 671 672 673 674 
675 676 677 678 679 680 681 682 683 
684 685 686 687 688 689 690 691 692 
693 694 695 696 697 698 699 700 701 
702 703 704 705 706 707 708 709 710 
711 712 713 714 715 716 717 718 719 
720 721 722 723 724 725 726 727 728 
729 730 731 732 733 734 735 736 737 
738 739 740 741 742 743 744 745 746 
747 748 749 750 751 752 753 754 755 
756 757 758 759 760 761 762 763 764 
765 766 767 768 769 770 771 772 773 
774 775 776 777 778 779 780 781 782 
783 784 785 786 787 788 789 790 791 
792 793 794 795 796 797 798 799 800 
801 802 803 804 805 806 807 808 809 
810 811 812 813 814 815 816 817 818 
819 820 821 822 823 824 825 826 827 
828 829 830 831 832 833 834 835 836 
837 838 839 840 841 842 843 844 845 
846 847 848 849 850 851 852 853 854 
855 856 857 858 859 860 861 862 863 
864 865 866 867 868 869 870 871 872 
873 874 875 876 877 878 879 880 881 
882 883 884 885 886 887 888 889 890 
891 892 893 894 895 896 897 898 899 
900 901 902 903 904 905 906 907 908 
909 910 911 912 913 914 915 916 917 
918 919 920 921 922 923 924 925 926 
927 928 929 930 931 932 933 934 935 
936 937 938 939 940 941 942 943 944 
945 946 947 948 949 950 951 952 953 
954 955 956 957 958 959 960 961 962 
963 964 965 966 967 968 969 970 971 
972 973 974 975 976 977 978 979 980 
981 982 983 984 985 986 987 988 989 
990 991 992 993 994 995 996 997 998 
999 1000 1001 1002 1003 1004 1005 1006 1007 
1008 1009 1010 1011 1012 1013 1014 1015 1016 
1017 1018 1019 1020 1021 1022 1023 1024 1025 
1026 1027 1028 1029 1030 1031 1032 1033 1034 
1035 1036 1037 1038 1039 1040 1041 1042 1043 
1044 1045 1046 1047 1048 1049 1050 1051 1052 
1053 1054 1055 1056 1057 1058 1059 1060 1061 
1062 1063 1064 1065 1066 1067 1068 1069 1070 
1071 1072 1073 1074 1075 1076 1077 1078 1079 
1080 1081 1082 1083 1084 1085 1086 1087 1088 
1089 1090 1091 1092 1093 1094 1095 1096 1097 
1098 1099 1100 1101 1102 1103 1104 1105 1106 
1107 1108 1109 1110 1111 1112 1113 1114 1115 
1116 1117 1118 1119 1120 1121 1122 1123 1124 
1125 1126 1127 1128 1129 1130 1131 1132 1133 
1134 1135 1136 1137 1138 1139 1140 1141 1142 
1143 1144 1145 1146 1147 1148 1149 1150 1151 
1152 1153 1154 1155 1156 1157 1158 1159 1160 
1161 1162 1163 1164 1165 1166 1167 1168 1169 
1170 1171 1172 1173 1174 1175 1176 1177 1178 
1179 1180 1181 1182 1183 1184 1185 1186 1187 
1188 1189 1190 1191 1192 1193 1194 1195 1196 
1197 1198 1199 1200 1201 1202 1203 1204 1205 
1206 1207 1208 1209 1210 1211 1212 1213 1214 
1215 1216 1217 1218 1219 1220 1221 1222 1223 
1224 1225 1226 1227 1228 1229 1230 1231 1232 
1233 1234 1235 1236 1237 1238 1239 1240 1241 
1242 1243 1244 1245 1246 1247 1248 1249 1250 
1251 1252 1253 1254 1255 1256 1257 1258 1259 
1260 1261 1262 1263 1264 1265 1266 1267 1268 
1269 1270 1271 1272 1273 1274 1275 1276 1277 
1278 1279 1280 1281 1282 1283 1284 1285 1286 
1287 1288 1289 1290 1291 1292 1293 1294 1295 
1296 1297 1298 1299 1300 1301 1302 1303 1304 
1305 1306 1307 1308 1309 1310 1311 1312 1313 
1314 1315 1316 1317 1318 1319 1320 1321 1322 
1323 1324 1325 1326 1327 1328 1329 1330 1331 
1332 1333 1334 1335 1336 1337 1338 1339 1340 
1341 1342 1343 1344 1345 1346 1347 1348 1349 
1350 1351 1352 1353 1354 1355 1356 1357 1358 
1359 1360 1361 1362 1363 1364 1365 1366 1367 
1368 1369 1370 1371 1372 1373 1374 1375 1376 
1377 1378 1379 1380 1381 1382 1383 1384 1385 
1386 1387 1388 1389 1390 1391 1392 1393 1394 
1395 1396 1397 1398 1399 1400 1401 1402 1403 
1404 1405 1406 1407 1408 1409 1410 1411 1412 
1413 1414 1415 1416 1417 1418 1419 1420 1421 
1422 1423 1424 1425 1426 1427 1428 1429 1430 
1431 1432 1433 1434 1435 1436 1437 1438 1439 
1440 1441 1442 1443 1444 1445 1446 1447 1448 
1449 1450 1451 1452 1453 1454 1455 1456 1457 
1458 1459 1460 1461 1462 1463 1464 1465 1466 
1467 1468 1469 1470 1471 1472 1473 1474 1475 
1476 1477 1478 1479 1480 1481 1482 1483 1484 
1485 1486 1487 1488 1489 1490 1491 1492 1493 
1494 1495 1496 1497 1498 1499 1500 1501 1502 
1503 1504 1505 1506 1507 1508 1509 1510 1511 
1512 1513 1514 1515 1516 1517 1518 1519 1520 
1521 1522 1523 1524 1525 1526 1527 1528 1529 
1530 1531 1532 1533 1534 1535 1536 1537 1538 
1539 1540 1541 1542 1543 1544 1545 1546 1547 
1548 1549 1550 1551 1552 1553 1554 1555 1556 
1557 1558 1559 1560 1561 1562 1563 1564 1565 
1566 1567 1568 1569 1570 1571 1572 1573 1574 
1575 1576 1577 1578 1579 1580 1581 1582 1583 
1584 1585 1586 1587 1588 1589 1590 1591 1592 
1593 1594 1595 1596 1597 1598 1599 1600 1601 
1602 1603 1604 1605 1606 1607 1608 1609 1610 
1611 1612 1613 1614 1615 1616 1617 1618 1619 
1620 1621 1622 1623 1624 1625 1626 1627 1628 
1629 1630 1631 1632 1633 1634 1635 1636 1637 
1638 1639 1640 1641 1642 1643 1644 1645 1646 
1647 1648 1649 1650 1651 1652 1653 1654 1655 
1656 1657 1658 1659 1660 1661 1662 1663 1664 
1665 1666 1667 1668 1669 1670 1671 1672 1673 
1674 1675 1676 1677 1678 1679 1680 1681 1682 
1683 1684 1685 1686 1687 1688 1689 1690 1691 
1692 1693 1694 1695 1696 1697 1698 1699 1700 
1701 1702 1703 1704 1705 1706 1707 1708 1709 
1710 1711 1712 1713 1714 1715 1716 1717 1718 
1719 1720 1721 1722 1723 1724 1725 1726 1727 
1728 1729 1730 1731 1732 1733 1734 1735 1736 
1737 1738 1739 1740 1741 1742 1743 1744 1745 
1746 1747 1748 1749 1750 1751 1752 1753 1754 
1755 1756 1757 1758 1759 1760 1761 1762 1763 
1764 1765 1766 1767 1768 1769 1770 1771 1772 
1773 1774 1775 1776 1777 1778 1779 1780 1781 
1782 1783 1784 1785 1786 1787 1788 1789 1790 
1791 1792 1793 1794 1795 1796 1797 1798 1799 
1800 1801 1802 1803 1804 1805 1806 1807 1808 
1809 1810 1811 1812 1813 1814 1815 1816 1817 
1818 1819 1820 1821 1822 1823 1824 1825 1826 
1827 1828 1829 1830 1831 1832 1833 1834 1835 
1836 1837 1838 1839 1840 1841 1842 1843 1844 
1845 1846 1847 1848 1849 1850 1851 1852 1853 
1854 1855 1856 1857 1858 1859 1860 1861 1862 
1863 1864 1865 1866 1867 1868 1869 1870 1871 
1872 1873 1874 1875 1876 1877 1878 1879 1880 
1881 1882 1883 1884 1885 1886 1887 1888 1889 
1890 1891 1892 1893 1894 1895 1896 1897 1898 
1899 1900 1901 1902 1903 1904 1905 1906 1907 
1908 1909 1910 1911 1912 1913 1914 1915 1916 
1917 1918 1919 1920 1921 1922 1923 1924 1925 
1926 1927 1928 1929 1930 1931 1932 1933 1934 
1935 1936 1937 1938 1939 1940 1941 1942 1943 
1944 1945 1946 1947 1948 1949 1950 1951 1952 
1953 1954 1955 1956 1957 1958 1959 1960 1961 
1962 1963 1964 1965 1966 1967 1968 1969 1970 
1971 1972 1973 1974 1975 1976 1977 1978 1979 
1980 1981 1982 1983 1984 1985 1986 1987 1988 
1989 1990 1991 1992 1993 1994 1995 1996 1997 
1998 1999 2000 2001 2002 2003 2004 2005 2006 
2007 2008 2009 2010 2011 2012 2013 2014 2015 
2016 2017 2018 2019 2020 2021 2022 2023 2024 
2025 2026 2027 2028 2029 2030 2031 2032 2033 
2034 2035 2036 2037 2038 2039 2040 2041 2042 
2043 2044 2045 2046 2047 2048 2049 2050 2051 
2052 2053 2054 2055 2056 2057 2058 2059 2060 
2061 2062 2063 2064 2065 2066 2067 2068 2069 
2070 2071 2072 2073 2074 2075 2076 2077 2078 
2079 2080 2081 2082 2083 2084 2085 2086 2087 
2088 2089 2090 2091 2092 2093 2094 2095 2096 
2097 2098 2099 2100 2101 2102 2103 2104 2105 
2106 2107 2108 2109 2110 2111 2112 2113 2114 
2115 2116 2117 2118 2119 2120 2121 2122 2123 
2124 2125 2126 2127 2128 2129 2130 2131 2132 
2133 2134 2135 2136 2137 2138 2139 2140 2141 
2142 2143 2144 2145 2146 2147 2148 2149 2150 
2151 2152 2153 2154 2155 2156 2157 2158 2159 
2160 2161 2162 2163 2164 2165 2166 2167 2168 
2169 2170 2171 2172 2173 2174 2175 2176 2177 
2178 2179 2180 2181 2182 2183 2184 2185 2186 
2187 2188 2189 2190 2191 2192 2193 2194 2195 
2196 2197 2198 2199 2200 2201 2202 2203 2204 
2205 2206 2207 2208 2209 2210 2211 2212 2213 
2214 2215 2216 2217 2218 2219 2220 2221 2222 
2223 2224 2225 2226 2227 2228 2229 2230 2231 
2232 2233 2234 2235 2236 2237 2238 2239 2240 
2241 2242 2243 2244 2245 2246 2247 2248 2249 
2250 2251 2252 2253 2254 2255 2256 2257 2258 
2259 2260 2261 2262 2263 2264 2265 2266 2267 
2268 2269 2270 2271 2272 2273 2274 2275 2276 
2277 2278 2279 2280 2281 2282 2283 2284 2285 
2286 2287 2288 2289 2290 2291 2292 2293 2294 
2295 2296 2297 2298 2299 2300 2301 2302 2303 
2304 2305 2306 2307 2308 2309 2310 2311 2312 
2313 2314 2315 2316 2317 2318 2319 2320 2321 
2322 2323 2324 2325 2326 2327 2328 2329 2330 
2331 2332 2333 2334 2335 2336 2337 2338 2339 
2340 2341 2342 2343 2344 2345 2346 2347 2348 
2349 2350 2351 2352 2353 2354 2355 2356 2357 
2358 2359 2360 2361 2362 2363 2364 2365 2366 
2367 2368 2369 2370 2371 2372 2373 2374 2375 
2376 2377 2378 2379 2380 2381 2382 2383 2384 
2385 2386 2387 2388 2389 2390 2391 2392 2393 
2394 2395 2396 2397 2398 2399 2400 2401 2402 
2403 2404 2405 2406 2407 2408 2409 2410 2411 
2412 2413 2414 2415 2416 2417 2418 2419 2420 
2421 2422 2423 2424 2425 2426 2427 2428 2429 
2430 2431 2432 2433 2434 2435 2436 2437 2438 
2439 2440 2441 2442 2443 2444 2445 2446 2447 
2448 2449 2450 2451 2452 2453 2454 2455 2456 
2457 2458 2459 2460 2461 2462 2463 2464 2465 
2466 2467 2468 2469 2470 2471 2472 2473 2474 
2475 2476 2477 2478 2479 2480 2481 2482 2483 
2484 2485 2486 2487 2488 2489 2490 2491 2492 
2493 2494 2495 2496 2497 2498 2499 2500 2501 
2502 2503 2504 2505 2506 2507 2508 2509 2510 
2511 2512 2513 2514 2515 2516 2517 2518 2519 
2520 2521 2522 2523 2524 2525 2526 2527 2528 
2529 2530 2531 2532 2533 2534 2535 2536 2537 
2538 2539 2540 2541 2542 2543 2544 2545 2546 
2547 2548 2549 2550 2551 2552 2553 2554 2555 
2556 2557 2558 2559 2560 2561 2562 2563 2564 
2565 2566 2567 2568 2569 2570 2571 2572 2573 
2574 2575 2576 2577 2578 2579 2580 2581 2582 
2583 2584 2585 2586 2587 2588 2589 2590 2591 
2592 2593 2594 2595 2596 2597 2598 2599 2600 
2601 2602 2603 2604 2605 2606 2607 2608 2609 
2610 2611 2612 2613 2614 2615 2616 2617 2618 
2619 2620 2621 2622 2623 2624 2625 2626 2627 
2628 2629 2630 2631 2632 2633 2634 2635 2636 
2637 2638 2639 2640 2641 2642 2643 2644 2645 
2646 2647 2648 2649 2650 2651 2652 2653 2654 
2655 2656 2657 2658 2659 2660 2661 2662 2663 
2664 2665 2666 2667 2668 2669 2670 2671 2672 
2673 2674 2675 2676 2677 2678 2679 2680 2681 
2682 2683 2684 2685 2686 2687 2688 2689 2690 
2691 2692 2693 2694 2695 2696 2697 2698 2699 
2700 2701 2702 2703 2704 2705 2706 2707 2708 
2709 2710 2711 2712 2713 2714 2715 2716 2717 
2718 2719 2720 2721 2722 2723 2724 2725 2726 
2727 2728 2729 2730 2731 2732 2733 2734 2735 
2736 2737 2738 2739 2740 2741 2742 2743 2744 
2745 2746 2747 2748 2749 2750 2751 2752 2753 
2754 2755 2756 2757 2758 2759 2760 2761 2762 
2763 2764 2765 2766 2767 2768 2769 2770 2771 
2772 2773 2774 2775 2776 2777 2778 2779 2780 
2781 2782 2783 2784 2785 2786 2787 2788 2789 
2790 2791 2792 2793 2794 2795 2796 2797 2798 
2799 2800 2801 2802 2803 2804 2805 2806 2807 
2808 2809 2810 2811 2812 2813 2814 2815 2816 
2817 2818 2819 2820 2821 2822 2823 2824 2825 
2826 2827 2828 2829 2830 2831 2832 2833 2834 
2835 2836 2837 2838 2839 2840 2841 2842 2843 
2844 2845 2846 2847 2848 2849 2850 2851 2852 
2853 2854 2855 2856 2857 2858 2859 2860 2861 
2862 2863 2864 2865 2866 2867 2868 2869 2870 
2871 2872 2873 2874 2875 2876 2877 2878 2879 
2880 2881 2882 2883 2884 2885 2886 2887 2888 
2889 2890 2891 2892 2893 2894 2895 2896 2897 
2898 2899 2900 2901 2902 2903 2904 2905 2906 
2907 2908 2909 2910 2911 2912 2913 2914 2915 
2916 2917 2918 2919 2920 2921 2922 2923 2924 
2925 2926 2927 2928 2929 2930 2931 2932 2933 
2934 2935 2936 2937 2938 2939 2940 2941 2942 
2943 2944 2945 2946 2947 2948 2949 2950 2951 
2952 2953 2954 2955 2956 2957 2958 2959 2960 
2961 2962 2963 2964 2965 2966 2967 2968 2969 
2970 2971 2972 2973 2974 2975 2976 2977 2978 
2979 2980 2981 2982 2983 2984 2985 2986 2987 
2988 2989 2990 2991 2992 2993 2994 2995 2996 
2997 2998 2999 3000 3001 3002 3003 3004 3005 
3006 3007 3008 3009 3010 3011 3012 3013 3014 
3015 3016 3017 3018 3019 3020 3021 3022 3023 
3024 3025 3026 3027 3028 3029 3030 3031 3032 
3033 3034 3035 3036 3037 3038 3039 3040 3041 
3042 3043 3044 3045 3046 3047 3048 3049 3050 
3051 3052 3053 3054 3055 3056 3057 3058 3059 
3060 3061 3062 3063 3064 3065 3066 3067 3068 
3069 3070 3071 3072 3073 3074 3075 3076 3077 
3078 3079 3080 3081 3082 3083 3084 3085 3086 
3087 3088 3089 3090 3091 3092 3093 3094 3095 
3096 3097 3098 3099 3100 3101 3102 3103 3104 
3105 3106 3107 3108 3109 3110 3111 3112 3113 
3114 3115 3116 3117 3118 3119 3120 3121 3122 
3123 3124 3125 3126 3127 3128 3129 3130 3131 
3132 3133 3134 3135 3136 3137 3138 3139 3140 
3141 3142 3143 3144 3145 3146 3147 3148 3149 
3150 3151 3152 3153 3154 3155 3156 3157 3158 
3159 3160 3161 3162 3163 3164 3165 3166 3167 
3168 3169 3170 3171 3172 3173 3174 3175 3176 
3177 3178 3179 3180 3181 3182 3183 3184 3185 
3186 3187 3188 3189 3190 3191 3192 3193 3194 
3195 3196 3197 3198 3199 3200 3201 3202 3203 
3204 3205 3206 3207 3208 3209 3210 3211 3212 
3213 3214 3215 3216 3217 3218 3219 3220 3221 
3222 3223 3224 3225 3226 3227 3228 3229 3230 
3231 3232 3233 3234 3235 3236 3237 3238 3239 
3240 3241 3242 3243 3244 3245 3246 3247 3248 
3249 3250 3251 3252 3253 3254 3255 3256 3257 
3258 3259 3260 3261 3262 3263 3264 3265 3266 
3267 3268 3269 3270 3271 3272 3273 3274 3275 
3276 3277 3278 3279 3280 3281 3282 3283 3284 
3285 3286 3287 3288 3289 3290 3291 3292 3293 
3294 3295 3296 3297 3298 3299 3300 3301 3302 
3303 3304 3305 3306 3307 3308 3309 3310 3311 
3312 3313 3314 3315 3316 3317 3318 3319 3320 
3321 3322 3323 3324 3325 3326 3327 3328 3329 
3330 3331 3332 3333 3334 3335 3336 3337 3338 
3339 3340 3341 3342 3343 3344 3345 3346 3347 
3348 3349 3350 3351 3352 3353 3354 3355 3356 
3357 3358 3359 3360 3361 3362 3363 3364 3365 
3366 3367 3368 3369 3370 3371 3372 3373 3374 
3375 3376 3377 3378 3379 3380 3381 3382 3383 
3384 3385 3386 3387 3388 3389 3390 3391 3392 
3393 3394 3395 3396 3397 3398 3399 3400 3401 
3402 3403 3404 3405 3406 3407 3408 3409 3410 
3411 3412 3413 3414 3415 3416 3417 3418 3419 
3420 3421 3422 3423 3424 3425 3426 3427 3428 
3429 3430 3431 3432 3433 3434 3435 3436 3437 
3438 3439 3440 3441 3442 3443 3444 3445 3446 
3447 3448 3449 3450 3451 3452 3453 3454 3455 
3456 3457 3458 3459 3460 3461 3462 3463 3464 
3465 3466 3467 3468 3469 3470 3471 3472 3473 
3474 3475 3476 3477 3478 3479 3480 3481 3482 
3483 3484 3485 3486 3487 3488 3489 3490 3491 
3492 3493 3494 3495 3496 3497 3498 3499 3500 
3501 3502 3503 3504 3505 3506 3507 3508 3509 
3510 3511 3512 3513 3514 3515 3516 3517 3518 
3519 3520 3521 3522 3523 3524 3525 3526 3527 
3528 3529 3530 3531 3532 3533 3534 3535 3536 
3537 3538 3539 3540 3541 3542 3543 3544 3545 
3546 3547 3548 3549 3550 3551 3552 3553 3554 
3555 3556 3557 3558 3559 3560 3561 3562 3563 
3564 3565 3566 3567 3568 3569 3570 3571 3572 
3573 3574 3575 3576 3577 3578 3579 3580 3581 
3582 3583 3584 3585 3586 3587 3588 3589 3590 
3591 3592 3593 3594 3595 3596 3597 3598 3599 
3600 3601 3602 3603 3604 3605 3606 3607 3608 
3609 3610 3611 3612 3613 3614 3615 3616 3617 
3618 3619 3620 3621 3622 3623 3624 3625 3626 
3627 3628 3629 3630 3631 3632 3633 3634 3635 
3636 3637 3638 3639 3640 3641 3642 3643 3644 
3645 3646 3647 3648 3649 3650 3651 3652 3653 
3654 3655 3656 3657 3658 3659 3660 3661 3662 
3663 3664 3665 3666 3667 3668 3669 3670 3671 
3672 3673 3674 3675 3676 3677 3678 3679 3680 
3681 3682 3683 3684 3685 3686 3687 3688 3689 
3690 3691 3692 3693 3694 3695 3696 3697 3698 
3699 3700 3701 3702 3703 3704 3705 3706 3707 
3708 3709 3710 3711 3712 3713 3714 3715 3716 
3717 3718 3719 3720 3721 3722 3723 3724 3725 
3726 3727 3728 3729 3730 3731 3732 3733 3734 
3735 3736 3737 3738 3739 3740 3741 3742 3743 
3744 3745 3746 3747 3748 3749 3750 3751 3752 
3753 3754 3755 3756 3757 3758 3759 3760 3761 
3762 3763 3764 3765 3766 3767 3768 3769 3770 
3771 3772 3773 3774 3775 3776 3777 3778 3779 
3780 3781 3782 3783 3784 3785 3786 3787 3788 
3789 3790 3791 3792 3793 3794 3795 3796 3797 
3798 3799 3800 3801 3802 3803 3804 3805 3806 
3807 3808 3809 3810 3811 3812 3813 3814 3815 
3816 3817 3818 3819 3820 3821 3822 3823 3824 
3825 3826 3827 3828 3829 3830 3831 3832 3833 
3834 3835 3836 3837 3838 3839 3840 3841 3842 
3843 3844 3845 3846 3847 3848 3849 3850 3851 
3852 3853 3854 3855 3856 3857 3858 3859 3860 
3861 3862 3863 3864 3865 3866 3867 3868 3869 
3870 3871 3872 3873 3874 3875 3876 3877 3878 
3879 3880 3881 3882 3883 3884 3885 3886 3887 
3888 3889 3890 3891 3892 3893 3894 3895 3896 
3897 3898 3899 3900 3901 3902 3903 3904 3905 
3906 3907 3908 3909 3910 3911 3912 3913 3914 
3915 3916 3917 3918 3919 3920 3921 3922 3923 
3924 3925 3926 3927 3928 3929 3930 3931 3932 
3933 3934 3935 3936 3937 3938 3939 3940 3941 
3942 3943 3944 3945 3946 3947 3948 3949 3950 
3951 3952 3953 3954 3955 3956 3957 3958 3959 
3960 3961 3962 3963 3964 3965 3966 3967 3968 
3969 3970 3971 3972 3973 3974 3975 3976 3977 
3978 3979 3980 3981 3982 3983 3984 3985 3986 
3987 3988 3989 3990 3991 3992 3993 3994 3995 
3996 3997 3998 3999 4000 4001 4002 4003 4004 
4005 4006 4007 4008 4009 4010 4011 4012 4013 
4014 4015 4016 4017 4018 4019 4020 4021 4022 
4023 4024 4025 4026 4027 4028 4029 4030 4031 
4032 4033 4034 4035 4036 4037 4038 4039 4040 
4041 4042 4043 4044 4045 4046 4047 4048 4049 
4050 4051 4052 4053 4054 4055 4056 4057 4058 
4059 4060 4061 4062 4063 4064 4065 4066 4067 
4068 4069 4070 4071 4072 4073 4074 4075 4076 
4077 4078 4079 4080 4081 4082 4083 4084 4085 
4086 4087 4088 4089 4090 4091 4092 4093 4094 
4095 4096 4097 4098 4099 4100 4101 4102 4103 
4104 4105 4106 4107 4108 4109 4110 4111 4112 
4113 4114 4115 4116 4117 4118 4119 4120 4121 
4122 4123 4124 4125 4126 4127 4128 4129 4130 
4131 4132 4133 4134 4135 4136 4137 4138 4139 
4140 4141 4142 4143 4144 4145 4146 4147 4148 
4149 4150 4151 4152 4153 4154 4155 4156 4157 
4158 4159 4160 4161 4162 4163 4164 4165 4166 
4167 4168 4169 4170 4171 4172 4173 4174 4175 
4176 4177 4178 4179 4180 4181 4182 4183 4184 
4185 4186 4187 4188 4189 4190 4191 4192 4193 
4194 4195 4196 4197 4198 4199 4200 4201 4202 
4203 4204 4205 4206 4207 4208 4209 4210 4211 
4212 4213 4214 4215 4216 4217 4218 4219 4220 
4221 4222 4223 4224 4225 4226 4227 4228 4229 
4230 4231 4232 4233 4234 4235 4236 4237 4238 
4239 4240 4241 4242 4243 4244 4245 4246 4247 
4248 4249 4250 4251 4252 4253 4254 4255 4256 
4257 4258 4259 4260 4261 4262 4263 4264 4265 
4266 4267 4268 4269 4270 4271 4272 4273 4274 
4275 4276 4277 4278 4279 4280 4281 4282 4283 
4284 4285 4286 4287 4288 4289 4290 4291 4292 
4293 4294 4295 4296 4297 4298 4299 4300 4301 
4302 4303 4304 4305 4306 4307 4308 4309 4310 
4311 4312 4313 4314 4315 4316 4317 4318 4319 
4320 4321 4322 4323 4324 4325 4326 4327 4328 
4329 4330 4331 4332 4333 4334 4335 4336 4337 
4338 4339 4340 4341 4342 4343 4344 4345 4346 
4347 4348 4349 4350 4351 4352 4353 4354 4355 
4356 4357 4358 4359 4360 4361 4362 4363 4364 
4365 4366 4367 4368 4369 4370 4371 4372 4373 
4374 4375 4376 4377 4378 4379 4380 4381 4382 
4383 4384 4385 4386 4387 4388 4389 4390 4391 
4392 4393 4394 4395 4396 4397 4398 4399 4400 
4401 4402 4403 4404 4405 4406 4407 4408 4409 
4410 4411 4412 4413 4414 4415 4416 4417 4418 
4419 4420 4421 4422 4423 4424 4425 4426 4427 
4428 4429 4430 4431 4432 4433 4434 4435 4436 
4437 4438 4439 4440 4441 4442 4443 4444 4445 
4446 4447 4448 4449 4450 4451 4452 4453 4454 
4455 4456 4457 4458 4459 4460 4461 4462 4463 
4464 4465 4466 4467 4468 4469 4470 4471 4472 
4473 4474 4475 4476 4477 4478 4479 4480 4481 
4482 4483 4484 4485 4486 4487 4488 4489 4490 
4491 4492 4493 4494 4495 4496 4497 4498 4499 
4500 4501 4502 4503 4504 4505 4506 4507 4508 
4509 4510 4511 4512 4513 4514 4515 4516 4517 
4518 4519 4520 4521 4522 4523 4524 4525 4526 
4527 4528 4529 4530 4531 4532 4533 4534 4535 
4536 4537 4538 4539 4540 4541 4542 4543 4544 
4545 4546 4547 4548 4549 4550 4551 4552 4553 
4554 4555 4556 4557 4558 4559 4560 4561 4562 
4563 4564 4565 4566 4567 4568 4569 4570 4571 
4572 4573 4574 4575 4576 4577 4578 4579 4580 
4581 4582 4583 4584 4585 4586 4587 4588 4589 
4590 4591 4592 4593 4594 4595 4596 4597 4598 
4599 4600 4601 4602 4603 4604 4605 4606 4607 
4608 4609 4610 4611 4612 4613 4614 4615 4616 
4617 4618 4619 4620 4621 4622 4623 4624 4625 
4626 4627 4628 4629 4630 4631 4632 4633 4634 
4635 4636 4637 4638 4639 4640 4641 4642 4643 
4644 4645 4646 4647 4648 4649 4650 4651 4652 
4653 4654 4655 4656 4657 4658 4659 4660 4661 
4662 4663 4664 4665 4666 4667 4668 4669 4670 
4671 4672 4673 4674 4675 4676 4677 4678 4679 
4680 4681 4682 4683 4684 4685 4686 4687 4688 
4689 4690 4691 4692 4693 4694 4695 4696 4697 
4698 4699 4700 4701 4702 4703 4704 4705 4706 
4707 4708 4709 4710 4711 4712 4713 4714 4715 
4716 4717 4718 4719 4720 4721 4722 4723 4724 
4725 4726 4727 4728 4729 4730 4731 4732 4733 
4734 4735 4736 4737 4738 4739 4740 4741 4742 
4743 4744 4745 4746 4747 4748 4749 4750 4751 
4752 4753 4754 4755 4756 4757 4758 4759 4760 
4761 4762 4763 4764 4765 4766 4767 4768 4769 
4770 4771 4772 4773 4774 4775 4776 4777 4778 
4779 4780 4781 4782 4783 4784 4785 4786 4787 
4788 4789 4790 4791 4792 4793 4794 4795 4796 
4797 4798 4799 4800 4801 4802 4803 4804 4805 
4806 4807 4808 4809 4810 4811 4812 4813 4814 
4815 4816 4817 4818 4819 4820 4821 4822 4823 
4824 4825 4826 4827 4828 4829 4830 4831 4832 
4833 4834 4835 4836 4837 4838 4839 4840 4841 
4842 4843 4844 4845 4846 4847 4848 4849 4850 
4851 4852 4853 4854 4855 4856 4857 4858 4859 
4860 4861 4862 4863 4864 4865 4866 4867 4868 
4869 4870 4871 4872 4873 4874 4875 4876 4877 
4878 4879 4880 4881 4882 4883 4884 4885 4886 
4887 4888 4889 4890 4891 4892 4893 4894 4895 
4896 4897 4898 4899 4900 4901 4902 4903 4904 
4905 4906 4907 4908 4909 4910 4911 4912 4913 
4914 4915 4916 4917 4918 4919 4920 4921 4922 
4923 4924 4925 4926 4927 4928 4929 4930 4931 
4932 4933 4934 4935 4936 4937 4938 4939 4940 
4941 4942 4943 4944 4945 4946 4947 4948 4949 
4950 4951 4952 4953 4954 4955 4956 4957 4958 
4959 4960 4961 4962 4963 4964 4965 4966 4967 
4968 4969 4970 4971 4972 4973 4974 4975 4976 
4977 4978 4979 4980 4981 4982 4983 4984 4985 
4986 4987 4988 4989 4990 4991 4992 4993 4994 
4995 4996 4997 4998 4999 5000 5001 5002 5003 
5004 5005 5006 5007 5008 5009 5010 5011 5012 
5013 5014 5015 5016 5017 5018 5019 5020 5021 
5022 5023 5024 5025 5026 5027 5028 5029 5030 
5031 5032 5033 5034 5035 5036 5037 5038 5039 
5040 5041 5042 5043 5044 5045 5046 5047 5048 
5049 5050 5051 5052 5053 5054 5055 5056 5057 
5058 5059 5060 5061 5062 5063 5064 5065 5066 
5067 5068 5069 5070 5071 5072 5073 5074 5075 
5076 5077 5078 5079 5080 5081 5082 5083 5084 
5085 5086 5087 5088 5089 5090 5091 5092 5093 
5094 5095 5096 5097 5098 5099 5100 5101 5102 
5103 5104 5105 5106 5107 5108 5109 5110 5111 
5112 5113 5114 5115 5116 5117 5118 5119 5120 
5121 5122 5123 5124 5125 5126 5127 5128 5129 
5130 5131 5132 5133 5134 5135 5136 5137 5138 
5139 5140 5141 5142 5143 5144 5145 5146 5147 
5148 5149 5150 5151 5152 5153 5154 5155 5156 
5157 5158 5159 5160 5161 5162 5163 5164 5165 
5166 5167 5168 5169 5170 5171 5172 5173 5174 
5175 5176 5177 5178 5179 5180 5181 5182 5183 
5184 5185 5186 5187 5188 5189 5190 5191 5192 
5193 5194 5195 5196 5197 5198 5199 5200 5201 
5202 5203 5204 5205 5206 5207 5208 5209 5210 
5211 5212 5213 5214 5215 5216 5217 5218 5219 
5220 5221 5222 5223 5224 5225 5226 5227 5228 
5229 5230 5231 5232 5233 5234 5235 5236 5237 
5238 5239 5240 5241 5242 5243 5244 5245 5246 
5247 5248 5249 5250 5251 5252 5253 5254 5255 
5256 5257 5258 5259 5260 5261 5262 5263 5264 
5265 5266 5267 5268 5269 5270 5271 5272 5273 
5274 5275 5276 5277 5278 5279 5280 5281 5282 
5283 5284 5285 5286 5287 5288 5289 5290 5291 
5292 5293 5294 5295 5296 5297 5298 5299 5300 
5301 5302 5303 5304 5305 5306 5307 5308 5309 
5310 5311 5312 5313 5314 5315 5316 5317 5318 
5319 5320 5321 5322 5323 5324 5325 5326 5327 
5328 5329 5330 5331 5332 5333 5334 5335 5336 
5337 5338 5339 5340 5341 5342 5343 5344 5345 
5346 5347 5348 5349 5350 5351 5352 5353 5354 
5355 5356 5357 5358 5359 5360 5361 5362 5363 
5364 5365 5366 5367 5368 5369 5370 5371 5372 
5373 5374 5375 5376 5377 5378 5379 5380 5381 
5382 5383 5384 5385 5386 5387 5388 5389 5390 
5391 5392 5393 5394 5395 5396 5397 5398 5399 
5400 5401 5402 5403 5404 5405 5406 5407 5408 
5409 5410 5411 5412 5413 5414 5415 5416 5417 
5418 5419 5420 5421 5422 5423 5424 5425 5426 
5427 5428 5429 5430 5431 5432 5433 5434 5435 
5436 5437 5438 5439 5440 5441 5442 5443 5444 
5445 5446 5447 5448 5449 5450 5451 5452 5453 
5454 5455 5456 5457 5458 5459 5460 5461 5462 
5463 5464 5465 5466 5467 5468 5469 5470 5471 
5472 5473 5474 5475 5476 5477 5478 5479 5480 
5481 5482 5483 5484 5485 5486 5487 5488 5489 
5490 5491 5492 5493 5494 5495 5496 5497 5498 
5499 5500 5501 5502 5503 5504 5505 5506 5507 
5508 5509 5510 5511 5512 5513 5514 5515 5516 
5517 5518 5519 5520 5521 5522 5523 5524 5525 
5526 5527 5528 5529 5530 5531 5532 5533 5534 
5535 5536 5537 5538 5539 5540 5541 5542 5543 
5544 5545 5546 5547 5548 5549 5550 5551 5552 
5553 5554 5555 5556 5557 5558 5559 5560 5561 
5562 5563 5564 5565 5566 5567 5568 5569 5570 
5571 5572 5573 5574 5575 5576 5577 5578 5579 
5580 5581 5582 5583 5584 5585 5586 5587 5588 
5589 5590 5591 5592 5593 5594 5595 5596 5597 
5598 5599 5600 5601 5602 5603 5604 5605 5606 
5607 5608 5609 5610 5611 5612 5613 5614 5615 
5616 5617 5618 5619 5620 5621 5622 5623 5624 
5625 5626 5627 5628 5629 5630 5631 5632 5633 
5634 5635 5636 5637 5638 5639 5640 5641 5642 
5643 5644 5645 5646 5647 5648 5649 5650 5651 
5652 5653 5654 5655 5656 5657 5658 5659 5660 
5661 5662 5663 5664 5665 5666 5667 5668 5669 
5670 5671 5672 5673 5674 5675 5676 5677 5678 
5679 5680 5681 5682 5683 5684 5685 5686 5687 
5688 5689 5690 5691 5692 5693 5694 5695 5696 
5697 5698 5699 5700 5701 5702 5703 5704 5705 
5706 5707 5708 5709 5710 5711 5712 5713 5714 
5715 5716 5717 5718 5719 5720 5721 5722 5723 
5724 5725 5726 5727 5728 5729 5730 5731 5732 
5733 5734 5735 5736 5737 5738 5739 5740 5741 
5742 5743 
v 3 5744 double
0 -54.465079037 -72.854406344 0 -54.82858577 -71.340291833 0 -55.189159169 -69.838395537 
0 -55.545347292 -68.354765232 0 -55.895715957 -66.89537471 0 -56.238854357 -65.466100411 
0 -56.57338068 -64.072697994 0 -56.897947911 -62.720778185 0 -57.211249306 -61.415783953 
0 -57.512023239 -60.162970359 0 -57.799058555 -58.967382225 0 -58.071199586 -57.833833252 
0 -58.327350231 -56.766889028 0 -58.566479203 -55.770845177 0 -58.787623872 -54.849711336 
0 -58.989893418 -54.007198045 0 -59.172473486 -53.246697329 0 -59.334628991 -52.57127104 
0 -59.475706913 -51.983639204 0 -59.595139093 -51.486168373 0 -59.692444566 -51.080861908 
0 -59.767231893 -50.769350273 0 -59.819199626 -50.552889088 0 -59.848138405 -50.432350395 
0 -59.85393213 -50.408217796 0 -59.836557252 -50.480589373 0 -59.796083479 -50.649174768 
0 -59.732674009 -50.913294217 0 -59.646584362 -51.271883405 0 -59.538160748 -51.723500259 
0 -59.407840069 -52.266324955 0 -59.256147119 -52.898171565 0 -59.083692488 -53.616496799 
0 -58.891170696 -54.418407776 0 -58.679356927 -55.300675616 0 -58.449104237 -56.259747095 
0 -58.201339583 -57.291761153 0 -57.937060681 -58.392562002 0 -57.657331809 -59.557716609 
0 -57.363279258 -60.78253363 0 -57.056086906 -62.062081863 0 -56.736991786 -63.391208694 
0 -56.407278956 -64.764561467 0 -56.068275967 -66.176610542 0 -55.721347842 -67.621670179 
0 -55.367891549 -69.093921596 0 -55.009330252 -70.587436886 0 -54.647107806 -72.096201956 
0 -53.553097568 -76.653082547 0 -53.190875122 -78.161847618 0 -52.832313825 -79.655362907 
0 -52.478857532 -81.127614324 0 -52.131929407 -82.572673961 0 -51.792926417 -83.984723037 
0 -51.463213588 -85.35807581 0 -51.144118468 -86.687202641 0 -50.836926116 -87.966750873 
0 -50.542873565 -89.191567895 0 -50.263144693 -90.356722502 0 -49.998865791 -91.457523351 
0 -49.751101137 -92.489537408 0 -49.520848446 -93.448608887 0 -49.309034678 -94.330876727 
0 -49.116512886 -95.132787704 0 -48.944058255 -95.851112939 0 -48.792365305 -96.482959548 
0 -48.662044626 -97.025784244 0 -48.553621012 -97.477401099 0 -48.467531365 -97.835990286 
0 -48.404121895 -98.100109736 0 -48.363648122 -98.268695131 0 -48.346273244 -98.341066707 
0 -48.352066968 -98.316934108 0 -48.381005748 -98.196395415 0 -48.432973481 -97.979934231 
0 -48.507760808 -97.668422595 0 -48.605066281 -97.26311613 0 -48.724498461 -96.765645299 
0 -48.865576383 -96.178013464 0 -49.027731888 -95.502587174 0 -49.210311956 -94.742086458 
0 -49.412581501 -93.899573168 0 -49.633726171 -92.978439326 0 -49.872855143 -91.982395475 
0 -50.129005788 -90.915451251 0 -50.401146819 -89.781902278 0 -50.688182134 -88.586314144 
0 -50.988956067 -87.333500551 0 -51.302257463 -86.028506318 0 -51.626824694 -84.676586509 
0 -51.961351017 -83.283184093 0 -52.304489417 -81.853909793 0 -52.654858082 -80.394519271 
0 -53.011046205 -78.910888966 0 -53.371619604 -77.40899267 0 -53.735126337 -75.89487816 
0 -54.008766652 -74.755084218 0 -54.191438722 -73.994200285 0 -44.327166074 -70.655063001 
0 -34.425072725 -67.473460272 0 -34.917656038 -65.421703115 0 -44.820481383 -68.60025686 
0 -45.459854505 -65.971308908 0 -35.216802513 -64.209901135 0 -45.923794924 -64.00462522 
0 -36.048290793 -60.731992129 0 -36.296641896 -59.677864972 0 -46.52560232 -61.478246647 
0 -46.995114493 -59.542258066 0 -37.082099831 -56.406145881 0 -37.351887715 -54.438959913 
0 -47.454016988 -57.630791606 0 -48.044429712 -55.229726781 0 -37.612587609 -53.411247861 
0 -38.532571634 -50.344406402 0 -48.447910103 -53.490928844 0 -38.898610469 -48.819744926 
0 -48.847564885 -51.806157263 0 -39.036471021 -48.265604012 0 -49.367514807 -49.660499582 
0 -39.42643441 -46.641289596 0 -39.601995093 -45.040141411 0 -49.746412745 -48.082276089 
0 -50.197394652 -46.203801254 0 -39.788698098 -44.262467425 0 -40.240864285 -43.248945026 
0 -40.571630277 -41.849319133 0 -50.532317427 -44.808747496 0 -50.93403956 -43.149332308 
0 -40.743099719 -41.148975423 0 -51.209005125 -41.990140383 0 -41.225520686 -39.147555945 
0 -41.38007266 -38.485430796 0 -51.530966847 -40.630703452 0 -41.294251775 -38.861270357 
0 -51.7651164 -39.673770218 0 -41.761564799 -36.914771523 0 -41.960965647 -36.09055581 
0 -51.970235364 -38.819388246 0 -52.205473142 -37.879654599 0 -42.065882746 -35.693646859 
0 -52.336895979 -37.292136868 0 -42.312334921 -34.646068895 0 -42.409237083 -34.245317174 
0 -52.457012004 -36.817237652 0 -52.564083132 -36.345834273 0 -42.505409901 -33.81643369 
0 -42.339390995 -33.58448033 0 -52.619021049 -36.117001381 0 -52.647985008 -35.99635781 
0 -42.350980076 -33.536208335 0 -42.566212883 -33.563171045 0 -42.541919802 -33.651490708 
0 -52.639292439 -36.032564962 0 -42.49493471 -33.836690866 0 -52.600187605 -36.182580019 
0 -52.515022403 -36.550186916 0 -42.398631312 -34.261198522 0 -42.329825153 -34.547796801 
0 -52.382582495 -37.101838835 0 -42.372717971 -34.369135359 0 -52.248297063 -37.661177915 
0 -42.109387826 -35.465984351 0 -41.936333796 -36.186806262 0 -52.086197277 -38.336372114 
0 -51.846240286 -39.373271975 0 -41.829317961 -36.669966357 0 -51.622793519 -40.266587683 
0 -41.435028524 -38.257635438 0 -41.299659464 -38.821488153 0 -51.304844391 -41.590941113 
0 -51.031888891 -42.727882595 0 -40.841258349 -40.748123771 0 -40.328780055 -42.002939156 
0 -50.73248453 -43.974991511 0 -50.325533662 -45.73003324 0 -40.160958158 -42.761937034 
0 -39.746827034 -45.316007365 0 -49.975906336 -47.126366485 0 -39.406917521 -46.738403433 
0 -49.62162756 -48.611292882 0 -49.119422593 -50.693878023 0 -38.887651969 -48.885479974 
0 -38.473022094 -50.612631813 0 -48.712457464 -52.389009783 0 -48.177412582 -54.617632106 
0 -38.251278608 -51.536259904 0 -37.933114495 -52.861414696 0 -37.473554423 -54.766088715 
0 -47.737739756 -56.449001228 0 -47.165692883 -58.831747934 0 -37.236033874 -55.755433005 
0 -36.911435703 -57.117013132 0 -46.700617813 -60.768925017 0 -36.442396055 -59.070703871 
0 -36.145032355 -60.309312822 0 -46.098069084 -63.278721101 0 -36.318668007 -59.58606828 
0 -45.618502155 -65.276261119 0 -35.35446094 -63.602279756 0 -34.66226285 -65.633540471 
0 -45.130333145 -67.309631385 0 -44.498183099 -69.966049627 0 -34.393619537 -66.775844202 
0 -33.719006181 -70.383115379 0 -44.224542784 -71.105843568 0 -34.048536479 -69.065170411 
0 -33.270858232 -72.249785928 0 -43.530036135 -73.944024445 0 -42.900525337 -76.597449336 
0 -32.634652615 -74.931096748 0 -32.145133587 -76.970090241 0 -42.412356327 -78.630819602 
0 -41.774068185 -81.232523409 0 -31.863033568 -78.088163743 0 -31.07201891 -81.439934558 
0 -41.330240668 -83.138155704 0 -30.620892284 -83.308291456 0 -40.865165598 -85.075332787 
0 -40.293118726 -87.458079493 0 -30.043509044 -85.723986464 0 -29.767324729 -86.862424126 
0 -39.737396595 -89.760875952 0 -29.928403449 -86.203435777 0 -39.318401018 -91.518070938 
0 -29.080057171 -89.737052332 0 -28.673412834 -91.440319446 0 -38.911435888 -93.213202698 
0 -38.411424579 -95.296310382 0 -28.46043684 -92.327838996 0 -38.054952145 -96.780714236 
0 -27.816386854 -94.983942265 0 -27.637880415 -95.727475096 0 -27.411680216 -96.686342478 
0 -37.62029506 -98.591191292 0 -37.298373952 -99.93208921 0 -27.098519286 -97.990751628 
0 -26.604746665 -99.163981731 0 -36.998969591 -101.17919813 0 -36.654399546 -102.61443566 
0 -26.462446165 -99.756705971 0 -26.473420004 -100.59447752 0 -26.225004844 -101.61317565 
0 -36.408064963 -103.64049304 0 -26.037044872 -102.39608527 0 -36.189463085 -104.5350099 
0 -25.973279217 -102.67771383 0 -35.944661204 -105.57070861 0 -25.794797723 -103.42114276 
0 -25.643478494 -104.0514327 0 -35.782561419 -106.24590281 0 -35.616536747 -106.93744533 
0 -25.574759295 -104.33766877 0 -25.488799973 -104.69571511 0 -25.395228224 -105.07592094 
0 -35.515836079 -107.35689381 0 -35.435267326 -107.72560729 0 -25.366627204 -105.22817325 
0 -35.391566042 -107.87451576 0 -25.291261921 -105.49105539 0 -25.291442836 -105.49030182 
0 -35.385953233 -107.89789479 0 -35.411837433 -107.79007934 0 -25.341643898 -105.30866428 
0 -25.410199905 -105.02719775 0 -35.46677535 -107.56124645 0 -35.585229771 -107.09256671 
0 -25.465244857 -104.82263746 0 -25.665430108 -103.96633769 0 -35.693962502 -106.61494385 
0 -25.808613332 -103.37431733 0 -35.835929608 -106.02994833 0 -36.060623118 -105.08769248 
0 -26.04652713 -102.37261431 0 -26.263484604 -101.46930642 0 -36.265742082 -104.2333105 
0 -36.571263806 -102.96745455 0 -26.396551697 -100.9217757 0 -26.660041311 -98.991715771 
0 -36.821853356 -101.91694034 0 -26.936087412 -97.870589458 0 -36.912906305 -100.71224945 
0 -37.498541055 -99.098333225 0 -27.533495538 -96.178945148 0 -27.74737771 -95.288061782 
0 -37.926227998 -97.316888896 0 -27.620653658 -95.815905447 0 -38.284445737 -95.824804632 
0 -28.335914468 -92.836629763 0 -28.722263278 -91.227371152 0 -38.663343675 -94.246581139 
0 -39.179383091 -92.09995433 0 -28.958996968 -90.244136419 0 -39.582948379 -90.416151877 
0 -29.667191269 -87.252618331 0 -30.062906184 -85.604347084 0 -39.991096354 -88.677248728 
0 -40.576841493 -86.276289115 0 -30.659518607 -83.158121976 0 -31.127512001 -81.210175279 
0 -41.035743989 -84.364822655 0 -41.647979297 -81.826871443 0 -31.392819185 -80.117283704 
0 -32.215512467 -76.666151927 0 -42.107063558 -79.902455501 0 -32.650045988 -74.85618955 
0 -42.576334535 -77.937012025 0 -32.815488108 -74.17786271 0 -43.210377099 -75.306823861 
0 -33.307551754 -72.128270116 0 -33.80160859 -70.070375293 0 -43.703698761 -73.251991255 
0 -33.436445218 -71.591390201 0 -32.943861906 -73.643147358 0 -31.820991043 -78.33243348 
0 -30.779418113 -82.658704592 0 -30.318938493 -84.576740244 0 -29.325035804 -88.719474943 
0 -28.825046922 -90.799246461 0 -28.435083533 -92.423560877 0 -28.062220618 -93.976646692 
0 -27.29146947 -97.215744714 0 -26.621548542 -99.98421137 0 -26.099953144 -102.15007895 
0 -25.902986163 -102.97488617 0 -25.560566315 -104.42150522 0 -25.356108042 -105.24841678 
0 -25.312509514 -105.43001772 0 -25.32419459 -105.41446636 0 -25.462886631 -104.80365195 
0 -25.752130117 -103.59886612 0 -25.925184147 -102.87804421 0 -26.40966549 -100.86003419 
0 -27.020259595 -98.316726702 0 -27.32888808 -97.031196545 0 -28.116884566 -93.74936565 
0 -28.973865974 -90.179370499 0 -29.385953425 -88.45094993 0 -30.383371735 -84.297635746 
0 -30.95008224 -81.947837341 0 -31.434036328 -79.875065849 0 -32.507057004 -75.462570717 
0 -33.004854167 -73.389096308 0 -43.924093206 -72.333982327 0 -35.226865329 -64.133753726 
0 -35.716384356 -62.094760232 0 -36.789499033 -57.624915915 0 -37.818008899 -53.340864009 
0 -38.781460772 -49.327798141 0 -39.191747869 -47.625400441 0 -40.05464753 -44.084563006 
0 -40.762998657 -41.074098845 0 -41.056062584 -39.853399738 0 -41.641357989 -37.452875983 
0 -41.888238727 -36.387136643 0 -42.06672022 -35.643707718 0 -42.218039449 -35.013417768 
0 -42.461737241 -33.987836578 0 -42.563314039 -33.575245599 0 -42.519874046 -33.756186193 
0 -42.452898742 -34.038033244 0 -42.206632105 -35.101034997 0 -41.814990813 -36.69223616 
0 -41.593812386 -37.595140768 0 -41.017564015 -40.027635736 0 -40.328022406 -42.885905325 
0 -39.525603476 -46.22822071 0 -39.139254665 -47.837479321 0 -38.19899426 -51.81212693 
0 -37.201999336 -55.906728497 0 -36.729457704 -57.855335686 0 -35.651336035 -62.399938758 
0 -35.046029836 -64.886987763 0 -34.553966189 -66.936580357 0 -34.059915708 -68.994448714 
0 -23.536836575 -66.267688861 0 -23.478346777 -64.682083691 0 -23.719416672 -65.507188023 
0 -24.35664441 -63.155459827 0 -24.655790886 -61.943657847 0 -25.338440116 -58.773078494 
0 -25.023149223 -57.96036018 0 -25.814271236 -56.787291797 0 -25.652068756 -55.430098315 
0 -26.519281321 -53.963567786 0 -26.621721822 -52.693433832 0 -27.833857735 -48.415955208 
0 -27.544393762 -47.70856029 0 -28.294153244 -46.650599147 0 -28.127975509 -45.364893656 
0 -28.432013796 -46.096458232 0 -28.879389157 -44.148129704 0 -28.918810839 -43.114041264 
0 -29.444459944 -40.713622803 0 -29.655601184 -39.812269862 0 -29.059142115 -39.35884312 
0 -29.995543866 -38.551119903 0 -30.391173846 -36.958953677 0 -29.987992295 -36.48020688 
0 -30.848601796 -35.767255268 0 -30.517208657 -35.064276667 0 -31.198158806 -34.404403837 
0 -31.326985372 -33.874151162 0 -30.703858634 -33.469831766 0 -31.315998648 -33.043517688 
0 -30.675615364 -32.582051709 0 -31.483684024 -32.201350373 0 -30.818556514 -31.910698335 
0 -31.599432491 -31.783496378 0 -31.176543471 -31.46038492 0 -31.945873138 -31.314128906 
0 -31.765377498 -31.142475481 0 -32.009194663 -31.051068813 0 -31.99359345 -31.103184236 
0 -31.510487658 -31.05147955 0 -31.953561115 -31.253896869 0 -31.637215716 -31.610109542 
0 -31.115673349 -31.667989782 0 -31.73837228 -32.123083075 0 -31.155657941 -32.373295174 
0 -31.528155113 -32.936232856 0 -31.420294295 -33.385505495 0 -31.059014783 -33.52217881 
0 -31.423326484 -34.219086236 0 -30.953864301 -35.437090781 0 -30.432976172 -35.713762125 
0 -30.736044543 -36.502337215 0 -30.086622996 -37.196195459 0 -30.292612148 -38.231172754 
0 -29.895318251 -39.006210598 0 -29.304484874 -42.315002314 0 -28.689359495 -42.753580208 
0 -28.916991616 -43.881695811 0 -28.189100759 -44.833919611 0 -28.349923196 -46.281078607 
0 -28.088966899 -47.368133927 0 -27.453321381 -47.88213099 0 -27.638107904 -49.182850454 
0 -26.90627239 -50.163414961 0 -27.479571608 -49.843107533 0 -27.025553762 -51.790697913 
0 -26.344901908 -52.407155472 0 -26.565574982 -53.555641646 0 -25.696972826 -54.288152595 
0 -26.410563723 -54.210841451 0 -25.844615971 -55.891836087 0 -25.157468003 -56.530945542 
0 -25.45175853 -58.200146133 0 -24.728108082 -59.32810837 0 -24.85714471 -61.013699953 
0 -24.346149073 -62.290198133 0 -23.344750367 -67.125932434 0 -22.528618418 -67.797192271 
0 -22.643696329 -69.360136699 0 -21.852857238 -70.652204939 0 -22.093569267 -72.377741563 
0 -21.783421186 -73.669601296 0 -21.068394001 -73.959455233 0 -21.183533396 -75.456244845 
0 -20.696647921 -78.217265829 0 -20.106925594 -78.609873431 0 -20.211093676 -80.177670655 
0 -19.474243347 -82.488995131 0 -18.841430579 -83.005789567 0 -19.119917873 -84.666215137 
0 -18.448382865 -85.388602549 0 -18.01583109 -87.455411093 0 -18.592123875 -86.920891398 
0 -18.206078629 -88.747201811 0 -17.993102635 -89.634721361 0 -17.382122466 -91.969243585 
0 -16.82862187 -92.366731202 0 -17.061980837 -93.444469009 0 -16.381086422 -94.268762369 
0 -16.959725213 -93.88707008 0 -16.558104046 -95.439439192 0 -16.170291697 -96.171312995 
0 -15.918275765 -98.071258407 0 -15.7561314 -98.730612804 0 -15.248006032 -98.942872214 
0 -15.564461263 -99.686510426 0 -14.962540403 -100.14021295 0 -15.500695607 -99.968138983 
0 -15.245302228 -100.86666025 0 -15.148221967 -101.27102864 0 -14.620673845 -101.33657297 
0 -14.999347176 -101.82878882 0 -14.52293761 -102.037865 0 -14.956454359 -102.00745026 
0 -14.919915606 -102.50663583 0 -14.891314585 -102.65888814 0 -14.746669531 -102.90820141 
0 -14.31588346 -102.79886705 0 -14.778522809 -102.94928783 0 -14.32669601 -102.742681 
0 -14.780829967 -102.75476442 0 -14.823388936 -102.58158335 0 -14.375262476 -102.3454289 
0 -14.914766904 -102.23901548 0 -14.90373893 -101.50433884 0 -14.478414987 -101.15311546 
0 -15.212789888 -100.95948331 0 -14.85620821 -100.35968565 0 -15.482415161 -99.869790382 
0 -15.618253966 -99.30436606 0 -15.026383438 -98.8539184 0 -15.663831054 -98.284218815 
0 -15.790165355 -96.751541551 0 -16.888079907 -94.037175086 0 -16.380275383 -93.289777407 
0 -17.10170468 -92.341135586 0 -17.797282564 -90.393917824 0 -18.040041502 -89.382754076 
0 -17.705173211 -88.641442571 0 -18.451421588 -87.448409536 0 -18.278197622 -86.196340289 
0 -19.116851507 -84.797557248 0 -19.350200976 -83.825586758 0 -19.300975361 -81.697655889 
0 -20.090597116 -80.630882453 0 -20.386934903 -79.397932816 0 -20.050648211 -78.698071217 
0 -20.858609088 -77.468040242 0 -21.503332217 -74.771110027 0 -21.249070299 -73.929990523 
0 -22.034962001 -72.744209948 0 -21.932272143 -71.11248501 0 -22.200404121 -72.065883108 
0 -22.750908784 -69.602814614 0 -23.062382345 -68.305433861 0 -23.44383853 -61.412708819 
0 -26.086965934 -50.40388122 0 -27.273166137 -44.909331065 0 -28.209062794 -41.489324274 
0 -30.891683302 -30.894222651 0 -30.044634271 -34.203015816 0 -29.134250629 -37.302732147 
0 -28.653324858 -40.400619192 0 -22.846309702 -64.009008191 0 -16.616731218 -89.627516543 
0 -15.629034684 -93.998301604 0 -15.037543135 -97.192762334 0 -14.213804358 -99.855966993 
0 -13.629107438 -102.30068826 0 -13.493530627 -102.46200555 0 -15.545230234 -95.183358492 
0 -21.140278736 -71.008350492 0 -22.268944527 -64.444697487 0 -22.319210467 -62.964075037 
0 -23.89514809 -58.456166995 0 -24.773114581 -54.982144556 0 -24.65077605 -51.945057723 
0 -26.568900648 -47.715998689 0 -26.478597583 -46.141050009 0 -27.255491118 -43.39583928 
0 -29.447255143 -35.045179994 0 -29.447168474 -33.65411294 0 -30.10157624 -30.975974193 
0 -30.567030053 -30.918319036 0 -30.301973076 -31.031997712 0 -30.24935206 -32.175883959 
0 -29.61771714 -33.168802142 0 -29.513505862 -35.485025254 0 -28.864201865 -36.380137032 
0 -28.393861661 -38.542057647 0 -27.758384384 -42.401668898 0 -27.254160023 -44.648975944 
0 -26.67542135 -47.046394017 0 -26.114227365 -49.511480273 0 -25.346895239 -52.006488643 
0 -23.646167376 -59.402081563 0 -21.471395995 -67.126690688 0 -20.072659552 -73.012388843 
0 -19.019936483 -78.112890016 0 -18.491515452 -79.493969828 0 -17.884860431 -83.008871466 
0 -17.652891437 -84.732696098 0 -17.0743248 -87.183925315 0 -16.444060432 -88.203348272 
0 -15.958502744 -91.931858599 0 -15.432100549 -92.7712477 0 -14.636662644 -95.552906032 
0 -14.371242588 -98.534990703 0 -13.930825008 -99.02827503 0 -13.494378819 -100.68553869 
0 -13.5977296 -101.71209612 0 -13.22448115 -101.88399281 0 -13.426378063 -102.45870755 
0 -13.449264414 -102.13175814 0 -13.259584708 -101.57119818 0 -13.924271784 -100.14905181 
0 -14.039109845 -98.889968504 0 -15.463503383 -93.032535153 0 -16.656479306 -88.939837842 
0 -17.40782637 -85.743044293 0 -17.788740409 -83.183634175 0 -18.099871509 -81.738102963 
0 -18.956783237 -79.177096762 0 -19.582447081 -76.623467898 0 -20.281643436 -73.894572918 
0 -20.29753753 -72.513038727 0 -21.63632155 -68.037800153 0 -22.091521489 -60.791211334 
0 -22.159671235 -58.414613743 0 -23.361314106 -53.516096392 0 -25.455582104 -46.410073223 
0 -26.37911959 -42.893868619 0 -26.930063664 -41.536328399 0 -27.524824667 -39.721020773 
0 -27.949200525 -38.150208656 0 -27.926474223 -36.442692041 0 -29.248703129 -32.547626068 
0 -29.224501057 -31.899977138 0 -29.257236982 -31.336675168 0 -29.162446882 -30.959987975 
0 -29.237542518 -30.826321654 0 -29.320383828 -31.026095086 0 -29.259373844 -31.558437121 
0 -28.811080823 -32.301840204 0 -28.624272184 -33.360353141 0 -28.313337151 -34.710163939 
0 -27.901164663 -36.242021161 0 -27.509163709 -38.340793826 0 -26.800281925 -40.77387277 
0 -26.226340881 -42.877607713 0 -25.738045191 -45.034712795 0 -25.170537299 -47.40941092 
0 -24.243036641 -50.121255636 0 -23.406997112 -55.366559866 0 -20.186239211 -68.450725877 
0 -19.730748702 -70.358855134 0 -19.188047062 -74.131943356 0 -17.222265885 -81.821022254 
0 -16.126622413 -85.065285436 0 -15.5143602 -87.871161718 0 -14.934710528 -90.292857565 
0 -14.563140364 -92.256314393 0 -14.156220752 -93.776285281 0 -13.665497161 -95.468274472 
0 -13.279844254 -97.202624425 0 -13.016054489 -98.630368096 0 -12.583151383 -99.167038172 
0 -12.317000242 -101.35880805 0 -12.267106968 -101.76808076 0 -12.194037059 -101.90285787 
0 -12.209878066 -101.81150663 0 -11.937038764 -101.29732188 0 -12.684014747 -100.60853795 
0 -12.66160667 -99.492382159 0 -13.196965436 -98.441288231 0 -13.673643058 -97.434775141 
0 -13.865081786 -95.976736959 0 -14.117919355 -93.987064282 0 -14.694817693 -92.284533905 
0 -15.116749665 -90.431943119 0 -17.78367268 -78.063864237 0 -18.483151782 -75.272384741 
0 -19.268111274 -72.694969251 0 -19.872228052 -70.116396491 0 -23.895853237 -48.934125051 
0 -27.527743469 -34.784923249 0 -27.535172909 -33.500823713 0 -23.008599263 -52.827662542 
0 -21.632139773 -60.840960281 0 -20.752015875 -63.684284248 0 -20.26467686 -64.981174641 
0 -18.212226596 -74.197951044 0 -17.773784793 -76.094172539 0 -11.58326476 -100.79030737 
0 -19.787066568 -65.244569295 0 -20.219323363 -62.418116785 0 -20.430321857 -60.71200286 
0 -21.12705856 -58.251703073 0 -21.826306518 -56.006112797 0 -21.797394364 -53.398853899 
0 -22.896391266 -50.650178389 0 -23.956541117 -45.92938163 0 -24.510287964 -43.685652885 
0 -25.018583847 -41.373507058 0 -25.689612947 -39.282367597 0 -25.907199758 -38.13832338 
0 -26.040096307 -36.235847827 0 -26.992467838 -34.246007655 0 -26.99437946 -32.611060434 
0 -27.264325481 -31.738741312 0 -27.496362561 -31.410364832 0 -27.578191797 -31.008491212 
0 -27.503588357 -31.370111193 0 -27.364377621 -32.009695441 0 -27.049544122 -32.878150168 
0 -26.915452784 -34.098534239 0 -26.562726243 -35.435118644 0 -26.362445351 -36.4020872 
0 -25.863608634 -38.785941664 0 -25.106299704 -41.048434673 0 -24.680404296 -43.505437839 
0 -23.981349526 -46.24611513 0 -23.371900203 -48.013762467 0 -21.416228269 -55.521594808 
0 -20.513616253 -58.875405187 0 -19.61591626 -61.996531189 0 -19.104114676 -67.613791698 
0 -16.403039661 -75.266844272 0 -16.620528936 -78.594898882 0 -15.474458007 -81.20513584 
0 -14.969228331 -83.490828866 0 -14.358194398 -85.964148862 0 -13.72901624 -88.642267056 
0 -13.409049882 -90.003180822 0 -12.986517205 -91.841358403 0 -12.62261929 -93.578147926 
0 -12.171576984 -95.389272967 0 -11.727119982 -97.057213408 0 -11.577743171 -98.685296377 
0 -11.45544949 -99.726196763 0 -11.20900762 -100.01466448 0 -10.900112086 -100.50151285 
0 -10.807306837 -101.00660153 0 -10.718343969 -100.67326065 0 -11.078533298 -99.655782169 
0 -11.26422714 -98.585305398 0 -11.599689498 -97.511106331 0 -11.845308138 -96.290514591 
0 -12.297795064 -94.746472915 0 -12.713845199 -93.019924978 0 -13.263585051 -90.954142494 
0 -14.001648365 -88.480693556 0 -14.42841801 -86.137840104 0 -14.237124643 -84.672105991 
0 -16.547293752 -76.752889531 0 -17.13506945 -74.467877038 0 -17.74906176 -71.978649531 
0 -18.202172593 -63.986862995 0 -20.105021853 -55.508743444 0 -21.862793227 -50.59471206 
0 -22.233240401 -47.707969021 0 -24.521241461 -38.500082346 0 -25.468254216 -35.873379124 
0 -25.977766822 -34.374423372 0 -25.803659458 -33.729004442 0 -26.467111415 -32.277975293 
0 -25.766273099 -31.637063366 0 -25.331350031 -34.846219623 0 -24.101634137 -39.601428637 
0 -23.022053609 -44.64392731 0 -22.558320176 -48.528178403 0 -22.072139446 -51.277305725 
0 -21.199144537 -52.852241354 0 -20.448021933 -56.955888583 0 -18.249364185 -65.266933657 
0 -17.574090478 -66.998431258 0 -15.133475125 -78.056559548 0 -11.458138525 -92.792841534 
0 -10.88327526 -94.612001827 0 -10.535281792 -96.67098079 0 -10.005049274 -98.058570704 
0 -10.269516277 -99.945923557 0 -12.269475662 -89.563092954 0 -12.725110571 -86.885087537 
0 -14.416098289 -82.0133654 0 -14.961154628 -79.131361596 0 -18.710416078 -60.615114295 
0 -18.866181494 -57.67647395 0 -20.240885115 -52.82103385 0 -22.856408715 -43.18435085 
0 -23.128708462 -40.790587158 0 -24.516274873 -35.291407398 0 -24.946147833 -33.804007156 
0 -25.38742029 -32.486696457 0 -25.025320645 -32.132682389 0 -25.755324487 -31.411962667 
0 -25.64218501 -32.019049839 0 -25.455902994 -32.49478973 0 -24.762875697 -33.674840243 
0 -24.388558797 -36.764651599 0 -22.694493488 -42.465132233 0 -21.008811153 -49.924882387 
0 -20.210983803 -53.290125463 0 -19.449058628 -57.244246785 0 -18.935868857 -59.557474666 
0 -17.827528235 -62.901940256 0 -16.70796612 -69.925995337 0 -15.833595657 -72.855411025 
0 -15.178060214 -74.629525649 0 -14.363066002 -77.875379761 0 -13.830953769 -80.718526136 
0 -13.188451457 -83.623478379 0 -12.504386167 -86.565177963 0 -12.035909699 -89.1555659 
0 -11.217089334 -90.577078507 0 -9.6097962508 -98.800337923 0 -9.4584146717 -99.420782881 
0 -9.4529058178 -99.669403353 0 -9.3785326659 -99.827337003 0 -9.3579270984 -99.66294361 
0 -9.4701811984 -99.171098112 0 -9.564049269 -98.354582738 0 -10.124136632 -96.082304831 
0 -10.475752413 -94.372819804 0 -10.988806794 -92.755660265 0 -11.062363463 -91.383566999 
0 -12.825264102 -83.556233459 0 -14.990872065 -76.053456944 0 -15.619186037 -73.397967002 
0 -15.989484122 -71.906763894 0 -16.868961788 -69.081404231 0 -16.959503776 -63.223168284 
0 -20.59978729 -49.810787561 0 -21.558627229 -46.864209737 0 -21.658855269 -45.264454554 
0 -23.293397254 -38.440576519 0 -23.309375409 -37.267014958 0 -24.072098837 -35.171682299 
0 -23.596553985 -35.991583942 0 -23.482886038 -38.536396905 0 -23.136763815 -40.284038497 
0 -22.571785428 -41.453801196 0 -21.531910051 -45.289789861 0 -20.823111861 -47.158976203 
0 -16.415117026 -66.648233533 0 -15.14018811 -70.387538155 0 -10.773066312 -88.357745231 
0 -10.243695148 -91.814356979 0 -9.8290140749 -94.332301334 0 -9.3525737209 -96.164982522 
0 -9.3147281615 -96.676747083 0 -9.8035736743 -94.810961325 0 -11.330715799 -88.477686753 
0 -12.158454081 -86.021923085 0 -12.20663622 -84.635155792 0 -13.162467164 -80.390709097 
0 -13.369942204 -78.468163876 0 -15.940007199 -67.730431402 0 -17.243021767 -60.091519312 
0 -17.929561228 -57.30293467 0 -18.615839215 -54.352035653 0 -19.184312598 -51.195493782 
0 -19.91500987 -47.886220945 0 -20.709769434 -45.174493229 0 -21.370042814 -42.705528343 
0 -21.82309297 -40.2983932 0 -22.554520696 -37.212043152 0 -23.254606554 -35.120231576 
0 -23.603830504 -33.603081502 0 -23.803021862 -32.655264922 0 -23.958058372 -32.202960847 
0 -23.989189612 -32.141798214 0 -23.889247219 -32.454371768 0 -23.591612453 -33.206970936 
0 -23.050520973 -34.628215339 0 -22.757945325 -36.327696553 0 -22.366102397 -38.086281158 
0 -21.826476496 -39.936556155 0 -21.39483812 -42.090810415 0 -20.807863557 -43.826190542 
0 -19.210272936 -51.743832886 0 -18.250182193 -55.846281421 0 -17.400966224 -59.42208263 
0 -16.446623054 -62.794288655 0 -15.294596098 -66.492860146 0 -13.755454137 -74.599683099 
0 -12.983122028 -77.670241014 0 -12.316473475 -80.606542568 0 -11.634732453 -83.534471086 
0 -10.771508112 -85.945721874 0 -9.83805607 -89.685176593 0 -9.3762733955 -92.911726675 
0 -8.7470780668 -94.234167072 0 -8.5953611166 -95.974909621 0 -8.5318656525 -96.752211389 
0 -7.9028909268 -97.054801157 0 -8.1320716419 -98.291074724 0 -8.176363236 -98.449496434 
0 -8.1562738428 -98.08778946 0 -8.2419578758 -97.604029185 0 -8.3584271453 -96.709321524 
0 -8.6375835658 -95.424747385 0 -9.0084729458 -93.789880818 0 -10.062177491 -89.352021901 
0 -10.666756103 -86.440680024 0 -11.415469838 -83.711679842 0 -11.751733572 -81.728065387 
0 -13.64371899 -74.938540909 0 -14.261588766 -71.238583635 0 -15.647049709 -64.284481304 
0 -15.831254133 -62.500071124 0 -19.443222859 -47.135005353 0 -14.055232976 -69.763701077 
0 -9.561198552 -87.59412134 0 -9.1941502401 -90.383054571 0 -7.2316798444 -96.94882839 
0 -8.9133442375 -92.200440269 0 -12.136381553 -78.04261221 0 -14.83139995 -67.511975295 
0 -15.230027946 -62.324628408 0 -16.059226563 -59.280311616 0 -16.798779066 -56.208136005 
0 -17.542083118 -53.105181295 0 -18.274973677 -50.041880027 0 -18.99277932 -47.142612941 
0 -19.572231574 -44.761756059 0 -20.265673481 -41.865747755 0 -20.550307234 -40.645262713 
0 -20.96638889 -38.779196829 0 -21.439225499 -36.948572454 0 -21.841896397 -35.375334832 
0 -22.107658438 -33.989420392 0 -22.287572477 -33.299668731 0 -22.38196456 -33.096553005 
0 -22.365172941 -33.116099985 0 -22.261353016 -33.489316095 0 -22.003612334 -34.374496134 
0 -21.560678848 -36.098224725 0 -21.213159365 -37.788867785 0 -20.826700914 -39.437538789 
0 -20.352105461 -41.352801767 0 -19.39886188 -44.701903819 0 -18.737637215 -47.66884046 
0 -18.110590515 -50.721614107 0 -17.356700487 -53.942107732 0 -16.605555991 -57.021857771 
0 -15.863759323 -60.061952595 0 -15.06766623 -63.37979275 0 -14.113321966 -66.860331514 
0 -13.39838193 -69.917953602 0 -12.918226097 -72.507201927 0 -12.2297651 -75.31928535 
0 -11.504668167 -78.447406152 0 -11.102863992 -80.182755796 0 -10.479123653 -82.764941254 
0 -9.6195824389 -84.987607762 0 -8.7779529897 -89.60805759 0 -8.2616993881 -91.706139672 
0 -7.71713329 -93.962895713 0 -7.3936529156 -95.284688732 0 -7.2639633896 -96.133047832 
0 -7.1936025477 -96.638406053 0 -7.1794406134 -96.376277543 0 -7.3310377329 -95.7533177 
0 -7.574934742 -94.695086752 0 -7.8527421464 -93.198080668 0 -8.3144400185 -91.414930536 
0 -8.8260218526 -89.467531945 0 -9.3963007505 -87.09590549 0 -10.057496312 -84.360180503 
0 -10.757798821 -81.18474083 0 -11.855736856 -76.659533465 0 -12.460885336 -74.369143458 
0 -13.256801581 -70.527417008 0 -14.287553158 -65.751919805 0 -13.700193016 -67.11273057 
0 -13.209148506 -69.152525277 0 -12.422731781 -72.963667235 0 -11.219947787 -77.754374279 
0 -10.696486577 -79.943722437 0 -10.007998239 -83.07419635 0 -9.3461974619 -85.861836333 
0 -8.7457898342 -88.30433614 0 -8.2644367823 -90.308802533 0 -7.765112517 -92.072619977 
0 -7.4303521128 -93.646049924 0 -7.1721090863 -94.879791172 0 -6.9779816809 -95.62459608 
0 -6.9264926728 -96.183153446 0 -6.8941750174 -96.261424562 0 -6.9731219002 -95.891167279 
0 -7.0381699462 -95.226900929 0 -7.2825150345 -94.335982425 0 -7.6220612892 -92.808559472 
0 -7.8621554625 -91.782305191 0 -8.3407208032 -90.041349195 0 -8.9041552211 -87.877156223 
0 -9.9530934243 -83.308675253 0 -10.612250991 -80.687003702 0 -11.524364403 -76.722534871 
0 -12.286991804 -73.522459657 0 -12.906140994 -70.91260466 0 -13.398803421 -68.307300717 
0 -14.281256312 -65.106266911 0 -15.121804759 -61.671944874 0 -15.88699463 -58.449765318 
0 -16.62878558 -55.443157032 0 -17.359312426 -52.283794514 0 -18.131596615 -49.156718129 
0 -18.683100944 -46.278093604 0 -19.450188984 -43.556536593 0 -19.786264532 -42.22996378 
0 -20.258261542 -40.300471978 0 -20.61032736 -38.811304544 0 -20.962742359 -37.250540143 
0 -21.273713923 -35.754448362 0 -21.460555908 -35.041016141 0 -21.776420787 -34.051749081 
0 -21.894101309 -33.531465681 0 -21.95126675 -33.392955493 0 -21.762305572 -33.871658194 
0 -21.608269529 -34.702781054 0 -21.476199903 -35.33765545 0 -21.166388864 -36.645830888 
0 -20.730588574 -38.320887367 0 -20.28847925 -40.178661732 0 -19.666942794 -42.751333671 
0 -19.320253077 -44.188298744 0 -18.808154747 -46.457836511 0 -18.164478212 -49.033069636 
0 -17.436428162 -52.050001547 0 -16.737084221 -54.965862094 0 -15.986323461 -58.033327249 
0 -15.305954617 -60.923805833 0 -14.472866755 -63.94174758 0 -14.860509925 -65.919210812 
0 -14.069870328 -69.637971353 0 -6.9827956479 -96.566843703 0 -7.2036511393 -96.982385849 
0 -9.9435763821 -86.169503818 0 -14.546382749 -67.62592036 0 -19.922269748 -45.015431799 
0 -22.861749805 -34.008616057 0 -13.486673574 -73.533505513 0 -12.89857545 -77.157257598 
0 -11.561904729 -80.378471417 0 -10.743387868 -84.586837926 0 -10.030967835 -87.448091758 
0 -9.5077424252 -90.163031438 0 -9.5450615739 -91.789811758 0 -8.4971983562 -94.129831778 
0 -8.1377099852 -95.542033103 0 -7.9545805487 -96.735901702 0 -7.8198739925 -97.373126646 
0 -7.8210276353 -97.856615301 0 -7.8078709366 -97.957251669 0 -7.8272793749 -97.693190395 
0 -7.9840547295 -96.426936087 0 -8.2678605436 -94.665135785 0 -8.7046099598 -92.917001559 
0 -9.5199355472 -91.801533348 0 -10.07890215 -88.627144728 0 -10.973544398 -84.220091818 
0 -11.630924709 -81.575072616 0 -12.266934668 -78.731729424 0 -12.926256224 -75.982668222 
0 -13.690197306 -72.921042497 0 -14.334963249 -71.172192706 0 -15.647945232 -64.000797139 
0 -16.608298616 -60.563291987 0 -17.374988292 -57.492835691 0 -18.208664799 -53.874254201 
0 -19.109586713 -50.249506009 0 -19.836178457 -48.150774925 0 -21.126412343 -41.257522433 
0 -21.620608985 -39.168902301 0 -22.175026331 -37.332480887 0 -22.394014848 -35.631768033 
0 -23.218407211 -33.010418026 0 -23.403264656 -32.517904141 0 -23.381795707 -32.443591571 
0 -23.325816959 -32.689585358 0 -23.110130246 -33.383110493 0 -22.910380008 -34.563404236 
0 -22.458959579 -36.234903739 0 -21.770586933 -38.38402133 0 -21.492032293 -39.639334096 
0 -21.11464643 -41.803603423 0 -20.573672675 -44.08256377 0 -19.892952907 -46.53846195 
0 -19.125331748 -49.499182328 0 -18.439609483 -52.793371229 0 -17.780007694 -55.90611963 
0 -17.021235701 -58.851935411 0 -16.672550005 -61.625250602 0 -15.843456437 -66.595927215 
0 -15.11966915 -70.247091764 0 -12.540098873 -81.567802931 0 -11.290655933 -86.952289233 
0 -10.738025624 -89.870007687 0 -8.2457262646 -97.867704946 0 -9.3766296617 -95.075608517 
0 -10.392748457 -90.542620671 0 -11.083294444 -87.100939899 0 -15.608671185 -67.845986313 
0 -16.899719761 -64.088598882 0 -21.507370889 -44.14449613 0 -22.65988066 -39.600081438 
0 -23.394975285 -37.790250479 0 -23.889996302 -34.504242217 0 -22.70960585 -39.722925284 
0 -20.631598357 -48.122007409 0 -19.942179653 -51.271312551 0 -16.340030459 -64.707695244 
0 -16.893511029 -67.398033538 0 -15.817210634 -70.760911913 0 -14.745877582 -74.648642288 
0 -14.360080227 -77.654261843 0 -10.312369021 -92.941110786 0 -9.9152885716 -96.864169271 
0 -9.1313771555 -97.482546209 0 -9.0784765858 -98.449485536 0 -8.9700623386 -99.040304575 
0 -8.8994742033 -99.303309628 0 -8.979622404 -99.307346864 0 -9.0449473614 -98.696942514 
0 -9.3469005391 -98.001640575 0 -11.356561109 -89.450234931 0 -11.847295034 -87.477085036 
0 -12.393764845 -84.602866272 0 -13.114967831 -81.586553146 0 -13.748646774 -78.677027147 
0 -14.42673917 -75.485608504 0 -15.822242642 -71.248198728 0 -16.832357429 -67.867581985 
0 -18.167099136 -60.466420672 0 -19.286849304 -55.519933037 0 -20.175924828 -51.486052532 
0 -21.287812812 -48.16935181 0 -24.336350893 -36.110482422 0 -24.653263017 -32.997168244 
0 -25.109970418 -31.958638417 0 -25.144561035 -31.640108769 0 -25.176215728 -31.673021389 
0 -24.658821764 -33.22925 0 -24.235383119 -34.734665998 0 -24.122098719 -36.315547909 
0 -22.497591967 -42.267979994 0 -22.497269688 -44.527470011 0 -19.659247791 -54.303879506 
0 -18.39312486 -59.525357911 0 -17.847266756 -62.779193378 0 -17.771339422 -65.986672009 
0 -14.253380753 -80.849955751 0 -13.610349929 -83.542549274 0 -12.143741474 -88.405668984 
0 -11.780787826 -91.148670034 0 -9.9472269916 -96.999214418 0 -10.393012935 -95.093441711 
0 -10.868290402 -93.064152037 0 -11.657884148 -91.577504312 0 -15.622690713 -76.047792213 
0 -18.48973328 -63.634082291 0 -21.916865037 -50.154019689 0 -22.167443665 -47.239324003 
0 -22.412425338 -45.504899307 0 -23.328660921 -42.749453967 0 -24.324491481 -38.481727874 
0 -24.811895745 -35.290580779 0 -25.464432519 -33.89791917 0 -25.779359278 -31.520481344 
0 -25.401146952 -35.006167485 0 -24.714300455 -36.707307553 0 -24.245719965 -37.945083166 
0 -23.988021362 -40.063237574 0 -21.569115968 -49.583107821 0 -21.192170011 -52.372113099 
0 -19.729361073 -57.042048269 0 -18.775507377 -66.455800369 0 -17.812730117 -69.399510086 
0 -17.378983066 -71.029206073 0 -16.785053539 -73.514120791 0 -16.214196431 -75.756537906 
0 -15.925043787 -78.526908323 0 -13.749671904 -86.950370172 0 -13.102821221 -89.57283489 
0 -12.468148281 -91.867744571 0 -11.952928075 -93.672943709 0 -11.497057176 -95.260898488 
0 -11.144566333 -96.673779412 0 -10.852336226 -97.810142153 0 -10.587060569 -98.893850108 
0 -10.825711828 -100.07095432 0 -10.306873651 -100.52107424 0 -10.337418747 -100.67249828 
0 -10.388120314 -100.51542808 0 -10.393629168 -100.26680761 0 -10.529746479 -99.758883528 
0 -10.999724357 -98.93420882 0 -11.171122888 -97.481424632 0 -11.581541211 -95.765329682 
0 -12.063159156 -93.964634609 0 -12.436587686 -92.117328773 0 -12.807308487 -90.296163301 
0 -13.504848726 -87.185524964 0 -14.152418451 -84.364413969 0 -14.721247275 -81.881866266 
0 -15.57424832 -79.310257555 0 -16.682910512 -73.422620416 0 -17.681877289 -70.090928286 
0 -18.113298393 -68.421526475 0 -19.277011286 -65.621366133 0 -19.722480937 -60.355443148 
0 -21.722314675 -53.872856348 0 -23.830758626 -44.974603616 0 -24.349139255 -42.219446727 
0 -24.927983632 -39.884501017 0 -25.388738049 -37.933440901 0 -25.540716118 -36.962511052 
0 -26.208243393 -34.897012163 0 -26.429329734 -33.506205755 0 -26.616821255 -32.442495494 
0 -26.890124369 -31.72238584 0 -26.925037859 -31.228618118 0 -27.043276668 -31.072208336 
0 -26.967104637 -31.334429482 0 -26.706142136 -33.174032583 0 -25.561664042 -37.624775436 
0 -24.810857131 -40.33197488 0 -24.117669895 -42.678616327 0 -23.595964044 -44.838467044 
0 -23.247083827 -47.295582165 0 -21.29188353 -55.052638589 0 -20.881222408 -57.445056993 
0 -20.016071747 -59.832956437 0 -19.44514489 -63.6127846 0 -18.841447313 -68.185267754 
0 -15.524759153 -82.215632585 0 -15.342984427 -83.790634769 0 -10.873722982 -100.99853287 
0 -16.960104689 -76.560252934 0 -17.678417344 -72.819807584 0 -18.217203063 -71.191322766 
0 -20.583503487 -62.297913098 0 -21.455687863 -59.059540412 0 -22.242323964 -56.223935639 
0 -23.155307296 -51.340371371 0 -27.664999447 -31.030633174 0 -27.012392408 -35.687045611 
0 -23.698648717 -50.324441487 0 -22.79519138 -52.521940057 0 -19.763019989 -68.547911264 
0 -19.064771724 -71.549414451 0 -18.30241722 -74.077960578 0 -17.648901333 -76.658652826 
0 -16.782840665 -79.431249628 0 -16.670134093 -81.10266056 0 -16.032459672 -84.576664419 
0 -15.535287988 -86.138850523 0 -14.851018117 -88.930156905 0 -14.428143745 -91.363787373 
0 -13.775955917 -93.027069434 0 -13.400675627 -95.053449032 0 -13.110452186 -96.699376944 
0 -12.863622175 -97.863239707 0 -12.344923672 -98.8643181 0 -12.072382866 -99.975301518 
0 -12.447718111 -101.00837166 0 -11.628313525 -101.30530592 0 -11.800341697 -101.66498865 
0 -11.737306434 -101.57050534 0 -11.894369871 -101.3128963 0 -12.002003598 -100.80320556 
0 -12.566643371 -97.724415077 0 -13.030356639 -96.159366041 0 -13.36617764 -94.311694715 
0 -13.962591922 -92.766768122 0 -14.188807042 -91.037922195 0 -14.786295469 -88.916326892 
0 -15.310426643 -86.37572578 0 -15.991200048 -83.780123415 0 -16.316631262 -82.383244897 
0 -17.426373245 -79.927554524 0 -22.216189238 -57.842364639 0 -23.867186006 -53.619025229 
0 -24.199089622 -48.713198929 0 -24.981220234 -46.101492229 0 -25.587820153 -43.71016992 
0 -26.076085473 -41.501863579 0 -26.766121158 -39.221884511 0 -27.286515475 -36.963352454 
0 -27.596300077 -35.324783936 0 -27.986972708 -34.022020723 0 -28.172966647 -32.80881107 
0 -28.435214664 -31.93837925 0 -28.80200079 -31.277478665 0 -28.675125333 -30.898600708 
0 -28.762331762 -30.894636997 0 -28.594372492 -31.171919502 0 -28.576377475 -31.679699178 
0 -28.439717109 -32.292104411 0 -28.632396253 -33.193373221 0 -27.299713838 -37.505042201 
0 -26.957104246 -39.122101006 0 -26.465060084 -40.922819542 0 -25.5588581 -43.800012322 
0 -25.211212305 -45.493115172 0 -24.849680326 -48.484882567 0 -22.897940078 -55.346484443 
0 -21.663837577 -59.873490781 0 -21.438731788 -62.418301353 0 -21.025247855 -67.226959408 
0 -20.918308807 -69.757263056 0 -19.432951742 -75.270927605 0 -18.767418469 -78.030136443 
0 -17.860330876 -80.882235487 0 -17.093300081 -84.226768373 0 -16.331700427 -86.72783691 
0 -16.019427728 -88.03463822 0 -16.110512881 -90.48753424 0 -15.03703853 -94.049684888 
0 -13.601138439 -99.541968817 0 -13.596371896 -100.73270159 0 -12.926615694 -101.75235222 
0 -13.041252026 -102.18292851 0 -13.055852029 -102.32845288 0 -13.094363627 -102.23068795 
0 -12.884172332 -101.07728383 0 -12.725978133 -100.57335698 0 -13.355816804 -99.991586724 
0 -14.169672953 -97.615293117 0 -14.953703328 -94.492885456 0 -15.835446045 -90.671860662 
0 -16.960820338 -85.541298417 0 -18.703365777 -76.896805542 0 -19.54589365 -75.723594661 
0 -20.48557122 -71.252762216 0 -21.376937034 -65.649565017 0 -21.86427605 -64.352674624 
0 -22.753439879 -60.971176109 0 -23.285368645 -58.054689961 0 -24.027835189 -56.499719566 
0 -24.853977416 -53.23228596 0 -25.305578249 -50.446208094 0 -26.023133433 -47.882739805 
0 -26.579650173 -45.506285699 0 -27.051075769 -43.344840834 0 -27.657845948 -41.206444968 
0 -29.267505733 -34.732289385 0 -29.718117413 -32.448542025 0 -30.16647465 -31.649240009 
0 -30.147857991 -30.840137357 0 -30.237884168 -31.235247415 0 -28.885220762 -34.500479026 
0 -29.003859666 -36.085270647 0 -25.627976453 -49.083276097 0 -24.414641324 -53.26495096 
0 -23.684787021 -56.092403568 0 -23.300780821 -57.63770191 0 -23.181722416 -60.150799382 
0 -21.115234371 -65.653084823 0 -15.090517218 -96.044025812 0 -15.254541679 -96.322155724 
0 -23.26942809 -62.40261289 0 -28.91835586 -39.337951461 0 -30.171914498 -33.546833417 
0 -30.87178988 -30.976391675 0 -28.19414298 -42.632287454 0 -25.736418819 -51.915933164 
0 -22.753130218 -67.461812609 0 -22.879802248 -69.065934698 0 -22.56906386 -70.360253235 
0 -21.286994569 -75.695202739 0 -20.579772726 -76.540397241 0 -20.210496622 -80.131465068 
0 -19.917364385 -81.352448706 0 -18.98984426 -83.143187102 0 -18.931425715 -85.611587786 
0 -18.317471542 -88.003519578 0 -17.89645163 -89.980848938 0 -17.659727714 -90.966875008 
0 -16.878062064 -91.360191016 0 -16.974980628 -92.86897925 0 -16.765678592 -94.575701699 
0 -16.410296533 -95.230546443 0 -15.852858417 -97.322567836 0 -15.069853036 -97.668254129 
0 -15.535841175 -99.64725502 0 -15.409448475 -100.1780992 0 -14.847552353 -101.75675118 
0 -14.321737857 -101.84419068 0 -14.795294111 -102.69451692 0 -14.766172318 -102.81581792 
0 -14.770910332 -102.86781662 0 -14.406670449 -102.60967245 0 -14.955853191 -102.36649357 
0 -15.202634622 -101.04438362 0 -15.31049544 -100.59511098 0 -15.85452125 -98.336815072 
0 -15.810992653 -97.634643845 0 -16.479844354 -95.765414266 0 -16.673288442 -94.959661651 
0 -17.550414108 -91.285344885 0 -17.377619916 -90.139171981 0 -18.359431415 -88.098969939 
0 -18.744346552 -86.274885515 0 -19.280996592 -84.007226788 0 -19.649166625 -81.749666508 
0 -19.418901517 -80.645027036 0 -20.370696721 -79.523596862 0 -20.88511385 -77.375291098 
0 -20.545645535 -76.10082976 0 -21.965973656 -72.909215533 0 -22.282568366 -71.590503659 
0 -23.58294463 -66.188429432 0 -23.654387372 -65.038897165 0 -24.729549099 -61.545173923 
0 -25.03969718 -60.25331419 0 -25.625394182 -57.476901591 0 -26.01816746 -55.168942109 
0 -27.205068826 -51.052495302 0 -28.243731999 -46.723396774 0 -28.506918741 -45.633716149 
0 -29.480099299 -41.634235869 0 -29.462465353 -40.827876207 0 -30.214352457 -38.557147829 
0 -30.401456111 -37.777805021 0 -31.073922971 -34.991675052 0 -30.872813791 -34.461190923 
0 -31.482247249 -33.936256522 0 -31.485487507 -33.113956223 0 -31.582567768 -32.709587833 
0 -31.781265098 -31.944421633 0 -31.668600824 -31.468874328 0 -31.228858556 -31.236547566 
0 -32.006295819 -31.063143366 0 -31.79686 -31.012034462 0 -31.960337282 -31.253881408 
0 -31.919359017 -31.427443 0 -31.426658424 -32.453561277 0 -31.251584819 -34.181868474 
0 -31.111525061 -34.74688951 0 -30.76278091 -36.143094829 0 -30.284403005 -37.417564154 
0 -29.453322697 -37.941405206 0 -29.531618065 -40.350583102 0 -29.12043366 -41.193404098 
0 -28.978558222 -43.735060818 0 -28.735799284 -44.746224566 0 -27.657010035 -49.230849663 
0 -27.232968831 -50.153669836 0 -26.639180827 -53.464150401 0 -26.338294801 -54.697760529 
0 -25.119669133 -59.698836283 0 -24.367175975 -61.003963146 0 -24.485018208 -62.620744475 
0 -24.174799486 -63.912898448 0 36.897473394 -52.407988047 0 36.778962683 -52.251164417 
0 36.714609075 -52.082388228 0 36.618608477 -51.558184682 0 36.581705651 -51.286742065 
0 36.591289173 -51.122427333 0 36.471973378 -50.735044312 0 36.356693862 -50.548621246 
0 36.343589064 -50.17726082 0 36.250309773 -50.09031263 0 36.210511516 -49.935064906 
0 36.19161043 -49.88996578 0 36.133293324 -49.860638018 0 36.148330669 -49.82286351 
0 36.205621124 -49.777485819 0 36.169392664 -49.794889533 0 35.482391968 -49.997068459 
0 36.221360567 -49.862835469 0 36.207299169 -49.910660042 0 36.199603838 -49.968227057 
0 36.204603204 -50.027497539 0 35.762996413 -50.371992471 0 35.806416474 -50.464906655 
0 35.184363819 -50.847141937 0 36.419295159 -50.640195584 0 36.47448219 -50.749524167 
0 36.529904919 -50.973771175 0 36.558396642 -51.126689065 0 36.602064783 -51.559019901 
0 36.689201095 -51.82507574 0 36.026608982 -52.239266866 0 36.786400262 -52.244865443 
0 36.799655535 -52.426232346 0 36.814290739 -52.610254066 0 37.040611851 -53.088821989 
0 37.097069818 -53.216265642 0 37.096210752 -53.369840672 0 37.135984068 -53.536556571 
0 37.204752669 -53.678302726 0 36.594851791 -54.092801071 0 37.355153002 -54.238545628 
0 37.3926556 -54.373052764 0 37.372470381 -54.503402789 0 37.355703769 -54.866873273 
0 37.656267418 -54.880057119 0 37.651402146 -55.08913679 0 37.450300684 -55.213578534 
0 37.469691325 -55.254748953 0 37.459530929 -55.300033283 0 36.80958516 -55.465299364 
0 37.587175432 -55.271760038 0 37.568938964 -55.263054533 0 37.551254496 -55.207185736 
0 36.800115082 -55.325799171 0 37.434777049 -55.083417079 0 37.44952773 -55.004410484 
0 37.405191682 -54.786339004 0 37.367167408 -54.69608835 0 37.33907769 -54.61130407 
0 37.249691582 -54.522762734 0 36.519397047 -54.515570599 0 37.208430188 -54.159976897 
0 37.237849352 -54.011182719 0 37.159870933 -53.764987961 0 36.394775717 -53.756013264 
0 37.030517961 -53.346286811 0 36.985283157 -53.189198279 0 36.901410699 -52.59291667 
0 34.170544727 -52.47898725 0 33.998934076 -51.487825503 0 33.806674991 -50.868260199 
0 33.6634492 -50.516923979 0 33.56251393 -50.313740775 0 33.623822397 -50.335070935 
0 34.48224719 -51.759256651 0 34.29836798 -52.6492531 0 34.585075791 -53.467109157 
0 35.085002277 -54.619799213 0 34.899868791 -55.462013421 0 34.939353815 -55.875384511 
0 35.026415273 -55.969601096 0 35.083352518 -55.728709463 0 34.954430216 -55.532753684 
0 34.853583006 -54.999416964 0 35.069452129 -54.192850479 0 34.472451061 -53.47978472 
0 31.472844834 -51.097684615 0 32.035400217 -51.660801119 0 31.626845982 -52.589159444 
0 32.072386151 -54.373280921 0 32.440234233 -55.100400959 0 32.202498232 -55.369126777 
0 30.647834178 -52.794873823 0 30.419620412 -51.953808274 0 30.160186835 -51.419891472 
0 30.112600922 -50.988858853 0 30.457794561 -50.880627964 0 29.772567978 -51.135603573 
0 30.466011368 -53.284631879 0 31.394547745 -53.639341542 0 31.944989846 -56.178507936 
0 31.809574144 -56.829638592 0 31.991668264 -56.94750214 0 31.748055554 -56.722266264 
0 31.827383982 -56.179500716 0 30.873735649 -56.020847641 0 30.617914103 -55.009964502 
0 31.189394093 -53.825372256 0 27.670626643 -53.706428246 0 26.994091882 -51.215496162 
0 27.626587919 -51.398080981 0 28.116462318 -51.804968966 0 28.665261265 -52.440204642 
0 28.683808725 -53.447995262 0 29.021443518 -54.980594225 0 29.326733742 -55.553951512 
0 29.314688235 -56.557635925 0 29.258294779 -57.430441072 0 29.00864369 -58.063346182 
0 28.939661611 -58.087853317 0 28.640238815 -57.893661011 0 28.908355679 -56.555661011 
0 28.689975424 -55.707709533 0 28.528274242 -54.724540651 0 25.56379938 -54.862337717 
0 26.450879143 -52.923562279 0 26.15971605 -52.295351619 0 26.026611083 -51.750358302 
0 26.417748035 -51.249411874 0 25.009106731 -52.341046862 0 25.770287035 -53.266854985 
0 25.959199153 -54.406115892 0 26.203851046 -55.526057338 0 26.4792825 -56.689080719 
0 26.762728555 -57.740487884 0 26.467123383 -58.745251078 0 26.898630438 -58.31184761 
0 26.931604291 -57.863788468 0 25.747186282 -56.118163608 0 23.675290502 -54.715591032 
0 22.776097683 -51.730183319 0 23.140006947 -51.393858614 0 23.456262013 -51.354024648 
0 24.178267175 -51.542891954 0 24.305802922 -51.757803584 0 26.035273951 -59.348747358 
0 26.017622736 -59.389850191 0 25.958701816 -59.27213454 0 24.774981862 -59.305842041 
0 25.057519928 -58.13071592 0 25.68537533 -57.286376124 0 22.056508332 -55.409020369 
0 21.853101173 -53.813601667 0 22.403350751 -52.831817865 0 22.214024824 -52.443534935 
0 21.320558972 -51.907421606 0 21.061983588 -51.536645541 0 21.655293142 -52.045421675 
0 22.276900751 -52.955157529 0 22.885253821 -54.826314421 0 23.025983527 -55.687534424 
0 23.306318834 -56.921888053 0 23.309166417 -58.418108716 0 23.54824914 -59.461292009 
0 23.359881582 -60.487791378 0 23.214123061 -60.818355475 0 22.7669805 -60.018714082 
0 23.018548963 -58.946955562 0 22.43822201 -58.019726452 0 22.612320715 -56.754723408 
0 20.074098478 -55.44419387 0 19.739849851 -54.153448593 0 19.205021874 -53.139268912 
0 18.832546493 -52.164252783 0 19.51883578 -51.680739453 0 19.857356614 -51.468064934 
0 19.954540377 -51.319390507 0 19.62218027 -51.388906828 0 18.924176017 -51.842780811 
0 19.4465112 -52.538120876 0 19.732384387 -53.636317571 0 19.967486061 -55.142844708 
0 20.41688546 -56.658299883 0 19.989399183 -58.149294899 0 20.454625271 -61.19728307 
0 20.627613874 -62.179784565 0 21.03230809 -61.053527706 0 19.677494285 -56.986458199 
0 16.330051497 -51.524277446 0 16.506294181 -51.159972134 0 16.542657852 -51.099837987 
0 16.623447719 -52.47661399 0 17.141190414 -53.539738221 0 17.743189708 -56.403862013 
0 17.798682587 -57.904416682 0 18.801758973 -59.057050423 0 19.649916632 -59.343098922 
0 20.00545703 -60.401875625 0 19.164238692 -62.231835059 0 20.008214012 -62.136454165 
0 19.371244664 -63.03480921 0 19.990101334 -62.625477889 0 19.968864097 -62.409849822 
0 19.20816896 -61.74432273 0 19.451363012 -60.782048552 0 19.707299229 -59.49500547 
0 19.365216112 -58.361374773 0 18.437429693 -57.828028406 0 16.351339334 -56.611273829 
0 16.214016282 -55.173657748 0 16.121612389 -53.641580856 0 15.881776534 -52.750595675 
0 15.638504266 -52.023827401 0 14.591439706 -51.4197518 0 14.305109395 -51.054701523 
0 15.249381636 -51.514258004 0 15.688519891 -55.322569454 0 16.31749677 -58.852417128 
0 16.826215306 -59.913991118 0 16.86800837 -61.198279479 0 17.454545305 -62.339749354 
0 17.814649736 -63.669384032 0 17.914905756 -63.141202906 0 16.567510172 -59.440318547 
0 16.641572757 -58.02713684 0 13.697825613 -58.058627262 0 12.435063434 -53.739881695 
0 12.907165482 -52.781843792 0 12.631580358 -51.894677731 0 12.511457394 -50.913205627 
0 13.09342774 -50.831047642 0 12.871444307 -50.68559414 0 12.226261005 -50.6869946 
0 12.219894771 -51.519727467 0 13.067127719 -52.363303992 0 13.63711278 -53.440416397 
0 13.888648787 -54.4030151 0 14.104806503 -56.385743109 0 15.176841911 -57.723717817 
0 15.564643509 -64.330192469 0 16.039195807 -64.734832939 0 16.227936109 -65.017717306 
0 16.709771263 -64.826740805 0 16.658910715 -64.811672029 0 16.639960389 -64.483200964 
0 16.366600758 -64.347987229 0 16.2489104 -63.535875797 0 15.848286565 -62.737821344 
0 14.978044596 -61.893309082 0 13.964606239 -59.009944476 0 12.324548737 -57.877645979 
0 12.646082072 -56.355553695 0 12.111083098 -55.144668264 0 10.766301122 -53.93771384 
0 10.680432246 -51.005296983 0 10.616947533 -50.665784762 0 10.166723799 -50.441229957 
0 11.391343965 -50.947197555 0 11.862579604 -55.573055293 0 12.352407862 -56.269429083 
0 12.090687255 -57.759721321 0 13.212818397 -59.572281893 0 13.759849322 -60.844612225 
0 13.704510941 -62.200429104 0 13.895825645 -63.338912596 0 14.09767476 -64.321893374 
0 14.175968419 -66.712559764 0 14.101468751 -66.517599018 0 14.260747583 -65.388259169 
0 13.710384917 -64.502337503 0 13.3575049 -60.596603939 0 10.936439569 -58.65929994 
0 9.9743333503 -57.393455069 0 9.4871678183 -52.533503136 0 9.1515413632 -51.509520512 
0 8.6378537844 -50.64577055 0 8.8560227419 -50.229450901 0 9.0425066138 -50.009089757 
0 9.0861207766 -50.006304437 0 8.4945793716 -50.019308724 0 8.7417628801 -50.868035739 
0 9.1832465913 -51.748746851 0 9.7897307465 -52.976742411 0 9.7862278123 -54.168803185 
0 9.8076287122 -55.421644509 0 10.326923359 -60.080788061 0 10.984305022 -61.506481278 
0 12.362305494 -66.245191059 0 13.128029606 -66.570086554 0 13.285099399 -67.046320653 
0 11.967183823 -67.368754077 0 12.15676151 -66.324189633 0 12.158526799 -65.155068244 
0 12.097486851 -63.850126743 0 11.229468405 -62.819062303 0 8.3237995672 -54.543468136 
0 8.3242074714 -53.293784591 0 7.8589595706 -52.629464606 0 6.5575061436 -51.369765695 
0 5.8294407032 -49.607232446 0 6.0688833269 -49.349076146 0 6.0829815858 -49.261824807 
0 6.4690938261 -49.647771799 0 6.7700741445 -52.088392006 0 8.3208995488 -57.653115826 
0 9.4218380336 -58.911234658 0 8.9539985353 -59.917948931 0 10.63410708 -64.670474541 
0 10.759600072 -66.00911276 0 10.631636103 -67.289936291 0 10.615328349 -68.392931076 
0 10.736499918 -69.042415395 0 11.127503269 -69.147767619 0 11.470835959 -68.966669483 
0 11.420753861 -68.863575773 0 11.246643211 -68.600011652 0 9.3710374713 -62.99003345 
0 9.585575892 -61.637763476 0 8.8782129137 -60.075155016 0 6.668913372 -58.606516215 
0 6.9676121296 -57.289534402 0 6.0782138131 -54.985900411 0 5.2098895393 -53.27416019 
0 4.7656197759 -51.6540665 0 4.7159574909 -50.592261749 0 4.9071128155 -49.909361938 
0 4.5903595598 -49.698546077 0 5.516881966 -50.690399727 0 5.0910198474 -51.617411249 
0 5.3582991101 -52.975284265 0 6.0038300361 -54.506890853 0 6.2971933785 -56.337540368 
0 6.3856162591 -57.831713468 0 6.5976892739 -59.279923186 0 7.5124396329 -60.594494661 
0 8.1520375016 -62.096605454 0 8.3196235505 -63.973033932 0 7.8747944695 -66.018675836 
0 8.9892322281 -70.019247247 0 9.4499861503 -69.068143593 0 9.4883702087 -67.355703707 
0 9.129667401 -66.048403281 0 8.8013445987 -64.603733242 0 4.8562790568 -58.828001749 
0 4.0096054876 -56.611335519 0 3.7277708914 -55.477212697 0 3.0073563161 -53.419210134 
0 2.1072839625 -48.561676681 0 2.7249126723 -48.382213966 0 2.946953861 -48.337706984 
0 2.9916499737 -48.39775492 0 3.0280504082 -48.690984869 0 2.5871789256 -49.108629487 
0 2.367644802 -49.891904569 0 5.6216986017 -62.086474463 0 5.8300409746 -64.053051179 
0 6.7218900012 -67.460014395 0 7.4961418083 -67.784623215 0 7.6377261817 -69.021398941 
0 7.8309758143 -70.099168441 0 7.9274683567 -70.513657647 0 8.1498520862 -71.281468781 
0 8.5321068917 -71.44500208 0 8.6482198174 -71.564510179 0 8.6913863354 -71.487099613 
0 8.5002141188 -71.143776005 0 6.9859671102 -69.735037315 0 6.7126687013 -67.789181494 
0 6.4712712073 -66.74421094 0 6.2337852307 -64.364891675 0 6.1433338523 -62.898897734 
0 5.7711957328 -61.407003513 0 1.4881154822 -52.390419058 0 2.0506473213 -51.742140012 
0 1.4513769848 -49.914192903 0 1.1570729872 -48.963910428 0 -0.34758546679 -47.178807647 
0 -0.057119582694 -47.323713257 0 0.32691298874 -47.706790253 0 0.99213887728 -50.560811769 
0 1.8879605086 -51.547207489 0 2.3740967291 -53.543593253 0 2.6614291542 -55.023187921 
0 2.9871685406 -56.536531651 0 3.3809655532 -58.056071242 0 3.8320394465 -59.520850503 
0 3.6670152531 -61.480820623 0 4.8959318104 -67.124275067 0 6.0466469086 -73.90573225 
0 6.2998969701 -73.960238113 0 6.2871384636 -74.055713743 0 6.3018051905 -73.871965055 
0 6.2480207307 -73.533499453 0 6.2816328568 -72.845269584 0 6.3327275141 -71.610709506 
0 1.8526105521 -59.57239777 0 1.4203333955 -57.26259469 0 0.72685036941 -54.59600823 
0 0.093890707776 -53.145068148 0 -0.56221430202 -51.838043159 0 -1.1291244744 -50.519923288 
0 -1.3700510345 -49.318002751 0 -1.6432240053 -48.374052703 0 -2.2356910508 -47.454672922 
0 -1.1611909002 -47.070193581 0 -2.3804488526 -46.567652336 0 -1.441778405 -47.705454871 
0 -0.54845148326 -48.835707895 0 -0.96731023747 -50.185990869 0 -0.62444589418 -51.424478733 
0 -0.44692879835 -52.90510149 0 -0.17235611655 -54.4600428 0 0.27281840552 -56.237349329 
0 0.77597499213 -58.332069281 0 1.0633276341 -59.502352738 0 2.6401852192 -64.725203345 
0 3.5665743456 -66.184107234 0 3.6149058868 -67.865286009 0 4.0962461555 -69.389422254 
0 4.7709807393 -70.771734869 0 4.9510406883 -71.983517249 0 5.0750478712 -72.52182805 
0 5.3224508174 -73.271525838 0 5.5163685671 -73.936613443 0 5.0749232389 -74.793753715 
0 4.1973762801 -72.637271307 0 4.6348091442 -70.7027583 0 4.379511912 -69.839280967 
0 3.7431322822 -67.354171439 0 3.4876972172 -66.170243408 0 3.2115561478 -64.47742533 
0 2.9433983612 -63.048411412 0 2.5785224047 -61.39944006 0 -0.932069258 -58.15086464 
0 -1.5726922783 -55.959383538 0 -2.0265882706 -54.169578078 0 -3.9491473991 -46.539403934 
0 -3.7343758583 -45.765099495 0 -3.0384975102 -46.103670474 0 -3.9486140346 -46.248238512 
0 -3.5135911979 -46.742050787 0 -3.5911239134 -47.436418441 0 -3.6707081485 -48.312399172 
0 -2.8332278227 -51.680406344 0 -0.017128448473 -62.444745326 0 1.0142117099 -63.949148414 
0 0.95246598411 -64.989133539 0 1.0823635952 -66.815871276 0 1.5385455086 -69.044078976 
0 1.9999569085 -70.755311535 0 2.4497577603 -72.448445437 0 2.7749381132 -74.213275926 
0 3.0365265411 -75.25491347 0 3.5465077516 -75.890393489 0 3.7038607948 -76.573409353 
0 3.9520847287 -76.676198353 0 3.948765462 -76.805344251 0 3.9724282635 -76.620975365 
0 4.1666360347 -76.023601916 0 3.8263525908 -75.813786409 0 3.872513325 -74.98648625 
0 3.4399633027 -74.562857801 0 2.3976755681 -72.69747012 0 2.044469529 -70.980308798 
0 0.95896129545 -66.673846648 0 0.82979088652 -64.666781719 0 0.3840005652 -62.750663619 
0 -1.9576981066 -58.558922481 0 -3.8480100469 -52.381315682 0 -3.3982813578 -51.638608735 
0 -3.7807351362 -50.191198115 0 -4.339118131 -48.860631264 0 -4.6669253854 -47.642551009 
0 -4.6725539338 -46.801686818 0 -5.8281234773 -45.236749979 0 -5.2832800996 -45.135885604 
0 -5.6817268947 -44.838692524 0 -6.0266048684 -44.674525853 0 -5.6274842732 -45.034914132 
0 -5.5001534044 -45.506813307 0 -5.164929581 -48.18929252 0 -3.9781454618 -49.543562521 
0 -3.8029954039 -52.365035659 0 -2.932055719 -53.444579824 0 -2.8175994646 -55.417829374 
0 -1.9752838478 -57.756654133 0 -1.2597457735 -60.888081927 0 1.6958426112 -78.073778859 
0 1.6090160332 -77.640403301 0 1.3902686363 -75.499621716 0 1.326980191 -73.949766423 
0 0.7717472552 -72.822042423 0 0.74133391048 -71.169577973 0 -1.151523479 -66.235942611 
0 -1.3285774443 -64.35496045 0 -2.0251162247 -62.293144731 0 -3.6127938611 -60.008917705 
0 -4.5015153142 -57.753099334 0 -4.7057706057 -55.874861236 0 -4.8929155284 -53.972903657 
0 -5.5887943518 -52.132717796 0 -6.095055855 -49.867043199 0 -7.7834099416 -45.486199915 
0 -7.3777787797 -44.975209902 0 -7.732356844 -44.232651969 0 -7.3025508637 -44.927542639 
0 -6.488888346 -45.888782665 0 -6.266692212 -46.913015906 0 -7.0541414404 -48.63797669 
0 -6.0574055035 -50.137877601 0 -5.3721896949 -51.977738149 0 -4.7464498364 -56.710259978 
0 -3.5241457355 -61.658979132 0 -2.7642882489 -62.788271746 0 -1.9745280102 -64.742020503 
0 -1.3456422668 -67.291700755 0 -0.92290101273 -69.211422145 0 -0.74813393731 -70.286027876 
0 -0.31888956691 -72.040359735 0 0.25748851555 -74.031962568 0 0.58311432741 -75.462061973 
0 0.69074451006 -76.24234879 0 0.94338770393 -77.379713478 0 0.87532092465 -80.175603838 
0 1.3979165824 -79.975097858 0 1.6350936547 -79.82083833 0 1.6657601209 -79.728109547 
0 0.75791966776 -79.629934229 0 0.3479982041 -78.131889282 0 -1.1181287215 -70.578955571 
0 -1.1754232281 -68.275243583 0 -8.2091673568 -47.596230928 0 -7.9881790139 -46.41447438 
0 -9.6177009673 -43.220312382 0 -8.9906627915 -43.189543275 0 -9.1021739449 -42.998799685 
0 -9.0201107064 -43.140962185 0 -9.01953818 -43.432541508 0 -9.8378527639 -43.534530126 
0 -9.007357777 -45.643388919 0 -8.2042780874 -47.014720678 0 -7.7377045272 -50.717212505 
0 -7.3741695749 -52.610991052 0 -6.614365386 -54.593288345 0 -6.2782437773 -55.946345763 
0 -5.1601324807 -59.236109155 0 -4.5833057206 -61.732574087 0 -4.5280376389 -64.260801053 
0 -3.9850596861 -66.663599082 0 -3.5208680239 -68.669959851 0 -3.043162587 -70.803744563 
0 -2.4849450053 -72.946293408 0 -2.0137235886 -74.835267357 0 -1.7811698739 -75.808432331 
0 -1.1773410699 -77.240261375 0 -0.7824261498 -78.76757179 0 -0.54026162572 -79.988714969 
0 -0.10152221286 -80.6122312 0 -0.38794028398 -82.839633006 0 -0.17263350564 -82.548887289 
0 -0.027749203964 -82.079470507 0 -0.028500912542 -81.563164491 0 -0.48073719841 -80.39074656 
0 -0.93278162115 -78.173663726 0 -0.87043557541 -76.226345591 0 -1.0859995755 -75.313261361 
0 -1.597818797 -73.035286277 0 -2.137265301 -71.971281157 0 -2.9719296986 -69.860430746 
0 -3.2689771849 -67.641314769 0 -3.5224481058 -65.654000727 0 -4.0123180946 -63.632864942 
0 -6.6597458361 -61.1418657 0 -6.6919905564 -58.84237921 0 -7.2173575689 -56.508854788 
0 -7.6610381866 -54.356615786 0 -8.171686394 -52.190169523 0 -8.6511447057 -50.220255951 
0 -10.976571334 -45.257097997 0 -10.440854297 -44.316757116 0 -10.436609312 -43.451334338 
0 -11.502411598 -42.196228758 0 -11.716264834 -41.697059341 0 -11.261026726 -43.033362998 
0 -9.9592196739 -47.504115548 0 -8.948437953 -49.143461618 0 -8.9522708326 -49.98027829 
0 -8.214295805 -56.918515226 0 -7.2892379469 -59.483724464 0 -6.7142561402 -61.93603016 
0 -6.5812292769 -63.430873465 0 -2.9417699241 -78.444816996 0 -2.3085609566 -80.073015971 
0 -1.9364392474 -81.606056344 0 -1.7071223352 -82.727636693 0 -1.0837953918 -83.108903804 
0 -0.81140312159 -83.273200117 0 -1.5895784029 -84.7442839 0 -1.3148193789 -82.917100738 
0 -1.5492074955 -82.020400928 0 -1.8184838659 -81.137301203 0 -2.0596021665 -79.994260476 
0 -2.4691813349 -78.395524803 0 -3.6370906086 -74.642075577 0 -4.178278966 -72.30433965 
0 -4.719040487 -69.119424416 0 -5.0654959176 -67.698185849 0 -5.5606200073 -65.454611286 
0 -6.2945767811 -63.231222965 0 -8.791548777 -59.450190096 0 -9.1455881916 -56.937438164 
0 -9.6684315946 -54.726928868 0 -10.507953248 -52.228757651 0 -10.845031377 -49.817362229 
0 -11.127244803 -47.753047407 0 -11.214897999 -46.259599018 0 -12.665603659 -43.531889314 
0 -12.629743993 -42.443117752 0 -13.02392979 -41.014073222 0 -12.375476201 -41.130036626 
0 -12.348946198 -41.005430274 0 -12.308530664 -41.082591237 0 -12.901778782 -41.399319385 
0 -12.548958927 -42.986950594 0 -11.692163468 -44.320739901 0 -10.62255231 -52.046935704 
0 -9.5112197566 -54.129542219 0 -7.2533280054 -64.781956137 0 -6.3528374406 -66.239687284 
0 -5.4890105891 -69.948748517 0 -5.1564479499 -71.58516875 0 -4.5811535268 -74.200126627 
0 -3.9608727243 -76.421091041 0 -2.7994240904 -86.105038086 0 -2.2471713459 -85.716228869 
0 -2.0129698196 -85.604351149 0 -2.3237048022 -85.458474404 0 -2.1395043269 -84.671517643 
0 -2.7221361665 -84.476519146 0 -3.8582972539 -81.142075292 0 -4.4701620431 -77.620626175 
0 -4.5108942618 -76.237245429 0 -6.4856952252 -70.277618075 0 -6.7989034015 -66.821164896 
0 -7.3970053841 -65.038665688 0 -8.9063181234 -61.775052867 0 -9.5661220545 -60.277007782 
0 -10.887591984 -56.758241183 0 -11.289985011 -55.129939154 0 -12.985195082 -49.268824638 
0 -12.920123265 -47.375546301 0 -13.601512042 -45.430421447 0 -13.482438194 -44.137260667 
0 -13.676862566 -43.27506183 0 -14.527185164 -41.435200409 0 -14.576914758 -40.535474953 
0 -14.767555628 -39.772174702 0 -14.819881555 -39.43454802 0 -14.863847744 -39.264951339 
0 -14.857618548 -39.284224088 0 -14.476948191 -39.840451547 0 -14.595956124 -40.216549701 
0 -14.433216786 -41.009880312 0 -14.233588354 -41.84760427 0 -14.267576864 -42.639351824 
0 -13.660978273 -44.384284493 0 -13.047752381 -46.128509876 0 -12.793935018 -48.034512816 
0 -12.30819599 -49.975084338 0 -10.733029512 -56.50792416 0 -9.6091962297 -59.455792866 
0 -8.9431817104 -62.120476854 0 -8.4845713938 -64.895435202 0 -7.9702696901 -67.878082795 
0 -7.4681283246 -70.854613188 0 -6.640469587 -74.419200854 0 -6.0438138521 -76.995059447 
0 -5.514629214 -79.049866307 0 -4.6707490913 -80.48205443 0 -4.2390677411 -82.287520532 
0 -3.7389139024 -83.629001439 0 -3.4529481319 -84.867304116 0 -3.3945496399 -86.271470785 
0 -3.491166929 -88.067123512 0 -3.2107275836 -87.795861276 0 -3.2669726688 -87.896989454 
0 -3.2075167613 -87.229716757 0 -3.4661527315 -86.635563589 0 -3.4750417867 -85.371813965 
0 -3.5388518141 -84.103641728 0 -3.8573706283 -83.107461365 0 -5.2079155516 -80.670937611 
0 -6.6356515562 -74.602938127 0 -6.6117006902 -72.634548736 0 -8.5950499112 -67.560211826 
0 -8.5529844096 -64.329459491 0 -10.962177441 -62.341082118 0 -13.573639921 -51.534855637 
0 -15.052107737 -46.425480472 0 -15.803736735 -42.97255933 0 -17.097128654 -37.721030156 
0 -16.842592652 -37.759870129 0 -17.137314038 -37.862399702 0 -13.440188437 -51.008714102 
0 -12.340513317 -53.365070415 0 -11.933214961 -59.482254426 0 -11.097585072 -61.806972145 
0 -10.521085653 -64.260465522 0 -9.8188643902 -67.147806621 0 -6.4287635657 -81.909483928 
0 -5.4549384328 -86.136271102 0 -5.0045169668 -87.154136781 0 -4.5393949486 -89.446080793 
0 -4.2711125675 -89.62654123 0 -4.3453122277 -89.777057213 0 -4.3339708668 -88.817951584 
0 -4.777918549 -88.211414708 0 -5.043999223 -87.019122725 0 -5.3495886275 -85.684228424 
0 -5.4269961393 -83.444057853 0 -6.6509108598 -80.267818349 0 -6.9241040352 -77.180184943 
0 -8.6503836913 -72.0631437 0 -8.671582025 -69.980370527 0 -10.715971777 -64.627191412 
0 -12.891077456 -58.851721708 0 -13.009715575 -56.43448288 0 -13.731615194 -53.711872191 
0 -15.588245858 -47.832519848 0 -15.930416252 -46.426006786 0 -16.464718739 -44.016393285 
0 -17.365754459 -39.921768899 0 -17.188187017 -38.933863607 0 -17.437204574 -38.11757378 
0 -17.575456908 -37.616149024 0 -18.270539171 -36.715390237 0 -18.066843268 -37.548418172 
0 -17.205096253 -38.919080139 0 -16.987062286 -39.929826929 0 -16.841819754 -40.513150245 
0 -16.570580192 -41.728496302 0 -16.316586574 -42.895066392 0 -15.924397888 -44.485210753 
0 -15.415349663 -46.395771911 0 -14.943644068 -48.411278843 0 -14.701380352 -50.412548262 
0 -14.365828473 -52.702704274 0 -13.479005028 -55.377504006 0 -12.768023112 -57.54171239 
0 -9.905362905 -71.490613939 0 -8.9193171445 -73.511165673 0 -8.3493230143 -75.929742338 
0 -7.8169403733 -78.199784125 0 -7.2702277526 -80.368421214 0 -6.4381400747 -85.729524263 
0 -6.1832908957 -86.850905634 0 -5.5252945597 -89.756626872 0 -5.091940017 -89.576417559 
0 -5.0109398638 -91.746744964 0 -4.7083293601 -90.963792046 0 -4.8853534781 -91.151111803 
0 -5.1796147972 -90.93538165 0 -6.7212381746 -85.569224784 0 -6.8761790128 -83.001184937 
0 -8.673727246 -76.465153849 0 -8.7559673265 -74.331132963 0 -10.620930805 -68.478512962 
0 -10.547979276 -67.002505103 0 -12.944421438 -63.292405592 0 -13.495284958 -60.768335008 
0 -14.0028429 -59.424180312 0 -15.005627349 -58.306653103 0 -15.72558242 -55.356996045 
0 -15.482374798 -54.069537161 0 -16.9863114 -49.182697737 0 -16.791286348 -47.715728795 
0 -17.498298325 -44.759381079 0 -18.894880558 -42.215110013 0 -18.225558199 -41.879702608 
0 -19.023098254 -40.842226586 0 -19.262175326 -39.607325689 0 -19.861080083 -37.917301922 
0 -19.505884444 -37.112041278 0 -19.775780718 -36.159742041 0 -19.875746106 -35.791886166 
0 -20.653150566 -34.906190323 0 -19.760795363 -35.506369731 0 -19.517533961 -35.600167311 
0 -20.550118456 -34.594361566 0 -19.720953201 -35.718757977 0 -19.660279257 -36.041967905 
0 -20.246269057 -36.588439163 0 -19.374035571 -37.886187095 0 -19.928458883 -37.905899438 
0 -19.524245042 -39.559565185 0 -19.136958706 -41.160699059 0 -18.233894672 -42.646911842 
0 -17.716523732 -44.711342525 0 -17.648727925 -47.417088837 0 -16.723002377 -48.918242115 
0 -17.05412809 -49.849446484 0 -16.09182326 -51.447032523 0 -16.363627867 -52.638777196 
0 -15.670746182 -55.558137276 0 -14.774146014 -56.968853408 0 -14.029510636 -59.32684222 
0 -13.266188937 -61.790566447 0 -13.402286828 -64.356399597 0 -12.948688826 -66.188120568 
0 -12.21159355 -69.249068589 0 -10.607356601 -74.40745753 0 -9.8966991596 -77.34056446 
0 -9.9298370141 -79.531347434 0 -8.9131538981 -81.488943978 0 -8.4133512909 -85.099994947 
0 -7.3250966692 -87.2640815 0 -6.9417291695 -88.917075432 0 -7.068787871 -90.596146477 
0 -6.3588925196 -91.177485411 0 -6.7401131415 -92.706240639 0 -6.5776755294 -93.461206873 
0 -6.2331163927 -94.004036901 0 -5.7318050979 -93.318113897 0 -5.8176469969 -93.722122343 
0 -5.8999867182 -93.931685487 0 -6.2784291501 -94.772452734 0 -6.3035375136 -94.46378135 
0 -5.9941360138 -93.396955943 0 -6.437926957 -93.918194968 0 -6.6525230079 -93.105603474 
0 -6.5042156996 -90.04271371 0 -6.8337283086 -88.604903678 0 -7.5923364293 -88.524336894 
0 -8.7806497482 -84.587067739 0 -9.2177724097 -81.553269344 0 -8.9335881865 -79.518006594 
0 -9.6127256212 -77.611751968 0 -10.083302337 -76.566258127 0 -10.782922493 -75.920861922 
0 -10.657793284 -72.35721483 0 -11.449984382 -72.18082855 0 -12.71635689 -67.894864661 
0 -13.312574059 -64.811704913 0 -12.462193182 -66.153333461 0 -11.667644307 -69.067672192 
0 -11.857849903 -70.474759305 0 -10.526480008 -73.817926185 0 -9.8020365392 -79.195474951 
0 -8.4418363695 -81.545603233 0 -8.3382246934 -82.900469119 0 -8.0875235566 -85.183391356 
0 -8.2772217039 -86.767512085 0 -7.4026350985 -86.98140115 0 -7.1825687569 -90.198081498 
0 -6.852354174 -91.662729629 0 -6.3174341481 -91.586686919 0 -6.1634178998 -92.745603821 
0 -6.294877094 -95.00511517 0 -6.2104246483 -94.396758921 0 -5.8003855407 -92.689743107 
0 -6.0275813171 -92.599942464 0 -6.4436987724 -90.089875949 0 -7.5880505793 -89.287420927 
0 -7.9212508538 -87.1222673 0 -7.6389155991 -85.151995265 0 -8.2246510866 -83.541013411 
0 -9.1079991845 -83.016870643 0 -9.2801498341 -79.936441615 0 -10.655058733 -76.502359207 
0 -11.47492248 -73.115590237 0 -11.132393518 -71.495336027 0 -11.303279193 -70.04351586 
0 -11.983192345 -67.181510467 0 -12.861002945 -63.501833823 0 -14.234533703 -60.801894215 
0 -15.028028448 -58.201769472 0 -15.402944784 -54.286232125 0 -17.227922709 -46.805557574 
0 -18.135371034 -45.272847932 0 -18.668127258 -43.127511729 0 -18.608524813 -40.999911974 
0 -18.994951987 -39.447318823 0 -19.660413359 -36.752271851 0 -20.469867346 -35.614416227 
0 -20.662340465 -34.744182561 0 -19.798297982 -35.345445698 0 -19.570283641 -35.455554112 
0 -20.500360303 -34.669513735 0 -20.405915375 -35.807606882 0 -20.084555221 -36.975800136 
0 -18.763345055 -39.251650708 0 -18.243385593 -40.775314542 0 -17.810226459 -43.551896228 
0 -18.246876876 -44.749167677 0 -17.882035292 -46.29900233 0 -15.944717099 -50.273167319 
0 -15.861159636 -51.482290337 0 -16.388189897 -52.497384931 0 -14.820985551 -56.792584568 
0 -13.96724222 -61.879119714 0 -11.34052907 -65.850133132 0 -9.4385232171 -73.374795344 
0 -9.1443039617 -75.419660009 0 -7.3391426137 -82.081518581 0 -7.182134901 -84.416459093 
0 -5.586009823 -90.397529081 0 -5.5351635989 -91.219151497 0 -5.3640781549 -91.940594948 
0 -5.1180131047 -91.979333352 0 -5.284333702 -90.603297512 0 -7.3241512692 -82.071928617 
0 -7.9758822836 -80.309579342 0 -8.5193136244 -78.028005856 0 -9.0770213695 -75.647395124 
0 -9.6912928023 -73.109433332 0 -12.980803707 -58.810618636 0 -13.562847608 -56.825019911 
0 -14.422502037 -54.249432353 0 -15.074466613 -51.547759373 0 -15.387611285 -49.380617043 
0 -15.858229944 -47.337372652 0 -16.366195127 -45.302451426 0 -16.840493909 -43.413501965 
0 -17.181553444 -41.967689184 0 -17.468258505 -40.64847273 0 -17.869623573 -39.026711257 
0 -18.123652552 -37.942388666 0 -18.268318384 -36.85801223 0 -18.190527989 -36.923460078 
0 -18.368319823 -37.08475452 0 -18.179118096 -37.674378789 0 -17.884818709 -38.723661254 
0 -16.726638737 -42.968300912 0 -14.543907923 -52.150517886 0 -14.143051809 -54.615796873 
0 -13.444441695 -57.323811692 0 -9.3692436447 -68.989185428 0 -9.3212836837 -71.053171456 
0 -7.6453974427 -76.169889527 0 -7.4981555682 -78.444362245 0 -7.2308570807 -79.612713212 
0 -5.910076913 -82.454637924 0 -5.9322015128 -85.143370557 0 -5.7400939725 -87.059256757 
0 -5.4592805018 -88.409401859 0 -4.9827142006 -89.194328643 0 -4.5817176875 -89.737382174 
0 -4.46401949 -90.447033307 0 -4.7788092754 -90.994975604 0 -4.7680334716 -90.408012683 
0 -5.0263301713 -88.126983819 0 -5.5882876081 -87.696170371 0 -5.9502063515 -83.866283837 
0 -6.5548276913 -83.430569039 0 -9.3553227883 -69.992382769 0 -10.107901431 -68.95070005 
0 -10.785840948 -66.17306431 0 -11.413379097 -63.495950571 0 -12.013577125 -60.987150243 
0 -12.437520348 -54.751805976 0 -13.325324433 -52.444040367 0 -16.996512867 -38.229595717 
0 -17.185474927 -37.5356105 0 -17.733398922 -37.026858508 0 -17.696651028 -37.119219309 
0 -16.144142673 -41.31917832 0 -16.522943536 -41.817048982 0 -15.274482091 -45.223351823 
0 -14.113400398 -49.378902695 0 -14.274846587 -50.352581223 0 -11.766412338 -59.823475592 
0 -11.965158349 -61.111610584 0 -11.469483267 -63.41109242 0 -9.3710194318 -65.19271517 
0 -9.2966358003 -66.515060005 0 -7.3038837666 -71.844354651 0 -7.2756447243 -73.809675404 
0 -5.4857858975 -79.403784392 0 -4.4347007559 -82.759112785 0 -4.2670531263 -84.3332643 
0 -3.9252925658 -85.414471819 0 -3.912386491 -86.77847772 0 -3.6829414557 -87.692123518 
0 -3.6221407127 -88.395219862 0 -3.8131200658 -89.091507049 0 -3.6758834366 -88.807336698 
0 -3.6686677832 -87.444894493 0 -4.0728831203 -87.245777132 0 -4.0297530313 -86.488265327 
0 -4.0664447919 -85.173786436 0 -4.5436369021 -84.049452515 0 -4.9004215221 -82.289184581 
0 -5.5944697951 -80.538068575 0 -6.294999468 -78.717774256 0 -6.8601002264 -76.535911187 
0 -7.4273191237 -73.984810273 0 -7.795552745 -72.405873678 0 -8.2640808408 -69.575222081 
0 -8.7724745967 -66.492350054 0 -9.2662058923 -63.638292981 0 -9.8822674458 -61.053670968 
0 -10.744151692 -58.704198227 0 -11.252351115 -57.413003032 0 -11.368046272 -55.32315905 
0 -12.33074271 -50.887447838 0 -13.49431418 -48.759056112 0 -13.800384624 -46.745134806 
0 -14.220920182 -44.961906309 0 -14.840548645 -43.389153365 0 -14.989367882 -42.644204252 
0 -15.222350422 -41.58832139 0 -15.145484731 -40.933750298 0 -15.610267021 -39.898325825 
0 -15.211983617 -39.579333021 0 -15.675105894 -38.886083365 0 -15.721045996 -38.701916156 
0 -15.425061255 -38.877663913 0 -15.637890578 -38.918565083 0 -15.611722624 -39.267328721 
0 -15.523391151 -39.604539554 0 -15.499797103 -40.307993997 0 -14.859445123 -41.913240473 
0 -14.367636253 -44.073214435 0 -13.976233612 -45.830923385 0 -13.581732027 -47.721915477 
0 -12.179165815 -52.556189647 0 -12.287675417 -54.045189388 0 -11.369595359 -57.519026029 
0 -10.67965636 -59.380108725 0 -9.3906309285 -62.69392543 0 -7.3277525595 -67.845572883 
0 -7.1824934912 -69.423606196 0 -5.4494619832 -74.431797079 0 -5.532412804 -76.101121208 
0 -4.1484312758 -80.043320048 0 -2.8065275618 -85.386200067 0 -2.2769674565 -86.053718175 
0 -2.5468712392 -86.499737569 0 -2.8543631881 -86.661038426 0 -3.8732319155 -78.794050043 
0 -4.3383792349 -77.919173863 0 -4.8859370874 -75.829068675 0 -5.5193996521 -73.249407066 
0 -6.3113874075 -69.627335763 0 -6.7818759223 -67.738899091 0 -9.4000553171 -56.161498803 
0 -10.035072078 -54.976733693 0 -10.74718692 -53.089232016 0 -11.113755969 -49.90387391 
0 -11.449688077 -48.652259224 0 -12.062650815 -44.829658368 0 -12.672656319 -43.460947568 
0 -12.782085079 -41.923701706 0 -12.938307133 -40.799874536 0 -13.319365182 -40.364845803 
0 -13.30727297 -40.377387183 0 -13.326871276 -40.574484889 0 -13.133363959 -41.617443637 
0 -13.100682854 -42.48835548 0 -11.989050682 -45.277913215 0 -11.9421613 -46.476153481 
0 -11.730485198 -48.251938288 0 -11.438132499 -50.487879404 0 -10.821987913 -53.004715424 
0 -10.027919091 -55.363152858 0 -9.423079708 -57.792506194 0 -6.4963467155 -64.447075386 
0 -5.7463838756 -66.918410858 0 -5.2319793371 -70.218069292 0 -5.1094319926 -71.714087419 
0 -4.357866433 -73.641970183 0 -3.3169794099 -77.240404279 0 -3.2731189886 -78.395944933 
0 -2.826601562 -80.076446224 0 -2.5139677307 -81.408238124 0 -2.4336854513 -82.606901871 
0 -1.8187884242 -83.021675395 0 -1.5765992232 -84.407796496 0 -1.1426945448 -84.022882082 
0 -1.3819785031 -84.071160484 0 -1.8940491369 -84.197971849 0 -2.2000702324 -84.079319076 
0 -2.3968841106 -83.11964737 0 -2.6649723792 -81.808928093 0 -3.0779333189 -80.131157334 
0 -7.6416396335 -61.341312548 0 -8.3177088077 -58.665010668 0 -9.4278870565 -51.687699871 
0 -9.941637436 -50.457001578 0 -10.273736664 -48.36857022 0 -11.222310262 -46.518039083 
0 -10.797150605 -45.79680939 0 -11.171995355 -43.524460665 0 -11.755548287 -41.946971674 
0 -11.714155164 -42.373509755 0 -11.176819158 -43.430135769 0 -11.458699938 -44.373272934 
0 -9.5706399819 -48.803679695 0 -9.3222957059 -50.735047604 0 -8.7642428135 -53.013362396 
0 -8.2511923021 -55.294224486 0 -7.7522659624 -57.515844477 0 -7.4537818546 -59.9216568 
0 -7.3377088274 -62.168444082 0 -4.9354682894 -62.895662319 0 -4.4356998781 -64.975961487 
0 -3.9664802771 -66.912425517 0 -3.6839126693 -69.073350361 0 -3.0936573395 -71.476677206 
0 -2.3949678227 -74.390530588 0 -2.1155888427 -75.605478544 0 -1.3941854501 -77.38930566 
0 -0.60582916573 -79.765881875 0 -0.31819923124 -81.503294664 0 -0.58468734191 -82.678673345 
0 -0.56675120967 -83.09624941 0 -0.1812682135 -81.412338981 0 -0.77409897363 -81.143483878 
0 -1.012840124 -80.059276759 0 -1.3496138506 -78.578439253 0 -2.0001247811 -77.048497754 
0 -2.7866339766 -74.926483005 0 -3.3544001925 -72.811959397 0 -3.9069642192 -70.527673477 
0 -4.3779105031 -68.308880312 0 -4.9137138451 -65.873567395 0 -5.2950625059 -63.27583827 
0 -5.3120041146 -60.839172043 0 -6.2099828197 -58.475379188 0 -6.88176216 -56.819389988 
0 -7.8797909598 -53.862124673 0 -8.0551920003 -51.826352268 0 -8.3273657642 -47.701205718 
0 -9.4109723398 -46.096400815 0 -10.023048695 -44.834879027 0 -9.6265779746 -44.512596765 
0 -10.212680621 -42.972521123 0 -9.8863015824 -42.752677243 0 -10.220297488 -42.368060984 
0 -10.219988136 -42.353914408 0 -10.187824085 -42.593708583 0 -8.8936715436 -45.269603158 
0 -9.053233164 -46.345453401 0 -9.3583528438 -47.489561326 0 -8.5290113233 -48.756748079 
0 -5.041371149 -61.550384302 0 -2.0089443439 -67.311636433 0 -1.7234730984 -69.392002304 
0 0.20272598177 -77.367909587 0 0.60748935175 -79.256785703 0 1.1709499563 -79.973549099 
0 1.0129565265 -80.526277445 0 1.0191720945 -80.733940487 0 0.7978985938 -80.990840606 
0 0.54336912784 -81.074208293 0 0.78584141157 -78.901095452 0 0.44238729596 -78.590596064 
0 0.1911527565 -77.486127414 0 -0.14885394052 -75.742483131 0 -0.55204370664 -74.289675389 
0 -0.78459742129 -73.316510415 0 -1.2463267629 -71.57892708 0 -1.7660691855 -69.094646643 
0 -2.2366394731 -67.143085048 0 -2.5174881231 -65.946023759 0 -3.056423367 -63.846829483 
0 -4.3001178802 -58.344034171 0 -5.433681637 -53.902021671 0 -5.9982912849 -52.677093921 
0 -6.4305805117 -50.802495516 0 -7.3606966393 -49.215777917 0 -6.7919226433 -47.333654801 
0 -7.2754330933 -46.141069887 0 -7.8243423092 -45.068819435 0 -8.2877710443 -44.310174234 
0 -7.7502263738 -44.432467175 0 -8.5903828493 -44.554552443 0 -6.6275946118 -48.656933758 
0 -6.8472870794 -50.073527122 0 -6.8849013379 -51.005122461 0 -6.2044284077 -52.802973205 
0 -5.7569688877 -54.703353366 0 -5.5760051714 -56.742753959 0 -5.0825923057 -58.845734897 
0 -3.683217561 -61.222063181 0 -2.4601196178 -63.358668475 0 -1.9675241488 -65.307196157 
0 0.26108100133 -70.302412699 0 -0.098429308304 -72.510125965 0 0.23187002579 -73.980936669 
0 0.77851090806 -75.142415786 0 1.4746168529 -77.140371566 0 1.8932459249 -78.409217666 
0 2.0165778947 -78.69296271 0 1.8650681249 -78.548179463 0 -1.5008397972 -62.310957048 
0 -2.4071089705 -60.423573702 0 -2.7584455053 -58.919869818 0 -3.4225673144 -56.416462448 
0 -3.9366403622 -54.282210064 0 -4.424935065 -50.296509526 0 -5.3040607014 -48.807129368 
0 -6.1982779989 -44.919513354 0 -6.9385187142 -44.281919403 0 -6.9900733174 -44.164307336 
0 -6.4984367774 -44.620429877 0 -5.4467669425 -46.077680504 0 -5.7965928632 -46.630863689 
0 -5.7482499341 -47.642758458 0 -5.1586225192 -49.052319602 0 -4.5250925197 -50.627610398 
0 -3.1559396668 -56.526339169 0 -3.0991671437 -57.668882607 0 -1.8902478325 -59.806322016 
0 -0.6025128108 -62.004162478 0 0.092939324832 -64.035937847 0 0.22427478714 -65.914550776 
0 0.41668414509 -67.958845634 0 1.2478439976 -68.799061483 0 1.9687395933 -72.041291656 
0 2.8210391459 -74.443597439 0 2.8278149525 -75.551397756 0 3.0309328726 -76.227179335 
0 3.2115852642 -76.791212197 0 3.3328159965 -77.203923179 0 3.1200850145 -77.783486683 
0 3.1103621286 -77.836864958 0 3.0768342435 -77.644428977 0 2.9913712179 -77.17191642 
0 2.7302768195 -76.399790306 0 2.2275678284 -75.711778672 0 1.9903497422 -74.637432109 
0 1.8827195596 -73.857145292 0 1.5564949841 -72.342841555 0 1.0508020151 -70.702441373 
0 0.66704675219 -69.089098133 0 0.49227967677 -68.014492402 0 0.087609824351 -66.209855131 
0 -0.19868154322 -63.817251042 0 -3.1532801281 -50.836365074 0 -4.4292412952 -47.514659772 
0 -4.642030083 -46.582487353 0 -3.7031298423 -45.913250453 0 -4.0509380954 -45.617940602 
0 -3.9580563397 -46.241216136 0 -2.5165567811 -53.193975129 0 -2.8087576248 -54.626646295 
0 -1.9598186094 -56.688789151 0 -0.53806811855 -60.73048524 0 1.842234401 -62.356046441 
0 2.2220160871 -64.073872462 0 2.5540174556 -65.82963046 0 2.9210173077 -68.51252347 
0 3.23738993 -69.82660551 0 3.7480341086 -71.999460588 0 4.7004426567 -74.43474615 
0 4.4747656338 -73.582296341 0 4.1737666882 -72.352605122 0 3.8698525072 -70.886551158 
0 3.1196133329 -69.363786512 0 2.9829929559 -67.598448634 0 2.6279983526 -65.907043446 
0 1.2225917597 -61.470191347 0 0.37326443468 -60.382770785 0 -0.27828974681 -57.584763418 
0 -0.81920784571 -55.41060697 0 -1.1661630923 -53.629634964 0 -1.2430538439 -52.035417035 
0 -1.7256786081 -50.675853686 0 -1.9481221542 -49.593555252 0 -1.7798159612 -48.980228751 
0 -1.6012262888 -48.089636985 0 -2.3963246357 -46.746364942 0 -1.995700062 -46.530915259 
0 -2.5969550124 -46.373501835 0 -1.9125748415 -46.978965191 0 -2.726105888 -47.648611497 
0 -2.4600045733 -48.538815344 0 -2.1678400435 -49.639611223 0 -1.922515179 -50.879821843 
0 -1.2936230974 -52.160417767 0 -0.6793142868 -53.435918562 0 -0.037488214193 -55.006586825 
0 0.26274380339 -56.19814064 0 0.61264666526 -58.485913077 0 1.1847332611 -60.52038 
0 5.8059482949 -71.433502879 0 5.3430796561 -72.933738297 0 5.4794982082 -73.340518304 
0 5.4700676918 -74.077844604 0 5.5593564002 -74.501830977 0 5.548697092 -74.81078818 
0 5.5395500826 -74.887758496 0 5.5508349497 -74.717157264 0 5.2154034779 -68.026448991 
0 3.5578869367 -63.652035461 0 2.7546364347 -62.872789766 0 2.9603581208 -60.874903964 
0 2.7843362849 -59.235719839 0 2.371230445 -57.600741827 0 1.9430212401 -55.920445016 
0 1.6380780487 -54.389528063 0 1.2828968578 -52.889574516 0 1.0297441078 -51.921011637 
0 -0.17340165577 -47.956912378 0 -0.69292504976 -47.491634724 0 -0.69911542532 -47.183063859 
0 -1.0738206779 -46.898721755 0 0.064072952364 -47.944895923 0 -0.26795219763 -48.122415856 
0 0.27221601671 -49.021608699 0 0.62589050159 -50.045824313 0 0.79370824169 -50.829865558 
0 4.5615976313 -60.952176432 0 4.8892844664 -62.546632111 0 5.1869878079 -63.804229903 
0 5.1920333323 -65.378700051 0 5.4474683972 -66.562628082 0 6.0088728988 -68.778626122 
0 6.264170131 -69.642103455 0 7.7577854888 -71.425460335 0 7.8020145257 -72.019240103 
0 7.857900223 -72.228739766 0 7.8737326745 -72.375250464 0 7.8219724941 -72.317453075 
0 7.5058433266 -72.276362104 0 7.1321009964 -72.053698655 0 7.0300521313 -71.68633656 
0 6.7798648422 -70.826595207 0 6.6558576593 -70.288284407 0 6.5301232618 -69.135761531 
0 5.8577771902 -65.912141791 0 5.1603326563 -65.238811332 0 4.9819536179 -63.315972288 
0 5.1100107388 -61.030568492 0 2.225348395 -50.445639981 0 1.3849878455 -49.270119884 
0 1.8550916777 -48.635049171 0 2.0193951132 -48.228003604 0 1.9411636918 -48.017190967 
0 1.6749057976 -47.924315167 0 1.4708651699 -48.064368631 0 2.3445403371 -53.851484615 
0 2.6246020701 -54.838160349 0 3.2996876748 -57.447315816 0 4.2168886643 -59.729765316 
0 8.0033455606 -64.029486663 0 8.1138057457 -65.64680112 0 8.4543915961 -67.145459489 
0 8.5912349025 -68.605539036 0 8.4060526203 -69.646576609 0 7.3301533259 -65.372977156 
0 7.516955733 -63.326438415 0 7.104867727 -61.593720394 0 6.2081652386 -60.195814279 
0 5.5152601081 -58.793806698 0 5.2990248659 -57.379108676 0 4.9950721615 -55.950292758 
0 4.8294981652 -55.062400802 0 4.5717797054 -53.621743162 0 3.9282522435 -52.070289409 
0 4.2839376302 -50.979157542 0 4.4059819223 -50.135849079 0 4.1310100385 -49.313285839 
0 3.5275582719 -49.791566035 0 3.5246331743 -50.657190346 0 4.0458956042 -52.150234782 
0 4.7338820904 -53.894856496 0 5.583061031 -55.540916816 0 5.8648956272 -56.675039638 
0 8.0529978249 -60.976926318 0 8.5578231858 -62.420106294 0 10.654440022 -68.738052615 
0 10.323864046 -69.599521954 0 10.475127176 -69.792843082 0 10.461582261 -69.850185728 
0 10.024275222 -69.989641075 0 9.8883403474 -69.502883077 0 9.7123073871 -68.881754429 
0 9.6158148447 -68.467265223 0 9.7150707875 -67.459980553 0 9.6482740126 -66.219392832 
0 9.6348793444 -64.794366366 0 9.8763601128 -63.497404484 0 8.3698031665 -58.671889294 
0 6.9469245605 -52.992571626 0 6.2312053394 -49.905060453 0 5.0886740715 -49.172254127 
0 5.0743397956 -49.008882437 0 5.0060819331 -48.971213307 0 5.0597621296 -49.173468622 
0 6.4042041429 -51.995279565 0 7.0852334964 -53.672078257 0 7.7927873329 -55.236593985 
0 8.0643361699 -59.06133556 0 10.76280515 -59.707377326 0 10.778449793 -63.806429861 
0 11.136243311 -65.049032285 0 11.185929501 -66.364683458 0 11.380464603 -67.343243802 
0 12.782815035 -67.678009282 0 12.342012329 -67.56885331 0 12.249505197 -66.933696638 
0 10.918049618 -62.439845805 0 9.9325342309 -61.260218851 0 9.4673901038 -56.947747926 
0 8.5302753268 -56.08477726 0 8.6060361638 -54.663687632 0 8.6300925111 -53.455164277 
0 8.3402563713 -52.133601007 0 7.826505825 -51.033416046 0 8.0028605495 -50.434688103 
0 8.0752011579 -49.759163895 0 8.1130884355 -49.889613507 0 7.5814962069 -50.122677363 
0 7.6619010576 -50.726401731 0 8.2755242247 -51.722942797 0 9.2931152961 -55.971473898 
0 8.7880845649 -56.832935321 0 9.549283713 -58.304873495 0 12.417694943 -59.877040579 
0 12.270042189 -61.333194809 0 13.100720416 -61.944566479 0 13.589777498 -65.293757834 
0 13.414450816 -66.444201242 0 13.18262022 -67.018056417 0 13.262381557 -67.363608073 
0 13.330049506 -67.386353865 0 13.976107574 -66.800111773 0 13.710292613 -65.115122543 
0 12.90660962 -64.498813632 0 12.734649164 -63.300293434 0 12.746180273 -61.941340998 
0 12.768588721 -60.585386258 0 11.822923825 -59.313946123 0 11.302853126 -58.486392863 
0 11.234571747 -56.980988965 0 10.770411233 -51.157449391 0 9.9128934634 -50.599320682 
0 10.639921598 -54.62405725 0 11.29528903 -55.798959063 0 11.830157123 -57.088588278 
0 14.425829642 -62.811501788 0 15.170990248 -63.577403374 0 15.459275155 -64.55531126 
0 15.80518655 -65.24600967 0 15.914570155 -65.396542009 0 15.691196364 -65.500404516 
0 15.015131684 -65.685735935 0 15.095180799 -65.096650901 0 14.719882153 -58.810452823 
0 14.015131356 -57.337175328 0 13.391142474 -55.03582521 0 12.431117327 -54.121250088 
0 12.151861501 -53.009547627 0 11.547987185 -51.94564462 0 11.403448505 -50.426825208 
0 11.419302942 -50.453360397 0 12.161793717 -51.408224629 0 11.649172408 -52.101933667 
0 11.621178031 -52.999990977 0 15.615221114 -58.891464372 0 15.856705254 -60.27836201 
0 16.646566723 -60.963695483 0 17.839422497 -62.728671693 0 17.883129282 -63.890511365 
0 17.225304147 -63.085945702 0 16.181266814 -62.790766951 0 15.990994111 -62.29310846 
0 15.742701681 -61.144219285 0 15.801693615 -59.873472165 0 15.912355661 -55.976113563 
0 15.145778812 -52.170050018 0 14.366186449 -51.666919882 0 13.724022691 -51.156813753 
0 14.178291316 -51.575258581 0 14.796360522 -52.256487226 0 14.974989444 -53.068696305 
0 14.86767383 -54.094619061 0 14.670073017 -54.813062219 0 15.005819404 -56.061858425 
0 15.459625799 -57.486323707 0 18.521648235 -59.109337382 0 18.543022635 -60.511320108 
0 18.294953181 -61.711944803 0 19.38528783 -62.464767023 0 18.771841654 -63.22149944 
0 18.711944233 -63.452841771 0 18.762804782 -63.467910548 0 19.375270687 -62.691574334 
0 19.419794053 -61.182509836 0 18.799679653 -60.254099812 0 17.097351103 -57.200034048 
0 17.263417382 -54.775105042 0 16.205786749 -54.161182894 0 16.030047905 -53.100736735 
0 16.143297812 -51.179850547 0 15.430326132 -51.009273723 0 15.600091457 -51.188326183 
0 21.133943701 -61.361440787 0 19.451194375 -57.635644935 0 19.410212277 -56.130899595 
0 19.068752997 -54.579328824 0 18.862452438 -53.210649117 0 18.318648991 -52.243087236 
0 17.688921924 -51.617572721 0 18.001751395 -51.385277493 0 18.876058407 -51.274044146 
0 18.777781266 -51.331867979 0 18.002369909 -51.765860191 0 17.777822846 -52.310409225 
0 17.980778267 -52.76706081 0 18.252643086 -53.695688328 0 18.860283805 -54.856750266 
0 18.773350885 -56.310516755 0 21.763449672 -56.440835282 0 21.454151747 -57.833692692 
0 21.534937369 -58.933076621 0 22.099251201 -59.779612854 0 22.716926411 -60.781549673 
0 22.235033301 -61.230078637 0 22.272735048 -61.323879929 0 22.238719105 -61.279997566 
0 22.381719676 -60.832458208 0 22.3472575 -60.431803531 0 22.241279888 -59.446137336 
0 21.923580538 -58.462846115 0 22.129293538 -57.691913418 0 22.132115563 -56.401924482 
0 21.817683557 -54.471885717 0 21.562821338 -53.49393503 0 21.030522563 -52.42501183 
0 20.676808805 -51.758224297 0 21.060951089 -52.241667304 0 21.419796977 -53.148314778 
0 24.549689007 -57.189265596 0 24.623292163 -59.760764552 0 25.141707985 -59.821484713 
0 25.228851504 -59.553411932 0 23.477449675 -52.029736187 0 22.791857721 -51.472337087 
0 22.084902539 -51.360732697 0 22.089220133 -51.48871338 0 23.617651046 -53.946176665 
0 24.793888253 -55.86965518 0 25.73836872 -58.611593199 0 25.640495504 -57.562158073 
0 25.337920434 -56.436959388 0 25.066117409 -55.296595945 0 24.850769157 -54.091155945 
0 24.433328386 -52.88687805 0 25.57187633 -51.272898762 0 25.357238126 -51.363663678 
0 25.018390036 -51.621053703 0 24.623932804 -52.195095387 0 24.910680604 -52.760363657 
0 25.823767346 -53.44545017 0 27.692352432 -55.481485369 0 27.880495597 -56.441498299 
0 28.587319775 -57.133611384 0 27.851999892 -58.39902543 0 27.926038935 -58.547841299 
0 27.993793458 -58.432617719 0 28.294371506 -58.057027451 0 28.45540649 -57.247559384 
0 28.460797296 -56.17748707 0 27.981845296 -54.805748397 0 27.827579458 -54.063057733 
0 27.734946297 -52.966752461 0 27.276380348 -52.194475978 0 26.677541948 -51.679607248 
0 26.264887019 -51.367176916 0 27.35301922 -54.353901427 0 30.306209868 -54.449257332 
0 30.614410923 -56.775660524 0 30.760534149 -57.186003934 0 31.062815105 -57.261544525 
0 30.951119525 -57.289315815 0 30.844912149 -56.917466353 0 31.217654222 -56.001559196 
0 30.72656187 -54.32177075 0 29.041019365 -50.991424618 0 28.810309353 -51.034552368 
0 28.819552889 -51.384379275 0 28.903028275 -51.88612673 0 29.216506727 -52.526231785 
0 29.729065891 -53.453182394 0 32.090873711 -54.88582873 0 31.403204692 -55.032942129 
0 30.774958307 -52.225975008 0 30.765785145 -51.485523742 0 33.25674923 -53.363833384 
0 33.925796779 -54.160710159 0 34.126466215 -54.899759615 0 33.883263355 -55.627437202 
0 34.13412717 -56.098608416 0 34.075458925 -56.248303702 0 33.81421847 -56.090894858 
0 33.995302162 -55.461798739 0 34.257269972 -54.435350173 0 33.965407852 -53.932692708 
0 33.360039966 -53.225268162 0 33.493710374 -52.367854046 0 33.875824708 -51.415388161 
0 33.366877351 -50.689285046 0 32.63694626 -50.569747098 0 32.461154166 -50.613520077 
0 32.655529902 -50.927774952 0 32.827924062 -51.428058264 0 33.021957877 -52.282217551 
0 36.189554456 -52.973982977 0 36.922988958 -53.060982669 0 37.212721087 -53.892295801 
0 36.685943461 -55.050836797 0 37.540757106 -55.246784076 0 37.472025733 -55.280485118 
0 36.958122262 -55.205884687 0 36.673354006 -54.893864372 0 37.321218363 -54.611741576 
0 37.292386311 -54.123805625 0 36.29783029 -53.080714393 0 36.63419463 -51.687062175 
0 35.917367062 -51.498422305 0 36.500636397 -50.853433321 0 35.040368863 -50.41721026 
0 36.18246233 -49.78133794 0 35.481479353 -49.954285768 0 35.524745966 -50.1340721 
0 35.683205279 -50.442530162 0 36.414585847 -50.428008812 0 36.378981617 -50.644570832 
0 35.826598204 -51.046076265 0 36.614628018 -51.422748473 0 35.980448606 -51.959043119 
0 51.017793205 -48.910464431 0 64.480590341 -45.580618621 0 51.136303917 -49.067288061 
0 50.880776206 -48.42245464 0 50.915234033 -48.582550612 0 64.370882248 -45.107082729 
0 50.806828678 -47.996709732 0 64.266156912 -44.671995433 0 50.839751045 -48.13271614 
0 50.760248833 -47.549341721 0 50.781653934 -47.687616402 0 64.178577829 -44.258086279 
0 50.613553601 -47.23206278 0 64.097755748 -43.918323679 0 50.583712648 -46.891097067 
0 63.988025291 -43.606344139 0 50.483435149 -46.635432915 0 50.468435838 -46.712522617 
0 50.448326028 -46.522822465 0 63.964819048 -43.370116853 0 50.390008923 -46.493494703 
0 63.880367804 -43.231932569 0 50.437015922 -46.387751983 0 50.395120163 -46.414374998 
0 63.908994909 -43.150041633 0 50.397444911 -46.391232974 0 63.895925242 -43.163593226 
0 50.392780195 -46.480841369 0 50.406841594 -46.433016796 0 63.895132497 -43.266685721 
0 50.400010335 -46.639024064 0 63.926266002 -43.434812724 0 50.395010969 -46.579753582 
0 50.496906483 -46.870982594 0 64.007891617 -43.686864492 0 50.453486422 -46.77806841 
0 50.60751998 -47.183170782 0 50.552332948 -47.0738422 0 64.112194777 -44.000776472 
0 50.690061319 -47.520374929 0 64.199997624 -44.364927339 0 50.660792797 -47.400037074 
0 50.766664154 -47.956666623 0 50.749968758 -47.804148693 0 64.282867003 -44.793079742 
0 50.888558732 -48.367501061 0 64.409676436 -45.230174195 0 50.983365351 -48.874714354 
0 50.970110079 -48.693347452 0 64.498181976 -45.724981017 0 51.105693491 -49.374061745 
0 51.036206121 -49.217873703 0 51.200357022 -49.660643027 0 64.644080475 -46.199444318 
0 51.199497956 -49.814218058 0 64.718471677 -46.666459268 0 51.345084576 -50.276982402 
0 51.276315974 -50.135236247 0 64.859043246 -47.107286312 0 51.479012551 -50.654351192 
0 64.987983919 -47.497660786 0 51.527745646 -51.050064228 0 51.547930865 -50.919714203 
0 65.026333025 -47.871823825 0 51.540753797 -51.345882834 0 51.863314965 -51.45069294 
0 65.112590713 -48.150929905 0 51.871588932 -51.541545158 0 65.159070234 -48.400919707 
0 51.706086146 -51.774668645 0 51.686695505 -51.733498225 0 65.204595013 -48.550946648 
0 51.705851854 -51.861298173 0 65.205368863 -48.625762734 0 51.718346659 -51.841750008 
0 51.718401742 -51.862253014 0 51.73663821 -51.870958519 0 65.187132395 -48.617057229 
0 51.697374725 -51.792461494 0 65.184361132 -48.522190968 0 51.687653551 -51.615526523 
0 51.67290287 -51.694533117 0 65.172977674 -48.334327852 0 51.6160758 -51.368463366 
0 51.654100074 -51.45871402 0 51.565988563 -51.192052825 0 65.096747846 -48.084939614 
0 51.476602456 -51.10351149 0 64.95824561 -47.79181488 0 51.449787042 -50.706678244 
0 51.420367877 -50.855472423 0 64.92913045 -47.399207689 0 51.340392907 -50.329627612 
0 64.810106314 -46.996265377 0 51.22009178 -49.864810742 0 51.265326584 -50.021899274 
0 64.693068542 -46.540095957 0 51.178446786 -49.411354313 0 64.675512182 -46.055717509 
0 51.120752879 -49.582292841 0 51.393243061 -50.456935452 0 51.686877334 -51.832059833 
0 51.503612237 -51.271360153 0 51.416245861 -50.53961119 0 50.833552267 -48.229487496 
0 50.410514578 -46.377681381 0 50.644326976 -46.998493209 0 50.635841357 -47.328012367 
0 78.007924185 -42.318738488 0 78.079727153 -42.617819376 0 78.145901135 -42.893453848 
0 78.204435461 -43.137266861 0 78.253551589 -43.34185026 0 78.291757143 -43.500987843 
0 78.317891281 -43.609844365 0 78.331159935 -43.665112286 0 78.331159935 -43.665112286 
0 78.317891281 -43.609844365 0 78.291757143 -43.500987843 0 78.253551589 -43.34185026 
0 78.204435461 -43.137266861 0 78.145901135 -42.893453848 0 78.079727153 -42.617819376 
0 78.007924185 -42.318738488 0 77.932673917 -42.005298568 0 77.856262788 -41.687023309 
0 77.781012521 -41.373583389 0 77.709209553 -41.074502501 0 77.643035571 -40.798868029 
0 77.584501245 -40.555055016 0 77.471045425 -40.082477512 0 77.457776771 -40.027209591 
0 77.457776771 -40.027209591 0 77.471045425 -40.082477512 0 77.497179563 -40.191334034 
0 77.535385117 -40.350471618 0 77.584501245 -40.555055016 0 77.643035571 -40.798868029 
0 77.709209553 -41.074502501 0 77.781012521 -41.373583389 0 77.856262788 -41.687023309 
0 77.932673917 -42.005298568 0 71.89953891 -43.790497011 0 71.8515107 -43.590445121 
0 71.807247659 -43.406076285 0 71.768094703 -43.242992488 0 71.735241477 -43.106148954 
0 71.709686207 -42.999703592 0 71.692205367 -42.926890654 0 71.683330106 -42.88992253 
0 71.683330106 -42.88992253 0 71.692205367 -42.926890654 0 71.709686207 -42.999703592 
0 71.735241477 -43.106148954 0 71.768094703 -43.242992488 0 71.807247659 -43.406076285 
0 71.8515107 -43.590445121 0 71.89953891 -43.790497011 0 72.051317604 -44.42270077 
0 72.099345813 -44.62275266 0 72.143608855 -44.807121496 0 72.18276181 -44.970205293 
0 72.215615036 -45.107048828 0 72.241170307 -45.213494189 0 72.258651146 -45.286307127 
0 72.267526408 -45.323275251 0 72.267526408 -45.323275251 0 72.258651146 -45.286307127 
0 72.241170307 -45.213494189 0 72.215615036 -45.107048828 0 72.18276181 -44.970205293 
0 72.143608855 -44.807121496 0 72.099345813 -44.62275266 0 72.051317604 -44.42270077 
0 72.000983535 -44.213044283 0 71.949872979 -44.000153499 0 31.020626844 -54.227112249 
0 30.958096438 -53.9783676 0 51.466159916 -49.192648142 0 31.078543421 -54.468352154 
0 51.605784531 -49.457164877 0 31.026032873 -54.592736248 0 31.070179892 -54.776621815 
0 51.601302193 -49.781600862 0 31.090805787 -54.863304895 0 31.156516949 -55.110650385 
0 31.131186413 -55.031502309 0 51.66619113 -50.052652779 0 31.277111538 -55.326857156 
0 31.173899404 -55.183053522 0 51.738723113 -50.327955561 0 31.31330193 -55.477600987 
0 51.848600649 -50.499976064 0 31.259661837 -55.554884944 0 31.28126675 -55.644875886 
0 51.820515826 -50.683705382 0 31.291227082 -55.684797894 0 31.340394524 -55.767791067 
0 31.305482407 -55.744175597 0 51.847956997 -50.796440328 0 31.354195859 -55.79747059 
0 51.891744376 -50.857023923 0 31.321436199 -55.797135031 0 31.330947815 -55.808946589 
0 51.868496332 -50.868499921 0 31.300105753 -55.791683172 0 31.243389444 -55.750700421 
0 51.838290624 -50.826079939 0 31.306713176 -55.580003508 0 31.251951304 -55.70296729 
0 51.829371644 -50.705533869 0 31.274749731 -55.446866175 0 51.831248358 -50.557545226 
0 31.224825541 -55.38969172 0 31.191695726 -55.251696106 0 51.748470943 -50.363527236 
0 31.168729856 -55.183518417 0 31.188911593 -54.904068947 0 31.130333778 -55.023587239 
0 51.686352118 -50.13226575 0 31.14002832 -54.676387288 0 51.700666891 -49.828378622 
0 30.98674115 -54.403029817 0 31.037021486 -54.588394314 0 51.549631848 -49.540333758 
0 30.956910896 -54.317425558 0 30.972867445 -54.07854096 0 51.469467525 -49.245073011 
0 30.889816237 -53.682246858 0 30.94702887 -53.93226786 0 51.392518394 -48.885909127 
0 30.83189966 -53.441006953 0 51.396836829 -48.586835061 0 30.728643222 -53.354019203 
0 30.684496204 -53.170133637 0 51.245552182 -48.29979542 0 30.663520716 -53.083534486 
0 30.609777287 -52.833315798 0 30.623140089 -52.915337073 0 51.180313652 -48.028827434 
0 30.619072033 -52.585925357 0 30.592394832 -52.760912661 0 51.119955275 -47.750602027 
0 30.582881641 -52.435181525 0 51.139761202 -47.547447279 0 30.500001786 -52.390673109 
0 30.478396872 -52.300682167 0 51.031326076 -47.396493501 0 30.46914738 -52.260589501 
0 30.47527778 -52.16432049 0 30.454892055 -52.201211798 0 51.004595744 -47.283587897 
0 30.474100637 -52.131610167 0 51.016106208 -47.209728465 0 30.445063908 -52.146781727 
0 30.448176484 -52.131939369 0 50.990182055 -47.210057667 0 30.428533433 -52.161323189 
0 30.396604612 -52.223587752 0 50.982526842 -47.261567253 0 30.530521247 -52.346931443 
0 30.425903673 -52.262231281 0 51.029306743 -47.373023719 0 30.562484693 -52.480068776 
0 51.098164345 -47.504030556 0 30.543958574 -52.553676696 0 30.577088389 -52.69167231 
0 51.112491452 -47.714482011 0 30.587577673 -52.762845362 0 30.732427136 -53.002674346 
0 30.625973752 -52.92277654 0 51.162133692 -47.94873886 0 30.792237132 -53.227732731 
0 51.312850117 -48.213005502 0 30.779758958 -53.540886941 0 30.740405345 -53.352899169 
0 51.30904654 -48.53822383 0 30.792045313 -53.630702427 0 30.914713965 -53.836305727 
0 51.371666888 -48.837695485 0 -5.8669779073 -62.206146209 0 -6.0426423421 -62.667669721 
0 -6.3173197096 -61.512664291 0 -6.4643766782 -60.903627358 0 -6.3340055997 -60.336094908 
0 -6.7983577553 -59.58488026 0 -6.9314712017 -59.008237008 0 -7.0617064522 -58.436728907 
0 -6.9402976942 -57.813393186 0 -7.3983293363 -56.953413857 0 -7.5314469565 -56.432872369 
0 -7.5541558069 -55.403055312 0 -7.6302742255 -55.897549428 0 -8.1528137473 -53.439684111 
0 -8.8105242935 -51.54815568 0 -8.8599314748 -51.341461574 0 -8.8996837499 -51.177079279 
0 -8.7734676226 -51.250123653 0 -9.0889969905 -50.70336995 0 -8.7093610013 -51.140398283 
0 -8.8584888958 -50.948895193 0 -8.8366204739 -51.01929519 0 -8.4633027922 -51.513957866 
0 -8.7971954253 -51.218865945 0 -8.7594766416 -51.376874372 0 -8.3285815397 -51.970617198 
0 -8.6020858447 -51.842595414 0 -8.112075533 -52.799352372 0 -7.8739990824 -53.872149204 
0 -7.7589399421 -55.648382808 0 -7.5363387544 -55.38113287 0 -7.2856905632 -56.860224442 
0 -7.6395964206 -56.150078951 0 -7.4464196538 -57.23914695 0 -7.3163072911 -57.787264303 
0 -7.1788485971 -58.352052073 0 -6.8140106255 -59.08958571 0 -6.8274528218 -59.767259334 
0 -6.6346263577 -60.426517999 0 -6.082611644 -61.506698489 0 -5.4292412888 -64.62561908 
0 -5.0576496426 -66.648689845 0 -4.2267903513 -70.406628124 0 -3.9876138573 -71.903116648 
0 -3.8033892231 -71.915515615 0 -3.7369000827 -72.688380183 0 -3.6534182808 -73.006152173 
0 -3.5159632718 -73.071165561 0 -3.2737013287 -74.396336872 0 -3.1542697009 -74.552555801 
0 -3.1485634353 -74.614235977 0 -3.2058638721 -74.345419508 0 -3.3329881371 -74.352244995 
0 -3.3020165056 -73.297435683 0 -3.3826136268 -74.144205209 0 -3.4715483289 -73.372794665 
0 -3.5421524832 -73.08689534 0 -3.6193155157 -72.748726871 0 -3.5507624208 -71.865154919 
0 -3.8115375545 -71.937052817 0 -3.9113133472 -71.54018593 0 -3.8808197462 -70.496433459 
0 -4.1607838786 -70.477554351 0 -4.3797356493 -68.303596721 0 -5.0730794742 -66.217673331 
0 -5.523253649 -64.408598559 0 -5.8949371404 -63.283043061 0 -6.1930343175 -58.100837586 
0 -7.4880675279 -54.138106437 0 -7.7759052366 -52.878556462 0 -8.1202551848 -51.935276118 
0 -6.3556381639 -58.871227926 0 -5.6386625331 -61.392368214 0 -4.681999008 -66.107272214 
0 -4.2467963155 -67.986014723 0 -3.9008012148 -69.662522264 0 -3.5127918839 -71.022469332 
0 -3.2029340405 -72.265129237 0 -3.1286561561 -72.873202133 0 -2.9997646192 -73.384465756 
0 -2.8759081152 -73.625690267 0 -2.8701288999 -73.649813767 0 -2.9254674887 -73.41247567 
0 -3.0200313479 -72.500913441 0 -5.0375326886 -64.312959648 0 -5.1002996295 -62.245051465 
0 -5.4202703533 -60.984037097 0 -5.4605152691 -59.257440834 0 -6.3649442053 -56.084056026 
0 -7.4935297796 -52.436879454 0 -7.3711147891 -52.878155043 0 -7.231414845 -53.390760274 
0 -6.97308164 -54.537930535 0 -6.6702691413 -55.94219845 0 -6.1692221702 -57.085117325 
0 -4.5217646157 -63.701524954 0 -3.0459910147 -70.830414214 0 -3.4191032119 -69.309821235 
0 -3.8751673643 -67.301926148 0 -4.0278866809 -65.737592489 0 -6.2109984618 -54.839172844 
0 -6.4457514878 -53.822426079 0 -6.4427047938 -53.382107711 0 -4.9766217785 -59.311338982 
0 -4.1384084788 -61.579720817 0 -3.6593950054 -65.508409519 0 -3.1919084248 -67.031601853 
0 -2.9680104801 -68.818713999 0 -2.5749983941 -70.052814076 0 -2.3263510527 -70.910444779 
0 -2.2664557012 -71.658043144 0 -2.2416883503 -71.834771526 0 -2.3503945585 -71.513278765 
0 -2.3013995427 -70.6601975 0 -3.7340332823 -63.089392915 0 -4.1238910395 -60.859373497 
0 -4.4887494403 -59.631398834 0 -4.7454461587 -57.912048394 0 -4.8124494213 -56.463843577 
0 -5.4647872922 -54.076710524 0 -5.6034558723 -54.09078247 0 -5.4790298578 -54.747396934 
0 -5.0931774127 -56.356624375 0 -4.3955431757 -57.629651576 0 -3.0039186252 -63.445419002 
0 -1.9768762739 -67.914911178 0 -1.4675041407 -70.21361498 0 -1.5178505728 -70.104543289 
0 -1.7926989627 -69.574452623 0 -2.1578290734 -68.499423603 0 -2.5836281531 -66.728007475 
0 -2.65773592 -64.41117808 0 -3.0717312882 -59.59805394 0 -4.5262309493 -55.524494147 
0 -4.2258120266 -55.347644157 0 -2.2026969457 -64.694129474 0 -1.4178016236 -68.56283949 
0 -1.6438544786 -61.834281277 0 -2.9640582085 -58.148837791 0 -3.5763036339 -55.307190128 
0 -3.6519712941 -55.231273096 0 -3.6609606406 -55.365797875 0 -3.7181963175 -55.839856625 
0 -3.2494198536 -56.856136616 0 -3.1083394714 -58.198602218 0 -2.7511346438 -60.006258427 
0 -2.0237768534 -61.846425004 0 -1.3465847445 -65.70548713 0 -0.39192811831 -68.34289592 
0 -0.4644089779 -68.506919814 0 -0.72142953389 -68.309377536 0 -0.84606992638 -67.854032535 
0 -1.0426735537 -66.218025022 0 -1.2930564116 -65.140804146 0 -1.736644042 -63.528591259 
0 -1.2923449754 -59.236514752 0 -1.8346525203 -56.708792974 0 -1.1865263743 -63.121571266 
0 -0.17547361563 -63.88861877 0 -0.22817587945 -67.402035353 0 0.51252302908 -66.363456328 
0 -0.47936289916 -61.120343186 0 -0.19813565854 -60.282230204 0 -0.92561684353 -58.287882946 
0 -1.0143907762 -57.393661103 0 -1.2600891958 -56.620321283 0 -1.5083307891 -56.230839519 
0 -0.88428841037 -59.018481814 0 -0.51241994089 -60.407196267 0 -0.032590317917 -61.74231716 
0 0.59848031996 -62.3614068 0 0.58195337005 -64.56736481 0 0.91061459706 -65.477801371 
0 1.0353813376 -66.304372187 0 0.98705749688 -66.69402979 0 0.30736604408 -63.898923564 
0 -0.01203360752 -62.491455346 0 0.3323748974 -56.934860859 0 -0.59925996016 -57.132445099 
0 -0.052902236362 -58.000803704 0 2.3149155289 -65.205108948 0 1.4209318205 -65.425123036 
0 1.5135135597 -64.403368637 0 1.1498306993 -59.869987917 0 0.94164020413 -57.663105376 
0 0.75829454399 -57.068432003 0 1.3451044364 -59.2835058 0 1.4871840947 -60.731634139 
0 1.7129300449 -62.215465492 0 2.5293346632 -64.276328741 0 2.6337726822 -64.892732713 
0 2.1531775282 -62.649372463 0 1.6223347822 -61.294577266 0 2.2698848846 -57.459938754 
0 2.0230297292 -57.696665519 0 3.8050450555 -63.854341061 0 3.4776237988 -63.755485863 
0 3.4279427184 -60.130260795 0 3.7547655575 -59.3251577 0 3.0378084923 -57.794894192 
0 3.0615307808 -57.431566565 0 3.6245813301 -60.949319559 0 4.281291909 -61.51829779 
0 4.3372034133 -63.207263558 0 4.5232874182 -63.52022115 0 5.0377990172 -59.123326252 
0 4.8576384502 -58.194390002 0 4.8202997902 -57.625768514 0 4.3708462506 -57.780545874 
0 3.9444276527 -58.444074543 0 5.5161126518 -61.115645925 0 5.7773164762 -62.025124672 
0 6.0021962402 -62.548721525 0 5.5314627528 -62.614861524 0 4.850285288 -62.217243143 
0 5.8409120441 -60.078579136 0 5.8260307627 -58.819867614 0 5.7980158646 -59.899903689 
0 6.3561994366 -61.028179069 0 6.4567368813 -57.681933712 0 6.2279995599 -57.572809545 
0 7.4347738982 -61.755751074 0 7.2805087879 -61.95682599 0 7.5119543464 -58.969244662 
0 7.2407816313 -58.447645109 0 7.8770154753 -58.23256734 0 7.8882016421 -59.105906774 
0 7.7905526172 -60.129689975 0 7.7857372006 -60.717548417 0 8.4502689269 -60.62033981 
0 8.0637480808 -59.837110315 0 9.4638156499 -58.887438139 0 9.6414015328 -57.923053244 
0 9.2308879987 -57.898692237 0 8.9229982832 -57.473718314 0 8.6348532507 -57.328135479 
0 9.2452517737 -57.19270362 0 8.3952648334 -57.496624553 0 9.0649769773 -57.422174674 
0 8.8096084292 -57.829205116 0 9.4684153215 -58.320533214 0 9.8333852294 -58.486729848 
0 9.5668131553 -59.316453625 0 10.162864918 -60.095104562 0 9.8081543463 -60.303179623 
0 9.7267567104 -60.821613106 0 9.5361108307 -61.082143469 0 10.141464674 -60.925699008 
0 9.2461435341 -61.04078941 0 9.8766609616 -60.803081787 0 9.4643379651 -60.556349902 
0 9.8282809285 -59.819481344 0 10.078019805 -59.505706188 0 10.064199833 -59.205509322 
0 10.022688006 -59.337948527 0 10.05251826 -59.423552786 0 10.181026639 -59.593699162 
0 10.275527311 -59.977859795 0 10.216949496 -60.097378087 0 10.234331951 -60.169781224 
0 10.257297821 -60.237958914 0 9.875090469 -60.596251579 0 9.9250146583 -60.653426034 
0 9.9422642101 -60.725275588 0 10.062781565 -60.904420965 0 10.11285841 -60.91774836 
0 10.134188857 -60.923200219 0 10.164712718 -60.91422301 0 10.17424412 -60.876158194 
0 10.139332002 -60.852542724 0 10.131716141 -60.820820376 0 10.121755809 -60.780898368 
0 10.325413662 -60.556770185 0 10.379053756 -60.479486229 0 10.357577258 -60.390030176 
0 10.145482463 -60.022701425 0 10.120151927 -59.943553349 0 10.100784924 -59.862883977 
0 10.080159029 -59.776200896 0 10.059261429 -59.689156125 0 10.111771976 -59.56477203 
0 10.078634191 -59.426743221 0 10.00074233 -58.902542111 0 9.9573598565 -58.760480237 
0 9.860246406 -58.66132201 0 9.8479600508 -58.571506524 0 9.8852170166 -58.36156341 
0 9.7950124559 -57.976371379 0 9.6885590713 -57.896473573 0 9.6711766161 -57.824070436 
0 9.6606873323 -57.752897384 0 9.1574766078 -57.607174727 0 9.1760027268 -57.533566807 
0 9.158753175 -57.461717253 0 9.1848046398 -57.24738388 0 9.2233729247 -57.212774671 
0 9.2399033996 -57.19823321 0 9.2711759267 -57.192374419 0 9.2969495328 -57.221963252 
0 9.2765638075 -57.25885456 0 9.2841796693 -57.290576907 0 9.2934291617 -57.330669573 
0 9.5766417031 -57.437910515 0 9.6595215583 -57.482418932 0 9.6809980564 -57.571874985 
0 9.6587839881 -57.995456381 0 9.6721467901 -58.077477655 0 9.691513793 -58.158147028 
0 9.712489281 -58.244746179 0 9.7333868817 -58.33179095 0 9.8366433194 -58.4187787 
0 9.8697811046 -58.556807509 0 10.038361258 -59.059236221 0 8.7785999445 -60.071167233 
0 8.6009196264 -61.139542619 0 8.7057014789 -60.733570061 0 8.5599605484 -59.537131711 
0 8.4188796993 -58.572824579 0 7.7755331174 -57.701560384 0 8.0532021311 -58.015714677 
0 8.4665176535 -59.147914043 0 7.9953567857 -61.501702435 0 8.2111361873 -61.53761042 
0 7.0715555454 -57.653793341 0 7.2475145305 -57.523837355 0 6.7203547418 -60.334846901 
0 7.371261758 -61.07961506 0 7.1188649887 -61.611518832 0 6.2814843262 -62.184220033 
0 6.4515478426 -60.326060678 0 6.4652617329 -59.27230805 0 6.7071064479 -58.313209099 
0 6.2407400351 -57.953865164 0 5.2346275115 -57.823747584 0 6.229742076 -59.402173169 
0 5.0419013901 -61.626845537 0 5.9121865652 -62.150480447 0 6.2250631604 -61.401339246 
0 4.383193754 -58.883130772 0 4.9208982486 -58.02146745 0 5.5397763243 -58.546914145 
0 4.3221461463 -60.604835315 0 4.9272759867 -63.226728943 0 5.1244556236 -62.99351631 
0 4.5636123418 -62.599694087 0 4.205870095 -60.120510705 0 3.5547299047 -57.509663064 
0 3.8362945676 -57.62793936 0 3.5153710925 -58.233455052 0 3.8872907974 -61.459769548 
0 3.6659949893 -62.946047288 0 4.1291212427 -63.194013745 0 3.3461098418 -62.934136694 
0 3.1447227591 -62.490811213 0 3.4302789545 -59.556178224 0 2.5583471123 -58.33236184 
0 2.8584212096 -57.90116719 0 2.2787346553 -58.488199075 0 2.3005630073 -58.974632793 
0 2.5649891244 -61.851470537 0 2.6244418902 -63.201334052 0 3.1971308412 -64.518609042 
0 3.1726770489 -64.108092069 0 2.4763585276 -63.709942837 0 1.9390389499 -62.828159742 
0 2.2619032752 -61.309138732 0 2.0742710092 -59.807482485 0 1.5144187401 -58.57775488 
0 1.4300989314 -57.146019383 0 1.5912403181 -57.520934017 0 1.1515719412 -58.191809574 
0 1.0731378402 -59.221422048 0 2.0504330274 -60.428301758 0 1.903569215 -64.709553991 
0 2.5188411747 -64.834333173 0 0.1556346554 -57.550908994 0 0.67896172671 -57.170683731 
0 0.44050521353 -61.574376408 0 0.75798436491 -63.00955813 0 0.59163087685 -64.740772482 
0 1.2400487147 -66.26206407 0 1.4985661521 -66.011198339 0 1.527245482 -65.354143233 
0 1.2808882543 -64.512237567 0 0.85482419441 -63.729576001 0 0.30714022651 -61.018871258 
0 -0.061542645475 -59.595982462 0 -1.0449623049 -58.129053976 0 -1.1051945281 -56.481085102 
0 -0.74256575095 -56.607027897 0 -0.4088290148 -57.223896748 0 -0.27783405686 -58.019691882 
0 -0.30213899868 -58.910477479 0 0.5355655691 -66.829621587 0 0.064888138982 -66.397416783 
0 -0.20570858508 -63.133143819 0 -1.0780831271 -62.19569409 0 -1.994000259 -56.29325585 
0 -2.328725462 -56.314144806 0 -2.2012055789 -56.838304494 0 -1.2650344944 -59.959701608 
0 -1.3074749342 -62.68807223 0 -0.89182103616 -64.22133981 0 -0.35717334543 -66.140409603 
0 -0.33577568895 -66.949546197 0 -0.18809275644 -67.871056458 0 0.0062581298308 -67.897450664 
0 0.12568643427 -67.432648894 0 -0.67009499256 -66.565071642 0 -0.52330341877 -65.700583474 
0 -1.2716257657 -64.731311235 0 -1.7978442117 -60.781373082 0 -2.288456138 -59.054580963 
0 -2.4395374434 -57.626754201 0 -2.8817003835 -56.484889557 0 -3.1069681088 -55.791721416 
0 -2.9331531386 -55.601250523 0 -3.2110160132 -55.741222615 0 -2.9519369341 -56.959648624 
0 -2.412904918 -57.783196297 0 -2.4669761107 -58.979561713 0 -1.0227234884 -68.462826831 
0 -1.3582371461 -67.669702871 0 -2.0873625849 -63.839864456 0 -4.0557096288 -56.296485486 
0 -2.4173100056 -60.303206142 0 -2.5149027491 -61.339672828 0 -2.3470185371 -65.533783264 
0 -1.9387194573 -67.299283426 0 -1.620682822 -68.674892751 0 -1.3238967607 -69.364055883 
0 -1.1916995674 -69.685728298 0 -1.1383997993 -69.480251753 0 -1.4153328557 -69.630796205 
0 -2.112015446 -66.815183606 0 -3.048776141 -62.377856726 0 -4.6158561186 -56.154957432 
0 -4.7931426138 -55.476475407 0 -4.9580760933 -54.684854611 0 -4.9744992684 -54.407705148 
0 -4.7854098131 -54.606218077 0 -5.0993635842 -54.59845325 0 -4.2598300171 -57.492648209 
0 -4.0544295276 -59.186730202 0 -3.4107230581 -61.770507172 0 -3.422925307 -64.394936345 
0 -2.0356477906 -71.168021294 0 -1.9996957057 -71.299180203 0 -2.0111971926 -70.723022374 
0 -2.125564851 -69.918231269 0 -2.4858742945 -68.942630605 0 -2.7406917457 -67.352723607 
0 -3.0428328306 -65.66950152 0 -3.7358151609 -64.13859202 0 -4.0666996233 -60.273174439 
0 -5.069627935 -57.989260159 0 -6.1022894394 -53.833890246 0 -5.7432445553 -54.763839073 
0 -5.7507246483 -55.76718601 0 -4.6423208318 -63.221104549 0 -3.321428888 -67.733276959 
0 -2.9004120931 -69.504691928 0 -2.7619547976 -71.203363249 0 -4.8795004178 -62.210216028 
0 -6.2683091432 -55.573314083 0 -6.5952036621 -54.191311345 0 -6.8503430541 -53.140780226 
0 -7.2065841863 -52.676442682 0 -5.9122851198 -57.200113779 0 -5.0956568683 -60.485415496 
0 -4.7342065131 -65.523904159 0 -2.7806167777 -72.577010826 0 -2.7012858292 -73.01549384 
0 -2.7244682492 -72.864370164 0 -2.8569059313 -72.365561142 0 -3.0928555206 -71.131537555 
0 -3.477070943 -69.819829247 0 -3.8429574309 -68.340285261 0 -4.2123094842 -66.516239314 
0 -4.9150339841 -64.662375353 0 -5.8074927492 -59.800037546 0 -6.6243614284 -57.478386528 
0 -8.0412679429 -51.898664417 0 -7.482928288 -52.845979157 0 -7.2064823429 -53.930337156 
0 -7.1068032037 -55.363812142 0 -5.7470148682 -63.893211543 0 -5.0081811539 -66.885850737 
0 -4.8730669013 -67.467465418 0 -4.7362136744 -68.014646916 0 -4.4284126063 -69.303661037 
0 -4.3014827776 -69.859655631 0 -3.2933728291 -74.514516691 0 -3.1987605618 -74.924125826 
0 -3.198687612 -74.88656915 0 -4.5561236893 -68.760617448 0 -4.7636391368 -68.400076561 
0 -4.8969988603 -67.85637502 0 -5.030647216 -67.28855813 0 -5.6782611134 -64.070827001 
0 -5.8599648448 -63.2720775 0 -6.0760049642 -62.258298912 0 -7.939162791 -54.754968547 
0 -8.048679983 -54.308926979 0 -8.1448133906 -53.900425604 0 -8.3483578057 -53.07906597 
0 -8.4181279775 -52.758138194 0 -8.5252797821 -52.158725358 0 -8.4900410794 -52.101503155 
0 -8.6700444183 -52.118588618 0 -8.5982071566 -52.411438088 0 -8.5135271434 -52.747710995 
0 -8.283444961 -53.656695276 0 -8.1828579764 -54.064324894 0 -8.0103925932 -54.616151351 
0 -8.8723047126 -62.741652177 0 -11.221318244 -63.630973746 0 -11.766126091 -61.350177856 
0 -9.1035404085 -61.765070295 0 -12.241410039 -59.383431599 0 -11.983995184 -60.450054532 
0 -9.4684664706 -60.255910039 0 -9.8236594761 -58.770940266 0 -12.453098774 -58.500418263 
0 -12.727907995 -57.344042241 0 -12.970480524 -56.324730981 0 -10.041443789 -57.842883769 
0 -13.16111745 -55.530671037 0 -13.404731841 -54.496641615 0 -10.362315965 -56.477315724 
0 -10.669268857 -55.150491668 0 -13.592490605 -53.714698421 0 -13.837372699 -52.665694626 
0 -14.07267664 -51.736782595 0 -10.886232642 -54.280577426 0 -11.178853153 -52.903746321 
0 -14.266469882 -50.895274432 0 -14.536535292 -49.59522009 0 -14.875278485 -48.386680794 
0 -11.767437725 -50.622397698 0 -15.208567664 -46.997053929 0 -12.000349797 -49.663594424 
0 -15.501641634 -45.77685202 0 -15.671877694 -45.08532482 0 -12.348201233 -48.250607227 
0 -15.78994872 -44.594225198 0 -12.520634209 -47.532012838 0 -16.170419969 -43.004289092 
0 -16.240128887 -42.720612831 0 -12.580877963 -47.283766143 0 -12.732527601 -46.657935172 
0 -16.30845175 -42.436027625 0 -16.455653264 -41.820065693 0 -12.795294959 -46.394000496 
0 -12.71510258 -46.279029823 0 -16.501677012 -41.632050646 0 -16.388663393 -41.65124057 
0 -12.762337641 -46.096869701 0 -16.415249075 -41.547176954 0 -16.593867205 -41.263023947 
0 -16.589495767 -41.255341683 0 -12.920526554 -45.869524196 0 -12.906905715 -45.914203597 
0 -16.58947347 -41.270998018 0 -12.856794966 -46.086720673 0 -16.539312477 -41.456010865 
0 -16.492899064 -41.637221274 0 -16.432590479 -41.86590508 0 -12.806617205 -46.27470387 
0 -12.716324561 -46.654393341 0 -16.380016618 -42.087586124 0 -12.59737587 -47.118569366 
0 -16.124371098 -43.147848865 0 -12.4200215 -47.853966624 0 -15.902542627 -44.093298079 
0 -12.260836265 -48.577674703 0 -15.672036196 -45.084570494 0 -15.508958925 -45.769757002 
0 -11.923800219 -50.026997731 0 -15.208634399 -47.023393838 0 -15.004051037 -47.872610143 
0 -14.724614344 -48.966935693 0 -11.565830004 -51.516373999 0 -11.231780916 -52.907258113 
0 -14.504843199 -49.881971926 0 -14.050915648 -51.839966823 0 -11.040236134 -53.707905934 
0 -10.726938493 -55.01151556 0 -13.865435009 -52.614337498 0 -13.635777674 -53.566539892 
0 -10.404407128 -56.366386264 0 -13.443358672 -54.373293244 0 -13.181108219 -55.476485512 
0 -12.932937561 -56.489373824 0 -10.181638542 -57.28124478 0 -9.8303680185 -58.72555994 
0 -12.729699311 -57.351494073 0 -12.451925549 -58.489647521 0 -12.098626583 -59.797480774 
0 -9.5481775494 -59.74147446 0 -11.810951913 -60.997648569 0 -9.0370905019 -61.848581403 
0 -11.438196817 -62.67497264 0 -10.729237572 -65.591192281 0 -8.1159979498 -65.839097161 
0 -10.236327653 -67.720946417 0 -7.6663302913 -67.229647617 0 -9.6714244556 -69.564031062 
0 -9.5077113775 -70.758161755 0 -7.2081689401 -69.666465909 0 -9.0602299639 -72.633829113 
0 -8.7905583485 -73.754576751 0 -8.5311737837 -74.829087543 0 -8.3731782881 -75.48296801 
0 -6.739109509 -71.620957758 0 -8.0456276033 -76.349960019 0 -6.3735985658 -72.635379113 
0 -7.7369730651 -78.142356581 0 -7.8702636583 -77.083252585 0 -6.0783957771 -73.874518664 
0 -5.8104259653 -74.986748919 0 -7.5787108557 -78.801566126 0 -7.3062392015 -79.4247034 
0 -5.551070541 -76.070943569 0 -7.1529273386 -80.062762792 0 -7.0305852063 -81.088703668 
0 -6.8618032438 -81.783919462 0 -5.4671285226 -76.920876747 0 -5.2417935793 -77.846399243 
0 -6.7285586256 -82.340925355 0 -6.562683547 -83.025119725 0 -6.4204430568 -83.589478817 
0 -5.1095063677 -78.365458278 0 -6.3184319166 -84.014385796 0 -6.133227971 -84.304631904 
0 -4.8700402185 -78.855378645 0 -6.0444984873 -84.674345143 0 -5.9328429052 -85.20551962 
0 -5.8712231152 -85.466984463 0 -5.8391188842 -86.045571609 0 -4.4976538639 -80.423873897 
0 -5.6724431486 -86.209145404 0 -5.6855930183 -86.654807217 0 -5.6466936878 -86.835358443 
0 -5.6619591465 -86.753283602 0 -4.4677686996 -81.077768877 0 -5.6472951243 -86.839407216 
0 -5.6094493554 -86.460966711 0 -5.7348043521 -86.479071847 0 -5.6351532422 -86.366676504 
0 -4.5958725778 -80.560922018 0 -5.9280826576 -85.677423631 0 -5.850183152 -86.012507929 
0 -4.6586135602 -80.292305817 0 -4.776561913 -79.799680826 0 -5.9964055207 -85.392838425 
0 -6.0935113907 -84.981552749 0 -6.2142895439 -84.471605025 0 -4.8690949277 -79.401436115 
0 -6.4474463216 -83.524984467 0 -6.3148735024 -84.058708927 0 -5.0402830405 -78.702640691 
0 -5.2351997189 -77.873145939 0 -6.5651999674 -83.033658184 0 -6.7254380776 -82.331874426 
0 -6.8860177399 -81.663037663 0 -5.3703290081 -77.279353256 0 -7.0183428273 -81.111864007 
0 -7.2039162621 -80.356828508 0 -5.6024298882 -76.331312713 0 -5.9048582798 -75.07094043 
0 -7.377144031 -79.624690529 0 -7.6842333523 -78.336741603 0 -7.9758162871 -77.112029569 
0 -6.4727343465 -72.657019338 0 -8.374431039 -75.445921412 0 -8.6354914455 -74.40298381 
0 -7.0111155483 -70.474726296 0 -9.0682367961 -72.578934116 0 -7.3368667269 -69.099051671 
0 -9.5046975656 -70.762912065 0 -9.7076394757 -69.516036956 0 -7.844972648 -66.598317423 
0 -9.9192545541 -68.633390315 0 -8.2836760419 -65.182301395 0 -11.017296211 -64.480786672 
0 -10.7520803 -65.57862849 0 -8.5205774783 -64.206838442 0 -10.467768831 -66.761014323 
0 -10.252826657 -67.661643334 0 -7.4865095704 -68.079094326 0 -9.2588737221 -71.784874172 
0 -8.8231664429 -73.621278298 0 -6.686587324 -71.803613305 0 -8.1549068748 -76.366842186 
0 -6.16671393 -73.958201315 0 -5.7807175092 -86.297848922 0 -4.4624504637 -80.573047759 
0 -4.4196846039 -80.746303435 0 -5.6420495693 -86.854702589 0 -4.4723398684 -81.020868056 
0 -4.451555829 -80.588378322 0 -5.7850658619 -86.265790364 0 -4.5958832277 -80.100502134 
0 -4.655316533 -79.334807166 0 -6.9904367954 -70.582523426 0 -9.3002053557 -71.621074791 
0 -7.4426773884 -68.163684589 0 -10.035679819 -68.556704794 0 -10.494248894 -66.615731224 
0 -8.532690359 -64.015808718 0 -11.149836793 -63.828421366 0 -14.286850039 -50.85959083 
0 -11.766526701 -50.688223769 0 -15.373963112 -46.327460429 0 -12.144011878 -49.09919199 
0 -15.800531487 -44.518205057 0 -16.02382279 -43.567116178 0 -16.280719484 -42.524110119 
0 -16.567554804 -41.353893786 0 -16.387891717 -42.106017622 0 -16.01998959 -43.626581578 
0 -15.919393876 -44.052326496 0 -12.145450194 -49.077979755 0 -15.340892752 -46.445880272 
0 -15.026057677 -47.758785715 0 -11.44419315 -51.802119235 0 -11.482860977 -62.532534669 
0 -13.835493945 -64.340168532 0 -14.334650996 -62.278826374 0 -15.176589718 -59.816541898 
0 -15.20029341 -58.776044201 0 -15.435953876 -57.83367722 0 -15.882008702 -55.813630736 
0 -16.2605733 -54.227024692 0 -16.710635316 -52.396522156 0 -17.067213674 -50.90929851 
0 -17.48096903 -50.18647955 0 -17.453603009 -49.342155113 0 -17.966822213 -48.186027863 
0 -17.971717418 -47.102094856 0 -18.460792192 -46.034369687 0 -18.3409595 -45.552591562 
0 -18.754499407 -43.903099793 0 -19.028278075 -42.766451454 0 -19.312862671 -41.571770872 
0 -19.672593594 -40.068181662 0 -19.774604734 -39.643274683 0 -19.867134789 -39.270950026 
0 -20.07798242 -38.395991962 0 -20.186274852 -37.934525916 0 -20.582350786 -37.238237426 
0 -20.340487475 -37.261014412 0 -20.435263745 -36.87720314 0 -20.796447873 -36.388717222 
0 -20.536600702 -36.518025547 0 -20.564843029 -36.415908468 0 -20.909862248 -35.978318063 
0 -20.595141778 -36.273097801 0 -20.593766755 -36.270106567 0 -20.889091781 -35.97309529 
0 -20.542103666 -36.416319923 0 -20.486454545 -36.643623266 0 -20.717816448 -36.560195389 
0 -20.348650756 -37.161087514 0 -20.241201517 -37.61266715 0 -20.440730358 -37.71430779 
0 -20.002297843 -38.653564563 0 -19.912111218 -39.027610354 0 -20.120361453 -39.233833403 
0 -19.62565863 -40.362673384 0 -19.370720061 -41.386639967 0 -19.132234021 -42.381383338 
0 -19.422468414 -42.538212876 0 -18.9474924 -43.48694365 0 -18.820641164 -44.026884857 
0 -18.337901507 -45.620541231 0 -18.148830827 -47.33758118 0 -17.657017902 -48.425284732 
0 -17.307117296 -49.929210678 0 -17.463820654 -50.319879169 0 -16.917297805 -51.620569869 
0 -16.935559386 -52.566893306 0 -16.328909793 -54.050736564 0 -16.332328034 -55.003794537 
0 -15.758060401 -56.372111018 0 -15.266988912 -58.419949563 0 -14.873238311 -60.063598166 
0 -14.357905344 -62.214409593 0 -13.958280948 -63.884423761 0 -13.436960417 -65.99627003 
0 -13.245970236 -66.786470964 0 -13.035355309 -67.6663292 0 -12.983682767 -68.883628601 
0 -12.397071783 -70.399451864 0 -11.958863539 -72.208070482 0 -11.574996106 -73.808730292 
0 -11.494810783 -75.146915871 0 -11.071137789 -75.932760029 0 -10.89306669 -76.676396092 
0 -10.705391692 -77.458101604 0 -10.714979386 -78.8600662 0 -10.173467763 -80.112855068 
0 -9.7281695863 -81.492341071 0 -9.3728701329 -83.953264016 0 -9.0259418298 -84.427374989 
0 -8.722503105 -85.703540507 0 -8.6985134808 -86.789660777 0 -8.2862147984 -87.513907356 
0 -8.014788982 -88.608173915 0 -7.8038284485 -89.48341402 0 -7.5812560873 -90.424449546 
0 -7.4219737305 -91.094838713 0 -7.4936190669 -91.814396439 0 -7.2827461233 -91.726253758 
0 -7.2271086639 -91.968053817 0 -7.2957395514 -92.674704813 0 -7.1036589709 -92.45608583 
0 -7.0282503991 -92.762998052 0 -7.1227219873 -93.334618303 0 -6.9593483816 -93.009824943 
0 -6.941751469 -93.093670972 0 -7.077945439 -93.569784321 0 -6.9603010517 -93.094685725 
0 -6.9727428643 -93.043007298 0 -6.9963767362 -92.944530913 0 -7.1821204666 -93.196723305 
0 -7.1295267709 -92.370276407 0 -7.1835797932 -92.150057652 0 -7.3913794096 -92.255416585 
0 -7.383878178 -91.255948028 0 -7.5659606442 -90.461096857 0 -7.7428570562 -89.723910919 
0 -7.9962766301 -88.743062434 0 -8.0980991287 -88.32094332 0 -8.3784660762 -87.120078907 
0 -8.6314661418 -86.06084181 0 -8.9638134365 -84.636866952 0 -9.2579522073 -83.417457577 
0 -9.6364607398 -82.840622267 0 -9.6771800677 -81.734408647 0 -9.8324078048 -81.08653807 
0 -10.00777175 -80.353245504 0 -10.416136507 -79.638933641 0 -10.611567578 -77.829356585 
0 -11.020971066 -76.147777153 0 -11.396969717 -74.582092083 0 -11.873842505 -73.582714639 
0 -11.920728978 -72.377906888 0 -12.310140749 -70.754623831 0 -12.819889959 -69.599380245 
0 -13.022751013 -67.765451805 0 -13.25773969 -66.740912862 0 -13.746849629 -65.677276465 
0 -14.943604957 -62.830940121 0 -15.772635076 -59.894121823 0 -16.588131484 -56.16763589 
0 -17.360780455 -52.691664342 0 -18.076720739 -49.822583895 0 -18.678520094 -47.317338042 
0 -19.228828744 -45.028808092 0 -19.56965634 -43.607516224 0 -20.218773145 -40.890377034 
0 -20.616969147 -39.114057149 0 -20.996261941 -37.616635083 0 -21.348903962 -36.499052651 
0 -21.455525443 -35.762470676 0 -21.659195281 -35.257539027 0 -21.561231303 -35.287487842 
0 -21.356086415 -35.964200136 0 -21.170065157 -37.058106753 0 -20.480385685 -40.356158431 
0 -19.433908031 -44.50014919 0 -18.643677561 -47.361626001 0 -18.171489562 -49.895038035 
0 -17.450826352 -52.760672431 0 -16.662112171 -55.695695636 0 -16.175096519 -57.671804661 
0 -15.139533189 -62.393154726 0 -14.167117088 -66.055687754 0 -13.3935054 -69.587621661 
0 -12.586701067 -72.685173392 0 -11.852434024 -75.776325527 0 -10.33665122 -82.518485299 
0 -9.612177193 -85.055363642 0 -9.0459319644 -87.808387345 0 -8.5530455682 -89.806947662 
0 -8.095382919 -91.355461337 0 -7.8740178407 -92.801426017 0 -7.5642758901 -93.643992756 
0 -7.4086970141 -94.260376574 0 -7.3674149247 -94.471276003 0 -7.5551436046 -94.20181166 
0 -7.781531746 -93.313698595 0 -7.9589371146 -91.911726425 0 -8.3339760985 -90.390876697 
0 -8.8615096162 -88.60603731 0 -9.431457439 -85.784834572 0 -10.100406216 -83.057482035 
0 -10.853237606 -79.948263052 0 -11.629271207 -77.121125016 0 -12.399233389 -73.476179949 
0 -13.421339347 -69.646938553 0 -14.255626234 -66.033737548 0 -15.584295167 -64.144166112 
0 -17.022546455 -58.435425848 0 -17.985699428 -53.912911324 0 -18.713208212 -50.697611624 
0 -19.59247879 -47.090013275 0 -20.257651639 -44.371321312 0 -20.840041985 -41.92027625 
0 -21.293629595 -40.035234465 0 -21.650723865 -38.409255956 0 -21.994957853 -36.961172376 
0 -22.589747446 -35.047778857 0 -22.728602265 -34.31985567 0 -22.655990937 -34.440247931 
0 -22.531597367 -34.863044344 0 -22.435082439 -35.540836637 0 -22.127728748 -37.015210845 
0 -20.815284359 -41.699860609 0 -20.342467781 -43.236449801 0 -19.748320354 -46.346051157 
0 -18.630867632 -51.802073507 0 -17.606343866 -55.532065115 0 -15.241328026 -65.721362811 
0 -14.588501506 -68.975719277 0 -13.460752087 -73.060708536 0 -12.694509915 -75.821753535 
0 -12.081489768 -78.327474774 0 -11.369818227 -80.703614243 0 -10.804315124 -83.002249218 
0 -10.323868162 -85.703511062 0 -8.852317861 -92.212206226 0 -7.9883281666 -95.432539537 
0 -7.9181433229 -95.718369295 0 -8.5201607678 -93.801795505 0 -8.7664197732 -92.153779775 
0 -10.200776229 -86.621312173 0 -10.519936696 -84.980643961 0 -11.405614199 -81.379633336 
0 -13.04229326 -74.759514428 0 -16.781994581 -61.632896726 0 -22.975786192 -35.614323975 
0 -23.219059304 -34.215722379 0 -22.86901797 -35.615260291 0 -22.391313119 -37.553784886 
0 -21.893258284 -38.665614089 0 -19.862445059 -48.593026703 0 -17.220051756 -59.115833053 
0 -16.205702809 -62.348937416 0 -14.765109556 -70.981820977 0 -10.112604433 -88.763518697 
0 -9.4116160042 -90.638112581 0 -8.9964474865 -94.096891609 0 -8.4726308527 -96.218399075 
0 -8.4434796442 -95.554787656 0 -9.6812983835 -91.044883519 0 -9.9548025632 -88.975759155 
0 -12.513945755 -79.515556618 0 -14.331711075 -71.239197203 0 -14.891631872 -67.598028636 
0 -16.457418267 -64.528811181 0 -18.013413687 -59.505318501 0 -18.235152388 -57.631646257 
0 -19.02890373 -54.344796322 0 -19.534252841 -51.427836503 0 -19.954476665 -49.73442739 
0 -20.637884993 -46.996001014 0 -21.22165963 -44.542415594 0 -21.995777927 -41.918786846 
0 -22.50593211 -39.703335822 0 -22.904875938 -37.872299458 0 -23.14707527 -36.437777353 
0 -24.149707141 -34.420669153 0 -24.176633654 -33.725990424 0 -24.119502865 -33.481601265 
0 -24.014283031 -33.497478209 0 -23.938931093 -33.804411217 0 -23.788667587 -34.338565765 
0 -23.91677049 -34.966214791 0 -23.514409198 -35.988410766 0 -23.202053448 -37.288447926 
0 -22.928756062 -38.882038246 0 -22.302139705 -40.941834916 0 -21.530382718 -43.261881703 
0 -20.883655646 -45.767905584 0 -20.027311935 -50.95403258 0 -18.797184143 -54.631465781 
0 -17.996883113 -58.265901514 0 -17.305903796 -62.134041242 0 -16.479227958 -65.259878808 
0 -13.766322483 -76.287852329 0 -12.886504018 -79.095910881 0 -12.483883041 -80.7885114 
0 -11.843906719 -83.533604799 0 -11.245953541 -86.023163857 0 -10.831280537 -88.870405628 
0 -10.347198402 -91.253499472 0 -9.7843868346 -93.075756481 0 -9.0616443989 -96.207460316 
0 -8.7397701857 -96.659899187 0 -8.7246577124 -97.029170965 0 -8.6441933017 -96.987803148 
0 -9.3211910819 -94.961709344 0 -9.4845023207 -93.249857258 0 -11.155543496 -87.960338571 
0 -11.704983504 -84.715215215 0 -12.391791594 -82.236729513 0 -13.860002552 -78.595797956 
0 -14.621716809 -72.343441158 0 -15.851341824 -67.973350699 0 -17.434247319 -65.572061451 
0 -17.925728807 -62.470676811 0 -20.859732614 -51.462380659 0 -21.45753564 -48.230276854 
0 -22.162625477 -45.342854526 0 -24.495436989 -36.168543126 0 -24.473001733 -35.104375882 
0 -22.935149806 -42.625707978 0 -22.359325441 -44.397047529 0 -21.387575723 -47.729783986 
0 -20.415661945 -53.25308269 0 -19.47641668 -56.514650086 0 -16.52630365 -68.521577652 
0 -15.841664764 -70.830773107 0 -14.079397828 -79.698535459 0 -13.14644352 -82.850623076 
0 -12.456097434 -85.752833463 0 -10.231388283 -94.97487117 0 -9.7645929857 -95.846695206 
0 -9.6788753593 -96.777392476 0 -9.6437964897 -97.702800312 0 -9.5972039043 -98.288303249 
0 -9.4922183692 -97.79625815 0 -9.5683904122 -96.763966552 0 -9.8845347421 -95.867498068 
0 -10.301610402 -94.681947193 0 -10.714387128 -92.474391472 0 -11.036977059 -90.615513553 
0 -14.705495285 -77.320527332 0 -14.8455905 -75.322989841 0 -19.635802092 -59.5116403 
0 -20.049971937 -55.786487214 0 -23.555853125 -42.974171586 0 -23.799055686 -39.999873186 
0 -24.270019973 -37.907711612 0 -25.816066921 -32.761500876 0 -25.82046313 -32.940440586 
0 -25.323402651 -33.484506589 0 -25.112916552 -35.069300426 0 -24.520928611 -36.62950938 
0 -24.157600554 -38.383886545 0 -23.884222348 -39.592825357 0 -21.682936316 -50.053069684 
0 -18.930081158 -62.263023393 0 -17.71056929 -64.980937246 0 -16.122286555 -72.823874035 
0 -15.274597919 -75.173186116 0 -12.621584181 -88.491591042 0 -11.495318553 -91.242158261 
0 -10.90895712 -93.479184139 0 -10.173286088 -98.709225339 0 -9.8690632653 -98.516314214 
0 -13.02415853 -85.38766707 0 -13.288829717 -83.821639638 0 -17.050508941 -68.878773963 
0 -19.112363592 -63.759873703 0 -20.305411005 -60.328911742 0 -21.482970486 -56.672402919 
0 -21.693034114 -53.913185363 0 -22.227141193 -51.321542951 0 -22.78233891 -48.607391143 
0 -23.360560138 -46.119723015 0 -24.871233637 -41.352568316 0 -25.069358739 -39.704430954 
0 -25.470911098 -38.04742558 0 -25.865259478 -36.344260954 0 -26.127297927 -34.696118368 
0 -26.134232899 -33.817556211 0 -26.116041428 -33.423687413 0 -26.197051279 -32.921689984 
0 -27.046584748 -32.29153605 0 -26.599200058 -32.476877461 0 -26.865240947 -32.987277327 
0 -26.285046864 -33.738831982 0 -26.07665829 -34.622456212 0 -25.975029118 -35.91466499 
0 -25.443177004 -38.078686388 0 -25.063697406 -39.868228694 0 -24.451118978 -42.108968646 
0 -23.6238652 -45.140615668 0 -23.094524853 -47.198578029 0 -22.470019731 -49.969786498 
0 -21.864852533 -53.004981846 0 -21.024426301 -56.060121043 0 -20.052138926 -59.518988644 
0 -19.320483736 -64.809375582 0 -18.121046745 -68.171937085 0 -17.169448107 -72.635287034 
0 -16.055161465 -77.52376651 0 -15.235204792 -80.445131042 0 -14.497693552 -83.115508111 
0 -13.876159055 -85.604485136 0 -13.065275466 -90.527923169 0 -12.493567521 -92.086371226 
0 -12.025677264 -93.890009743 0 -11.390007536 -96.078030895 0 -11.084220576 -97.102992244 
0 -10.908214152 -97.846627151 0 -10.79470725 -98.567902304 0 -10.915400504 -99.583766833 
0 -10.651401117 -99.288304813 0 -10.762642656 -98.777224794 0 -10.821035679 -98.418288296 
0 -11.022968248 -97.620129996 0 -11.29582692 -96.556592074 0 -11.664822004 -94.93439865 
0 -11.970967532 -93.636691222 0 -12.273950253 -92.254764285 0 -12.777166729 -90.486182618 
0 -13.17525194 -88.226924348 0 -13.755792366 -85.992301104 0 -15.268747636 -80.556227168 
0 -15.718325906 -77.396854148 0 -16.616124346 -74.395427951 0 -17.134980466 -71.476777892 
0 -17.583848531 -70.00947333 0 -18.446406875 -67.08678641 0 -25.242046957 -42.867296187 
0 -27.789885696 -32.259601129 0 -27.957185351 -32.417856928 0 -14.083344617 -89.346636478 
0 -11.371106776 -99.86537068 0 -15.591797117 -83.06774054 0 -20.452612238 -65.226993213 
0 -21.122166255 -62.038412577 0 -21.739031928 -59.353158847 0 -23.246149021 -54.378651177 
0 -23.79167195 -51.491820501 0 -24.429262988 -48.650858382 0 -25.049954514 -46.154697515 
0 -25.34244427 -44.881477255 0 -26.643825647 -41.014493076 0 -26.585969055 -39.994406533 
0 -26.955161256 -38.319773392 0 -27.319895269 -36.847810525 0 -27.74941144 -35.527909509 
0 -27.851140774 -34.396068864 0 -28.20123923 -33.586729101 0 -28.301787462 -32.675027051 
0 -28.942472589 -31.978192212 0 -28.434135486 -32.085529415 0 -28.808532402 -32.676335503 
0 -28.253547578 -33.311472263 0 -27.972653151 -34.079030709 0 -27.572275809 -35.08330315 
0 -27.375769596 -36.474638157 0 -27.120583065 -37.750261466 0 -26.761711354 -39.255756232 
0 -26.148402214 -41.034475575 0 -25.821965672 -43.137078011 0 -25.324091354 -45.071418693 
0 -24.873650656 -46.955750366 0 -24.234110261 -49.311490146 0 -23.488896978 -52.458144561 
0 -22.874822461 -55.59109542 0 -21.697488158 -59.566602781 0 -20.949325077 -62.717124835 
0 -20.579209468 -64.258758737 0 -19.971220274 -67.255450293 0 -19.197255604 -70.805940912 
0 -17.538723063 -78.197044172 0 -16.706503127 -81.003672572 0 -15.984831089 -83.824448629 
0 -15.404637969 -86.330332303 0 -15.087218348 -87.597567433 0 -14.491183565 -91.633890347 
0 -13.976523364 -92.516527768 0 -13.545208488 -94.176246575 0 -13.196899554 -95.656892651 
0 -12.981575765 -97.027999998 0 -12.562207505 -98.079059097 0 -12.532856085 -98.880265002 
0 -12.25350591 -99.502355318 0 -12.154065364 -99.968601472 0 -12.264615552 -100.62177405 
0 -12.064759711 -100.32515117 0 -12.145280357 -99.913900578 0 -12.204591069 -99.112216126 
0 -12.619958779 -98.182803283 0 -12.878382645 -97.051563227 0 -13.087951363 -95.885559113 
0 -13.434047395 -94.758785346 0 -13.784090754 -93.238162297 0 -14.158904814 -91.350818323 
0 -14.688416323 -89.231651732 0 -15.201295077 -87.372094942 0 -15.656351793 -85.301710255 
0 -16.976307362 -81.148043726 0 -17.093941533 -79.177788036 0 -18.055818023 -75.240254454 
0 -18.647500902 -72.102750131 0 -19.588210501 -68.776876518 0 -22.554711012 -62.910141637 
0 -26.945466688 -43.19468326 0 -29.549178664 -31.994246397 0 -23.239259359 -60.015225146 
0 -15.749733331 -89.828268835 0 -12.80134632 -100.89324971 0 -13.573762872 -100.41209463 
0 -13.622248537 -99.39625991 0 -17.42638383 -83.645688556 0 -17.81885478 -81.95771075 
0 -20.083066384 -73.159216649 0 -24.023362189 -60.278017372 0 -25.239062969 -54.533941777 
0 -25.373891247 -52.829175947 0 -26.204812827 -49.152782636 0 -26.787988201 -46.555393388 
0 -28.438532348 -41.072161088 0 -28.692608092 -38.938894109 0 -29.059490342 -37.168728724 
0 -29.725968676 -34.852671396 0 -30.229590304 -33.091830915 0 -30.314840526 -32.256461284 
0 -30.48910701 -32.019122633 0 -30.476125204 -31.957851602 0 -30.150080168 -32.188427412 
0 -30.079822668 -32.63932371 0 -29.943799864 -34.015772624 0 -29.534487901 -36.511241799 
0 -29.107714824 -37.227338705 0 -28.669271989 -39.11890145 0 -28.207744971 -43.234532695 
0 -27.392379348 -44.342527112 0 -26.78197186 -46.784523664 0 -26.477953063 -48.076974715 
0 -25.703128964 -51.242583215 0 -24.298495371 -57.356213579 0 -23.301483411 -63.214990151 
0 -22.021373335 -66.557664564 0 -20.515391097 -73.171824414 0 -19.377232126 -78.95022444 
0 -18.72341751 -80.530392674 0 -17.794726423 -84.183313603 0 -17.135149443 -86.762360449 
0 -16.116459674 -92.397287563 0 -15.374359878 -94.413390333 0 -14.896396306 -96.157058972 
0 -14.439961849 -98.523326664 0 -14.079172008 -100.20820586 0 -13.837375744 -100.75989544 
0 -13.762731519 -101.14966359 0 -13.81644547 -101.38688622 0 -13.782929231 -101.43388924 
0 -13.708762331 -101.12148463 0 -14.43918764 -99.420025828 0 -14.757996548 -96.863621679 
0 -14.967192791 -96.126851878 0 -15.434661302 -94.243576331 0 -16.268152284 -90.261467994 
0 -16.781993822 -88.358269287 0 -17.328472937 -86.280297919 0 -18.848345569 -81.566179043 
0 -19.821810423 -75.989395577 0 -21.479080258 -70.721850819 0 -21.860991914 -67.229791053 
0 -25.600913953 -55.808339446 0 -28.83895077 -43.191592239 0 -30.348421962 -36.233038349 
0 -30.781939919 -34.090522761 0 -31.296939527 -31.995832941 0 -30.939449738 -33.277101341 
0 -20.278208148 -77.979004711 0 -17.435436708 -90.69064674 0 -15.621245271 -97.575998581 
0 -15.034853636 -99.681857636 0 -14.525656215 -101.77438577 0 -14.848469168 -100.4682154 
0 -16.673216522 -91.400369536 0 -23.933847952 -65.952278212 0 -24.758381235 -64.549039696 
0 -24.446922979 -63.023064678 0 -25.000696425 -60.87466791 0 -25.880279593 -60.026309456 
0 -25.737593469 -58.480600055 0 -26.412983159 -55.921557077 0 -27.119836263 -55.022498045 
0 -27.409403462 -53.816363855 0 -27.283078341 -52.315634102 0 -28.428887215 -49.409781888 
0 -27.787364962 -50.047028386 0 -28.274512762 -47.914965343 0 -29.404106468 -45.336929288 
0 -28.755410205 -45.945491508 0 -29.645945618 -44.328270544 0 -30.081382842 -41.685950171 
0 -30.456135888 -40.990376227 0 -30.238454767 -39.835040441 0 -31.19831931 -37.842943311 
0 -30.620558294 -38.244867904 0 -31.366584564 -37.138354761 0 -31.615001984 -35.412249909 
0 -31.917582524 -35.007661969 0 -31.739428292 -34.318223143 0 -32.267791277 -33.366094686 
0 -31.907270355 -33.534619617 0 -31.879975066 -32.905245174 0 -32.383754194 -32.865431794 
0 -32.016202751 -32.349614826 0 -32.530618751 -32.283138265 0 -32.245321888 -32.132257642 
0 -32.726016309 -32.179666467 0 -32.546072302 -32.204609326 0 -32.247050519 -32.113763388 
0 -32.03393328 -32.240836049 0 -32.406811769 -32.823318882 0 -31.96318767 -32.583135715 
0 -32.343333377 -33.08760563 0 -31.952817066 -33.358448141 0 -32.363383363 -33.670727709 
0 -31.793732292 -34.042131805 0 -32.018626794 -34.461153774 0 -31.413647123 -35.002128935 
0 -31.497504602 -36.701028053 0 -31.164986396 -36.19285974 0 -31.341064953 -37.352646089 
0 -30.699236555 -37.986932527 0 -30.347517531 -39.274871632 0 -30.659903612 -40.018098839 
0 -29.810667291 -41.069863736 0 -29.818904467 -43.666043363 0 -29.395133649 -43.001171347 
0 -29.583852737 -44.645104278 0 -28.862097764 -45.574516777 0 -28.434789518 -47.307393874 
0 -28.692633303 -48.28480495 0 -27.903835816 -49.449234821 0 -27.421462501 -51.438263437 
0 -27.662225085 -52.485778999 0 -26.909543452 -53.797842717 0 -27.208441765 -54.680817489 
0 -26.106107791 -57.157098829 0 -26.199567822 -58.585372041 0 -25.109950953 -60.083414184 
0 -24.543902463 -62.705292618 0 -25.027546551 -63.697084551 0 -24.709472789 -65.027142089 
0 -23.877429394 -66.398356235 0 -23.455407342 -70.264578522 0 -23.185997344 -69.292255911 
0 -22.349515007 -72.866687728 0 -22.442043069 -74.347595261 0 -21.613171418 -75.660054276 
0 -21.053166837 -78.246798769 0 -21.274813305 -79.368770826 0 -20.985246106 -80.574905015 
0 -20.191372547 -81.854714611 0 -19.893066432 -84.964034236 0 -19.610769775 -84.10499844 
0 -19.076885276 -86.225840995 0 -18.912956761 -89.03571275 0 -18.611245625 -88.198977901 
0 -18.670515535 -90.044226948 0 -17.858904595 -92.596236003 0 -17.877028041 -93.386131248 
0 -17.158561272 -94.316717809 0 -17.10941367 -96.527458734 0 -16.777094782 -95.907043285 
0 -16.939462602 -97.231642554 0 -16.377168939 -98.882392388 0 -16.463091093 -99.380251573 
0 -15.991355833 -99.913665736 0 -16.029873426 -101.00189018 0 -15.78515565 -100.68806029 
0 -15.475105352 -101.23644523 0 -15.905900945 -101.50063014 0 -15.344234208 -101.79336156 
0 -15.772402493 -102.08613259 0 -15.449702758 -102.09104614 0 -15.899527779 -102.26703527 
0 -15.750520315 -102.16311815 0 -15.442846763 -102.10830943 0 -15.310647694 -101.89833366 
0 -15.767462283 -101.49753621 0 -15.26314944 -101.51013986 0 -15.830886294 -101.23323641 
0 -15.60589364 -100.81462327 0 -16.253347097 -100.77385807 0 -15.914398207 -100.18431842 
0 -16.305012668 -99.913067079 0 -16.011569418 -99.156399657 0 -16.857571039 -97.680739958 
0 -16.330591562 -97.982561134 0 -17.014010688 -97.029121923 0 -16.730097415 -96.172584573 
0 -17.001425588 -94.865345332 0 -17.617181716 -94.344945354 0 -17.373915973 -93.248271854 
0 -17.814409313 -91.605671101 0 -18.456297335 -90.978195055 0 -18.269606209 -89.640780463 
0 -18.834019071 -89.265321577 0 -18.873608819 -87.015522287 0 -19.608218034 -86.070693788 
0 -19.30417154 -84.401394359 0 -19.794313842 -82.390991552 0 -20.622681965 -81.842554923 
0 -20.548648035 -80.3266839 0 -21.199587512 -79.708333107 0 -21.341723949 -77.001526937 
0 -22.072474064 -75.776459532 0 -21.780821975 -73.947735983 0 -22.366515367 -71.720174974 
0 -23.248487773 -71.05530842 0 -23.179307242 -69.317461261 0 -23.791321729 -68.700519271 
0 -23.971094824 -67.951710438 0 -23.441471828 -70.256656949 0 -22.580250912 -72.738167329 
0 -22.284687104 -74.857799586 0 -21.632230551 -77.916957334 0 -21.370860714 -78.994928879 
0 -20.794793245 -81.120141197 0 -20.076559265 -83.272426594 0 -19.792515585 -85.269259945 
0 -19.191677433 -87.747905562 0 -18.973484603 -88.658900236 0 -18.594119361 -90.404125 
0 -18.077160043 -92.439513125 0 -17.74811043 -93.735819751 0 -17.36584888 -95.473164352 
0 -17.117943894 -96.601496603 0 -16.947638262 -97.305582976 0 -16.603171137 -98.728524565 
0 -16.37014831 -99.556017403 0 -16.311597405 -100.5661881 0 -15.876509862 -101.04320057 
0 -15.802056389 -101.35332161 0 -15.802356747 -101.91127701 0 -15.762814221 -102.10293505 
0 -15.899527779 -102.26703527 0 -15.898813209 -102.27001167 0 -15.75737631 -102.14585487 
0 -15.82552436 -101.82284532 0 -15.867743932 -101.64412187 0 -15.984249857 -101.19192602 
0 -16.279245542 -100.68860548 0 -16.335733358 -100.48051649 0 -16.356071849 -99.727666981 
0 -16.654604549 -97.56241102 0 -17.005835028 -96.955181501 0 -17.418852176 -95.281061067 
0 -17.718789809 -93.98782125 0 -18.335562841 -90.574020495 0 -18.767745238 -89.639236088 
0 -19.32145552 -87.271528436 0 -19.691462772 -85.759393668 0 -20.304471593 -83.286566288 
0 -20.813693282 -81.297448193 0 -21.103540104 -80.082175053 0 -21.75964131 -77.088964726 
0 -22.201128793 -75.256231594 0 -23.00427673 -72.170487426 0 -23.261792784 -71.063118293 
0 -23.784076317 -68.667392347 0 -23.963849413 -67.918583514 0 -24.529699693 -65.775950922 
0 -24.836916422 -64.49630115 0 -25.273114674 -61.524080889 0 -25.971702319 -59.50027596 
0 -26.780547773 -56.47333161 0 -27.037168564 -55.394221717 0 -27.487608389 -53.207591228 
0 -28.071721465 -50.817288424 0 -28.484622477 -49.080448168 0 -29.042909564 -46.810714996 
0 -29.432807908 -45.248745677 0 -29.68108244 -44.240113418 0 -30.070093566 -42.109739167 
0 -30.502131674 -40.619711809 0 -30.948165122 -38.898745632 0 -31.239532285 -37.780847726 
0 -31.407437379 -37.076185035 0 -31.746516887 -35.651949994 0 -31.914565915 -34.808858327 
0 -32.321004577 -33.88220809 0 -32.297709808 -33.277641468 0 -32.372163281 -32.967520436 
0 -32.477925415 -32.452534675 0 -32.529703696 -32.263814176 0 -32.726016309 -32.179666467 
0 -32.726730878 -32.176690071 0 -32.544343671 -32.22310358 0 -32.458420759 -32.541845768 
0 -32.414899925 -32.720256812 0 -32.313414845 -33.176058847 0 -32.347755183 -33.758445967 
0 -32.303615769 -33.969499551 0 -31.979950974 -34.649526853 0 -31.262939922 -36.714315051 
0 -31.300212137 -37.414815815 0 -30.908178338 -39.093973905 0 -30.588306135 -40.382427855 
0 -29.58802182 -43.704155697 0 -29.548715915 -44.733261404 0 -28.967158609 -47.094283578 
0 -28.610342665 -48.609585299 0 -28.033897387 -51.091190808 0 -27.584576516 -53.094689818 
0 -27.291109464 -54.309093817 0 -26.516810867 -57.273927462 0 -26.078135665 -59.107335763 
0 -25.268025068 -61.792242524 0 -24.94839887 -63.749636381 0 -24.630937601 -65.079880636 
0 -24.226511491 -66.887823453 0 -20.195689826 -77.27435369 0 -15.282431168 -97.657316627 
0 -15.098723425 -100.04558051 0 -14.518800221 -101.79164906 0 -14.885141268 -100.2481632 
0 -15.440245943 -98.368742409 0 -17.138071104 -91.901619016 0 -21.443956669 -72.070558841 
0 -25.21645726 -56.376068662 0 -30.362092535 -36.042142758 0 -30.82274375 -33.749304623 
0 -31.298668158 -31.977338687 0 -30.905642567 -33.517972819 0 -30.547048547 -35.44452645 
0 -29.123765986 -41.977606881 0 -22.098888078 -69.117788577 0 -20.568920488 -74.358682026 
0 -19.196843674 -78.800789532 0 -19.430568483 -80.224285117 0 -18.108932558 -84.709541801 
0 -17.699478681 -87.326225317 0 -17.173518266 -89.334019816 0 -15.81529626 -92.330241134 
0 -16.253244981 -93.344301428 0 -15.87631503 -94.978660626 0 -15.697132836 -95.913352565 
0 -14.473017303 -98.232393333 0 -14.929575978 -98.985512933 0 -14.220294032 -101.0939736 
0 -14.259908685 -101.52470753 0 -14.351447531 -101.29920085 0 -14.441586399 -100.81114779 
0 -14.313363404 -99.152583951 0 -14.803517805 -97.001092775 0 -15.702500051 -95.63150854 
0 -16.188663705 -93.724581821 0 -16.773466636 -89.53653396 0 -17.469111336 -88.178182006 
0 -18.032713488 -85.737468902 0 -18.647274708 -83.421356355 0 -19.105425267 -81.731141383 
0 -20.083912039 -76.0004534 0 -20.712400836 -74.839337008 0 -21.273937461 -70.036362375 
0 -22.167601856 -68.752799518 0 -23.005413567 -65.360028336 0 -24.216704421 -59.167066817 
0 -25.070726114 -54.402791001 0 -25.918099123 -53.221736503 0 -26.518722174 -50.500798161 
0 -26.877734067 -49.071552846 0 -27.50469574 -46.432904067 0 -27.823141835 -45.209332931 
0 -28.85366056 -40.477414767 0 -29.39648075 -38.663117461 0 -29.661169507 -37.748953831 
0 -29.894681547 -35.170797131 0 -30.364705644 -34.671693054 0 -30.20373296 -33.00802438 
0 -30.745637993 -32.467325638 0 -30.92363771 -32.092538864 0 -30.907278827 -32.39049409 
0 -30.826233796 -32.71913842 0 -29.89880219 -34.234559357 0 -29.359961594 -36.374488341 
0 -29.537997221 -38.002515361 0 -29.105445594 -39.922313189 0 -27.72517488 -43.919386132 
0 -27.728319963 -45.44550267 0 -27.122432596 -47.876063992 0 -26.61851756 -50.218740337 
0 -26.259391158 -51.932728906 0 -24.529551353 -57.483032986 0 -24.562403161 -58.802923209 
0 -23.099513264 -63.832164786 0 -22.828520633 -65.745109664 0 -20.560762888 -71.130528917 
0 -13.939411482 -100.14760257 0 -15.390091973 -91.478050163 0 -18.571503155 -77.706387904 
0 -19.03934292 -75.951703532 0 -22.745406205 -62.062740131 0 -27.559188213 -42.367741267 
0 -27.88598927 -41.101317965 0 -28.801680294 -35.979791288 0 -29.026365331 -35.16486767 
0 -27.374008941 -41.561443574 0 -23.943609537 -55.284701464 0 -23.563847785 -57.060531496 
0 -23.083434311 -60.886235744 0 -20.661123457 -66.951872363 0 -19.64735532 -70.488770047 
0 -18.960144081 -73.594681896 0 -18.431630261 -76.435502757 0 -17.998486785 -78.141143677 
0 -16.242547585 -84.121088543 0 -16.059728417 -86.397066385 0 -15.552554737 -88.287370446 
0 -15.012489426 -90.229998751 0 -14.55664741 -92.312159164 0 -14.224155925 -94.15551917 
0 -13.823093448 -95.517601804 0 -13.533495369 -96.645474063 0 -13.293469959 -97.84478755 
0 -12.858412867 -98.920665317 0 -12.602778129 -99.852302786 0 -12.604733398 -100.50120345 
0 -12.691809188 -100.85461406 0 -12.162214868 -100.36247609 0 -12.650093115 -100.47524233 
0 -12.752631981 -100.10371733 0 -12.975835282 -99.555591505 0 -13.129610301 -98.833875515 
0 -13.310913286 -97.920492818 0 -13.636886078 -96.768645498 0 -13.840363133 -95.360775238 
0 -14.273101488 -93.754412102 0 -15.071614211 -88.923631379 0 -16.078805244 -85.948839817 
0 -16.803188223 -83.083813962 0 -17.494056013 -80.189090302 0 -18.541986823 -74.290779925 
0 -19.389546203 -72.672017199 0 -20.153081291 -69.271551661 0 -20.945847923 -65.825126053 
0 -21.743926557 -61.933605903 0 -22.549297253 -58.66447049 0 -23.172801642 -56.939574695 
0 -23.854785044 -54.034456642 0 -24.489867888 -50.847325632 0 -25.224020061 -48.054898847 
0 -25.696747776 -46.11596351 0 -26.118913661 -44.298949863 0 -26.446874601 -42.313863832 
0 -26.912585367 -40.350757866 0 -27.550726687 -38.647803014 0 -27.8117211 -37.250774264 
0 -27.938955713 -35.919752087 0 -28.242924539 -34.688034696 0 -28.746031908 -33.790460175 
0 -28.932442694 -33.045036173 0 -28.900986535 -32.174908229 0 -29.235716611 -31.964361335 
0 -28.720449299 -32.175832527 0 -29.017708652 -32.352007934 0 -28.962740257 -33.090275367 
0 -28.69937985 -33.98111799 0 -28.446298201 -34.877222964 0 -28.216694638 -36.056946385 
0 -27.757052643 -37.398793698 0 -27.412209826 -39.026087166 0 -25.930561317 -43.692861497 
0 -25.47744799 -46.800675348 0 -24.82218343 -49.682295067 0 -24.123574098 -52.575160147 
0 -22.253829595 -57.890661295 0 -22.141974047 -60.451137644 0 -21.332331457 -63.52375477 
0 -15.933085944 -81.782673529 0 -13.862555329 -90.407114118 0 -27.90475222 -32.659931233 
0 -27.848337608 -32.152069958 0 -25.526769034 -41.822167452 0 -18.548410965 -68.745974984 
0 -17.556681233 -72.530725726 0 -16.802617957 -75.613024913 0 -15.920635043 -78.841268704 
0 -14.683617795 -83.687407005 0 -14.631675241 -85.123325943 0 -13.922035578 -87.145713973 
0 -13.590373025 -89.397586603 0 -13.021625414 -91.441067319 0 -12.638672997 -93.090518423 
0 -12.326276759 -94.387601273 0 -12.037450555 -95.673540032 0 -11.884160045 -96.424946629 
0 -11.61653834 -97.521224405 0 -11.372566889 -98.473259682 0 -11.169806846 -99.285131922 
0 -11.119189364 -99.571219393 0 -11.169777827 -99.809396579 0 -10.865982905 -99.277543309 
0 -11.161063246 -99.268007861 0 -11.288583297 -98.667133906 0 -11.430157568 -98.00652206 
0 -11.619516296 -97.221918768 0 -12.003361223 -96.042678404 0 -12.257375941 -95.056484687 
0 -12.670046232 -93.305889043 0 -13.072151652 -91.718844423 0 -13.507786409 -88.134347244 
0 -14.044926932 -87.11656713 0 -14.605411921 -84.859223181 0 -15.202945445 -82.462226046 
0 -15.920405339 -79.727212235 0 -16.885926302 -76.808180718 0 -17.421350297 -74.656600842 
0 -18.097794034 -70.40338983 0 -19.038647298 -66.558386799 0 -19.958401313 -61.529975938 
0 -20.996624292 -58.339134419 0 -21.819353871 -54.993801054 0 -22.554433056 -52.02596413 
0 -23.148726026 -48.866131443 0 -23.829539683 -46.544788251 0 -24.295319751 -44.507032965 
0 -24.652759963 -43.151858544 0 -25.3218523 -40.814799857 0 -25.739373308 -38.992902779 
0 -26.035371429 -37.443998293 0 -26.280545771 -36.524855927 0 -26.703573039 -35.027998283 
0 -26.675089672 -34.068757092 0 -27.090126012 -33.270117687 0 -26.750395754 -32.566529191 
0 -27.339138604 -32.238826383 0 -26.661505182 -32.601892615 0 -26.917465061 -32.931363516 
0 -26.828618386 -33.877438569 0 -26.651679695 -34.820359775 0 -26.509208495 -35.544771085 
0 -26.208663054 -37.118263517 0 -25.780251926 -38.697952281 0 -25.418027298 -40.294571432 
0 -24.180871846 -43.698367012 0 -24.197405055 -44.849072429 0 -23.669968548 -47.102618986 
0 -23.114139874 -49.509652706 0 -22.511752827 -52.272274062 0 -22.095528161 -54.936222833 
0 -20.077115437 -62.108715928 0 -19.277695191 -65.392808795 0 -17.579720354 -67.196309105 
0 -14.316247119 -81.144241909 0 -14.072406107 -82.990354735 0 -12.321151343 -88.283834661 
0 -10.125164433 -98.834664102 0 -11.386216574 -93.041988645 0 -11.958300531 -90.870661541 
0 -12.399862526 -89.824689327 0 -14.779573755 -78.938577448 0 -15.379203165 -76.94923062 
0 -17.451173284 -67.40307398 0 -18.662279189 -64.000789135 0 -21.241321737 -52.080845507 
0 -23.636621094 -41.811251212 0 -24.110289813 -40.267193925 0 -24.655258129 -37.733659765 
0 -25.090571168 -35.94471543 0 -25.395822996 -33.821383795 0 -25.987741453 -33.119114416 
0 -25.726613558 -32.696903774 0 -26.142694576 -32.558675482 0 -24.881373566 -36.668425797 
0 -24.51615393 -38.512708832 0 -24.042919667 -40.541068607 0 -23.961492838 -41.673501625 
0 -21.139177395 -52.45704156 0 -20.831884471 -54.118223634 0 -20.298563906 -57.317629029 
0 -15.981268894 -72.340293755 0 -15.67192751 -74.181719695 0 -13.693919214 -80.45201227 
0 -11.725840442 -89.079087164 0 -11.766734742 -90.110772866 0 -11.299733885 -91.804620272 
0 -11.020898031 -93.470708284 0 -10.827528664 -94.354916686 0 -10.470168781 -95.784177059 
0 -10.116622789 -96.738818674 0 -9.923204661 -97.590306487 0 -9.8648116385 -97.949242985 
0 -9.6624636894 -98.082563632 0 -10.027977849 -97.742576841 0 -10.065235616 -96.782211184 
0 -10.26163453 -96.007581356 0 -10.824465569 -94.926394185 0 -12.181617928 -87.497288257 
0 -13.085107234 -84.853022025 0 -13.829776972 -81.858371117 0 -19.312092445 -58.511086336 
0 -20.24426517 -55.243539018 0 -21.14632546 -49.397167363 0 -22.230351734 -46.670541438 
0 -22.590983163 -45.259063363 0 -24.888749976 -34.466893391 0 -25.017164197 -35.273718501 
0 -22.712436305 -43.660361355 0 -22.314570692 -46.430151538 0 -21.615895448 -49.424620487 
0 -18.513800537 -60.534964175 0 -18.135602242 -63.829603664 0 -16.146970658 -69.342717078 
0 -15.526598676 -71.336932308 0 -14.250050017 -74.488072751 0 -12.885239398 -81.109412293 
0 -12.546980092 -83.381763528 0 -12.029061476 -85.911084099 0 -11.750854397 -87.165086068 
0 -9.957039652 -92.288542342 0 -9.6182103749 -94.16560802 0 -8.8681821018 -97.058473292 
0 -8.9963702082 -97.497577042 0 -9.0306603256 -97.361618934 0 -9.0677941501 -96.839805205 
0 -9.6959590341 -94.05970132 0 -10.404307634 -92.543716285 0 -10.960949866 -90.389136942 
0 -11.367244965 -87.683151948 0 -11.860437027 -84.972062343 0 -12.500903412 -82.311976969 
0 -13.596100088 -78.334669795 0 -14.423083213 -74.970806311 0 -16.067073914 -67.272646262 
0 -17.1978537 -64.086673464 0 -18.086421355 -61.290539283 0 -18.374695029 -59.54958952 
0 -18.706734598 -56.373487454 0 -19.738262999 -52.782172085 0 -20.707105944 -47.37952192 
0 -21.526232473 -44.637356509 0 -22.280801415 -42.126369164 0 -23.033367539 -39.883015331 
0 -23.496646087 -38.03176319 0 -23.728678397 -36.536420897 0 -24.329004796 -35.206084244 
0 -24.40988976 -34.358283665 0 -24.38602475 -33.805965502 0 -24.709030671 -33.304278475 
0 -24.766376795 -33.150393392 0 -24.781906277 -33.22586514 0 -24.746340395 -33.58142353 
0 -24.716093748 -33.851878828 0 -23.568994645 -35.652067573 0 -23.529355149 -36.784910286 
0 -23.259604185 -38.495218113 0 -22.799249654 -40.602993676 0 -22.070740309 -43.134289143 
0 -21.290424244 -45.736461261 0 -20.653051174 -48.402519594 0 -19.814649148 -52.446041721 
0 -19.129055967 -55.961867968 0 -17.072385079 -62.856785848 0 -16.609407073 -65.885159931 
0 -14.940964108 -68.863321975 0 -13.34171968 -75.927832735 0 -13.09176743 -78.03802045 
0 -10.467756619 -87.831054923 0 -10.175889034 -90.04162593 0 -8.8416986299 -94.790570172 
0 -8.8568099138 -95.721506774 0 -8.718246861 -95.216759127 0 -9.0348351915 -94.851175309 
0 -9.300036658 -92.102417742 0 -9.8388569481 -90.321234508 0 -14.194216642 -72.772542099 
0 -15.97563475 -64.413160983 0 -16.817346112 -61.243023018 0 -18.293199398 -54.105245796 
0 -19.423901313 -50.500153987 0 -21.669045945 -40.647394015 0 -22.136108589 -39.250552186 
0 -22.724199878 -36.201863755 0 -23.236189789 -34.033593557 0 -23.140750446 -35.020408046 
0 -17.13495146 -60.217142015 0 -13.660617862 -72.21551049 0 -11.937703885 -79.535371681 
0 -11.488408266 -82.487135492 0 -11.058150015 -84.199265325 0 -9.1092356597 -91.102794296 
0 -8.8659451657 -93.057183915 0 -8.0298877162 -95.735507435 0 -8.1365744817 -96.162832829 
0 -8.1540496471 -96.074933537 0 -8.2680460921 -95.685057218 0 -8.2526725185 -94.874262048 
0 -8.6371564901 -93.222735254 0 -9.9756621656 -87.502355775 0 -10.787058883 -85.086946568 
0 -11.246679473 -82.500008963 0 -11.950025102 -80.213744509 0 -12.554157656 -77.683285169 
0 -13.197078671 -75.187561781 0 -15.205826977 -67.575740018 0 -17.06209436 -57.938516783 
0 -19.433745441 -48.088747201 0 -20.353569673 -45.238714324 0 -20.740322489 -43.678159502 
0 -22.861612788 -34.872073236 0 -23.011558509 -34.327982588 0 -23.052567507 -34.08078794 
0 -22.671376438 -34.667316622 0 -22.293837392 -36.158956777 0 -22.254987279 -37.202249353 
0 -21.918332645 -38.732173127 0 -21.526500813 -40.383478505 0 -21.016001554 -42.555926738 
0 -20.388347333 -45.142307872 0 -19.773251835 -47.74966075 0 -19.373947177 -49.355935266 
0 -18.691117712 -52.121956583 0 -18.043089139 -55.117545845 0 -17.617731016 -56.959432453 
0 -16.101302154 -62.09737956 0 -15.650020783 -65.351708611 0 -14.18148193 -67.923703657 
0 -13.234242277 -71.539952527 0 -12.299664435 -75.425228624 0 -11.54570591 -78.585413597 
0 -10.753590589 -81.527305261 0 -10.037205686 -84.440025439 0 -9.5336412417 -86.883075599 
0 -9.3056530755 -88.209694334 0 -8.797121143 -90.025673941 0 -8.3028968227 -91.632600926 
0 -8.0766756672 -93.177516864 0 -7.909452565 -94.370918301 0 -7.6464275472 -94.902789376 
0 -7.5324439349 -94.859530528 0 -7.6286749217 -94.47682134 0 -7.9085555615 -93.788915783 
0 -8.1754321317 -92.647032108 0 -8.5125819053 -91.108363651 0 -9.0043608701 -89.446485076 
0 -9.4824564176 -87.092228722 0 -10.074916814 -84.253112331 0 -11.15643865 -79.138844826 
0 -11.682545297 -77.622653824 0 -12.391730753 -74.619614844 0 -13.153153646 -71.760458838 
0 -13.949844076 -68.392584611 0 -14.841275567 -64.784445214 0 -15.769653707 -61.265848756 
0 -16.223339614 -58.982618089 0 -17.254604772 -54.600057396 0 -18.140233679 -51.389507861 
0 -18.703426181 -48.686906203 0 -19.226513419 -46.049195724 0 -20.291101608 -41.443412047 
0 -21.038880432 -39.273140396 0 -21.397299406 -37.504310898 0 -21.6607069 -36.143904208 
0 -21.800446533 -35.352103673 0 -21.878039985 -35.087427086 0 -22.015217013 -34.879376418 
0 -21.958911805 -35.128663678 0 -21.808320632 -35.733452864 0 -21.602846733 -36.579157213 
0 -21.193667871 -37.837063562 0 -20.813995715 -39.445172566 0 -20.430798245 -41.157521761 
0 -20.122626882 -42.450858989 0 -19.379250591 -45.52679512 0 -18.761052598 -48.109569638 
0 -18.080177983 -50.903666192 0 -17.2883924 -54.276564514 0 -16.507128521 -58.13287786 
0 -15.627854575 -61.545840046 0 -14.900050561 -64.500520029 0 -20.806505925 -38.650411245 
0 -12.83626726 -68.544223209 0 -12.123467722 -71.53360181 0 -11.223022418 -75.304803735 
0 -11.049916021 -77.014427203 0 -10.453572082 -78.483237053 0 -9.1171252994 -83.99880756 
0 -8.9628375743 -85.617185871 0 -8.5117106943 -86.563073013 0 -8.4271166115 -87.92137639 
0 -8.0163300001 -89.591639065 0 -7.654690128 -90.091383618 0 -7.6278139628 -91.171987289 
0 -7.322258388 -91.517412871 0 -7.0922240683 -92.527766691 0 -6.9441004283 -93.071215338 
0 -7.0577458138 -92.637308755 0 -7.4917161568 -90.798308584 0 -7.811863222 -90.416438483 
0 -7.8970353361 -89.099500199 0 -8.2455654542 -88.629694601 0 -8.402381147 -87.03092952 
0 -8.8527140609 -85.159512968 0 -9.5034474066 -82.416380728 0 -10.108054301 -81.35465406 
0 -10.332922854 -79.447256511 0 -11.752704951 -73.069674747 0 -12.33374825 -71.642094231 
0 -12.580579208 -69.640564302 0 -13.853441135 -65.243224468 0 -14.14634421 -63.093717139 
0 -14.781775658 -61.426289013 0 -15.055300176 -59.302962899 0 -15.66770202 -57.718540342 
0 -15.935670764 -55.633474238 0 -16.507251099 -53.307540763 0 -17.46322466 -49.266792895 
0 -18.115964945 -46.499044648 0 -18.911240179 -44.598302033 0 -19.248054671 -41.898194125 
0 -19.797637037 -40.676018476 0 -19.717994442 -39.977074546 0 -20.072006761 -38.369888301 
0 -20.296750139 -37.377654166 0 -20.515517983 -36.520383539 0 -20.595164075 -36.257441467 
0 -20.393061336 -37.039333367 0 -20.289230933 -38.48383658 0 -19.895455933 -40.105649096 
0 -19.434593757 -41.062568283 0 -19.486207531 -41.824793882 0 -18.906819022 -43.268266468 
0 -18.932623531 -44.132519519 0 -17.810748756 -47.835524468 0 -16.903054318 -51.589768804 
0 -16.751148853 -53.140154357 0 -16.085246952 -54.951510487 0 -15.966705736 -56.531726302 
0 -14.601632215 -61.142975181 0 -14.387824947 -63.027049707 0 -43.557317901 -73.198129644 
0 -33.753204997 -71.636338919 0 -33.253742941 -73.711563137 0 -43.071066805 -75.223511224 
0 -42.443637175 -77.81292688 0 -32.982907633 -74.815656543 0 -41.983449326 -79.753764058 
0 -32.157276619 -78.2945712 0 -31.90885638 -79.329315967 0 -41.387241905 -82.237146692 
0 -40.928121891 -84.14951918 0 -31.134983995 -82.542014255 0 -30.680107331 -84.442230571 
0 -40.47655842 -86.030416403 0 -39.902218393 -88.386779364 0 -30.429707276 -85.449286445 
0 -39.499315123 -90.100927683 0 -29.699306214 -88.519886462 0 -29.477811366 -89.416973307 
0 -38.976488908 -92.253150002 0 -38.596972109 -93.859456834 0 -28.832007715 -92.134600824 
0 -28.463805588 -93.668273059 0 -38.225967424 -95.404802563 0 -37.763255213 -97.284925331 
0 -28.259373159 -94.47258311 0 -27.707713887 -96.834177609 0 -37.45827074 -98.602489383 
0 -27.440320911 -97.953237153 0 -37.16642979 -99.834650387 0 -36.800485443 -101.34236233 
0 -27.078022778 -99.440473882 0 -26.833319931 -100.45973459 0 -36.547726963 -102.39517717 
0 -36.244865599 -103.60590536 0 -26.696762539 -100.97775689 0 -26.377219895 -102.394488 
0 -36.067484078 -104.39553275 0 -26.23500892 -102.98683934 0 -35.910016948 -105.08639058 
0 -26.176758611 -103.19450931 0 -35.721010457 -105.83869924 0 -26.05104708 -103.71813552 
0 -25.953240039 -104.12565095 0 -35.612173955 -106.2920359 0 -35.509838566 -106.70931817 
0 -25.90828819 -104.30391358 0 -25.83225571 -104.62946716 0 -35.468119554 -106.89206566 
0 -25.825727133 -104.65666064 0 -35.450781512 -106.9642838 0 -25.826441703 -104.65368425 
0 -35.468119554 -106.89206566 0 -25.858805928 -104.52174382 0 -25.884457052 -104.39945553 
0 -35.528295223 -106.62597229 0 -35.612173955 -106.2920359 0 -26.022217175 -103.83822071 
0 -26.142294216 -103.33806384 0 -35.721010457 -105.83869924 0 -35.908254455 -105.08597155 
0 -26.233246427 -102.98642031 0 -36.067484078 -104.39553275 0 -26.549974199 -101.76550602 
0 -26.464052045 -101.26764684 0 -36.127100251 -103.2914628 0 -36.547726963 -102.39517717 
0 -27.011650351 -99.716934935 0 -27.279724276 -98.604040002 0 -36.800485443 -101.34236233 
0 -37.164260059 -99.834147968 0 -27.437796616 -97.952637286 0 -37.45827074 -98.602489383 
0 -27.98037634 -95.746336426 0 -28.087382279 -94.435239784 0 -37.788394999 -97.291858513 
0 -38.225967424 -95.404802563 0 -28.734778012 -92.539591684 0 -29.117843823 -90.945333938 
0 -38.596972109 -93.859456834 0 -39.107310603 -91.747356702 0 -29.340037029 -90.033445307 
0 -30.058720912 -87.082965552 0 -39.499315123 -90.100927683 0 -30.451572215 -85.454596349 
0 -39.923524877 -88.391959817 0 -40.47655842 -86.030416403 0 -31.016689997 -83.034744217 
0 -31.475055284 -81.125515394 0 -40.928121891 -84.14951918 0 -41.515339094 -81.643477233 
0 -31.72104314 -80.040795963 0 -32.558164837 -76.648776996 0 -41.983449326 -79.753764058 
0 -32.995596384 -74.818820569 0 -42.456956429 -77.816202607 0 -43.071066805 -75.223511224 
0 -33.625761363 -72.167179858 0 -34.112751188 -70.138721253 0 -43.557317901 -73.198129644 
0 -44.172280759 -70.636624993 0 -34.727714046 -67.577216602 0 -35.224822175 -65.501427256 
0 -44.658531856 -68.611243413 0 -45.275058069 -66.019210078 0 -35.484754066 -64.394716171 
0 -45.746149334 -64.080990579 0 -36.328391469 -60.920122669 0 -36.576811709 -59.885377902 
0 -46.342356755 -61.597607946 0 -46.801476769 -59.685235457 0 -37.345935047 -56.671541266 
0 -37.803317127 -54.771926447 0 -47.253040241 -57.804338234 0 -47.810046864 -55.443811323 
0 -38.03638378 -53.760706623 0 -48.230283538 -53.733826954 0 -38.787992699 -50.695295733 
0 -38.99790825 -49.795428945 0 -48.741530456 -51.578824692 0 -49.132626552 -49.975297803 
0 -39.648911327 -47.078954697 0 -40.017113454 -45.545282461 0 -49.503631237 -48.429952074 
0 -49.947016473 -46.544121164 0 -40.202218908 -44.735264269 0 -40.780721404 -42.381182404 
0 -50.271327921 -45.232265254 0 -41.05051492 -41.262699177 0 -50.57068512 -44.001908742 
0 -50.929113217 -42.492392309 0 -41.402896265 -39.773081639 0 -41.647599111 -38.753820928 
0 -51.181871698 -41.439577469 0 -51.461679346 -40.223314566 0 -41.761102788 -38.230263919 
0 -42.119570669 -36.822877937 0 -51.662114583 -39.439221892 0 -42.261781644 -36.230526596 
0 -51.835453235 -38.752174474 0 -42.304160431 -36.019046215 0 -52.00858867 -37.996053456 
0 -42.429872429 -35.495418059 0 -42.527733384 -35.087917628 0 -52.117425172 -37.542716798 
0 -52.215685394 -37.124458218 0 -42.568610533 -34.90867675 0 -42.648663332 -34.584088359 
0 -52.261479107 -36.942688977 0 -52.278817149 -36.870470833 0 -42.655191909 -34.556894879 
0 -42.65447734 -34.559871275 0 -52.261479107 -36.942688977 0 -42.623414377 -34.692124104 
0 -42.590751972 -34.812729138 0 -52.194292157 -37.20709909 0 -52.117424706 -37.54271874 
0 -42.458701867 -35.375334807 0 -42.338624826 -35.875491678 0 -52.008588204 -37.996055398 
0 -51.833692607 -38.751747677 0 -42.260021017 -36.230099798 0 -51.662114583 -39.439221892 
0 -41.987944039 -37.461733797 0 -41.685363498 -37.866321737 0 -51.213995715 -40.450020593 
0 -51.181871698 -41.439577469 0 -41.469268691 -39.496620585 0 -41.202880581 -40.609920247 
0 -50.929113217 -42.492392309 0 -50.568523782 -44.001371363 0 -41.047993422 -41.262087657 
0 -50.271327921 -45.232265254 0 -40.529795867 -43.474242158 0 -40.029913436 -44.6910175 
0 -49.970456826 -46.549919187 0 -49.503631237 -48.429952074 0 -39.74614103 -46.673963837 
0 -39.363677296 -48.268366129 0 -49.132626552 -49.975297803 0 -48.628468085 -52.088881628 
0 -39.147664117 -49.181738453 0 -38.448526367 -52.136910819 0 -48.230283538 -53.733826954 
0 -38.059295293 -53.766149162 0 -47.83240202 -55.449115671 0 -47.253040241 -57.804338234 
0 -37.464229045 -56.178811304 0 -37.005863759 -58.088040126 0 -46.801476769 -59.685235457 
0 -46.186971892 -62.184726213 0 -36.732588227 -59.166208367 0 -35.938524734 -62.568564693 
0 -45.746149334 -64.080990579 0 -35.497496264 -64.397657575 0 -45.288412761 -66.022338199 
0 -44.658531856 -68.611243413 0 -34.85515768 -67.046375662 0 -34.368167855 -69.074834268 
0 -44.172280759 -70.636624993 0 -34.727714046 -67.577216602 0 -35.224209681 -65.501240539 
0 -36.311736728 -60.919181016 0 -37.345935047 -56.671541266 0 -37.803873485 -54.772064638 
0 -38.783792481 -50.696046709 0 -39.648911327 -47.078954697 0 -39.82136763 -45.495237668 
0 -40.778560066 -42.380645025 0 -41.402896265 -39.773081639 0 -41.453887246 -38.7049382 
0 -42.117810042 -36.822451139 0 -42.304160431 -36.019046215 0 -42.429871963 -35.495420001 
0 -42.524230628 -35.0869442 0 -42.648663332 -34.584088359 0 -42.65447734 -34.559871275 
0 -42.620770692 -34.691294269 0 -42.458702333 -35.375332865 0 -42.338624826 -35.875491678 
0 -41.948012237 -37.451730032 0 -41.469268691 -39.496620585 0 -41.203240741 -40.609994388 
0 -40.506355514 -43.468444135 0 -39.74614103 -46.673963837 0 -39.357241914 -48.268339643 
0 -38.426171211 -52.131606472 0 -37.464229045 -56.178811304 0 -37.005863759 -58.088040126 
0 -35.925170043 -62.565436572 0 -34.85515768 -67.046375662 0 -34.368167855 -69.074834268 
0 -33.753204997 -71.636338919 0 -33.253112437 -73.711451437 0 -32.141894639 -78.287823313 
0 -31.134983995 -82.542014255 0 -30.680665787 -84.442360023 0 -29.703306589 -88.518992505 
0 -28.832007715 -92.134600824 0 -28.266674921 -93.623996551 0 -27.705544156 -96.833675189 
0 -27.078022778 -99.440473882 0 -26.638529101 -100.41534608 0 -26.375457402 -102.39406897 
0 -26.176758611 -103.19450931 0 -26.05104708 -103.71813552 0 -25.949677133 -104.12492806 
0 -25.83225571 -104.62946716 0 -25.826441703 -104.65368425 0 -25.85607365 -104.521283 
0 -26.022217175 -103.83822071 0 -26.142294216 -103.33806384 0 -26.509853089 -101.75629078 
0 -27.011650351 -99.716934935 0 -27.28007884 -98.60413745 0 -27.955236554 -95.739403244 
0 -28.734778012 -92.539591684 0 -29.112097832 -90.942435934 0 -30.037414428 -87.077785099 
0 -31.016689997 -83.034744217 0 -31.475055284 -81.125515394 0 -32.544845583 -76.645501269 
0 -33.625761363 -72.167179858 0 -34.112751188 -70.138721253 0 -55.68608589 -65.077035083 
0 -55.329491567 -66.562357333 0 -54.976575689 -68.03235776 0 -54.628788508 -69.480995627 
0 -54.287559162 -70.902318142 0 -53.954289688 -72.290485403 0 -53.630349717 -73.63979249 
0 -53.31707047 -74.944694469 0 -53.015739103 -76.199829943 0 -52.727593815 -77.400041444 
0 -52.453818833 -78.540396313 0 -52.19553905 -79.616209031 0 -51.953815714 -80.623059191 
0 -51.729642342 -81.556808484 0 -51.523940066 -82.413620127 0 -51.337554012 -83.189973914 
0 -51.171250041 -83.882679809 0 -51.025711713 -84.48889057 0 -50.901537031 -85.006115348 
0 -50.799236332 -85.432228422 0 -50.719229734 -85.765479886 0 -50.661846195 -86.00449953 
0 -50.62732165 -86.148304608 0 -50.615797615 -86.196305668 0 -50.62732165 -86.148304608 
0 -50.661846195 -86.00449953 0 -50.719229734 -85.765479886 0 -50.799236332 -85.432228422 
0 -50.901537031 -85.006115348 0 -51.025711713 -84.48889057 0 -51.171250041 -83.882679809 
0 -51.337554012 -83.189973914 0 -51.523940066 -82.413620127 0 -51.729642342 -81.556808484 
0 -51.953815714 -80.623059191 0 -52.19553905 -79.616209031 0 -52.453818833 -78.540396313 
0 -52.727593815 -77.400041444 0 -53.015739103 -76.199829943 0 -53.31707047 -74.944694469 
0 -53.630349717 -73.63979249 0 -53.954289688 -72.290485403 0 -54.287559162 -70.902318142 
0 -54.628788508 -69.480995627 0 -54.976575689 -68.03235776 0 -55.329491567 -66.562357333 
0 -55.68608589 -65.077035083 0 -56.044893352 -63.582494442 0 -56.404439543 -62.084876776 
0 -56.763247006 -60.590336135 0 -57.119841328 -59.105013885 0 -57.472757207 -57.635013458 
0 -57.820544388 -56.186375591 0 -58.161773734 -54.765053076 0 -58.495043207 -53.376885815 
0 -58.818983178 -52.027578728 0 -59.132262426 -50.722676749 0 -59.433593793 -49.467541275 
0 -59.721739081 -48.267329774 0 -59.995514063 -47.126974905 0 -60.253793845 -46.051162187 
0 -60.495517182 -45.044312027 0 -60.719690554 -44.110562734 0 -60.92539283 -43.253751091 
0 -61.111778884 -42.477397303 0 -61.278082855 -41.784691409 0 -61.423621183 -41.178480648 
0 -61.547795865 -40.66125587 0 -61.650096564 -40.235142796 0 -61.730103161 -39.901891332 
0 -61.787486701 -39.662871688 0 -61.822011246 -39.51906661 0 -61.833535281 -39.471065549 
0 -61.822011246 -39.51906661 0 -61.787486701 -39.662871688 0 -61.547795865 -40.66125587 
0 -61.423621183 -41.178480648 0 -61.278082855 -41.784691409 0 -61.111778884 -42.477397303 
0 -60.92539283 -43.253751091 0 -60.719690554 -44.110562734 0 -60.495517182 -45.044312027 
0 -60.253793845 -46.051162187 0 -59.995514063 -47.126974905 0 -59.721739081 -48.267329774 
0 -59.433593793 -49.467541275 0 -59.132262426 -50.722676749 0 -58.818983178 -52.027578728 
0 -58.495043207 -53.376885815 0 -58.161773734 -54.765053076 0 -57.820544388 -56.186375591 
0 -57.472757207 -57.635013458 0 -57.119841328 -59.105013885 0 -56.763247006 -60.590336135 
0 -56.404439543 -62.084876776 0 -56.044893352 -63.582494442 
