# vtk DataFile Version 4.2
Generated by LIGGGHTS
ASCII
DATASET POLYDATA
POINTS 17232 float
-5.88785 -2.97615 17.155 5.88488 -2.79849 17.2128 5.86119 -2.44388 17.328 
5.86119 -2.44388 17.328 5.81389 -2.0914 17.4425 -5.88785 -2.97615 17.155 
5.81389 -2.0914 17.4425 5.74318 -1.74249 17.5559 -5.88785 -2.97615 17.155 
5.74318 -1.74249 17.5559 5.64935 -1.39855 17.6676 -5.88785 -2.97615 17.155 
5.64935 -1.39855 17.6676 5.53277 -1.06096 17.7773 -5.88785 -2.97615 17.155 
5.53277 -1.06096 17.7773 5.39391 -0.73108 17.8845 -5.88785 -2.97615 17.155 
5.39391 -0.73108 17.8845 5.23333 -0.410241 17.9887 -5.88785 -2.97615 17.155 
5.23333 -0.410241 17.9887 5.05167 -0.0997341 18.0896 -5.88785 -2.97615 17.155 
5.05167 -0.0997341 18.0896 4.84968 0.19919 18.1868 -5.88785 -2.97615 17.155 
4.84968 0.19919 18.1868 4.62816 0.485329 18.2797 -5.88785 -2.97615 17.155 
4.62816 0.485329 18.2797 4.388 0.757529 18.3682 -5.88785 -2.97615 17.155 
4.388 0.757529 18.3682 4.13018 1.0147 18.4517 -5.88785 -2.97615 17.155 
4.13018 1.0147 18.4517 3.85572 1.25579 18.5301 -5.88785 -2.97615 17.155 
3.85572 1.25579 18.5301 3.56574 1.47985 18.6029 -5.88785 -2.97615 17.155 
3.56574 1.47985 18.6029 3.2614 1.68596 18.6698 -5.88785 -2.97615 17.155 
3.2614 1.68596 18.6698 2.94392 1.8733 18.7307 -5.88785 -2.97615 17.155 
2.94392 1.8733 18.7307 2.6146 2.04111 18.7852 -5.88785 -2.97615 17.155 
2.6146 2.04111 18.7852 2.27474 2.18872 18.8332 -5.88785 -2.97615 17.155 
2.27474 2.18872 18.8332 1.92573 2.31554 18.8744 -5.88785 -2.97615 17.155 
1.92573 2.31554 18.8744 1.56896 2.42104 18.9087 -5.88785 -2.97615 17.155 
1.56896 2.42104 18.9087 1.20587 2.50481 18.9359 -5.88785 -2.97615 17.155 
1.20587 2.50481 18.9359 0.837928 2.56652 18.956 -5.88785 -2.97615 17.155 
0.837928 2.56652 18.956 0.466612 2.6059 18.9688 -5.88785 -2.97615 17.155 
0.466612 2.6059 18.9688 0.0934164 2.62281 18.9742 -5.88785 -2.97615 17.155 
0.0934164 2.62281 18.9742 -0.280155 2.61717 18.9724 -5.88785 -2.97615 17.155 
-0.280155 2.61717 18.9724 -0.652598 2.58901 18.9633 -5.88785 -2.97615 17.155 
-0.652598 2.58901 18.9633 -1.02241 2.53844 18.9468 -5.88785 -2.97615 17.155 
-1.02241 2.53844 18.9468 -1.38811 2.46567 18.9232 -5.88785 -2.97615 17.155 
-1.38811 2.46567 18.9232 -1.74822 2.37098 18.8924 -5.88785 -2.97615 17.155 
-1.74822 2.37098 18.8924 -2.10129 2.25476 18.8547 -5.88785 -2.97615 17.155 
-2.10129 2.25476 18.8547 -2.4459 2.11748 18.8101 -5.88785 -2.97615 17.155 
-2.4459 2.11748 18.8101 -2.78066 1.95969 18.7588 -5.88785 -2.97615 17.155 
-2.78066 1.95969 18.7588 -3.10422 1.78203 18.7011 -5.88785 -2.97615 17.155 
-3.10422 1.78203 18.7011 -3.41529 1.5852 18.6371 -5.88785 -2.97615 17.155 
-3.41529 1.5852 18.6371 -3.7126 1.37001 18.5672 -5.88785 -2.97615 17.155 
-3.7126 1.37001 18.5672 -3.99496 1.13731 18.4916 -5.88785 -2.97615 17.155 
-3.99496 1.13731 18.4916 -4.26124 0.888058 18.4106 -5.88785 -2.97615 17.155 
-4.26124 0.888058 18.4106 -4.51035 0.623241 18.3245 -5.88785 -2.97615 17.155 
-4.51035 0.623241 18.3245 -4.74131 0.343931 18.2338 -5.88785 -2.97615 17.155 
-4.74131 0.343931 18.2338 -4.95317 0.0512525 18.1387 -5.88785 -2.97615 17.155 
-4.95317 0.0512525 18.1387 -5.14509 -0.253617 18.0396 -5.88785 -2.97615 17.155 
-5.14509 -0.253617 18.0396 -5.31629 -0.569449 17.937 -5.88785 -2.97615 17.155 
-5.31629 -0.569449 17.937 -5.46609 -0.894972 17.8312 -5.88785 -2.97615 17.155 
-5.46609 -0.894972 17.8312 -5.59387 -1.22887 17.7228 -5.88785 -2.97615 17.155 
-5.59387 -1.22887 17.7228 -5.69913 -1.56981 17.612 -5.88785 -2.97615 17.155 
-5.69913 -1.56981 17.612 -5.78145 -1.91641 17.4994 -5.88785 -2.97615 17.155 
-5.78145 -1.91641 17.4994 -5.84048 -2.26728 17.3854 -5.88785 -2.97615 17.155 
-5.84048 -2.26728 17.3854 -5.87599 -2.62101 17.2704 -5.88785 -2.97615 17.155 
-5.87599 -3.33131 17.0396 -5.84048 -3.68504 16.9247 -5.88785 -2.97615 17.155 
-5.84048 -3.68504 16.9247 -5.78145 -4.03591 16.8107 -5.88785 -2.97615 17.155 
-5.78145 -4.03591 16.8107 -5.69913 -4.38251 16.6981 -5.88785 -2.97615 17.155 
-5.69913 -4.38251 16.6981 -5.59387 -4.72345 16.5873 -5.88785 -2.97615 17.155 
-5.59387 -4.72345 16.5873 -5.46609 -5.05735 16.4788 -5.88785 -2.97615 17.155 
-5.46609 -5.05735 16.4788 -5.31629 -5.38287 16.373 -5.88785 -2.97615 17.155 
-5.31629 -5.38287 16.373 -5.14509 -5.6987 16.2704 -5.88785 -2.97615 17.155 
-5.14509 -5.6987 16.2704 -4.95317 -6.00357 16.1714 -5.88785 -2.97615 17.155 
-4.95317 -6.00357 16.1714 -4.74131 -6.29625 16.0763 -5.88785 -2.97615 17.155 
-4.74131 -6.29625 16.0763 -4.51035 -6.57556 15.9855 -5.88785 -2.97615 17.155 
-4.51035 -6.57556 15.9855 -4.26124 -6.84038 15.8995 -5.88785 -2.97615 17.155 
-4.26124 -6.84038 15.8995 -3.99496 -7.08964 15.8185 -5.88785 -2.97615 17.155 
-3.99496 -7.08964 15.8185 -3.7126 -7.32233 15.7429 -5.88785 -2.97615 17.155 
-3.7126 -7.32233 15.7429 -3.41529 -7.53752 15.673 -5.88785 -2.97615 17.155 
-3.41529 -7.53752 15.673 -3.10422 -7.73435 15.609 -5.88785 -2.97615 17.155 
-3.10422 -7.73435 15.609 -2.78066 -7.91201 15.5513 -5.88785 -2.97615 17.155 
-2.78066 -7.91201 15.5513 -2.4459 -8.0698 15.5 -5.88785 -2.97615 17.155 
-2.4459 -8.0698 15.5 -2.10129 -8.20708 15.4554 -5.88785 -2.97615 17.155 
-2.10129 -8.20708 15.4554 -1.74822 -8.3233 15.4176 -5.88785 -2.97615 17.155 
-1.74822 -8.3233 15.4176 -1.38811 -8.41799 15.3869 -5.88785 -2.97615 17.155 
-1.38811 -8.41799 15.3869 -1.02241 -8.49076 15.3632 -5.88785 -2.97615 17.155 
-1.02241 -8.49076 15.3632 -0.652598 -8.54133 15.3468 -5.88785 -2.97615 17.155 
-0.652598 -8.54133 15.3468 -0.280155 -8.56949 15.3376 -5.88785 -2.97615 17.155 
-0.280155 -8.56949 15.3376 0.0934164 -8.57513 15.3358 -5.88785 -2.97615 17.155 
0.0934164 -8.57513 15.3358 0.466612 -8.55822 15.3413 -5.88785 -2.97615 17.155 
0.466612 -8.55822 15.3413 0.837928 -8.51884 15.3541 -5.88785 -2.97615 17.155 
0.837928 -8.51884 15.3541 1.20587 -8.45714 15.3742 -5.88785 -2.97615 17.155 
1.20587 -8.45714 15.3742 1.56896 -8.37336 15.4014 -5.88785 -2.97615 17.155 
1.56896 -8.37336 15.4014 1.92573 -8.26786 15.4357 -5.88785 -2.97615 17.155 
1.92573 -8.26786 15.4357 2.27474 -8.14104 15.4769 -5.88785 -2.97615 17.155 
2.27474 -8.14104 15.4769 2.6146 -7.99343 15.5248 -5.88785 -2.97615 17.155 
2.6146 -7.99343 15.5248 2.94392 -7.82562 15.5793 -5.88785 -2.97615 17.155 
2.94392 -7.82562 15.5793 3.2614 -7.63828 15.6402 -5.88785 -2.97615 17.155 
3.2614 -7.63828 15.6402 3.56574 -7.43217 15.7072 -5.88785 -2.97615 17.155 
3.56574 -7.43217 15.7072 3.85572 -7.20811 15.78 -5.88785 -2.97615 17.155 
3.85572 -7.20811 15.78 4.13018 -6.96702 15.8583 -5.88785 -2.97615 17.155 
4.13018 -6.96702 15.8583 4.388 -6.70985 15.9419 -5.88785 -2.97615 17.155 
4.388 -6.70985 15.9419 4.62816 -6.43765 16.0303 -5.88785 -2.97615 17.155 
4.62816 -6.43765 16.0303 4.84968 -6.15151 16.1233 -5.88785 -2.97615 17.155 
4.84968 -6.15151 16.1233 5.05167 -5.85259 16.2204 -5.88785 -2.97615 17.155 
5.05167 -5.85259 16.2204 5.23333 -5.54208 16.3213 -5.88785 -2.97615 17.155 
5.23333 -5.54208 16.3213 5.39391 -5.22124 16.4256 -5.88785 -2.97615 17.155 
5.39391 -5.22124 16.4256 5.53277 -4.89136 16.5327 -5.88785 -2.97615 17.155 
5.53277 -4.89136 16.5327 5.64935 -4.55377 16.6424 -5.88785 -2.97615 17.155 
5.64935 -4.55377 16.6424 5.74318 -4.20983 16.7542 -5.88785 -2.97615 17.155 
5.74318 -4.20983 16.7542 5.81389 -3.86092 16.8676 -5.88785 -2.97615 17.155 
5.81389 -3.86092 16.8676 5.86119 -3.50844 16.9821 -5.88785 -2.97615 17.155 
5.86119 -3.50844 16.9821 5.88488 -3.15383 17.0973 -5.88785 -2.97615 17.155 
5.88488 -3.15383 17.0973 5.88785 -2.97616 17.155 -5.88785 -2.97615 17.155 
5.88785 -2.97616 17.155 5.88488 -2.79849 17.2128 -5.88785 -2.97615 17.155 
-5.88785 -2.97615 17.155 -5.87599 -2.62101 17.2704 -5.88192 -1.19471 12.5271 
-5.87599 -2.62101 17.2704 -5.87599 -1.09079 12.5609 -5.88192 -1.19471 12.5271 
-5.84048 -2.26728 17.3854 -5.84048 -0.737064 12.6758 -5.86414 -0.943989 12.6086 
-5.86414 -0.943989 12.6086 -5.87599 -2.62101 17.2704 -5.84048 -2.26728 17.3854 
-5.84048 -2.26728 17.3854 -5.78145 -1.91641 17.4994 -5.78884 -0.421173 12.7825 
-5.78884 -0.421173 12.7825 -5.83456 -0.694278 12.6897 -5.84048 -2.26728 17.3854 
-5.78145 -1.91641 17.4994 -5.69913 -1.56981 17.612 -5.74023 -0.199895 12.8504 
-5.69913 -1.56981 17.612 -5.68561 0.0112862 12.9213 -5.74023 -0.199895 12.8504 
-5.69913 -1.56981 17.612 -5.59737 0.292558 13.0081 -5.68561 0.0112862 12.9213 
-5.59737 0.292558 13.0081 -5.69913 -1.56981 17.612 -5.59387 -1.22887 17.7228 
-5.59387 -1.22887 17.7228 -5.46609 -0.894972 17.8312 -5.51241 0.521645 13.0848 
-5.46609 -0.894972 17.8312 -5.46609 0.635249 13.1217 -5.51241 0.521645 13.0848 
-5.31629 -0.569449 17.937 -5.31011 1.00276 13.1423 -5.41404 0.754872 13.1606 
-5.41404 0.754872 13.1606 -5.46609 -0.894972 17.8312 -5.31629 -0.569449 17.937 
-5.31629 -0.569449 17.937 -5.14509 -0.253617 18.0396 -5.16928 1.23429 13.3232 
-5.16928 1.23429 13.3232 -5.31011 1.00276 13.1423 -5.31629 -0.569449 17.937 
-4.95317 0.0512525 18.1387 -4.93126 1.61555 13.4379 -5.05441 1.42613 13.3787 
-5.05441 1.42613 13.3787 -5.14509 -0.253617 18.0396 -4.95317 0.0512525 18.1387 
-4.74131 0.343931 18.2338 -4.76337 1.84547 13.5149 -4.93126 1.61555 13.4379 
-4.93126 1.61555 13.4379 -4.95317 0.0512525 18.1387 -4.74131 0.343931 18.2338 
-4.74131 0.343931 18.2338 -4.74131 1.87415 13.5243 -4.76337 1.84547 13.5149 
-4.74131 0.343931 18.2338 -4.51035 0.623241 18.3245 -4.6033 2.0454 13.5799 
-4.51035 0.623241 18.3245 -4.51035 2.15346 13.615 -4.6033 2.0454 13.5799 
-4.26124 0.888058 18.4106 -4.25814 2.4513 13.6098 -4.43397 2.2383 13.6426 
-4.43397 2.2383 13.6426 -4.51035 0.623241 18.3245 -4.26124 0.888058 18.4106 
-4.26124 0.888058 18.4106 -3.99496 1.13731 18.4916 -4.06887 2.60148 13.7606 
-4.06887 2.60148 13.7606 -4.25814 2.4513 13.6098 -4.26124 0.888058 18.4106 
-3.99496 1.13731 18.4916 -3.99496 2.66753 13.782 -4.06887 2.60148 13.7606 
-3.7126 1.37001 18.5672 -3.68989 2.91912 13.8612 -3.87384 2.77102 13.8157 
-3.87384 2.77102 13.8157 -3.99496 1.13731 18.4916 -3.7126 1.37001 18.5672 
-3.7126 1.37001 18.5672 -3.41529 1.5852 18.6371 -3.44125 3.09795 13.9235 
-3.44125 3.09795 13.9235 -3.68989 2.91912 13.8612 -3.7126 1.37001 18.5672 
-3.41529 1.5852 18.6371 -3.10422 1.78203 18.7011 -3.2436 3.2274 13.964 
-3.10422 1.78203 18.7011 -3.10422 3.31225 13.9915 -3.2436 3.2274 13.964 
-3.10422 1.78203 18.7011 -2.78606 3.48793 14.0465 -3.01987 3.36109 14.0074 
-2.78606 3.48793 14.0465 -3.10422 1.78203 18.7011 -2.78066 1.95969 18.7588 
-3.01987 3.36109 14.0074 -3.10422 3.31225 13.9915 -3.10422 1.78203 18.7011 
-2.78066 1.95969 18.7588 -2.4459 2.11748 18.8101 -2.55464 3.59919 14.0848 
-2.4459 2.11748 18.8101 -2.4459 3.6477 14.1005 -2.55464 3.59919 14.0848 
-2.10129 2.25476 18.8547 -2.08415 3.79135 14.1479 -2.31407 3.70312 14.1185 
-2.31407 3.70312 14.1185 -2.4459 2.11748 18.8101 -2.10129 2.25476 18.8547 
-2.10129 2.25476 18.8547 -1.74822 2.37098 18.8924 -1.78965 3.88811 14.1833 
-1.78965 3.88811 14.1833 -2.08415 3.79135 14.1479 -2.10129 2.25476 18.8547 
-1.74822 2.37098 18.8924 -1.38811 2.46567 18.9232 -1.56638 3.95194 14.1994 
-1.38811 2.46567 18.9232 -1.34266 4.00603 14.2199 -1.56638 3.95194 14.1994 
-1.02241 2.53844 18.9468 -1.03773 4.06629 14.2369 -1.34266 4.00603 14.2199 
-1.34266 4.00603 14.2199 -1.38811 2.46567 18.9232 -1.02241 2.53844 18.9468 
-1.02241 2.53844 18.9468 -0.652598 2.58901 18.9633 -0.790345 4.10306 14.2485 
-0.652598 2.58901 18.9633 -0.652598 4.11923 14.2537 -0.790345 4.10306 14.2485 
-0.280155 2.61717 18.9724 -0.271477 4.17956 14.1651 -0.527782 4.13119 14.2576 
-0.527782 4.13119 14.2576 -0.652598 2.58901 18.9633 -0.280155 2.61717 18.9724 
-0.280155 2.61717 18.9724 0.0934164 2.62281 18.9742 -3.55271e-10 4.15374 14.2649 
-3.55271e-10 4.15374 14.2649 -0.271477 4.17956 14.1651 -0.280155 2.61717 18.9724 
0.0934164 2.62281 18.9742 0.0934164 4.15303 14.2647 -3.55271e-10 4.15374 14.2649 
0.466612 2.6059 18.9688 0.501291 4.13445 14.2572 0.264157 4.1481 14.2631 
0.264157 4.1481 14.2631 0.0934164 2.62281 18.9742 0.466612 2.6059 18.9688 
0.837928 2.56652 18.956 0.811957 4.10109 14.2466 0.501291 4.13445 14.2572 
0.501291 4.13445 14.2572 0.466612 2.6059 18.9688 0.837928 2.56652 18.956 
0.837928 2.56652 18.956 1.20587 2.50481 18.9359 1.05132 4.06375 14.2357 
1.20587 2.50481 18.9359 1.20587 4.03504 14.2264 1.05132 4.06375 14.2357 
1.20587 2.50481 18.9359 1.56767 3.9516 14.1993 1.31017 4.01334 14.2193 
1.56767 3.9516 14.1993 1.20587 2.50481 18.9359 1.56896 2.42104 18.9087 
1.31017 4.01334 14.2193 1.20587 4.03504 14.2264 1.20587 2.50481 18.9359 
1.56896 2.42104 18.9087 1.92573 2.31554 18.8744 1.81944 3.87967 14.1759 
1.92573 2.31554 18.8744 1.92573 3.84576 14.1649 1.81944 3.87967 14.1759 
2.27474 2.18872 18.8332 2.27474 3.71894 14.1237 2.06884 3.79667 14.1489 
2.06884 3.79667 14.1489 1.92573 2.31554 18.8744 2.27474 2.18872 18.8332 
2.27474 2.18872 18.8332 2.6146 2.04111 18.7852 2.58085 3.58653 14.085 
2.58085 3.58653 14.085 2.31407 3.70312 14.1185 2.27474 2.18872 18.8332 
2.6146 2.04111 18.7852 2.94392 1.8733 18.7307 2.79007 3.48511 14.0477 
2.94392 1.8733 18.7307 2.99072 3.37901 14.0112 2.79007 3.48511 14.0477 
2.94392 1.8733 18.7307 3.2525 3.22179 13.9621 2.99072 3.37901 14.0112 
3.2525 3.22179 13.9621 2.94392 1.8733 18.7307 3.2614 1.68596 18.6698 
3.2614 1.68596 18.6698 3.56574 1.47985 18.6029 3.46079 3.08429 13.9175 
3.56574 1.47985 18.6029 3.56574 3.01007 13.8933 3.46079 3.08429 13.9175 
3.85572 1.25579 18.5301 3.86585 2.80827 13.7247 3.67101 2.93206 13.868 
3.67101 2.93206 13.868 3.56574 1.47985 18.6029 3.85572 1.25579 18.5301 
3.85572 1.25579 18.5301 4.13018 1.0147 18.4517 4.09436 2.57707 13.7597 
4.09436 2.57707 13.7597 3.86585 2.80827 13.7247 3.85572 1.25579 18.5301 
4.388 0.757529 18.3682 4.41491 2.25961 13.6506 4.25571 2.42379 13.7028 
4.25571 2.42379 13.7028 4.13018 1.0147 18.4517 4.388 0.757529 18.3682 
4.62816 0.485329 18.2797 4.61515 2.03167 13.5762 4.41491 2.25961 13.6506 
4.41491 2.25961 13.6506 4.388 0.757529 18.3682 4.62816 0.485329 18.2797 
4.62816 0.485329 18.2797 4.84968 0.19919 18.1868 4.76337 1.84547 13.5149 
4.84968 0.19919 18.1868 4.84968 1.72941 13.4772 4.76337 1.84547 13.5149 
5.05167 -0.0997341 18.0896 5.05311 1.42832 13.3794 4.91384 1.6389 13.4478 
4.91384 1.6389 13.4478 4.84968 0.19919 18.1868 5.05167 -0.0997341 18.0896 
5.05167 -0.0997341 18.0896 5.23333 -0.410241 17.9887 5.18481 1.20757 13.3077 
5.18481 1.20757 13.3077 5.05311 1.42832 13.3794 5.05167 -0.0997341 18.0896 
5.23333 -0.410241 17.9887 5.23333 1.11998 13.2792 5.18481 1.20757 13.3077 
5.39391 -0.73108 17.8845 5.40553 0.775325 13.1661 5.30477 0.983668 13.2349 
5.30477 0.983668 13.2349 5.23333 -0.410241 17.9887 5.39391 -0.73108 17.8845 
5.39391 -0.73108 17.8845 5.53277 -1.06096 17.7773 5.51241 0.521645 13.0848 
5.51241 0.521645 13.0848 5.40553 0.775325 13.1661 5.39391 -0.73108 17.8845 
5.53277 -1.06096 17.7773 5.53277 0.469261 13.0678 5.51241 0.521645 13.0848 
5.53277 -1.06096 17.7773 5.64935 -1.39855 17.6676 5.59968 0.284454 13.0077 
5.64935 -1.39855 17.6676 5.64935 0.131671 12.9581 5.59968 0.284454 13.0077 
5.64935 -1.39855 17.6676 5.7417 -0.206084 12.8483 5.67567 0.0437797 12.9295 
5.7417 -0.206084 12.8483 5.64935 -1.39855 17.6676 5.74318 -1.74249 17.5559 
5.67567 0.0437797 12.9295 5.64935 0.131671 12.9581 5.64935 -1.39855 17.6676 
5.74318 -1.74249 17.5559 5.81389 -2.0914 17.4425 5.79323 -0.44608 12.7704 
5.81389 -2.0914 17.4425 5.81389 -0.561184 12.733 5.79323 -0.44608 12.7704 
5.86119 -2.44388 17.328 5.86322 -0.901447 12.5226 5.83456 -0.694278 12.6897 
5.83456 -0.694278 12.6897 5.81389 -2.0914 17.4425 5.86119 -2.44388 17.328 
5.86119 -2.44388 17.328 5.88488 -2.79849 17.2128 5.88411 -1.22794 12.5191 
5.88411 -1.22794 12.5191 5.86322 -0.901447 12.5226 5.86119 -2.44388 17.328 
5.88488 -3.15383 17.0973 5.884 -1.66526 12.3706 5.88785 -1.44594 12.4455 
5.88411 -1.22794 12.5191 5.88488 -2.79849 17.2128 5.88785 -2.97616 17.155 
5.88785 -2.97616 17.155 5.88785 -1.44594 12.4455 5.88411 -1.22794 12.5191 
5.86119 -3.50844 16.9821 5.86267 -1.96306 12.2775 5.884 -1.66526 12.3706 
5.884 -1.66526 12.3706 5.88488 -3.15383 17.0973 5.86119 -3.50844 16.9821 
5.86119 -3.50844 16.9821 5.81389 -3.86092 16.8676 5.83456 -2.1976 12.2013 
5.81389 -3.86092 16.8676 5.81389 -2.3307 12.158 5.83456 -2.1976 12.2013 
5.74318 -4.20983 16.7542 5.7417 -2.6858 12.0426 5.79323 -2.4458 12.1206 
5.79323 -2.4458 12.1206 5.81389 -3.86092 16.8676 5.74318 -4.20983 16.7542 
5.74318 -4.20983 16.7542 5.64935 -4.55377 16.6424 5.66654 -2.96743 11.9445 
5.66654 -2.96743 11.9445 5.7417 -2.6858 12.0426 5.74318 -4.20983 16.7542 
5.53277 -4.89136 16.5327 5.53277 -3.36114 11.8232 5.59968 -3.17633 11.8833 
5.59968 -3.17633 11.8833 5.64935 -4.55377 16.6424 5.53277 -4.89136 16.5327 
5.39391 -5.22124 16.4256 5.40553 -3.6665 11.7227 5.51241 -3.41353 11.8062 
5.51241 -3.41353 11.8062 5.53277 -4.89136 16.5327 5.39391 -5.22124 16.4256 
5.39391 -5.22124 16.4256 5.23333 -5.54208 16.3213 5.30477 -3.87555 11.6561 
5.23333 -5.54208 16.3213 5.23333 -4.01186 11.6118 5.30477 -3.87555 11.6561 
5.23333 -5.54208 16.3213 5.0533 -4.3195 11.5104 5.18481 -4.09945 11.5833 
5.0533 -4.3195 11.5104 5.23333 -5.54208 16.3213 5.05167 -5.85259 16.2204 
5.18481 -4.09945 11.5833 5.23333 -4.01186 11.6118 5.23333 -5.54208 16.3213 
5.05167 -5.85259 16.2204 4.84968 -6.15151 16.1233 4.91384 -4.53078 11.4432 
4.84968 -6.15151 16.1233 4.84968 -4.62129 11.4138 4.91384 -4.53078 11.4432 
4.62816 -6.43765 16.0303 4.61515 -4.9241 11.3165 4.76337 -4.73735 11.3761 
4.76337 -4.73735 11.3761 4.84968 -6.15151 16.1233 4.62816 -6.43765 16.0303 
4.62816 -6.43765 16.0303 4.388 -6.70985 15.9419 4.41491 -5.15182 11.2414 
4.41491 -5.15182 11.2414 4.61515 -4.9241 11.3165 4.62816 -6.43765 16.0303 
4.388 -6.70985 15.9419 4.13018 -6.96702 15.8583 4.25571 -5.31567 11.1881 
4.13018 -6.96702 15.8583 4.09375 -5.47105 11.1357 4.25571 -5.31567 11.1881 
4.13018 -6.96702 15.8583 3.87384 -5.6629 11.0753 4.09375 -5.47105 11.1357 
3.85572 -7.20811 15.78 3.85572 -5.67789 11.0704 3.87384 -5.6629 11.0753 
3.87384 -5.6629 11.0753 4.13018 -6.96702 15.8583 3.85572 -7.20811 15.78 
3.85572 -7.20811 15.78 3.56574 -7.43217 15.7072 3.67101 -5.82394 11.023 
3.56574 -7.43217 15.7072 3.56574 -5.90195 10.9976 3.67101 -5.82394 11.023 
3.2614 -7.63828 15.6402 3.25197 -6.08356 10.8351 3.46079 -5.97617 10.9735 
3.46079 -5.97617 10.9735 3.56574 -7.43217 15.7072 3.2614 -7.63828 15.6402 
3.2614 -7.63828 15.6402 2.94392 -7.82562 15.5793 3.01987 -6.25297 10.8836 
3.01987 -6.25297 10.8836 3.25197 -6.08356 10.8351 3.2614 -7.63828 15.6402 
2.94392 -7.82562 15.5793 2.94392 -6.2954 10.8698 3.01987 -6.25297 10.8836 
2.6146 -7.99343 15.5248 2.58081 -6.47916 10.8082 2.79007 -6.37699 10.8433 
2.79007 -6.37699 10.8433 2.94392 -7.82562 15.5793 2.6146 -7.99343 15.5248 
2.27474 -8.14104 15.4769 2.31407 -6.595 10.7725 2.58081 -6.47916 10.8082 
2.58081 -6.47916 10.8082 2.6146 -7.99343 15.5248 2.27474 -8.14104 15.4769 
2.27474 -8.14104 15.4769 2.27474 -6.61082 10.7673 2.31407 -6.595 10.7725 
2.27474 -8.14104 15.4769 1.92573 -8.26786 15.4357 2.06884 -6.68855 10.7421 
1.92573 -8.26786 15.4357 1.92573 -6.73764 10.7261 2.06884 -6.68855 10.7421 
1.56896 -8.37336 15.4014 1.56767 -6.84348 10.6917 1.81944 -6.77155 10.7151 
1.81944 -6.77155 10.7151 1.92573 -8.26786 15.4357 1.56896 -8.37336 15.4014 
1.56896 -8.37336 15.4014 1.20587 -8.45714 15.3742 1.31017 -6.90522 10.6717 
1.31017 -6.90522 10.6717 1.56767 -6.84348 10.6917 1.56896 -8.37336 15.4014 
1.20587 -8.45714 15.3742 1.20587 -6.92692 10.6646 1.31017 -6.90522 10.6717 
0.837928 -8.51884 15.3541 0.811959 -6.99228 10.6423 1.05132 -6.95563 10.6553 
1.05132 -6.95563 10.6553 1.20587 -8.45714 15.3742 0.837928 -8.51884 15.3541 
0.837928 -8.51884 15.3541 0.466612 -8.55822 15.3413 0.501267 -7.02703 10.636 
0.501267 -7.02703 10.636 0.811959 -6.99228 10.6423 0.837928 -8.51884 15.3541 
0.466612 -8.55822 15.3413 0.0934164 -8.57513 15.3358 0.264157 -7.03998 10.6279 
0.0934164 -8.57513 15.3358 0.0346292 -7.04534 10.6229 0.264157 -7.03998 10.6279 
0.0934164 -8.57513 15.3358 -0.272156 -7.03962 10.628 0.0346292 -7.04534 10.6229 
-0.272156 -7.03962 10.628 0.0934164 -8.57513 15.3358 -0.280155 -8.56949 15.3376 
-0.280155 -8.56949 15.3376 -0.652598 -8.54133 15.3468 -0.527782 -7.02307 10.6334 
-0.652598 -8.54133 15.3468 -0.652598 -7.01111 10.6373 -0.527782 -7.02307 10.6334 
-1.02241 -8.49076 15.3632 -1.03772 -6.95841 10.6549 -0.790345 -6.99494 10.6425 
-0.790345 -6.99494 10.6425 -0.652598 -8.54133 15.3468 -1.02241 -8.49076 15.3632 
-1.02241 -8.49076 15.3632 -1.38811 -8.41799 15.3869 -1.34268 -6.89963 10.6764 
-1.34268 -6.89963 10.6764 -1.03772 -6.95841 10.6549 -1.02241 -8.49076 15.3632 
-1.74822 -8.3233 15.4176 -1.78967 -6.78159 10.7126 -1.56638 -6.84382 10.6916 
-1.56638 -6.84382 10.6916 -1.38811 -8.41799 15.3869 -1.74822 -8.3233 15.4176 
-2.10129 -8.20708 15.4554 -2.08414 -6.6836 10.7442 -1.78967 -6.78159 10.7126 
-1.78967 -6.78159 10.7126 -1.74822 -8.3233 15.4176 -2.10129 -8.20708 15.4554 
-2.10129 -8.20708 15.4554 -2.4459 -8.0698 15.5 -2.31407 -6.595 10.7725 
-2.4459 -8.0698 15.5 -2.4459 -6.53958 10.7905 -2.31407 -6.595 10.7725 
-2.78066 -7.91201 15.5513 -2.78551 -6.37946 10.8425 -2.55464 -6.49107 10.8062 
-2.55464 -6.49107 10.8062 -2.4459 -8.0698 15.5 -2.78066 -7.91201 15.5513 
-2.78066 -7.91201 15.5513 -3.10422 -7.73435 15.609 -3.05236 -6.23544 10.8901 
-3.05236 -6.23544 10.8901 -2.78551 -6.37946 10.8425 -2.78066 -7.91201 15.5513 
-3.41529 -7.53752 15.673 -3.44211 -5.96128 10.8816 -3.2436 -6.11928 10.927 
-3.2436 -6.11928 10.927 -3.10422 -7.73435 15.609 -3.41529 -7.53752 15.673 
-3.7126 -7.32233 15.7429 -3.68998 -5.81116 11.0305 -3.44211 -5.96128 10.8816 
-3.44211 -5.96128 10.8816 -3.41529 -7.53752 15.673 -3.7126 -7.32233 15.7429 
-3.7126 -7.32233 15.7429 -3.99496 -7.08964 15.8185 -3.87384 -5.6629 11.0753 
-3.99496 -7.08964 15.8185 -3.99496 -5.55941 11.1089 -3.87384 -5.6629 11.0753 
-3.99496 -7.08964 15.8185 -4.25847 -5.31291 11.189 -4.06887 -5.49336 11.1304 
-4.25847 -5.31291 11.189 -3.99496 -7.08964 15.8185 -4.26124 -6.84038 15.8995 
-4.06887 -5.49336 11.1304 -3.99496 -5.55941 11.1089 -3.99496 -7.08964 15.8185 
-4.26124 -6.84038 15.8995 -4.51035 -6.57556 15.9855 -4.43397 -5.13018 11.2484 
-4.51035 -6.57556 15.9855 -4.51035 -5.04534 11.276 -4.43397 -5.13018 11.2484 
-4.74131 -6.29625 16.0763 -4.74131 -4.76603 11.3667 -4.6033 -4.93728 11.3111 
-4.6033 -4.93728 11.3111 -4.51035 -6.57556 15.9855 -4.74131 -6.29625 16.0763 
-4.74131 -6.29625 16.0763 -4.95317 -6.00357 16.1714 -4.93127 -4.50682 11.4513 
-4.93127 -4.50682 11.4513 -4.76337 -4.73735 11.3761 -4.74131 -6.29625 16.0763 
-4.95317 -6.00357 16.1714 -5.14509 -5.6987 16.2704 -5.05441 -4.31801 11.5123 
-5.14509 -5.6987 16.2704 -5.16959 -4.1263 11.57 -5.05441 -4.31801 11.5123 
-5.31629 -5.38287 16.373 -5.31053 -3.8641 11.6598 -5.16959 -4.1263 11.57 
-5.16959 -4.1263 11.57 -5.14509 -5.6987 16.2704 -5.31629 -5.38287 16.373 
-5.31629 -5.38287 16.373 -5.46609 -5.05735 16.4788 -5.41404 -3.64675 11.7304 
-5.46609 -5.05735 16.4788 -5.46609 -3.52713 11.7693 -5.41404 -3.64675 11.7304 
-5.59387 -4.72345 16.5873 -5.59709 -3.18458 11.8807 -5.51241 -3.41353 11.8062 
-5.51241 -3.41353 11.8062 -5.46609 -5.05735 16.4788 -5.59387 -4.72345 16.5873 
-5.59387 -4.72345 16.5873 -5.69913 -4.38251 16.6981 -5.68585 -2.90326 11.9734 
-5.68585 -2.90326 11.9734 -5.59709 -3.18458 11.8807 -5.59387 -4.72345 16.5873 
-5.78145 -4.03591 16.8107 -5.78884 -2.4715 12.111 -5.74023 -2.69199 12.0406 
-5.74023 -2.69199 12.0406 -5.69913 -4.38251 16.6981 -5.78145 -4.03591 16.8107 
-5.84048 -3.68504 16.9247 -5.83456 -2.1976 12.2013 -5.78884 -2.4715 12.111 
-5.78884 -2.4715 12.111 -5.78145 -4.03591 16.8107 -5.84048 -3.68504 16.9247 
-5.84048 -3.68504 16.9247 -5.84048 -2.15482 12.2152 -5.83456 -2.1976 12.2013 
-5.84048 -3.68504 16.9247 -5.87599 -3.33131 17.0396 -5.86414 -1.94789 12.2824 
-5.87599 -3.33131 17.0396 -5.87599 -1.80109 12.3301 -5.86414 -1.94789 12.2824 
-5.88785 -2.97615 17.155 -5.88785 -1.44594 12.4455 -5.88192 -1.69717 12.3639 
-5.88192 -1.69717 12.3639 -5.87599 -3.33131 17.0396 -5.88785 -2.97615 17.155 
-5.88192 -1.69717 12.3639 -5.87599 -1.80109 12.3301 -5.87599 -3.33131 17.0396 
-5.86414 -1.94789 12.2824 -5.84048 -2.15482 12.2152 -5.84048 -3.68504 16.9247 
-5.74023 -2.69199 12.0406 -5.68585 -2.90326 11.9734 -5.69913 -4.38251 16.6981 
-5.51241 -3.41353 11.8062 -5.46609 -3.52713 11.7693 -5.46609 -5.05735 16.4788 
-5.41404 -3.64675 11.7304 -5.31053 -3.8641 11.6598 -5.31629 -5.38287 16.373 
-5.05441 -4.31801 11.5123 -4.93127 -4.50682 11.4513 -4.95317 -6.00357 16.1714 
-4.76337 -4.73735 11.3761 -4.74131 -4.76603 11.3667 -4.74131 -6.29625 16.0763 
-4.6033 -4.93728 11.3111 -4.51035 -5.04534 11.276 -4.51035 -6.57556 15.9855 
-4.43397 -5.13018 11.2484 -4.25847 -5.31291 11.189 -4.26124 -6.84038 15.8995 
-3.87384 -5.6629 11.0753 -3.68998 -5.81116 11.0305 -3.7126 -7.32233 15.7429 
-3.2436 -6.11928 10.927 -3.05236 -6.23544 10.8901 -3.10422 -7.73435 15.609 
-2.55464 -6.49107 10.8062 -2.4459 -6.53958 10.7905 -2.4459 -8.0698 15.5 
-2.31407 -6.595 10.7725 -2.08414 -6.6836 10.7442 -2.10129 -8.20708 15.4554 
-1.56638 -6.84382 10.6916 -1.34268 -6.89963 10.6764 -1.38811 -8.41799 15.3869 
-0.790345 -6.99494 10.6425 -0.652598 -7.01111 10.6373 -0.652598 -8.54133 15.3468 
-0.527782 -7.02307 10.6334 -0.272156 -7.03962 10.628 -0.280155 -8.56949 15.3376 
0.264157 -7.03998 10.6279 0.501267 -7.02703 10.636 0.466612 -8.55822 15.3413 
1.05132 -6.95563 10.6553 1.20587 -6.92692 10.6646 1.20587 -8.45714 15.3742 
1.81944 -6.77155 10.7151 1.92573 -6.73764 10.7261 1.92573 -8.26786 15.4357 
2.06884 -6.68855 10.7421 2.27474 -6.61082 10.7673 2.27474 -8.14104 15.4769 
2.79007 -6.37699 10.8433 2.94392 -6.2954 10.8698 2.94392 -7.82562 15.5793 
3.46079 -5.97617 10.9735 3.56574 -5.90195 10.9976 3.56574 -7.43217 15.7072 
3.67101 -5.82394 11.023 3.85572 -5.67789 11.0704 3.85572 -7.20811 15.78 
4.25571 -5.31567 11.1881 4.41491 -5.15182 11.2414 4.388 -6.70985 15.9419 
4.76337 -4.73735 11.3761 4.84968 -4.62129 11.4138 4.84968 -6.15151 16.1233 
4.91384 -4.53078 11.4432 5.0533 -4.3195 11.5104 5.05167 -5.85259 16.2204 
5.30477 -3.87555 11.6561 5.40553 -3.6665 11.7227 5.39391 -5.22124 16.4256 
5.51241 -3.41353 11.8062 5.53277 -3.36114 11.8232 5.53277 -4.89136 16.5327 
5.59968 -3.17633 11.8833 5.66654 -2.96743 11.9445 5.64935 -4.55377 16.6424 
5.79323 -2.4458 12.1206 5.81389 -2.3307 12.158 5.81389 -3.86092 16.8676 
5.83456 -2.1976 12.2013 5.86267 -1.96306 12.2775 5.86119 -3.50844 16.9821 
5.88785 -1.44594 12.4455 5.88785 -2.97616 17.155 5.88488 -3.15383 17.0973 
5.83456 -0.694278 12.6897 5.81389 -0.561184 12.733 5.81389 -2.0914 17.4425 
5.79323 -0.44608 12.7704 5.7417 -0.206084 12.8483 5.74318 -1.74249 17.5559 
5.59968 0.284454 13.0077 5.53277 0.469261 13.0678 5.53277 -1.06096 17.7773 
5.30477 0.983668 13.2349 5.23333 1.11998 13.2792 5.23333 -0.410241 17.9887 
4.91384 1.6389 13.4478 4.84968 1.72941 13.4772 4.84968 0.19919 18.1868 
4.76337 1.84547 13.5149 4.61515 2.03167 13.5762 4.62816 0.485329 18.2797 
4.25571 2.42379 13.7028 4.09436 2.57707 13.7597 4.13018 1.0147 18.4517 
3.67101 2.93206 13.868 3.56574 3.01007 13.8933 3.56574 1.47985 18.6029 
3.46079 3.08429 13.9175 3.2525 3.22179 13.9621 3.2614 1.68596 18.6698 
2.79007 3.48511 14.0477 2.58085 3.58653 14.085 2.6146 2.04111 18.7852 
2.31407 3.70312 14.1185 2.27474 3.71894 14.1237 2.27474 2.18872 18.8332 
2.06884 3.79667 14.1489 1.92573 3.84576 14.1649 1.92573 2.31554 18.8744 
1.81944 3.87967 14.1759 1.56767 3.9516 14.1993 1.56896 2.42104 18.9087 
1.05132 4.06375 14.2357 0.811957 4.10109 14.2466 0.837928 2.56652 18.956 
0.264157 4.1481 14.2631 0.0934164 4.15303 14.2647 0.0934164 2.62281 18.9742 
-0.527782 4.13119 14.2576 -0.652598 4.11923 14.2537 -0.652598 2.58901 18.9633 
-0.790345 4.10306 14.2485 -1.03773 4.06629 14.2369 -1.02241 2.53844 18.9468 
-1.56638 3.95194 14.1994 -1.78965 3.88811 14.1833 -1.74822 2.37098 18.8924 
-2.31407 3.70312 14.1185 -2.4459 3.6477 14.1005 -2.4459 2.11748 18.8101 
-2.55464 3.59919 14.0848 -2.78606 3.48793 14.0465 -2.78066 1.95969 18.7588 
-3.2436 3.2274 13.964 -3.44125 3.09795 13.9235 -3.41529 1.5852 18.6371 
-3.87384 2.77102 13.8157 -3.99496 2.66753 13.782 -3.99496 1.13731 18.4916 
-4.43397 2.2383 13.6426 -4.51035 2.15346 13.615 -4.51035 0.623241 18.3245 
-4.6033 2.0454 13.5799 -4.74131 1.87415 13.5243 -4.74131 0.343931 18.2338 
-5.05441 1.42613 13.3787 -5.16928 1.23429 13.3232 -5.14509 -0.253617 18.0396 
-5.41404 0.754872 13.1606 -5.46609 0.635249 13.1217 -5.46609 -0.894972 17.8312 
-5.51241 0.521645 13.0848 -5.59737 0.292558 13.0081 -5.59387 -1.22887 17.7228 
-5.74023 -0.199895 12.8504 -5.78884 -0.421173 12.7825 -5.78145 -1.91641 17.4994 
-5.83456 -0.694278 12.6897 -5.84048 -0.737064 12.6758 -5.84048 -2.26728 17.3854 
-5.86414 -0.943989 12.6086 -5.87599 -1.09079 12.5609 -5.87599 -2.62101 17.2704 
-5.88192 -1.19471 12.5271 -5.88785 -1.44594 12.4455 -5.88785 -2.97615 17.155 
-5.87596 -1.28403 12.2483 -5.88785 -1.44594 12.4455 -5.88192 -1.19471 12.5271 
-5.84901 -0.792937 12.4433 -5.87596 -1.28403 12.2483 -5.87599 -1.09079 12.5609 
-5.87596 -1.28403 12.2483 -5.88192 -1.19471 12.5271 -5.87599 -1.09079 12.5609 
-5.84901 -0.792937 12.4433 -5.86414 -0.943989 12.6086 -5.84048 -0.737064 12.6758 
-5.84901 -0.792937 12.4433 -5.83456 -0.694278 12.6897 -5.78884 -0.421173 12.7825 
-5.75417 -0.236178 12.5875 -5.74023 -0.199895 12.8504 -5.68561 0.0112862 12.9213 
-5.68561 0.0112862 12.9213 -5.63943 0.198764 12.7307 -5.75417 -0.236178 12.5875 
-5.63943 0.198764 12.7307 -5.68561 0.0112862 12.9213 -5.59737 0.292558 13.0081 
-5.47411 0.663377 12.8949 -5.63943 0.198764 12.7307 -5.59737 0.292558 13.0081 
-5.47411 0.663377 12.8949 -5.51241 0.521645 13.0848 -5.46609 0.635249 13.1217 
-5.47411 0.663377 12.8949 -5.41404 0.754872 13.1606 -5.31011 1.00276 13.1423 
-5.12041 1.36997 13.1184 -5.05441 1.42613 13.3787 -4.93126 1.61555 13.4379 
-4.93126 1.61555 13.4379 -4.8554 1.77369 13.2674 -5.12041 1.36997 13.1184 
-4.8554 1.77369 13.2674 -4.93126 1.61555 13.4379 -4.76337 1.84547 13.5149 
-4.51379 2.20508 13.3976 -4.8554 1.77369 13.2674 -4.74131 1.87415 13.5243 
-4.8554 1.77369 13.2674 -4.76337 1.84547 13.5149 -4.74131 1.87415 13.5243 
-4.51379 2.20508 13.3976 -4.6033 2.0454 13.5799 -4.51035 2.15346 13.615 
-4.51379 2.20508 13.3976 -4.43397 2.2383 13.6426 -4.25814 2.4513 13.6098 
-3.98861 2.74856 13.4475 -4.06887 2.60148 13.7606 -3.99496 2.66753 13.782 
-3.98861 2.74856 13.4475 -3.87384 2.77102 13.8157 -3.68989 2.91912 13.8612 
-3.68989 2.91912 13.8612 -3.66589 3.00919 13.5487 -3.98861 2.74856 13.4475 
-3.66589 3.00919 13.5487 -3.68989 2.91912 13.8612 -3.44125 3.09795 13.9235 
-3.35872 3.22966 13.626 -3.2436 3.2274 13.964 -3.10422 3.31225 13.9915 
-3.10422 3.31225 13.9915 -2.93448 3.47038 13.79 -3.35872 3.22966 13.626 
-2.93448 3.47038 13.79 -3.01987 3.36109 14.0074 -2.78606 3.48793 14.0465 
-2.45199 3.70812 13.876 -2.93448 3.47038 13.79 -2.78606 3.48793 14.0465 
-2.45199 3.70812 13.876 -2.55464 3.59919 14.0848 -2.4459 3.6477 14.1005 
-2.45199 3.70812 13.876 -2.31407 3.70312 14.1185 -2.08415 3.79135 14.1479 
-2.08415 3.79135 14.1479 -1.94885 3.91891 13.8371 -2.45199 3.70812 13.876 
-1.94885 3.91891 13.8371 -2.08415 3.79135 14.1479 -1.78965 3.88811 14.1833 
-1.56227 4.03499 13.8604 -1.94885 3.91891 13.8371 -1.78965 3.88811 14.1833 
-1.56227 4.03499 13.8604 -1.56638 3.95194 14.1994 -1.34266 4.00603 14.2199 
-1.34266 4.00603 14.2199 -1.21855 4.1152 13.8937 -1.56227 4.03499 13.8604 
-1.21855 4.1152 13.8937 -1.34266 4.00603 14.2199 -1.03773 4.06629 14.2369 
-0.707878 4.17567 14.0307 -1.21855 4.1152 13.8937 -1.03773 4.06629 14.2369 
-0.707878 4.17567 14.0307 -0.790345 4.10306 14.2485 -0.652598 4.11923 14.2537 
-0.707878 4.17567 14.0307 -0.527782 4.13119 14.2576 -0.271477 4.17956 14.1651 
0.116053 4.21403 14.0433 -3.55271e-10 4.15374 14.2649 0.0934164 4.15303 14.2647 
0.116053 4.21403 14.0433 0.264157 4.1481 14.2631 0.501291 4.13445 14.2572 
0.501291 4.13445 14.2572 0.529736 4.1908 14.0351 0.116053 4.21403 14.0433 
0.529736 4.1908 14.0351 0.501291 4.13445 14.2572 0.811957 4.10109 14.2466 
0.910234 4.16985 13.9129 1.05132 4.06375 14.2357 1.20587 4.03504 14.2264 
1.20587 4.03504 14.2264 1.39703 4.05573 13.9853 0.910234 4.16985 13.9129 
1.39703 4.05573 13.9853 1.31017 4.01334 14.2193 1.56767 3.9516 14.1993 
1.90943 3.91607 13.9326 1.39703 4.05573 13.9853 1.56767 3.9516 14.1993 
1.90943 3.91607 13.9326 1.81944 3.87967 14.1759 1.92573 3.84576 14.1649 
1.90943 3.91607 13.9326 2.06884 3.79667 14.1489 2.27474 3.71894 14.1237 
2.27474 3.71894 14.1237 2.31178 3.74515 13.9718 1.90943 3.91607 13.9326 
2.31178 3.74515 13.9718 2.31407 3.70312 14.1185 2.58085 3.58653 14.085 
2.66123 3.6085 13.8474 2.79007 3.48511 14.0477 2.99072 3.37901 14.0112 
2.99072 3.37901 14.0112 3.09713 3.37293 13.7894 2.66123 3.6085 13.8474 
3.09713 3.37293 13.7894 2.99072 3.37901 14.0112 3.2525 3.22179 13.9621 
3.55895 3.07307 13.6761 3.09713 3.37293 13.7894 3.2525 3.22179 13.9621 
3.55895 3.07307 13.6761 3.46079 3.08429 13.9175 3.56574 3.01007 13.8933 
3.55895 3.07307 13.6761 3.67101 2.93206 13.868 3.86585 2.80827 13.7247 
4.15765 2.57717 13.5101 4.25571 2.42379 13.7028 4.41491 2.25961 13.6506 
4.41491 2.25961 13.6506 4.48552 2.23807 13.3936 4.15765 2.57717 13.5101 
4.48552 2.23807 13.3936 4.41491 2.25961 13.6506 4.61515 2.03167 13.5762 
4.815 1.83363 13.2684 4.48552 2.23807 13.3936 4.61515 2.03167 13.5762 
4.815 1.83363 13.2684 4.76337 1.84547 13.5149 4.84968 1.72941 13.4772 
4.815 1.83363 13.2684 4.91384 1.6389 13.4478 5.05311 1.42832 13.3794 
5.05311 1.42832 13.3794 5.09177 1.41806 13.126 4.815 1.83363 13.2684 
5.09177 1.41806 13.126 5.05311 1.42832 13.3794 5.18481 1.20757 13.3077 
5.28072 1.07658 13.0228 5.09177 1.41806 13.126 5.23333 1.11998 13.2792 
5.09177 1.41806 13.126 5.18481 1.20757 13.3077 5.23333 1.11998 13.2792 
5.28072 1.07658 13.0228 5.30477 0.983668 13.2349 5.40553 0.775325 13.1661 
5.40553 0.775325 13.1661 5.45171 0.715737 12.8878 5.28072 1.07658 13.0228 
5.45171 0.715737 12.8878 5.40553 0.775325 13.1661 5.51241 0.521645 13.0848 
5.53185 0.511577 12.7422 5.45171 0.715737 12.8878 5.53277 0.469261 13.0678 
5.45171 0.715737 12.8878 5.51241 0.521645 13.0848 5.53277 0.469261 13.0678 
5.53185 0.511577 12.7422 5.59968 0.284454 13.0077 5.64935 0.131671 12.9581 
5.64935 0.131671 12.9581 5.69548 0.00598442 12.6567 5.53185 0.511577 12.7422 
5.69548 0.00598442 12.6567 5.67567 0.0437797 12.9295 5.7417 -0.206084 12.8483 
5.80055 -0.466013 12.5428 5.69548 0.00598442 12.6567 5.7417 -0.206084 12.8483 
5.80055 -0.466013 12.5428 5.79323 -0.44608 12.7704 5.81389 -0.561184 12.733 
5.80055 -0.466013 12.5428 5.83456 -0.694278 12.6897 5.86322 -0.901447 12.5226 
5.87572 -1.2148 12.2812 5.88785 -1.44594 12.4455 5.884 -1.66526 12.3706 
5.884 -1.66526 12.3706 5.85653 -1.73488 12.0319 5.87572 -1.2148 12.2812 
5.85653 -1.73488 12.0319 5.884 -1.66526 12.3706 5.86267 -1.96306 12.2775 
5.80558 -2.25065 11.9457 5.85653 -1.73488 12.0319 5.86267 -1.96306 12.2775 
5.80558 -2.25065 11.9457 5.83456 -2.1976 12.2013 5.81389 -2.3307 12.158 
5.80558 -2.25065 11.9457 5.79323 -2.4458 12.1206 5.7417 -2.6858 12.0426 
5.7417 -2.6858 12.0426 5.72914 -2.55698 11.7694 5.80558 -2.25065 11.9457 
5.72914 -2.55698 11.7694 5.7417 -2.6858 12.0426 5.66654 -2.96743 11.9445 
5.63484 -2.96872 11.7149 5.59968 -3.17633 11.8833 5.53277 -3.36114 11.8232 
5.53277 -3.36114 11.8232 5.50028 -3.34112 11.5878 5.63484 -2.96872 11.7149 
5.50028 -3.34112 11.5878 5.51241 -3.41353 11.8062 5.40553 -3.6665 11.7227 
5.36743 -3.60631 11.4116 5.30477 -3.87555 11.6561 5.23333 -4.01186 11.6118 
5.23333 -4.01186 11.6118 5.13086 -4.09783 11.3355 5.36743 -3.60631 11.4116 
5.13086 -4.09783 11.3355 5.18481 -4.09945 11.5833 5.0533 -4.3195 11.5104 
4.92809 -4.41815 11.2366 5.13086 -4.09783 11.3355 5.0533 -4.3195 11.5104 
4.68334 -4.76362 11.1488 4.92809 -4.41815 11.2366 4.84968 -4.62129 11.4138 
4.92809 -4.41815 11.2366 4.91384 -4.53078 11.4432 4.84968 -4.62129 11.4138 
4.68334 -4.76362 11.1488 4.76337 -4.73735 11.3761 4.61515 -4.9241 11.3165 
4.68334 -4.76362 11.1488 4.61515 -4.9241 11.3165 4.41491 -5.15182 11.2414 
4.3433 -5.14116 11.0046 4.25571 -5.31567 11.1881 4.09375 -5.47105 11.1357 
4.09375 -5.47105 11.1357 3.99401 -5.48413 10.9098 4.3433 -5.14116 11.0046 
3.99401 -5.48413 10.9098 4.09375 -5.47105 11.1357 3.87384 -5.6629 11.0753 
3.56214 -5.8229 10.7856 3.99401 -5.48413 10.9098 3.85572 -5.67789 11.0704 
3.99401 -5.48413 10.9098 3.87384 -5.6629 11.0753 3.85572 -5.67789 11.0704 
3.56214 -5.8229 10.7856 3.67101 -5.82394 11.023 3.56574 -5.90195 10.9976 
3.56214 -5.8229 10.7856 3.46079 -5.97617 10.9735 3.25197 -6.08356 10.8351 
2.91496 -6.22918 10.6497 3.01987 -6.25297 10.8836 2.94392 -6.2954 10.8698 
2.91496 -6.22918 10.6497 2.79007 -6.37699 10.8433 2.58081 -6.47916 10.8082 
2.58081 -6.47916 10.8082 2.46141 -6.45899 10.5935 2.91496 -6.22918 10.6497 
2.46141 -6.45899 10.5935 2.58081 -6.47916 10.8082 2.31407 -6.595 10.7725 
1.92496 -6.65674 10.5099 2.46141 -6.45899 10.5935 2.27474 -6.61082 10.7673 
2.46141 -6.45899 10.5935 2.31407 -6.595 10.7725 2.27474 -6.61082 10.7673 
1.92496 -6.65674 10.5099 2.06884 -6.68855 10.7421 1.92573 -6.73764 10.7261 
1.92496 -6.65674 10.5099 1.81944 -6.77155 10.7151 1.56767 -6.84348 10.6917 
1.56767 -6.84348 10.6917 1.4737 -6.78298 10.4615 1.92496 -6.65674 10.5099 
1.4737 -6.78298 10.4615 1.56767 -6.84348 10.6917 1.31017 -6.90522 10.6717 
0.963209 -6.90346 10.4642 1.4737 -6.78298 10.4615 1.20587 -6.92692 10.6646 
1.4737 -6.78298 10.4615 1.31017 -6.90522 10.6717 1.20587 -6.92692 10.6646 
0.963209 -6.90346 10.4642 1.05132 -6.95563 10.6553 0.811959 -6.99228 10.6423 
0.963209 -6.90346 10.4642 0.811959 -6.99228 10.6423 0.501267 -7.02703 10.636 
0.401376 -6.95069 10.4134 0.264157 -7.03998 10.6279 0.0346292 -7.04534 10.6229 
0.0346292 -7.04534 10.6229 -0.0708477 -6.9718 10.4269 0.401376 -6.95069 10.4134 
-0.0708477 -6.9718 10.4269 0.0346292 -7.04534 10.6229 -0.272156 -7.03962 10.628 
-0.638131 -6.93007 10.4156 -0.0708477 -6.9718 10.4269 -0.272156 -7.03962 10.628 
-0.638131 -6.93007 10.4156 -0.527782 -7.02307 10.6334 -0.652598 -7.01111 10.6373 
-0.638131 -6.93007 10.4156 -0.790345 -6.99494 10.6425 -1.03772 -6.95841 10.6549 
-1.03772 -6.95841 10.6549 -1.08546 -6.86574 10.4381 -0.638131 -6.93007 10.4156 
-1.08546 -6.86574 10.4381 -1.03772 -6.95841 10.6549 -1.34268 -6.89963 10.6764 
-1.47502 -6.74826 10.3874 -1.56638 -6.84382 10.6916 -1.78967 -6.78159 10.7126 
-1.78967 -6.78159 10.7126 -1.90292 -6.66071 10.5023 -1.47502 -6.74826 10.3874 
-1.90292 -6.66071 10.5023 -1.78967 -6.78159 10.7126 -2.08414 -6.6836 10.7442 
-2.38926 -6.48273 10.5653 -1.90292 -6.66071 10.5023 -2.08414 -6.6836 10.7442 
-2.38926 -6.48273 10.5653 -2.31407 -6.595 10.7725 -2.4459 -6.53958 10.7905 
-2.38926 -6.48273 10.5653 -2.55464 -6.49107 10.8062 -2.78551 -6.37946 10.8425 
-2.78551 -6.37946 10.8425 -2.78558 -6.25449 10.5414 -2.38926 -6.48273 10.5653 
-2.78558 -6.25449 10.5414 -2.78551 -6.37946 10.8425 -3.05236 -6.23544 10.8901 
-3.11383 -6.06401 10.5829 -3.2436 -6.11928 10.927 -3.44211 -5.96128 10.8816 
-3.75968 -5.67137 10.8316 -3.87384 -5.6629 11.0753 -3.99496 -5.55941 11.1089 
-3.99496 -5.55941 11.1089 -4.15512 -5.28812 10.8616 -3.75968 -5.67137 10.8316 
-4.15512 -5.28812 10.8616 -4.06887 -5.49336 11.1304 -4.25847 -5.31291 11.189 
-4.46715 -5.01806 11.0607 -4.43397 -5.13018 11.2484 -4.51035 -5.04534 11.276 
-4.46715 -5.01806 11.0607 -4.6033 -4.93728 11.3111 -4.74131 -4.76603 11.3667 
-4.74131 -4.76603 11.3667 -4.81968 -4.57188 11.1795 -4.46715 -5.01806 11.0607 
-4.81968 -4.57188 11.1795 -4.76337 -4.73735 11.3761 -4.93127 -4.50682 11.4513 
-5.11452 -4.13488 11.3405 -4.81968 -4.57188 11.1795 -4.93127 -4.50682 11.4513 
-5.11452 -4.13488 11.3405 -5.05441 -4.31801 11.5123 -5.16959 -4.1263 11.57 
-5.11452 -4.13488 11.3405 -5.16959 -4.1263 11.57 -5.31053 -3.8641 11.6598 
-5.45306 -3.45847 11.5428 -5.29569 -3.78798 11.4241 -5.31053 -3.8641 11.6598 
-5.45306 -3.45847 11.5428 -5.41404 -3.64675 11.7304 -5.46609 -3.52713 11.7693 
-5.45306 -3.45847 11.5428 -5.51241 -3.41353 11.8062 -5.59709 -3.18458 11.8807 
-5.59709 -3.18458 11.8807 -5.59948 -3.0678 11.6723 -5.45306 -3.45847 11.5428 
-5.59948 -3.0678 11.6723 -5.59709 -3.18458 11.8807 -5.68585 -2.90326 11.9734 
-5.70083 -2.73259 11.7828 -5.74023 -2.69199 12.0406 -5.78884 -2.4715 12.111 
-5.78884 -2.4715 12.111 -5.80299 -2.28209 11.9511 -5.70083 -2.73259 11.7828 
-5.80299 -2.28209 11.9511 -5.78884 -2.4715 12.111 -5.83456 -2.1976 12.2013 
-5.86589 -1.73375 12.1094 -5.80299 -2.28209 11.9511 -5.84048 -2.15482 12.2152 
-5.80299 -2.28209 11.9511 -5.83456 -2.1976 12.2013 -5.84048 -2.15482 12.2152 
-5.86589 -1.73375 12.1094 -5.86414 -1.94789 12.2824 -5.87599 -1.80109 12.3301 
-5.86589 -1.73375 12.1094 -5.88192 -1.69717 12.3639 -5.88785 -1.44594 12.4455 
-5.8 -0.581143 12.3277 -5.84901 -0.792937 12.4433 -5.75417 -0.236178 12.5875 
-5.233 1.15812 12.7683 -5.31011 1.00276 13.1423 -5.12041 1.36997 13.1184 
-4.59479 2.12302 13.1344 -4.8554 1.77369 13.2674 -4.51379 2.20508 13.3976 
-4.25353 2.49476 13.3157 -4.25814 2.4513 13.6098 -3.98861 2.74856 13.4475 
-0.159803 4.24372 13.8385 -0.271477 4.17956 14.1651 0.116053 4.21403 14.0433 
2.42853 3.74044 13.7005 2.31178 3.74515 13.9718 2.66123 3.6085 13.8474 
3.40411 3.20676 13.5048 3.09713 3.37293 13.7894 3.55895 3.07307 13.6761 
3.9178 2.81075 13.3905 3.86585 2.80827 13.7247 4.15765 2.57717 13.5101 
5.80135 -0.707451 12.173 5.86322 -0.901447 12.5226 5.87572 -1.2148 12.2812 
4.49337 -4.87977 10.8984 4.68334 -4.76362 11.1488 4.3433 -5.14116 11.0046 
3.85065 -5.52098 10.7226 3.99401 -5.48413 10.9098 3.56214 -5.8229 10.7856 
3.13867 -6.01367 10.532 3.25197 -6.08356 10.8351 2.91496 -6.22918 10.6497 
2.30004 -6.44748 10.4216 2.46141 -6.45899 10.5935 1.92496 -6.65674 10.5099 
0.698706 -6.85082 10.2774 0.963209 -6.90346 10.4642 0.401376 -6.95069 10.4134 
-0.15458 -6.87481 10.2419 -0.0708477 -6.9718 10.4269 -0.638131 -6.93007 10.4156 
-3.5325 -5.7563 10.6205 -3.44211 -5.96128 10.8816 -3.75968 -5.67137 10.8316 
-5.80011 -2.07558 11.8421 -5.80299 -2.28209 11.9511 -5.86589 -1.73375 12.1094 
-5.79664 -0.932487 11.9941 -5.87596 -1.28403 12.2483 -5.84901 -0.792937 12.4433 
-5.79664 -0.932487 11.9941 -5.84901 -0.792937 12.4433 -5.8 -0.581143 12.3277 
-5.71507 -0.182458 12.3658 -5.75417 -0.236178 12.5875 -5.63943 0.198764 12.7307 
-5.50511 0.538708 12.6065 -5.63943 0.198764 12.7307 -5.47411 0.663377 12.8949 
-5.28031 1.02957 12.6244 -5.47411 0.663377 12.8949 -5.233 1.15812 12.7683 
-4.94196 1.64855 12.9733 -5.12041 1.36997 13.1184 -4.8554 1.77369 13.2674 
-4.94196 1.64855 12.9733 -4.8554 1.77369 13.2674 -4.59479 2.12302 13.1344 
-4.59479 2.12302 13.1344 -4.51379 2.20508 13.3976 -4.25353 2.49476 13.3157 
-2.86322 3.5371 13.5379 -2.93448 3.47038 13.79 -2.45199 3.70812 13.876 
-2.42953 3.75071 13.5429 -2.45199 3.70812 13.876 -1.94885 3.91891 13.8371 
-0.675848 4.20862 13.7985 -0.707878 4.17567 14.0307 -0.159803 4.24372 13.8385 
0.393396 4.23317 13.8131 0.116053 4.21403 14.0433 0.529736 4.1908 14.0351 
0.393396 4.23317 13.8131 0.529736 4.1908 14.0351 0.910234 4.16985 13.9129 
1.41487 4.07952 13.7753 1.39703 4.05573 13.9853 1.90943 3.91607 13.9326 
1.89147 3.94585 13.7222 1.90943 3.91607 13.9326 2.42853 3.74044 13.7005 
2.88128 3.52233 13.5821 2.66123 3.6085 13.8474 3.09713 3.37293 13.7894 
2.88128 3.52233 13.5821 3.09713 3.37293 13.7894 3.40411 3.20676 13.5048 
3.40411 3.20676 13.5048 3.55895 3.07307 13.6761 3.9178 2.81075 13.3905 
4.2862 2.46199 13.2206 4.15765 2.57717 13.5101 4.48552 2.23807 13.3936 
4.56249 2.15473 13.1381 4.48552 2.23807 13.3936 4.815 1.83363 13.2684 
4.79848 1.85526 13.0404 4.815 1.83363 13.2684 5.09177 1.41806 13.126 
5.06335 1.45997 12.9266 5.09177 1.41806 13.126 5.28072 1.07658 13.0228 
5.30406 1.00343 12.7061 5.28072 1.07658 13.0228 5.45171 0.715737 12.8878 
5.71431 -0.200764 12.3306 5.69548 0.00598442 12.6567 5.80055 -0.466013 12.5428 
5.8109 -1.3065 11.8924 5.87572 -1.2148 12.2812 5.85653 -1.73488 12.0319 
5.72753 -2.1977 11.6042 5.80558 -2.25065 11.9457 5.72914 -2.55698 11.7694 
5.49219 -3.08386 11.3244 5.63484 -2.96872 11.7149 5.50028 -3.34112 11.5878 
5.49219 -3.08386 11.3244 5.50028 -3.34112 11.5878 5.36743 -3.60631 11.4116 
5.12347 -3.97749 11.1563 5.36743 -3.60631 11.4116 5.13086 -4.09783 11.3355 
5.12347 -3.97749 11.1563 5.13086 -4.09783 11.3355 4.92809 -4.41815 11.2366 
4.79837 -4.4568 10.9758 4.92809 -4.41815 11.2366 4.68334 -4.76362 11.1488 
4.79837 -4.4568 10.9758 4.68334 -4.76362 11.1488 4.49337 -4.87977 10.8984 
4.12687 -5.23146 10.7378 4.3433 -5.14116 11.0046 3.99401 -5.48413 10.9098 
4.12687 -5.23146 10.7378 3.99401 -5.48413 10.9098 3.85065 -5.52098 10.7226 
3.56018 -5.69425 10.5698 3.56214 -5.8229 10.7856 3.13867 -6.01367 10.532 
2.64928 -6.25217 10.4062 2.91496 -6.22918 10.6497 2.46141 -6.45899 10.5935 
2.64928 -6.25217 10.4062 2.46141 -6.45899 10.5935 2.30004 -6.44748 10.4216 
1.85699 -6.4914 10.18 1.92496 -6.65674 10.5099 1.4737 -6.78298 10.4615 
1.17322 -6.73719 10.2364 1.4737 -6.78298 10.4615 0.963209 -6.90346 10.4642 
1.17322 -6.73719 10.2364 0.963209 -6.90346 10.4642 0.698706 -6.85082 10.2774 
0.261815 -6.8501 10.2123 0.401376 -6.95069 10.4134 -0.0708477 -6.9718 10.4269 
-0.661928 -6.82201 10.2221 -0.638131 -6.93007 10.4156 -1.08546 -6.86574 10.4381 
-1.0503 -6.7299 10.181 -1.08546 -6.86574 10.4381 -1.47502 -6.74826 10.3874 
-1.92156 -6.54843 10.3085 -1.90292 -6.66071 10.5023 -2.38926 -6.48273 10.5653 
-2.41464 -6.35963 10.3713 -2.38926 -6.48273 10.5653 -2.78558 -6.25449 10.5414 
-3.93863 -5.40263 10.6822 -3.75968 -5.67137 10.8316 -4.15512 -5.28812 10.8616 
-4.47669 -4.86878 10.8564 -4.46715 -5.01806 11.0607 -4.81968 -4.57188 11.1795 
-4.94276 -4.25845 11.054 -4.81968 -4.57188 11.1795 -5.11452 -4.13488 11.3405 
-5.15489 -3.83836 11.0866 -5.11452 -4.13488 11.3405 -5.29569 -3.78798 11.4241 
-5.15489 -3.83836 11.0866 -5.29569 -3.78798 11.4241 -5.45306 -3.45847 11.5428 
-5.41772 -3.37162 11.3421 -5.45306 -3.45847 11.5428 -5.59948 -3.0678 11.6723 
-5.59037 -2.90544 11.4956 -5.59948 -3.0678 11.6723 -5.70083 -2.73259 11.7828 
-5.71855 -2.4184 11.6518 -5.70083 -2.73259 11.7828 -5.80299 -2.28209 11.9511 
-5.71855 -2.4184 11.6518 -5.80299 -2.28209 11.9511 -5.80011 -2.07558 11.8421 
-5.82386 -1.67827 11.8923 -5.86589 -1.73375 12.1094 -5.87596 -1.28403 12.2483 
-5.72023 -0.500169 12.0446 -5.8 -0.581143 12.3277 -5.71507 -0.182458 12.3658 
-5.65323 -0.128293 12.1585 -5.71507 -0.182458 12.3658 -5.59803 0.175672 12.3353 
-5.44438 0.583293 12.3841 -5.50511 0.538708 12.6065 -5.28031 1.02957 12.6244 
-4.89286 1.68396 12.7704 -4.94196 1.64855 12.9733 -4.59479 2.12302 13.1344 
-4.25032 2.47684 12.9993 -4.59479 2.12302 13.1344 -4.25353 2.49476 13.3157 
-4.25032 2.47684 12.9993 -4.25353 2.49476 13.3157 -3.98861 2.74856 13.4475 
-3.9088 2.80421 13.1173 -3.98861 2.74856 13.4475 -3.66589 3.00919 13.5487 
-3.59857 3.05491 13.1997 -3.66589 3.00919 13.5487 -3.35872 3.22966 13.626 
-3.18819 3.34061 13.2638 -3.35872 3.22966 13.626 -2.86322 3.5371 13.5379 
-1.87157 3.95795 13.5054 -1.94885 3.91891 13.8371 -1.56227 4.03499 13.8604 
-1.46822 4.07085 13.4616 -1.56227 4.03499 13.8604 -1.21855 4.1152 13.8937 
-1.03001 4.16412 13.5602 -1.21855 4.1152 13.8937 -0.675848 4.20862 13.7985 
-0.662069 4.21846 13.5843 -0.675848 4.20862 13.7985 -0.159803 4.24372 13.8385 
-0.105026 4.25471 13.6105 -0.159803 4.24372 13.8385 0.393396 4.23317 13.8131 
0.561419 4.23039 13.5681 0.393396 4.23317 13.8131 0.910234 4.16985 13.9129 
1.20468 4.13294 13.5569 0.910234 4.16985 13.9129 1.41487 4.07952 13.7753 
1.66648 4.01988 13.5063 1.41487 4.07952 13.7753 1.89147 3.94585 13.7222 
2.1428 3.86211 13.4525 1.89147 3.94585 13.7222 2.42853 3.74044 13.7005 
2.61884 3.65478 13.3941 2.42853 3.74044 13.7005 2.88128 3.52233 13.5821 
2.96138 3.47475 13.3362 2.88128 3.52233 13.5821 3.40411 3.20676 13.5048 
3.40751 3.20201 13.2625 3.40411 3.20676 13.5048 3.9178 2.81075 13.3905 
3.89594 2.8152 13.1181 3.9178 2.81075 13.3905 4.2862 2.46199 13.2206 
4.23973 2.49136 13.0186 4.2862 2.46199 13.2206 4.56249 2.15473 13.1381 
4.59147 2.08962 12.8855 4.56249 2.15473 13.1381 4.79848 1.85526 13.0404 
4.89359 1.6753 12.7379 4.79848 1.85526 13.0404 5.06335 1.45997 12.9266 
5.11585 1.27106 12.5292 5.06335 1.45997 12.9266 5.30406 1.00343 12.7061 
5.4561 0.568618 12.4036 5.53185 0.511577 12.7422 5.60888 0.188852 12.4216 
5.74441 -1.79688 11.6199 5.8109 -1.3065 11.8924 5.85653 -1.73488 12.0319 
5.74441 -1.79688 11.6199 5.85653 -1.73488 12.0319 5.72753 -2.1977 11.6042 
5.72753 -2.1977 11.6042 5.72914 -2.55698 11.7694 5.6163 -2.75041 11.4827 
5.25675 -3.5076 11.0646 5.36743 -3.60631 11.4116 5.12347 -3.97749 11.1563 
4.88955 -4.16032 10.8574 5.12347 -3.97749 11.1563 4.79837 -4.4568 10.9758 
4.58702 -4.57068 10.7187 4.79837 -4.4568 10.9758 4.49337 -4.87977 10.8984 
4.26429 -4.92701 10.5901 4.49337 -4.87977 10.8984 4.12687 -5.23146 10.7378 
3.98868 -5.20648 10.5155 4.12687 -5.23146 10.7378 3.85065 -5.52098 10.7226 
3.70027 -5.45193 10.4328 3.85065 -5.52098 10.7226 3.56018 -5.69425 10.5698 
3.28436 -5.74624 10.3265 3.56018 -5.69425 10.5698 3.13867 -6.01367 10.532 
2.85539 -5.99941 10.2416 3.13867 -6.01367 10.532 2.64928 -6.25217 10.4062 
2.38397 -6.23532 10.173 2.64928 -6.25217 10.4062 2.30004 -6.44748 10.4216 
2.38397 -6.23532 10.173 2.30004 -6.44748 10.4216 1.85699 -6.4914 10.18 
1.13729 -6.61948 10.0519 1.17322 -6.73719 10.2364 0.698706 -6.85082 10.2774 
0.652971 -6.69951 10.037 0.698706 -6.85082 10.2774 0.261815 -6.8501 10.2123 
0.0730592 -6.73693 10.0327 0.261815 -6.8501 10.2123 -0.15458 -6.87481 10.2419 
-0.400177 -6.72213 10.0338 -0.15458 -6.87481 10.2419 -0.661928 -6.82201 10.2221 
-0.919874 -6.61208 9.98407 -0.661928 -6.82201 10.2221 -1.0503 -6.7299 10.181 
-1.39156 -6.56743 10.0727 -1.47502 -6.74826 10.3874 -1.92156 -6.54843 10.3085 
-1.90429 -6.42393 10.12 -1.92156 -6.54843 10.3085 -2.41464 -6.35963 10.3713 
-2.39075 -6.23761 10.1813 -2.41464 -6.35963 10.3713 -2.78558 -6.25449 10.5414 
-2.73609 -6.072 10.2342 -2.78558 -6.25449 10.5414 -3.11383 -6.06401 10.5829 
-3.08533 -5.88335 10.3009 -3.11383 -6.06401 10.5829 -3.5325 -5.7563 10.6205 
-3.51016 -5.60714 10.3964 -3.5325 -5.7563 10.6205 -3.93863 -5.40263 10.6822 
-3.90581 -5.28654 10.4937 -3.93863 -5.40263 10.6822 -4.15512 -5.28812 10.8616 
-4.24585 -4.95437 10.5898 -4.15512 -5.28812 10.8616 -4.47669 -4.86878 10.8564 
-5.44551 -3.047 11.2028 -5.41772 -3.37162 11.3421 -5.59037 -2.90544 11.4956 
-5.56474 -2.6977 11.3306 -5.59037 -2.90544 11.4956 -5.71855 -2.4184 11.6518 
-5.66134 -2.33013 11.4543 -5.71855 -2.4184 11.6518 -5.80011 -2.07558 11.8421 
-5.73582 -1.8655 11.598 -5.80011 -2.07558 11.8421 -5.82386 -1.67827 11.8923 
-4.97371 1.47045 12.5024 -5.233 1.15812 12.7683 -4.89286 1.68396 12.7704 
-2.64529 3.62358 13.2192 -2.86322 3.5371 13.5379 -2.42953 3.75071 13.5429 
-2.22512 3.81367 13.3033 -2.42953 3.75071 13.5429 -1.87157 3.95795 13.5054 
5.26726 0.920424 12.3632 5.30406 1.00343 12.7061 5.4561 0.568618 12.4036 
5.67468 -0.362026 12.014 5.71431 -0.200764 12.3306 5.80135 -0.707451 12.173 
5.70511 -0.85498 11.7769 5.80135 -0.707451 12.173 5.81672 -1.02824 12.0422 
5.70511 -0.85498 11.7769 5.81672 -1.02824 12.0422 5.8109 -1.3065 11.8924 
5.57077 -2.55185 11.3025 5.72753 -2.1977 11.6042 5.6163 -2.75041 11.4827 
5.57077 -2.55185 11.3025 5.6163 -2.75041 11.4827 5.49219 -3.08386 11.3244 
-0.919874 -6.61208 9.98407 -1.0503 -6.7299 10.181 -1.39156 -6.56743 10.0727 
-5.67427 -1.03982 11.6314 -5.79872 -1.3249 11.8489 -5.79664 -0.932487 11.9941 
-5.61924 -0.535374 11.7472 -5.79664 -0.932487 11.9941 -5.72023 -0.500169 12.0446 
-5.61924 -0.535374 11.7472 -5.72023 -0.500169 12.0446 -5.65323 -0.128293 12.1585 
-5.5298 -0.0662303 11.8804 -5.65323 -0.128293 12.1585 -5.59803 0.175672 12.3353 
-5.47702 0.264874 12.0717 -5.59803 0.175672 12.3353 -5.44438 0.583293 12.3841 
-5.31959 0.649539 12.1166 -5.44438 0.583293 12.3841 -5.20935 1.03313 12.3742 
-5.20935 1.03313 12.3742 -5.28031 1.02957 12.6244 -4.97371 1.47045 12.5024 
-4.5961 1.96236 12.5209 -4.89286 1.68396 12.7704 -4.59125 2.09417 12.8913 
-4.40379 2.21673 12.6396 -4.59125 2.09417 12.8913 -4.25032 2.47684 12.9993 
-4.05611 2.58822 12.7421 -4.25032 2.47684 12.9993 -3.9088 2.80421 13.1173 
-3.63238 2.98038 12.9394 -3.9088 2.80421 13.1173 -3.59857 3.05491 13.1997 
-3.63238 2.98038 12.9394 -3.59857 3.05491 13.1997 -3.18819 3.34061 13.2638 
-3.1739 3.3123 13.0545 -3.18819 3.34061 13.2638 -2.64529 3.62358 13.2192 
-2.64529 3.62358 13.2192 -2.42953 3.75071 13.5429 -2.22512 3.81367 13.3033 
-1.79591 3.93732 13.1605 -1.87157 3.95795 13.5054 -1.46822 4.07085 13.4616 
-1.03244 4.13625 13.2669 -1.46822 4.07085 13.4616 -1.03001 4.16412 13.5602 
-1.03244 4.13625 13.2669 -1.03001 4.16412 13.5602 -0.662069 4.21846 13.5843 
0.131403 4.22196 13.2868 -0.105026 4.25471 13.6105 0.561419 4.23039 13.5681 
0.798733 4.1744 13.2914 0.561419 4.23039 13.5681 1.20468 4.13294 13.5569 
1.27794 4.08569 13.2629 1.20468 4.13294 13.5569 1.66648 4.01988 13.5063 
1.75997 3.95493 13.1849 1.66648 4.01988 13.5063 2.1428 3.86211 13.4525 
2.35427 3.74416 13.1876 2.1428 3.86211 13.4525 2.61884 3.65478 13.3941 
2.82963 3.50853 13.086 2.61884 3.65478 13.3941 2.96138 3.47475 13.3362 
2.82963 3.50853 13.086 2.96138 3.47475 13.3362 3.40751 3.20201 13.2625 
3.54253 3.05207 12.9773 3.40751 3.20201 13.2625 3.89594 2.8152 13.1181 
3.92192 2.71415 12.776 3.89594 2.8152 13.1181 4.23973 2.49136 13.0186 
4.36232 2.28617 12.7139 4.23973 2.49136 13.0186 4.59147 2.08962 12.8855 
4.72706 1.82388 12.5591 4.59147 2.08962 12.8855 4.89359 1.6753 12.7379 
4.72706 1.82388 12.5591 4.89359 1.6753 12.7379 5.11585 1.27106 12.5292 
5.34253 0.554108 12.0547 5.4561 0.568618 12.4036 5.55874 0.147103 12.1557 
5.53723 -0.0778254 11.8891 5.55874 0.147103 12.1557 5.67468 -0.362026 12.014 
5.60386 -0.527748 11.7237 5.67468 -0.362026 12.014 5.70511 -0.85498 11.7769 
5.67427 -1.29597 11.5481 5.8109 -1.3065 11.8924 5.74441 -1.79688 11.6199 
5.47571 -2.44734 11.1077 5.57077 -2.55185 11.3025 5.40149 -2.94178 11.0779 
5.40149 -2.94178 11.0779 5.49219 -3.08386 11.3244 5.25675 -3.5076 11.0646 
5.13105 -3.38517 10.7996 5.25675 -3.5076 11.0646 5.08296 -3.83999 10.9595 
4.92026 -3.80151 10.6807 5.08296 -3.83999 10.9595 4.88955 -4.16032 10.8574 
4.63413 -4.22522 10.5379 4.88955 -4.16032 10.8574 4.58702 -4.57068 10.7187 
4.25782 -4.70971 10.4054 4.58702 -4.57068 10.7187 4.26429 -4.92701 10.5901 
4.25782 -4.70971 10.4054 4.26429 -4.92701 10.5901 3.98868 -5.20648 10.5155 
3.91269 -5.04393 10.2927 3.98868 -5.20648 10.5155 3.70027 -5.45193 10.4328 
3.63238 -5.31723 10.2434 3.70027 -5.45193 10.4328 3.28436 -5.74624 10.3265 
3.22939 -5.61494 10.1521 3.28436 -5.74624 10.3265 2.85539 -5.99941 10.2416 
2.69949 -5.90313 10.0316 2.85539 -5.99941 10.2416 2.38397 -6.23532 10.173 
2.1063 -6.18051 9.96106 2.38397 -6.23532 10.173 1.85699 -6.4914 10.18 
1.59734 -6.33215 9.88851 1.85699 -6.4914 10.18 1.55302 -6.57456 10.1483 
1.59734 -6.33215 9.88851 1.55302 -6.57456 10.1483 1.13729 -6.61948 10.0519 
1.11597 -6.42736 9.83457 1.13729 -6.61948 10.0519 0.652971 -6.69951 10.037 
-0.150259 -6.52423 9.79392 0.0730592 -6.73693 10.0327 -0.400177 -6.72213 10.0338 
-0.740927 -6.48708 9.81264 -0.400177 -6.72213 10.0338 -0.919874 -6.61208 9.98407 
-1.39703 -6.35911 9.84739 -1.39156 -6.56743 10.0727 -1.90429 -6.42393 10.12 
-1.90191 -6.18634 9.8673 -1.90429 -6.42393 10.12 -2.39075 -6.23761 10.1813 
-2.3518 -6.03953 9.95295 -2.39075 -6.23761 10.1813 -2.73609 -6.072 10.2342 
-2.75859 -5.822 9.99601 -2.73609 -6.072 10.2342 -3.08533 -5.88335 10.3009 
-3.22362 -5.56886 10.107 -3.08533 -5.88335 10.3009 -3.51016 -5.60714 10.3964 
-3.51934 -5.35944 10.1769 -3.51016 -5.60714 10.3964 -3.90581 -5.28654 10.4937 
-3.94001 -5.0495 10.3226 -3.90581 -5.28654 10.4937 -4.24585 -4.95437 10.5898 
-4.36232 -4.62302 10.4689 -4.24585 -4.95437 10.5898 -4.64185 -4.56332 10.7914 
-4.63013 -4.2165 10.5272 -4.64185 -4.56332 10.7914 -4.81804 -4.26169 10.8224 
-4.63013 -4.2165 10.5272 -4.81804 -4.26169 10.8224 -4.95031 -3.85848 10.7552 
-5.33991 -2.90902 10.9677 -5.44551 -3.047 11.2028 -5.56474 -2.6977 11.3306 
-5.4526 -2.56027 11.0816 -5.56474 -2.6977 11.3306 -5.66134 -2.33013 11.4543 
-5.542 -2.2306 11.1997 -5.66134 -2.33013 11.4543 -5.73582 -1.8655 11.598 
-5.54923 -1.06398 11.3885 -5.67427 -1.03982 11.6314 -5.61924 -0.535374 11.7472 
-5.27724 0.410652 11.8021 -5.47702 0.264874 12.0717 -5.31959 0.649539 12.1166 
-5.06842 1.09469 12.1345 -5.20935 1.03313 12.3742 -4.97371 1.47045 12.5024 
-4.83574 1.52565 12.2723 -4.97371 1.47045 12.5024 -4.5961 1.96236 12.5209 
-3.56187 2.96295 12.7357 -3.63238 2.98038 12.9394 -3.1739 3.3123 13.0545 
-2.72932 3.53457 13.0051 -3.1739 3.3123 13.0545 -2.64529 3.62358 13.2192 
-2.31856 3.7276 13.0551 -2.64529 3.62358 13.2192 -2.22512 3.81367 13.3033 
-2.31856 3.7276 13.0551 -2.22512 3.81367 13.3033 -1.79591 3.93732 13.1605 
-1.79591 3.93732 13.1605 -1.46822 4.07085 13.4616 -1.03244 4.13625 13.2669 
-0.643026 4.11939 13.0014 -1.03244 4.13625 13.2669 -0.314371 4.2201 13.3111 
2.30693 3.7118 12.9786 2.35427 3.74416 13.1876 2.82963 3.50853 13.086 
3.53434 2.9809 12.7354 3.54253 3.05207 12.9773 3.92192 2.71415 12.776 
4.28279 2.27731 12.513 4.36232 2.28617 12.7139 4.72706 1.82388 12.5591 
4.90969 1.46092 12.3314 4.72706 1.82388 12.5591 5.11585 1.27106 12.5292 
5.10869 1.07402 12.1929 5.11585 1.27106 12.5292 5.26726 0.920424 12.3632 
5.10869 1.07402 12.1929 5.26726 0.920424 12.3632 5.34253 0.554108 12.0547 
5.34253 0.554108 12.0547 5.55874 0.147103 12.1557 5.53723 -0.0778254 11.8891 
5.57498 -1.0993 11.4166 5.70511 -0.85498 11.7769 5.67427 -1.29597 11.5481 
5.57498 -1.0993 11.4166 5.67427 -1.29597 11.5481 5.63214 -1.65386 11.3906 
5.2957 -2.89434 10.9018 5.40149 -2.94178 11.0779 5.13105 -3.38517 10.7996 
3.56866 -5.16581 10.0824 3.63238 -5.31723 10.2434 3.22939 -5.61494 10.1521 
3.15071 -5.42428 9.95243 3.22939 -5.61494 10.1521 2.69949 -5.90313 10.0316 
2.58615 -5.82573 9.90067 2.69949 -5.90313 10.0316 2.1063 -6.18051 9.96106 
1.86643 -6.03734 9.73935 2.1063 -6.18051 9.96106 1.59734 -6.33215 9.88851 
-0.740927 -6.48708 9.81264 -0.919874 -6.61208 9.98407 -1.39703 -6.35911 9.84739 
-3.89787 -4.91851 10.1935 -3.94001 -5.0495 10.3226 -4.36232 -4.62302 10.4689 
-4.27933 -4.49387 10.3061 -4.36232 -4.62302 10.4689 -4.63013 -4.2165 10.5272 
-4.85621 -3.70055 10.5664 -4.95031 -3.85848 10.7552 -5.20368 -3.51881 10.968 
-5.091 -3.29861 10.7214 -5.20368 -3.51881 10.968 -5.33991 -2.90902 10.9677 
-5.45245 -0.451683 11.5077 -5.61924 -0.535374 11.7472 -5.5298 -0.0662303 11.8804 
-5.3649 -0.00477182 11.637 -5.5298 -0.0662303 11.8804 -5.27724 0.410652 11.8021 
-5.08408 0.85508 11.9046 -5.31959 0.649539 12.1166 -5.06842 1.09469 12.1345 
-4.1951 2.28336 12.38 -4.40379 2.21673 12.6396 -4.05611 2.58822 12.7421 
-3.82094 2.66636 12.5031 -4.05611 2.58822 12.7421 -3.56187 2.96295 12.7357 
-2.60458 3.52096 12.7873 -2.72932 3.53457 13.0051 -2.31856 3.7276 13.0551 
-1.9516 3.8101 12.8923 -2.31856 3.7276 13.0551 -1.79591 3.93732 13.1605 
-1.22216 4.01194 12.9398 -1.79591 3.93732 13.1605 -1.03244 4.13625 13.2669 
-1.22216 4.01194 12.9398 -1.03244 4.13625 13.2669 -0.643026 4.11939 13.0014 
-0.104961 4.14124 12.9847 -0.314371 4.2201 13.3111 0.131403 4.22196 13.2868 
1.10435 4.03848 12.9518 0.798733 4.1744 13.2914 1.27794 4.08569 13.2629 
1.10435 4.03848 12.9518 1.27794 4.08569 13.2629 1.75997 3.95493 13.1849 
1.69437 3.87663 12.862 1.75997 3.95493 13.1849 2.30693 3.7118 12.9786 
2.91986 3.33935 12.7215 2.82963 3.50853 13.086 3.24173 3.23877 12.924 
4.03703 2.44526 12.4226 3.92192 2.71415 12.776 4.28279 2.27731 12.513 
4.82555 1.41415 12.1056 4.90969 1.46092 12.3314 5.10869 1.07402 12.1929 
5.13784 0.749012 11.8764 5.10869 1.07402 12.1929 5.34253 0.554108 12.0547 
5.36662 0.0472689 11.6694 5.34253 0.554108 12.0547 5.53723 -0.0778254 11.8891 
5.36662 0.0472689 11.6694 5.53723 -0.0778254 11.8891 5.60386 -0.527748 11.7237 
5.45208 -0.481678 11.4891 5.60386 -0.527748 11.7237 5.57498 -1.0993 11.4166 
5.49248 -1.68189 11.1625 5.63214 -1.65386 11.3906 5.59089 -2.07443 11.2803 
5.3516 -2.25004 10.9194 5.59089 -2.07443 11.2803 5.47571 -2.44734 11.1077 
5.3516 -2.25004 10.9194 5.47571 -2.44734 11.1077 5.2957 -2.89434 10.9018 
5.15875 -2.82668 10.718 5.2957 -2.89434 10.9018 5.13105 -3.38517 10.7996 
4.97515 -3.2529 10.5793 5.13105 -3.38517 10.7996 4.92026 -3.80151 10.6807 
4.70421 -3.77152 10.4263 4.92026 -3.80151 10.6807 4.63413 -4.22522 10.5379 
4.35983 -4.23792 10.2658 4.63413 -4.22522 10.5379 4.25782 -4.70971 10.4054 
4.06935 -4.63466 10.191 4.25782 -4.70971 10.4054 3.91269 -5.04393 10.2927 
3.80033 -4.82453 10.071 3.91269 -5.04393 10.2927 3.56866 -5.16581 10.0824 
1.34259 -6.12875 9.64991 1.59734 -6.33215 9.88851 1.11597 -6.42736 9.83457 
0.703234 -6.26177 9.62352 1.11597 -6.42736 9.83457 0.742671 -6.48879 9.81961 
0.703234 -6.26177 9.62352 0.742671 -6.48879 9.81961 0.324856 -6.5455 9.82263 
0.107494 -6.29872 9.60789 0.324856 -6.5455 9.82263 -0.150259 -6.52423 9.79392 
-0.506187 -6.27812 9.61423 -0.150259 -6.52423 9.79392 -0.740927 -6.48708 9.81264 
-0.972136 -6.21332 9.63262 -0.740927 -6.48708 9.81264 -1.39703 -6.35911 9.84739 
-1.34879 -6.12892 9.65322 -1.39703 -6.35911 9.84739 -1.90191 -6.18634 9.8673 
-2.41686 -5.75223 9.77068 -2.3518 -6.03953 9.95295 -2.75859 -5.822 9.99601 
-2.97069 -5.42237 9.84799 -2.75859 -5.822 9.99601 -3.22362 -5.56886 10.107 
-3.43899 -5.1344 9.97187 -3.22362 -5.56886 10.107 -3.51934 -5.35944 10.1769 
-3.43899 -5.1344 9.97187 -3.51934 -5.35944 10.1769 -3.89787 -4.91851 10.1935 
-4.63285 -3.83558 10.381 -4.63013 -4.2165 10.5272 -4.85621 -3.70055 10.5664 
-5.17825 -2.7932 10.7372 -5.33991 -2.90902 10.9677 -5.4526 -2.56027 11.0816 
-5.33846 -2.23116 10.9037 -5.4526 -2.56027 11.0816 -5.542 -2.2306 11.1997 
-5.33846 -2.23116 10.9037 -5.542 -2.2306 11.1997 -5.60303 -1.86433 11.3137 
-5.49226 -1.67873 11.1607 -5.60303 -1.86433 11.3137 -5.65778 -1.47113 11.4672 
-5.39383 -0.713446 11.308 -5.54923 -1.06398 11.3885 -5.45245 -0.451683 11.5077 
-4.78508 1.39839 12.0325 -5.06842 1.09469 12.1345 -4.83574 1.52565 12.2723 
-4.47447 1.89734 12.2129 -4.83574 1.52565 12.2723 -4.5961 1.96236 12.5209 
-4.47447 1.89734 12.2129 -4.5961 1.96236 12.5209 -4.1951 2.28336 12.38 
-3.21834 3.11212 12.5827 -3.56187 2.96295 12.7357 -3.15812 3.25488 12.8291 
-3.21834 3.11212 12.5827 -3.15812 3.25488 12.8291 -2.60458 3.52096 12.7873 
2.37361 3.59284 12.7383 2.30693 3.7118 12.9786 2.63933 3.55211 12.9237 
2.37361 3.59284 12.7383 2.63933 3.55211 12.9237 2.91986 3.33935 12.7215 
3.29438 3.05757 12.5746 3.24173 3.23877 12.924 3.53434 2.9809 12.7354 
3.677 2.7633 12.4924 3.53434 2.9809 12.7354 3.92192 2.71415 12.776 
3.677 2.7633 12.4924 3.92192 2.71415 12.776 4.03703 2.44526 12.4226 
4.37125 1.95926 12.148 4.28279 2.27731 12.513 4.58666 1.89919 12.3914 
4.37125 1.95926 12.148 4.58666 1.89919 12.3914 4.82555 1.41415 12.1056 
5.43924 -1.05783 11.2376 5.57498 -1.0993 11.4166 5.49248 -1.68189 11.1625 
5.35113 -1.63921 10.9878 5.49248 -1.68189 11.1625 5.3516 -2.25004 10.9194 
3.96514 -4.50205 10.0559 4.06935 -4.63466 10.191 3.80033 -4.82453 10.071 
3.4261 -4.99665 9.90158 3.56866 -5.16581 10.0824 3.15071 -5.42428 9.95243 
2.75022 -5.51971 9.79161 3.15071 -5.42428 9.95243 2.58615 -5.82573 9.90067 
2.24572 -5.76114 9.70926 2.58615 -5.82573 9.90067 1.86643 -6.03734 9.73935 
-1.87711 -5.92782 9.67411 -1.90191 -6.18634 9.8673 -2.41686 -5.75223 9.77068 
-2.41686 -5.75223 9.77068 -2.75859 -5.822 9.99601 -2.97069 -5.42237 9.84799 
-3.93305 -4.62684 10.0792 -3.89787 -4.91851 10.1935 -4.27933 -4.49387 10.3061 
-4.33531 -4.19093 10.2315 -4.27933 -4.49387 10.3061 -4.63013 -4.2165 10.5272 
-4.33531 -4.19093 10.2315 -4.63013 -4.2165 10.5272 -4.63285 -3.83558 10.381 
-4.86261 -3.25934 10.4659 -4.85621 -3.70055 10.5664 -5.091 -3.29861 10.7214 
-4.86261 -3.25934 10.4659 -5.091 -3.29861 10.7214 -5.17825 -2.7932 10.7372 
-5.35602 -1.59363 11.0009 -5.49226 -1.67873 11.1607 -5.54923 -1.06398 11.3885 
-5.23268 -0.292635 11.3117 -5.45245 -0.451683 11.5077 -5.3649 -0.00477182 11.637 
-5.14295 0.146659 11.4485 -5.3649 -0.00477182 11.637 -5.27724 0.410652 11.8021 
-4.98178 0.665705 11.6182 -5.27724 0.410652 11.8021 -5.08408 0.85508 11.9046 
-4.76898 1.15917 11.7766 -5.08408 0.85508 11.9046 -4.78508 1.39839 12.0325 
-4.47445 1.66472 11.9401 -4.78508 1.39839 12.0325 -4.47447 1.89734 12.2129 
-4.20987 2.04074 12.0725 -4.47447 1.89734 12.2129 -4.1951 2.28336 12.38 
-3.86834 2.42219 12.189 -4.1951 2.28336 12.38 -3.82094 2.66636 12.5031 
-3.55105 2.72224 12.2922 -3.82094 2.66636 12.5031 -3.21834 3.11212 12.5827 
-2.70924 3.30933 12.4718 -3.21834 3.11212 12.5827 -2.60458 3.52096 12.7873 
-2.18248 3.58081 12.5738 -2.60458 3.52096 12.7873 -1.9516 3.8101 12.8923 
-1.58913 3.7989 12.6443 -1.9516 3.8101 12.8923 -1.22216 4.01194 12.9398 
-0.940558 3.93329 12.6655 -1.22216 4.01194 12.9398 -0.643026 4.11939 13.0014 
-0.364724 4.01348 12.7114 -0.643026 4.11939 13.0014 -0.104961 4.14124 12.9847 
0.138879 4.02644 12.7181 -0.104961 4.14124 12.9847 0.518785 4.13438 13.0118 
0.618792 3.98417 12.6917 0.518785 4.13438 13.0118 1.10435 4.03848 12.9518 
1.19689 3.89484 12.6717 1.10435 4.03848 12.9518 1.69437 3.87663 12.862 
1.86217 3.68424 12.5743 1.69437 3.87663 12.862 2.37361 3.59284 12.7383 
2.50345 3.42354 12.5119 2.37361 3.59284 12.7383 2.91986 3.33935 12.7215 
2.99708 3.13641 12.4232 2.91986 3.33935 12.7215 3.29438 3.05757 12.5746 
3.38593 2.85196 12.3261 3.29438 3.05757 12.5746 3.677 2.7633 12.4924 
3.82955 2.45503 12.1919 3.677 2.7633 12.4924 4.03703 2.44526 12.4226 
3.82955 2.45503 12.1919 4.03703 2.44526 12.4226 4.37125 1.95926 12.148 
4.85396 0.987495 11.7236 4.82555 1.41415 12.1056 5.13784 0.749012 11.8764 
5.06618 0.437603 11.549 5.13784 0.749012 11.8764 5.36662 0.0472689 11.6694 
5.17229 -0.00194976 11.3982 5.36662 0.0472689 11.6694 5.45208 -0.481678 11.4891 
5.25145 -0.466244 11.2494 5.45208 -0.481678 11.4891 5.43924 -1.05783 11.2376 
5.27881 -1.02605 11.0637 5.43924 -1.05783 11.2376 5.35113 -1.63921 10.9878 
5.06872 -2.4475 10.6154 5.3516 -2.25004 10.9194 5.15875 -2.82668 10.718 
4.90621 -2.87727 10.4729 5.15875 -2.82668 10.718 4.97515 -3.2529 10.5793 
4.70623 -3.30511 10.3374 4.97515 -3.2529 10.5793 4.70421 -3.77152 10.4263 
4.47973 -3.68823 10.2167 4.70421 -3.77152 10.4263 4.35983 -4.23792 10.2658 
4.19176 -4.07311 10.0859 4.35983 -4.23792 10.2658 3.96514 -4.50205 10.0559 
3.50821 -4.73689 9.8505 3.80033 -4.82453 10.071 3.4261 -4.99665 9.90158 
3.01229 -5.13259 9.73839 3.15071 -5.42428 9.95243 2.75022 -5.51971 9.79161 
2.51547 -5.40163 9.63253 2.75022 -5.51971 9.79161 2.24572 -5.76114 9.70926 
1.85859 -5.70689 9.54736 2.24572 -5.76114 9.70926 1.86643 -6.03734 9.73935 
1.85859 -5.70689 9.54736 1.86643 -6.03734 9.73935 1.34259 -6.12875 9.64991 
1.29565 -5.86199 9.49078 1.34259 -6.12875 9.64991 0.848537 -6.00271 9.48521 
0.360513 -6.03001 9.45727 0.703234 -6.26177 9.62352 0.107494 -6.29872 9.60789 
-0.12626 -6.09073 9.48171 0.107494 -6.29872 9.60789 -0.506187 -6.27812 9.61423 
-0.60269 -6.0032 9.46096 -0.506187 -6.27812 9.61423 -0.972136 -6.21332 9.63262 
-1.0737 -5.92534 9.48088 -0.972136 -6.21332 9.63262 -1.34879 -6.12892 9.65322 
-1.63436 -5.78934 9.52835 -1.34879 -6.12892 9.65322 -1.87711 -5.92782 9.67411 
-2.20355 -5.56503 9.59189 -1.87711 -5.92782 9.67411 -2.41686 -5.75223 9.77068 
-2.66714 -5.30619 9.65579 -2.41686 -5.75223 9.77068 -2.97069 -5.42237 9.84799 
-3.63538 -4.64664 9.89117 -3.43899 -5.1344 9.97187 -3.93305 -4.62684 10.0792 
-4.04898 -4.22697 10.0283 -3.93305 -4.62684 10.0792 -4.33531 -4.19093 10.2315 
-4.42828 -3.7473 10.1852 -4.33531 -4.19093 10.2315 -4.63285 -3.83558 10.381 
-4.42828 -3.7473 10.1852 -4.63285 -3.83558 10.381 -4.86261 -3.25934 10.4659 
-4.99486 -2.65697 10.5461 -5.17825 -2.7932 10.7372 -5.33846 -2.23116 10.9037 
-5.15448 -2.11853 10.7151 -5.33846 -2.23116 10.9037 -5.35602 -1.59363 11.0009 
-5.22048 -0.836575 11.0745 -5.39129 -1.1351 11.1572 -5.39383 -0.713446 11.308 
-5.22048 -0.836575 11.0745 -5.39383 -0.713446 11.308 -5.23268 -0.292635 11.3117 
4.23098 1.91237 11.9566 4.37125 1.95926 12.148 4.60827 1.46407 11.8845 
5.18806 -1.56913 10.8391 5.35113 -1.63921 10.9878 5.17667 -2.02522 10.7498 
3.7314 -4.31342 9.8633 3.96514 -4.50205 10.0559 3.50821 -4.73689 9.8505 
3.50821 -4.73689 9.8505 3.4261 -4.99665 9.90158 3.01229 -5.13259 9.73839 
-0.380146 -5.82394 9.36772 -0.12626 -6.09073 9.48171 -0.60269 -6.0032 9.46096 
-2.66714 -5.30619 9.65579 -2.97069 -5.42237 9.84799 -3.21835 -4.99211 9.78494 
-4.72393 -3.18607 10.3412 -4.86261 -3.25934 10.4659 -4.99486 -2.65697 10.5461 
-5.20091 -1.4621 10.8724 -5.35602 -1.59363 11.0009 -5.39129 -1.1351 11.1572 
-5.07011 -0.607414 11.0284 -5.22048 -0.836575 11.0745 -5.23268 -0.292635 11.3117 
-5.00644 -0.172638 11.1631 -5.23268 -0.292635 11.3117 -5.14295 0.146659 11.4485 
-4.90754 0.303652 11.3237 -5.14295 0.146659 11.4485 -4.98178 0.665705 11.6182 
-4.75859 0.740284 11.4657 -4.98178 0.665705 11.6182 -4.76898 1.15917 11.7766 
-4.56993 1.17192 11.6074 -4.76898 1.15917 11.7766 -4.47445 1.66472 11.9401 
-4.2912 1.64349 11.7618 -4.47445 1.66472 11.9401 -4.20987 2.04074 12.0725 
-4.03289 1.99759 11.8779 -4.20987 2.04074 12.0725 -3.86834 2.42219 12.189 
-3.37643 2.66859 12.0967 -3.86834 2.42219 12.189 -3.55105 2.72224 12.2922 
-3.37643 2.66859 12.0967 -3.55105 2.72224 12.2922 -3.19726 2.99247 12.3703 
-2.99251 2.95415 12.1851 -3.19726 2.99247 12.3703 -2.70924 3.30933 12.4718 
-2.58313 3.21946 12.2752 -2.70924 3.30933 12.4718 -2.18248 3.58081 12.5738 
-2.07712 3.46365 12.3533 -2.18248 3.58081 12.5738 -1.58913 3.7989 12.6443 
-1.11133 3.7609 12.4399 -1.58913 3.7989 12.6443 -0.940558 3.93329 12.6655 
-0.464176 3.86789 12.4843 -0.940558 3.93329 12.6655 -0.364724 4.01348 12.7114 
-0.464176 3.86789 12.4843 -0.364724 4.01348 12.7114 0.138879 4.02644 12.7181 
0.109471 3.88853 12.4953 0.138879 4.02644 12.7181 0.618792 3.98417 12.6917 
0.676179 3.84638 12.4783 0.618792 3.98417 12.6917 1.19689 3.89484 12.6717 
1.25959 3.73462 12.4398 1.19689 3.89484 12.6717 1.86217 3.68424 12.5743 
2.19707 3.40203 12.3242 1.86217 3.68424 12.5743 2.50345 3.42354 12.5119 
2.66658 3.15815 12.2466 2.50345 3.42354 12.5119 2.99708 3.13641 12.4232 
2.98466 2.95945 12.1867 2.99708 3.13641 12.4232 3.38593 2.85196 12.3261 
3.27718 2.74695 12.1203 3.38593 2.85196 12.3261 3.82955 2.45503 12.1919 
3.90776 2.1281 11.9106 3.82955 2.45503 12.1919 4.23098 1.91237 11.9566 
4.2344 1.73159 11.7922 4.23098 1.91237 11.9566 4.60827 1.46407 11.8845 
4.52382 1.22685 11.6124 4.60827 1.46407 11.8845 4.85396 0.987495 11.7236 
4.75521 0.74863 11.4684 4.85396 0.987495 11.7236 5.06618 0.437603 11.549 
4.90705 0.300275 11.3208 5.06618 0.437603 11.549 5.17229 -0.00194976 11.3982 
5.01926 -0.215152 11.1535 5.17229 -0.00194976 11.3982 5.25145 -0.466244 11.2494 
5.07815 -0.7405 10.9847 5.25145 -0.466244 11.2494 5.27881 -1.02605 11.0637 
5.06311 -1.25857 10.8104 5.27881 -1.02605 11.0637 5.18806 -1.56913 10.8391 
5.01032 -1.68803 10.6694 5.18806 -1.56913 10.8391 5.17667 -2.02522 10.7498 
4.95198 -2.02414 10.5675 5.17667 -2.02522 10.7498 5.06872 -2.4475 10.6154 
4.8113 -2.48483 10.4114 5.06872 -2.4475 10.6154 4.90621 -2.87727 10.4729 
4.56699 -3.08901 10.2271 4.90621 -2.87727 10.4729 4.70623 -3.30511 10.3374 
4.56699 -3.08901 10.2271 4.70623 -3.30511 10.3374 4.47973 -3.68823 10.2167 
4.3071 -3.52675 10.0849 4.47973 -3.68823 10.2167 4.19176 -4.07311 10.0859 
3.99799 -3.92734 9.94592 4.19176 -4.07311 10.0859 3.7314 -4.31342 9.8633 
3.33206 -4.61216 9.73251 3.50821 -4.73689 9.8505 3.01229 -5.13259 9.73839 
2.89046 -4.92675 9.62615 3.01229 -5.13259 9.73839 2.51547 -5.40163 9.63253 
1.98794 -5.40625 9.47342 2.51547 -5.40163 9.63253 1.85859 -5.70689 9.54736 
1.47545 -5.56293 9.41168 1.85859 -5.70689 9.54736 1.29565 -5.86199 9.49078 
1.07158 -5.66607 9.38032 1.29565 -5.86199 9.49078 0.848537 -6.00271 9.48521 
0.683954 -5.73596 9.36141 0.848537 -6.00271 9.48521 0.360513 -6.03001 9.45727 
-0.801506 -5.71484 9.36512 -0.60269 -6.0032 9.46096 -1.0737 -5.92534 9.48088 
-1.23366 -5.63786 9.39323 -1.0737 -5.92534 9.48088 -1.63436 -5.78934 9.52835 
-1.70456 -5.5036 9.43796 -1.63436 -5.78934 9.52835 -2.20355 -5.56503 9.59189 
-2.21625 -5.28458 9.49883 -2.20355 -5.56503 9.59189 -2.66714 -5.30619 9.65579 
-2.72802 -5.02604 9.59234 -2.66714 -5.30619 9.65579 -3.21835 -4.99211 9.78494 
-3.10336 -4.77781 9.67343 -3.21835 -4.99211 9.78494 -3.63538 -4.64664 9.89117 
-3.53525 -4.43543 9.79033 -3.63538 -4.64664 9.89117 -4.04898 -4.22697 10.0283 
-3.90401 -4.05735 9.91355 -4.04898 -4.22697 10.0283 -4.42828 -3.7473 10.1852 
-4.2465 -3.613 10.053 -4.42828 -3.7473 10.1852 -4.72393 -3.18607 10.3412 
-4.78335 -2.59049 10.3841 -4.72393 -3.18607 10.3412 -4.99486 -2.65697 10.5461 
-4.78335 -2.59049 10.3841 -4.99486 -2.65697 10.5461 -5.15448 -2.11853 10.7151 
-4.96602 -1.98654 10.5806 -5.15448 -2.11853 10.7151 -5.20091 -1.4621 10.8724 
-5.0821 -1.03401 10.8907 -5.20091 -1.4621 10.8724 -5.22048 -0.836575 11.0745 
-5.20091 -1.4621 10.8724 -5.0821 -1.03401 10.8907 -5.04388 -1.46231 10.7439 
-5.20091 -1.4621 10.8724 -5.04388 -1.46231 10.7439 -4.96602 -1.98654 10.5806 
-5.15448 -2.11853 10.7151 -4.96602 -1.98654 10.5806 -4.78335 -2.59049 10.3841 
-4.72393 -3.18607 10.3412 -4.78335 -2.59049 10.3841 -4.52524 -3.15429 10.2025 
-4.72393 -3.18607 10.3412 -4.52524 -3.15429 10.2025 -4.2465 -3.613 10.053 
-4.42828 -3.7473 10.1852 -4.2465 -3.613 10.053 -3.90401 -4.05735 9.91355 
-4.04898 -4.22697 10.0283 -3.90401 -4.05735 9.91355 -3.53525 -4.43543 9.79033 
-3.63538 -4.64664 9.89117 -3.53525 -4.43543 9.79033 -3.10336 -4.77781 9.67343 
-3.21835 -4.99211 9.78494 -3.10336 -4.77781 9.67343 -2.72802 -5.02604 9.59234 
-2.66714 -5.30619 9.65579 -2.72802 -5.02604 9.59234 -2.21625 -5.28458 9.49883 
-2.20355 -5.56503 9.59189 -2.21625 -5.28458 9.49883 -1.70456 -5.5036 9.43796 
-1.63436 -5.78934 9.52835 -1.70456 -5.5036 9.43796 -1.23366 -5.63786 9.39323 
-1.0737 -5.92534 9.48088 -1.23366 -5.63786 9.39323 -0.801506 -5.71484 9.36512 
-0.60269 -6.0032 9.46096 -0.801506 -5.71484 9.36512 -0.380146 -5.82394 9.36772 
0.360513 -6.03001 9.45727 0.171139 -5.81206 9.35681 0.683954 -5.73596 9.36141 
0.848537 -6.00271 9.48521 0.683954 -5.73596 9.36141 1.07158 -5.66607 9.38032 
1.29565 -5.86199 9.49078 1.07158 -5.66607 9.38032 1.47545 -5.56293 9.41168 
1.85859 -5.70689 9.54736 1.47545 -5.56293 9.41168 1.98794 -5.40625 9.47342 
2.51547 -5.40163 9.63253 1.98794 -5.40625 9.47342 2.48846 -5.15388 9.54535 
2.51547 -5.40163 9.63253 2.48846 -5.15388 9.54535 2.89046 -4.92675 9.62615 
3.01229 -5.13259 9.73839 2.89046 -4.92675 9.62615 3.33206 -4.61216 9.73251 
3.50821 -4.73689 9.8505 3.33206 -4.61216 9.73251 3.7314 -4.31342 9.8633 
4.19176 -4.07311 10.0859 3.99799 -3.92734 9.94592 4.3071 -3.52675 10.0849 
4.47973 -3.68823 10.2167 4.3071 -3.52675 10.0849 4.56699 -3.08901 10.2271 
4.90621 -2.87727 10.4729 4.56699 -3.08901 10.2271 4.8113 -2.48483 10.4114 
5.06872 -2.4475 10.6154 4.8113 -2.48483 10.4114 4.95198 -2.02414 10.5675 
5.17667 -2.02522 10.7498 4.95198 -2.02414 10.5675 5.01032 -1.68803 10.6694 
5.18806 -1.56913 10.8391 5.01032 -1.68803 10.6694 5.06311 -1.25857 10.8104 
5.27881 -1.02605 11.0637 5.06311 -1.25857 10.8104 5.07815 -0.7405 10.9847 
5.25145 -0.466244 11.2494 5.07815 -0.7405 10.9847 5.01926 -0.215152 11.1535 
5.17229 -0.00194976 11.3982 5.01926 -0.215152 11.1535 4.90705 0.300275 11.3208 
5.06618 0.437603 11.549 4.90705 0.300275 11.3208 4.75521 0.74863 11.4684 
4.85396 0.987495 11.7236 4.75521 0.74863 11.4684 4.52382 1.22685 11.6124 
4.60827 1.46407 11.8845 4.52382 1.22685 11.6124 4.2344 1.73159 11.7922 
4.23098 1.91237 11.9566 4.2344 1.73159 11.7922 3.90776 2.1281 11.9106 
3.82955 2.45503 12.1919 3.90776 2.1281 11.9106 3.6082 2.45563 12.0239 
3.82955 2.45503 12.1919 3.6082 2.45563 12.0239 3.27718 2.74695 12.1203 
3.38593 2.85196 12.3261 3.27718 2.74695 12.1203 2.98466 2.95945 12.1867 
2.99708 3.13641 12.4232 2.98466 2.95945 12.1867 2.66658 3.15815 12.2466 
2.50345 3.42354 12.5119 2.66658 3.15815 12.2466 2.19707 3.40203 12.3242 
1.86217 3.68424 12.5743 2.19707 3.40203 12.3242 1.69894 3.59792 12.3882 
1.86217 3.68424 12.5743 1.69894 3.59792 12.3882 1.25959 3.73462 12.4398 
1.19689 3.89484 12.6717 1.25959 3.73462 12.4398 0.676179 3.84638 12.4783 
0.618792 3.98417 12.6917 0.676179 3.84638 12.4783 0.109471 3.88853 12.4953 
0.138879 4.02644 12.7181 0.109471 3.88853 12.4953 -0.464176 3.86789 12.4843 
-0.940558 3.93329 12.6655 -0.464176 3.86789 12.4843 -1.11133 3.7609 12.4399 
-1.58913 3.7989 12.6443 -1.11133 3.7609 12.4399 -1.68421 3.61245 12.4011 
-1.58913 3.7989 12.6443 -1.68421 3.61245 12.4011 -2.07712 3.46365 12.3533 
-2.18248 3.58081 12.5738 -2.07712 3.46365 12.3533 -2.58313 3.21946 12.2752 
-2.70924 3.30933 12.4718 -2.58313 3.21946 12.2752 -2.99251 2.95415 12.1851 
-3.19726 2.99247 12.3703 -2.99251 2.95415 12.1851 -3.37643 2.66859 12.0967 
-3.86834 2.42219 12.189 -3.37643 2.66859 12.0967 -3.7286 2.32314 11.974 
-3.86834 2.42219 12.189 -3.7286 2.32314 11.974 -4.03289 1.99759 11.8779 
-4.20987 2.04074 12.0725 -4.03289 1.99759 11.8779 -4.2912 1.64349 11.7618 
-4.47445 1.66472 11.9401 -4.2912 1.64349 11.7618 -4.56993 1.17192 11.6074 
-4.76898 1.15917 11.7766 -4.56993 1.17192 11.6074 -4.75859 0.740284 11.4657 
-4.98178 0.665705 11.6182 -4.75859 0.740284 11.4657 -4.90754 0.303652 11.3237 
-5.14295 0.146659 11.4485 -4.90754 0.303652 11.3237 -5.00644 -0.172638 11.1631 
-5.23268 -0.292635 11.3117 -5.00644 -0.172638 11.1631 -5.07011 -0.607414 11.0284 
-5.22048 -0.836575 11.0745 -5.07011 -0.607414 11.0284 -5.0821 -1.03401 10.8907 
-5.39129 -1.1351 11.1572 -5.22048 -0.836575 11.0745 -5.20091 -1.4621 10.8724 
-5.35602 -1.59363 11.0009 -5.20091 -1.4621 10.8724 -5.15448 -2.11853 10.7151 
-0.12626 -6.09073 9.48171 -0.380146 -5.82394 9.36772 0.171139 -5.81206 9.35681 
-0.12626 -6.09073 9.48171 0.171139 -5.81206 9.35681 0.360513 -6.03001 9.45727 
3.96514 -4.50205 10.0559 3.7314 -4.31342 9.8633 4.19176 -4.07311 10.0859 
5.35113 -1.63921 10.9878 5.18806 -1.56913 10.8391 5.27881 -1.02605 11.0637 
4.37125 1.95926 12.148 4.23098 1.91237 11.9566 3.82955 2.45503 12.1919 
1.69437 3.87663 12.862 1.86217 3.68424 12.5743 1.19689 3.89484 12.6717 
-5.33846 -2.23116 10.9037 -5.15448 -2.11853 10.7151 -4.99486 -2.65697 10.5461 
-5.17825 -2.7932 10.7372 -4.99486 -2.65697 10.5461 -4.86261 -3.25934 10.4659 
-4.86261 -3.25934 10.4659 -4.72393 -3.18607 10.3412 -4.42828 -3.7473 10.1852 
-4.33531 -4.19093 10.2315 -4.42828 -3.7473 10.1852 -4.04898 -4.22697 10.0283 
-3.93305 -4.62684 10.0792 -4.04898 -4.22697 10.0283 -3.63538 -4.64664 9.89117 
-3.43899 -5.1344 9.97187 -3.63538 -4.64664 9.89117 -3.21835 -4.99211 9.78494 
-3.43899 -5.1344 9.97187 -3.21835 -4.99211 9.78494 -2.97069 -5.42237 9.84799 
-2.41686 -5.75223 9.77068 -2.66714 -5.30619 9.65579 -2.20355 -5.56503 9.59189 
-1.87711 -5.92782 9.67411 -2.20355 -5.56503 9.59189 -1.63436 -5.78934 9.52835 
-1.34879 -6.12892 9.65322 -1.63436 -5.78934 9.52835 -1.0737 -5.92534 9.48088 
-0.972136 -6.21332 9.63262 -1.0737 -5.92534 9.48088 -0.60269 -6.0032 9.46096 
-0.506187 -6.27812 9.61423 -0.60269 -6.0032 9.46096 -0.12626 -6.09073 9.48171 
0.107494 -6.29872 9.60789 -0.12626 -6.09073 9.48171 0.360513 -6.03001 9.45727 
0.703234 -6.26177 9.62352 0.360513 -6.03001 9.45727 0.848537 -6.00271 9.48521 
1.34259 -6.12875 9.64991 1.29565 -5.86199 9.49078 1.85859 -5.70689 9.54736 
2.24572 -5.76114 9.70926 1.85859 -5.70689 9.54736 2.51547 -5.40163 9.63253 
2.75022 -5.51971 9.79161 2.51547 -5.40163 9.63253 3.01229 -5.13259 9.73839 
3.15071 -5.42428 9.95243 3.01229 -5.13259 9.73839 3.4261 -4.99665 9.90158 
3.80033 -4.82453 10.071 3.50821 -4.73689 9.8505 3.96514 -4.50205 10.0559 
4.35983 -4.23792 10.2658 4.19176 -4.07311 10.0859 4.47973 -3.68823 10.2167 
4.70421 -3.77152 10.4263 4.47973 -3.68823 10.2167 4.70623 -3.30511 10.3374 
4.97515 -3.2529 10.5793 4.70623 -3.30511 10.3374 4.90621 -2.87727 10.4729 
5.15875 -2.82668 10.718 4.90621 -2.87727 10.4729 5.06872 -2.4475 10.6154 
5.3516 -2.25004 10.9194 5.06872 -2.4475 10.6154 5.17667 -2.02522 10.7498 
5.3516 -2.25004 10.9194 5.17667 -2.02522 10.7498 5.35113 -1.63921 10.9878 
5.43924 -1.05783 11.2376 5.27881 -1.02605 11.0637 5.25145 -0.466244 11.2494 
5.45208 -0.481678 11.4891 5.25145 -0.466244 11.2494 5.17229 -0.00194976 11.3982 
5.36662 0.0472689 11.6694 5.17229 -0.00194976 11.3982 5.06618 0.437603 11.549 
5.13784 0.749012 11.8764 5.06618 0.437603 11.549 4.85396 0.987495 11.7236 
4.82555 1.41415 12.1056 4.85396 0.987495 11.7236 4.60827 1.46407 11.8845 
4.82555 1.41415 12.1056 4.60827 1.46407 11.8845 4.37125 1.95926 12.148 
3.677 2.7633 12.4924 3.82955 2.45503 12.1919 3.38593 2.85196 12.3261 
3.29438 3.05757 12.5746 3.38593 2.85196 12.3261 2.99708 3.13641 12.4232 
2.91986 3.33935 12.7215 2.99708 3.13641 12.4232 2.50345 3.42354 12.5119 
2.37361 3.59284 12.7383 2.50345 3.42354 12.5119 1.86217 3.68424 12.5743 
1.10435 4.03848 12.9518 1.19689 3.89484 12.6717 0.618792 3.98417 12.6917 
0.518785 4.13438 13.0118 0.618792 3.98417 12.6917 0.138879 4.02644 12.7181 
-0.104961 4.14124 12.9847 0.138879 4.02644 12.7181 -0.364724 4.01348 12.7114 
-0.643026 4.11939 13.0014 -0.364724 4.01348 12.7114 -0.940558 3.93329 12.6655 
-1.22216 4.01194 12.9398 -0.940558 3.93329 12.6655 -1.58913 3.7989 12.6443 
-1.9516 3.8101 12.8923 -1.58913 3.7989 12.6443 -2.18248 3.58081 12.5738 
-2.60458 3.52096 12.7873 -2.18248 3.58081 12.5738 -2.70924 3.30933 12.4718 
-3.21834 3.11212 12.5827 -2.70924 3.30933 12.4718 -3.19726 2.99247 12.3703 
-3.21834 3.11212 12.5827 -3.19726 2.99247 12.3703 -3.55105 2.72224 12.2922 
-3.82094 2.66636 12.5031 -3.55105 2.72224 12.2922 -3.86834 2.42219 12.189 
-4.1951 2.28336 12.38 -3.86834 2.42219 12.189 -4.20987 2.04074 12.0725 
-4.47447 1.89734 12.2129 -4.20987 2.04074 12.0725 -4.47445 1.66472 11.9401 
-4.78508 1.39839 12.0325 -4.47445 1.66472 11.9401 -4.76898 1.15917 11.7766 
-5.08408 0.85508 11.9046 -4.76898 1.15917 11.7766 -4.98178 0.665705 11.6182 
-5.27724 0.410652 11.8021 -4.98178 0.665705 11.6182 -5.14295 0.146659 11.4485 
-5.3649 -0.00477182 11.637 -5.14295 0.146659 11.4485 -5.23268 -0.292635 11.3117 
-5.45245 -0.451683 11.5077 -5.23268 -0.292635 11.3117 -5.39383 -0.713446 11.308 
-5.54923 -1.06398 11.3885 -5.39129 -1.1351 11.1572 -5.35602 -1.59363 11.0009 
-5.49226 -1.67873 11.1607 -5.35602 -1.59363 11.0009 -5.33846 -2.23116 10.9037 
-4.85621 -3.70055 10.5664 -4.86261 -3.25934 10.4659 -4.63285 -3.83558 10.381 
-4.27933 -4.49387 10.3061 -4.33531 -4.19093 10.2315 -3.93305 -4.62684 10.0792 
-3.89787 -4.91851 10.1935 -3.93305 -4.62684 10.0792 -3.43899 -5.1344 9.97187 
0.703234 -6.26177 9.62352 0.848537 -6.00271 9.48521 1.34259 -6.12875 9.64991 
2.58615 -5.82573 9.90067 2.24572 -5.76114 9.70926 2.75022 -5.51971 9.79161 
3.56866 -5.16581 10.0824 3.4261 -4.99665 9.90158 3.80033 -4.82453 10.071 
4.06935 -4.63466 10.191 3.96514 -4.50205 10.0559 4.35983 -4.23792 10.2658 
5.49248 -1.68189 11.1625 5.35113 -1.63921 10.9878 5.43924 -1.05783 11.2376 
5.57498 -1.0993 11.4166 5.43924 -1.05783 11.2376 5.45208 -0.481678 11.4891 
4.28279 2.27731 12.513 4.37125 1.95926 12.148 4.03703 2.44526 12.4226 
3.53434 2.9809 12.7354 3.677 2.7633 12.4924 3.29438 3.05757 12.5746 
3.24173 3.23877 12.924 3.29438 3.05757 12.5746 2.91986 3.33935 12.7215 
2.30693 3.7118 12.9786 2.37361 3.59284 12.7383 1.69437 3.87663 12.862 
-3.56187 2.96295 12.7357 -3.21834 3.11212 12.5827 -3.82094 2.66636 12.5031 
-4.83574 1.52565 12.2723 -4.47447 1.89734 12.2129 -4.78508 1.39839 12.0325 
-5.06842 1.09469 12.1345 -4.78508 1.39839 12.0325 -5.08408 0.85508 11.9046 
-5.54923 -1.06398 11.3885 -5.39383 -0.713446 11.308 -5.39129 -1.1351 11.1572 
-5.65778 -1.47113 11.4672 -5.54923 -1.06398 11.3885 -5.49226 -1.67873 11.1607 
-5.60303 -1.86433 11.3137 -5.49226 -1.67873 11.1607 -5.33846 -2.23116 10.9037 
-5.4526 -2.56027 11.0816 -5.33846 -2.23116 10.9037 -5.17825 -2.7932 10.7372 
-5.33991 -2.90902 10.9677 -5.17825 -2.7932 10.7372 -5.091 -3.29861 10.7214 
-3.22362 -5.56886 10.107 -3.43899 -5.1344 9.97187 -2.97069 -5.42237 9.84799 
-2.3518 -6.03953 9.95295 -2.41686 -5.75223 9.77068 -1.90191 -6.18634 9.8673 
-1.90191 -6.18634 9.8673 -1.87711 -5.92782 9.67411 -1.34879 -6.12892 9.65322 
-1.39703 -6.35911 9.84739 -1.34879 -6.12892 9.65322 -0.972136 -6.21332 9.63262 
-0.740927 -6.48708 9.81264 -0.972136 -6.21332 9.63262 -0.506187 -6.27812 9.61423 
-0.150259 -6.52423 9.79392 -0.506187 -6.27812 9.61423 0.107494 -6.29872 9.60789 
0.324856 -6.5455 9.82263 0.107494 -6.29872 9.60789 0.703234 -6.26177 9.62352 
1.11597 -6.42736 9.83457 0.703234 -6.26177 9.62352 1.34259 -6.12875 9.64991 
1.59734 -6.33215 9.88851 1.34259 -6.12875 9.64991 1.86643 -6.03734 9.73935 
3.91269 -5.04393 10.2927 3.80033 -4.82453 10.071 4.06935 -4.63466 10.191 
4.25782 -4.70971 10.4054 4.06935 -4.63466 10.191 4.35983 -4.23792 10.2658 
4.63413 -4.22522 10.5379 4.35983 -4.23792 10.2658 4.70421 -3.77152 10.4263 
4.92026 -3.80151 10.6807 4.70421 -3.77152 10.4263 4.97515 -3.2529 10.5793 
5.13105 -3.38517 10.7996 4.97515 -3.2529 10.5793 5.15875 -2.82668 10.718 
5.2957 -2.89434 10.9018 5.15875 -2.82668 10.718 5.3516 -2.25004 10.9194 
5.59089 -2.07443 11.2803 5.3516 -2.25004 10.9194 5.49248 -1.68189 11.1625 
5.63214 -1.65386 11.3906 5.49248 -1.68189 11.1625 5.57498 -1.0993 11.4166 
5.60386 -0.527748 11.7237 5.45208 -0.481678 11.4891 5.36662 0.0472689 11.6694 
5.34253 0.554108 12.0547 5.36662 0.0472689 11.6694 5.13784 0.749012 11.8764 
5.10869 1.07402 12.1929 5.13784 0.749012 11.8764 4.82555 1.41415 12.1056 
4.90969 1.46092 12.3314 4.82555 1.41415 12.1056 4.58666 1.89919 12.3914 
2.82963 3.50853 13.086 2.91986 3.33935 12.7215 2.63933 3.55211 12.9237 
1.75997 3.95493 13.1849 1.69437 3.87663 12.862 1.10435 4.03848 12.9518 
0.798733 4.1744 13.2914 1.10435 4.03848 12.9518 0.518785 4.13438 13.0118 
0.131403 4.22196 13.2868 0.518785 4.13438 13.0118 -0.104961 4.14124 12.9847 
-0.314371 4.2201 13.3111 -0.104961 4.14124 12.9847 -0.643026 4.11939 13.0014 
-1.79591 3.93732 13.1605 -1.22216 4.01194 12.9398 -1.9516 3.8101 12.8923 
-2.31856 3.7276 13.0551 -1.9516 3.8101 12.8923 -2.60458 3.52096 12.7873 
-2.72932 3.53457 13.0051 -2.60458 3.52096 12.7873 -3.15812 3.25488 12.8291 
-4.05611 2.58822 12.7421 -3.82094 2.66636 12.5031 -4.1951 2.28336 12.38 
-4.40379 2.21673 12.6396 -4.1951 2.28336 12.38 -4.5961 1.96236 12.5209 
-5.31959 0.649539 12.1166 -5.08408 0.85508 11.9046 -5.27724 0.410652 11.8021 
-5.5298 -0.0662303 11.8804 -5.3649 -0.00477182 11.637 -5.45245 -0.451683 11.5077 
-5.61924 -0.535374 11.7472 -5.45245 -0.451683 11.5077 -5.54923 -1.06398 11.3885 
-5.67427 -1.03982 11.6314 -5.54923 -1.06398 11.3885 -5.65778 -1.47113 11.4672 
-5.20368 -3.51881 10.968 -5.091 -3.29861 10.7214 -4.85621 -3.70055 10.5664 
-4.95031 -3.85848 10.7552 -4.85621 -3.70055 10.5664 -4.63013 -4.2165 10.5272 
-4.36232 -4.62302 10.4689 -4.27933 -4.49387 10.3061 -3.89787 -4.91851 10.1935 
-3.94001 -5.0495 10.3226 -3.89787 -4.91851 10.1935 -3.51934 -5.35944 10.1769 
2.1063 -6.18051 9.96106 1.86643 -6.03734 9.73935 2.58615 -5.82573 9.90067 
2.69949 -5.90313 10.0316 2.58615 -5.82573 9.90067 3.15071 -5.42428 9.95243 
3.22939 -5.61494 10.1521 3.15071 -5.42428 9.95243 3.56866 -5.16581 10.0824 
3.63238 -5.31723 10.2434 3.56866 -5.16581 10.0824 3.91269 -5.04393 10.2927 
5.40149 -2.94178 11.0779 5.2957 -2.89434 10.9018 5.47571 -2.44734 11.1077 
5.70511 -0.85498 11.7769 5.57498 -1.0993 11.4166 5.60386 -0.527748 11.7237 
5.11585 1.27106 12.5292 5.10869 1.07402 12.1929 4.90969 1.46092 12.3314 
4.72706 1.82388 12.5591 4.90969 1.46092 12.3314 4.58666 1.89919 12.3914 
4.72706 1.82388 12.5591 4.58666 1.89919 12.3914 4.28279 2.27731 12.513 
4.36232 2.28617 12.7139 4.28279 2.27731 12.513 3.92192 2.71415 12.776 
3.54253 3.05207 12.9773 3.53434 2.9809 12.7354 3.24173 3.23877 12.924 
2.82963 3.50853 13.086 2.63933 3.55211 12.9237 2.30693 3.7118 12.9786 
2.35427 3.74416 13.1876 2.30693 3.7118 12.9786 1.75997 3.95493 13.1849 
0.798733 4.1744 13.2914 0.518785 4.13438 13.0118 0.131403 4.22196 13.2868 
-2.64529 3.62358 13.2192 -2.31856 3.7276 13.0551 -2.72932 3.53457 13.0051 
-3.1739 3.3123 13.0545 -2.72932 3.53457 13.0051 -3.15812 3.25488 12.8291 
-3.1739 3.3123 13.0545 -3.15812 3.25488 12.8291 -3.56187 2.96295 12.7357 
-3.63238 2.98038 12.9394 -3.56187 2.96295 12.7357 -4.05611 2.58822 12.7421 
-4.97371 1.47045 12.5024 -4.83574 1.52565 12.2723 -5.06842 1.09469 12.1345 
-5.20935 1.03313 12.3742 -5.06842 1.09469 12.1345 -5.31959 0.649539 12.1166 
-5.47702 0.264874 12.0717 -5.27724 0.410652 11.8021 -5.5298 -0.0662303 11.8804 
-5.79872 -1.3249 11.8489 -5.67427 -1.03982 11.6314 -5.65778 -1.47113 11.4672 
-5.73582 -1.8655 11.598 -5.65778 -1.47113 11.4672 -5.60303 -1.86433 11.3137 
-5.73582 -1.8655 11.598 -5.60303 -1.86433 11.3137 -5.542 -2.2306 11.1997 
-5.66134 -2.33013 11.4543 -5.542 -2.2306 11.1997 -5.4526 -2.56027 11.0816 
-5.56474 -2.6977 11.3306 -5.4526 -2.56027 11.0816 -5.33991 -2.90902 10.9677 
-5.44551 -3.047 11.2028 -5.33991 -2.90902 10.9677 -5.20368 -3.51881 10.968 
-4.64185 -4.56332 10.7914 -4.63013 -4.2165 10.5272 -4.36232 -4.62302 10.4689 
-4.24585 -4.95437 10.5898 -4.36232 -4.62302 10.4689 -3.94001 -5.0495 10.3226 
-3.90581 -5.28654 10.4937 -3.94001 -5.0495 10.3226 -3.51934 -5.35944 10.1769 
-3.51016 -5.60714 10.3964 -3.51934 -5.35944 10.1769 -3.22362 -5.56886 10.107 
-3.08533 -5.88335 10.3009 -3.22362 -5.56886 10.107 -2.75859 -5.822 9.99601 
-2.73609 -6.072 10.2342 -2.75859 -5.822 9.99601 -2.3518 -6.03953 9.95295 
-2.39075 -6.23761 10.1813 -2.3518 -6.03953 9.95295 -1.90191 -6.18634 9.8673 
-1.90429 -6.42393 10.12 -1.90191 -6.18634 9.8673 -1.39703 -6.35911 9.84739 
-1.39156 -6.56743 10.0727 -1.39703 -6.35911 9.84739 -0.919874 -6.61208 9.98407 
-0.400177 -6.72213 10.0338 -0.740927 -6.48708 9.81264 -0.150259 -6.52423 9.79392 
0.0730592 -6.73693 10.0327 -0.150259 -6.52423 9.79392 0.324856 -6.5455 9.82263 
0.652971 -6.69951 10.037 0.324856 -6.5455 9.82263 0.742671 -6.48879 9.81961 
0.652971 -6.69951 10.037 0.742671 -6.48879 9.81961 1.11597 -6.42736 9.83457 
1.13729 -6.61948 10.0519 1.11597 -6.42736 9.83457 1.59734 -6.33215 9.88851 
1.85699 -6.4914 10.18 1.59734 -6.33215 9.88851 2.1063 -6.18051 9.96106 
2.38397 -6.23532 10.173 2.1063 -6.18051 9.96106 2.69949 -5.90313 10.0316 
2.85539 -5.99941 10.2416 2.69949 -5.90313 10.0316 3.22939 -5.61494 10.1521 
3.28436 -5.74624 10.3265 3.22939 -5.61494 10.1521 3.63238 -5.31723 10.2434 
3.70027 -5.45193 10.4328 3.63238 -5.31723 10.2434 3.91269 -5.04393 10.2927 
3.98868 -5.20648 10.5155 3.91269 -5.04393 10.2927 4.25782 -4.70971 10.4054 
4.58702 -4.57068 10.7187 4.25782 -4.70971 10.4054 4.63413 -4.22522 10.5379 
4.88955 -4.16032 10.8574 4.63413 -4.22522 10.5379 4.92026 -3.80151 10.6807 
5.08296 -3.83999 10.9595 4.92026 -3.80151 10.6807 5.13105 -3.38517 10.7996 
5.25675 -3.5076 11.0646 5.13105 -3.38517 10.7996 5.40149 -2.94178 11.0779 
5.57077 -2.55185 11.3025 5.47571 -2.44734 11.1077 5.59089 -2.07443 11.2803 
5.74441 -1.79688 11.6199 5.59089 -2.07443 11.2803 5.63214 -1.65386 11.3906 
5.74441 -1.79688 11.6199 5.63214 -1.65386 11.3906 5.67427 -1.29597 11.5481 
5.8109 -1.3065 11.8924 5.67427 -1.29597 11.5481 5.70511 -0.85498 11.7769 
5.67468 -0.362026 12.014 5.60386 -0.527748 11.7237 5.53723 -0.0778254 11.8891 
5.4561 0.568618 12.4036 5.34253 0.554108 12.0547 5.26726 0.920424 12.3632 
4.59147 2.08962 12.8855 4.72706 1.82388 12.5591 4.36232 2.28617 12.7139 
4.23973 2.49136 13.0186 4.36232 2.28617 12.7139 3.92192 2.71415 12.776 
3.89594 2.8152 13.1181 3.92192 2.71415 12.776 3.54253 3.05207 12.9773 
3.40751 3.20201 13.2625 3.54253 3.05207 12.9773 3.24173 3.23877 12.924 
3.40751 3.20201 13.2625 3.24173 3.23877 12.924 2.82963 3.50853 13.086 
2.61884 3.65478 13.3941 2.82963 3.50853 13.086 2.35427 3.74416 13.1876 
2.1428 3.86211 13.4525 2.35427 3.74416 13.1876 1.75997 3.95493 13.1849 
1.66648 4.01988 13.5063 1.75997 3.95493 13.1849 1.27794 4.08569 13.2629 
1.20468 4.13294 13.5569 1.27794 4.08569 13.2629 0.798733 4.1744 13.2914 
0.561419 4.23039 13.5681 0.798733 4.1744 13.2914 0.131403 4.22196 13.2868 
-0.105026 4.25471 13.6105 0.131403 4.22196 13.2868 -0.314371 4.2201 13.3111 
-0.662069 4.21846 13.5843 -0.314371 4.2201 13.3111 -1.03244 4.13625 13.2669 
-1.87157 3.95795 13.5054 -1.79591 3.93732 13.1605 -2.22512 3.81367 13.3033 
-3.18819 3.34061 13.2638 -3.1739 3.3123 13.0545 -3.63238 2.98038 12.9394 
-3.9088 2.80421 13.1173 -3.63238 2.98038 12.9394 -4.05611 2.58822 12.7421 
-4.25032 2.47684 12.9993 -4.05611 2.58822 12.7421 -4.40379 2.21673 12.6396 
-4.59125 2.09417 12.8913 -4.40379 2.21673 12.6396 -4.5961 1.96236 12.5209 
-4.89286 1.68396 12.7704 -4.5961 1.96236 12.5209 -4.97371 1.47045 12.5024 
-5.44438 0.583293 12.3841 -5.31959 0.649539 12.1166 -5.47702 0.264874 12.0717 
-5.59803 0.175672 12.3353 -5.47702 0.264874 12.0717 -5.5298 -0.0662303 11.8804 
-5.65323 -0.128293 12.1585 -5.5298 -0.0662303 11.8804 -5.61924 -0.535374 11.7472 
-5.79664 -0.932487 11.9941 -5.61924 -0.535374 11.7472 -5.67427 -1.03982 11.6314 
-5.79872 -1.3249 11.8489 -5.65778 -1.47113 11.4672 -5.73582 -1.8655 11.598 
-5.15489 -3.83836 11.0866 -5.20368 -3.51881 10.968 -4.95031 -3.85848 10.7552 
-5.15489 -3.83836 11.0866 -4.95031 -3.85848 10.7552 -4.81804 -4.26169 10.8224 
0.0730592 -6.73693 10.0327 0.324856 -6.5455 9.82263 0.652971 -6.69951 10.037 
5.49219 -3.08386 11.3244 5.40149 -2.94178 11.0779 5.57077 -2.55185 11.3025 
5.72753 -2.1977 11.6042 5.57077 -2.55185 11.3025 5.59089 -2.07443 11.2803 
5.72753 -2.1977 11.6042 5.59089 -2.07443 11.2803 5.74441 -1.79688 11.6199 
5.80135 -0.707451 12.173 5.70511 -0.85498 11.7769 5.67468 -0.362026 12.014 
5.71431 -0.200764 12.3306 5.67468 -0.362026 12.014 5.55874 0.147103 12.1557 
5.60888 0.188852 12.4216 5.55874 0.147103 12.1557 5.4561 0.568618 12.4036 
5.30406 1.00343 12.7061 5.26726 0.920424 12.3632 5.11585 1.27106 12.5292 
-0.105026 4.25471 13.6105 -0.314371 4.2201 13.3111 -0.662069 4.21846 13.5843 
-2.86322 3.5371 13.5379 -2.64529 3.62358 13.2192 -3.18819 3.34061 13.2638 
-5.233 1.15812 12.7683 -4.97371 1.47045 12.5024 -5.28031 1.02957 12.6244 
-5.28031 1.02957 12.6244 -5.20935 1.03313 12.3742 -5.44438 0.583293 12.3841 
-5.82386 -1.67827 11.8923 -5.79872 -1.3249 11.8489 -5.73582 -1.8655 11.598 
-5.80011 -2.07558 11.8421 -5.73582 -1.8655 11.598 -5.66134 -2.33013 11.4543 
-5.71855 -2.4184 11.6518 -5.66134 -2.33013 11.4543 -5.56474 -2.6977 11.3306 
-5.59037 -2.90544 11.4956 -5.56474 -2.6977 11.3306 -5.44551 -3.047 11.2028 
-5.41772 -3.37162 11.3421 -5.44551 -3.047 11.2028 -5.20368 -3.51881 10.968 
-5.41772 -3.37162 11.3421 -5.20368 -3.51881 10.968 -5.15489 -3.83836 11.0866 
-4.94276 -4.25845 11.054 -5.15489 -3.83836 11.0866 -4.81804 -4.26169 10.8224 
-4.94276 -4.25845 11.054 -4.81804 -4.26169 10.8224 -4.64185 -4.56332 10.7914 
-4.47669 -4.86878 10.8564 -4.64185 -4.56332 10.7914 -4.24585 -4.95437 10.5898 
-4.15512 -5.28812 10.8616 -4.24585 -4.95437 10.5898 -3.90581 -5.28654 10.4937 
-3.93863 -5.40263 10.6822 -3.90581 -5.28654 10.4937 -3.51016 -5.60714 10.3964 
-3.5325 -5.7563 10.6205 -3.51016 -5.60714 10.3964 -3.08533 -5.88335 10.3009 
-3.11383 -6.06401 10.5829 -3.08533 -5.88335 10.3009 -2.73609 -6.072 10.2342 
-2.78558 -6.25449 10.5414 -2.73609 -6.072 10.2342 -2.39075 -6.23761 10.1813 
-2.41464 -6.35963 10.3713 -2.39075 -6.23761 10.1813 -1.90429 -6.42393 10.12 
-1.92156 -6.54843 10.3085 -1.90429 -6.42393 10.12 -1.39156 -6.56743 10.0727 
-1.47502 -6.74826 10.3874 -1.39156 -6.56743 10.0727 -1.0503 -6.7299 10.181 
-0.661928 -6.82201 10.2221 -0.919874 -6.61208 9.98407 -0.400177 -6.72213 10.0338 
-0.15458 -6.87481 10.2419 -0.400177 -6.72213 10.0338 0.0730592 -6.73693 10.0327 
0.261815 -6.8501 10.2123 0.0730592 -6.73693 10.0327 0.652971 -6.69951 10.037 
0.698706 -6.85082 10.2774 0.652971 -6.69951 10.037 1.13729 -6.61948 10.0519 
1.17322 -6.73719 10.2364 1.13729 -6.61948 10.0519 1.55302 -6.57456 10.1483 
2.64928 -6.25217 10.4062 2.38397 -6.23532 10.173 2.85539 -5.99941 10.2416 
3.13867 -6.01367 10.532 2.85539 -5.99941 10.2416 3.28436 -5.74624 10.3265 
3.56018 -5.69425 10.5698 3.28436 -5.74624 10.3265 3.70027 -5.45193 10.4328 
3.85065 -5.52098 10.7226 3.70027 -5.45193 10.4328 3.98868 -5.20648 10.5155 
4.12687 -5.23146 10.7378 3.98868 -5.20648 10.5155 4.26429 -4.92701 10.5901 
4.49337 -4.87977 10.8984 4.26429 -4.92701 10.5901 4.58702 -4.57068 10.7187 
4.79837 -4.4568 10.9758 4.58702 -4.57068 10.7187 4.88955 -4.16032 10.8574 
5.12347 -3.97749 11.1563 4.88955 -4.16032 10.8574 5.08296 -3.83999 10.9595 
5.12347 -3.97749 11.1563 5.08296 -3.83999 10.9595 5.25675 -3.5076 11.0646 
5.36743 -3.60631 11.4116 5.25675 -3.5076 11.0646 5.49219 -3.08386 11.3244 
5.71431 -0.200764 12.3306 5.55874 0.147103 12.1557 5.60888 0.188852 12.4216 
5.53185 0.511577 12.7422 5.4561 0.568618 12.4036 5.30406 1.00343 12.7061 
5.06335 1.45997 12.9266 5.11585 1.27106 12.5292 4.89359 1.6753 12.7379 
4.79848 1.85526 13.0404 4.89359 1.6753 12.7379 4.59147 2.08962 12.8855 
4.56249 2.15473 13.1381 4.59147 2.08962 12.8855 4.23973 2.49136 13.0186 
4.2862 2.46199 13.2206 4.23973 2.49136 13.0186 3.89594 2.8152 13.1181 
3.9178 2.81075 13.3905 3.89594 2.8152 13.1181 3.40751 3.20201 13.2625 
3.40411 3.20676 13.5048 3.40751 3.20201 13.2625 2.96138 3.47475 13.3362 
2.88128 3.52233 13.5821 2.96138 3.47475 13.3362 2.61884 3.65478 13.3941 
2.42853 3.74044 13.7005 2.61884 3.65478 13.3941 2.1428 3.86211 13.4525 
1.89147 3.94585 13.7222 2.1428 3.86211 13.4525 1.66648 4.01988 13.5063 
1.41487 4.07952 13.7753 1.66648 4.01988 13.5063 1.20468 4.13294 13.5569 
0.910234 4.16985 13.9129 1.20468 4.13294 13.5569 0.561419 4.23039 13.5681 
0.393396 4.23317 13.8131 0.561419 4.23039 13.5681 -0.105026 4.25471 13.6105 
-0.159803 4.24372 13.8385 -0.105026 4.25471 13.6105 -0.662069 4.21846 13.5843 
-0.675848 4.20862 13.7985 -0.662069 4.21846 13.5843 -1.03001 4.16412 13.5602 
-1.21855 4.1152 13.8937 -1.03001 4.16412 13.5602 -1.46822 4.07085 13.4616 
-1.56227 4.03499 13.8604 -1.46822 4.07085 13.4616 -1.87157 3.95795 13.5054 
-1.94885 3.91891 13.8371 -1.87157 3.95795 13.5054 -2.42953 3.75071 13.5429 
-3.35872 3.22966 13.626 -3.18819 3.34061 13.2638 -3.59857 3.05491 13.1997 
-3.66589 3.00919 13.5487 -3.59857 3.05491 13.1997 -3.9088 2.80421 13.1173 
-3.98861 2.74856 13.4475 -3.9088 2.80421 13.1173 -4.25032 2.47684 12.9993 
-4.59479 2.12302 13.1344 -4.25032 2.47684 12.9993 -4.59125 2.09417 12.8913 
-4.59479 2.12302 13.1344 -4.59125 2.09417 12.8913 -4.89286 1.68396 12.7704 
-4.94196 1.64855 12.9733 -4.89286 1.68396 12.7704 -5.233 1.15812 12.7683 
-5.50511 0.538708 12.6065 -5.44438 0.583293 12.3841 -5.59803 0.175672 12.3353 
-5.71507 -0.182458 12.3658 -5.65323 -0.128293 12.1585 -5.72023 -0.500169 12.0446 
-5.8 -0.581143 12.3277 -5.72023 -0.500169 12.0446 -5.79664 -0.932487 11.9941 
-5.87596 -1.28403 12.2483 -5.79872 -1.3249 11.8489 -5.82386 -1.67827 11.8923 
-5.86589 -1.73375 12.1094 -5.82386 -1.67827 11.8923 -5.80011 -2.07558 11.8421 
-5.70083 -2.73259 11.7828 -5.71855 -2.4184 11.6518 -5.59037 -2.90544 11.4956 
-5.59948 -3.0678 11.6723 -5.59037 -2.90544 11.4956 -5.41772 -3.37162 11.3421 
-5.45306 -3.45847 11.5428 -5.41772 -3.37162 11.3421 -5.15489 -3.83836 11.0866 
-5.11452 -4.13488 11.3405 -5.15489 -3.83836 11.0866 -4.94276 -4.25845 11.054 
-4.81968 -4.57188 11.1795 -4.94276 -4.25845 11.054 -4.64185 -4.56332 10.7914 
-4.81968 -4.57188 11.1795 -4.64185 -4.56332 10.7914 -4.47669 -4.86878 10.8564 
-4.46715 -5.01806 11.0607 -4.47669 -4.86878 10.8564 -4.15512 -5.28812 10.8616 
-3.75968 -5.67137 10.8316 -3.93863 -5.40263 10.6822 -3.5325 -5.7563 10.6205 
-2.38926 -6.48273 10.5653 -2.41464 -6.35963 10.3713 -1.92156 -6.54843 10.3085 
-1.90292 -6.66071 10.5023 -1.92156 -6.54843 10.3085 -1.47502 -6.74826 10.3874 
-1.08546 -6.86574 10.4381 -1.0503 -6.7299 10.181 -0.661928 -6.82201 10.2221 
-0.638131 -6.93007 10.4156 -0.661928 -6.82201 10.2221 -0.15458 -6.87481 10.2419 
-0.0708477 -6.9718 10.4269 -0.15458 -6.87481 10.2419 0.261815 -6.8501 10.2123 
0.401376 -6.95069 10.4134 0.261815 -6.8501 10.2123 0.698706 -6.85082 10.2774 
1.4737 -6.78298 10.4615 1.17322 -6.73719 10.2364 1.55302 -6.57456 10.1483 
1.4737 -6.78298 10.4615 1.55302 -6.57456 10.1483 1.85699 -6.4914 10.18 
1.92496 -6.65674 10.5099 1.85699 -6.4914 10.18 2.30004 -6.44748 10.4216 
2.91496 -6.22918 10.6497 2.64928 -6.25217 10.4062 3.13867 -6.01367 10.532 
3.56214 -5.8229 10.7856 3.56018 -5.69425 10.5698 3.85065 -5.52098 10.7226 
4.3433 -5.14116 11.0046 4.12687 -5.23146 10.7378 4.49337 -4.87977 10.8984 
4.92809 -4.41815 11.2366 4.79837 -4.4568 10.9758 5.12347 -3.97749 11.1563 
5.63484 -2.96872 11.7149 5.49219 -3.08386 11.3244 5.6163 -2.75041 11.4827 
5.63484 -2.96872 11.7149 5.6163 -2.75041 11.4827 5.72914 -2.55698 11.7694 
5.80558 -2.25065 11.9457 5.72753 -2.1977 11.6042 5.85653 -1.73488 12.0319 
5.87572 -1.2148 12.2812 5.8109 -1.3065 11.8924 5.81672 -1.02824 12.0422 
5.87572 -1.2148 12.2812 5.81672 -1.02824 12.0422 5.80135 -0.707451 12.173 
5.80055 -0.466013 12.5428 5.80135 -0.707451 12.173 5.71431 -0.200764 12.3306 
5.69548 0.00598442 12.6567 5.71431 -0.200764 12.3306 5.60888 0.188852 12.4216 
5.69548 0.00598442 12.6567 5.60888 0.188852 12.4216 5.53185 0.511577 12.7422 
5.45171 0.715737 12.8878 5.53185 0.511577 12.7422 5.30406 1.00343 12.7061 
5.28072 1.07658 13.0228 5.30406 1.00343 12.7061 5.06335 1.45997 12.9266 
5.09177 1.41806 13.126 5.06335 1.45997 12.9266 4.79848 1.85526 13.0404 
4.815 1.83363 13.2684 4.79848 1.85526 13.0404 4.56249 2.15473 13.1381 
4.48552 2.23807 13.3936 4.56249 2.15473 13.1381 4.2862 2.46199 13.2206 
4.15765 2.57717 13.5101 4.2862 2.46199 13.2206 3.9178 2.81075 13.3905 
2.66123 3.6085 13.8474 2.88128 3.52233 13.5821 2.42853 3.74044 13.7005 
1.90943 3.91607 13.9326 1.89147 3.94585 13.7222 1.41487 4.07952 13.7753 
1.39703 4.05573 13.9853 1.41487 4.07952 13.7753 0.910234 4.16985 13.9129 
0.116053 4.21403 14.0433 0.393396 4.23317 13.8131 -0.159803 4.24372 13.8385 
-0.707878 4.17567 14.0307 -0.675848 4.20862 13.7985 -1.21855 4.1152 13.8937 
-2.45199 3.70812 13.876 -2.42953 3.75071 13.5429 -2.86322 3.5371 13.5379 
-2.93448 3.47038 13.79 -2.86322 3.5371 13.5379 -3.35872 3.22966 13.626 
-5.12041 1.36997 13.1184 -4.94196 1.64855 12.9733 -5.233 1.15812 12.7683 
-5.47411 0.663377 12.8949 -5.28031 1.02957 12.6244 -5.50511 0.538708 12.6065 
-5.63943 0.198764 12.7307 -5.50511 0.538708 12.6065 -5.59803 0.175672 12.3353 
-5.63943 0.198764 12.7307 -5.59803 0.175672 12.3353 -5.71507 -0.182458 12.3658 
-5.75417 -0.236178 12.5875 -5.71507 -0.182458 12.3658 -5.8 -0.581143 12.3277 
-5.87596 -1.28403 12.2483 -5.79664 -0.932487 11.9941 -5.79872 -1.3249 11.8489 
-3.44211 -5.96128 10.8816 -3.5325 -5.7563 10.6205 -3.11383 -6.06401 10.5829 
3.25197 -6.08356 10.8351 3.13867 -6.01367 10.532 3.56214 -5.8229 10.7856 
5.86322 -0.901447 12.5226 5.80135 -0.707451 12.173 5.80055 -0.466013 12.5428 
3.86585 2.80827 13.7247 3.9178 2.81075 13.3905 3.55895 3.07307 13.6761 
2.31178 3.74515 13.9718 2.42853 3.74044 13.7005 1.90943 3.91607 13.9326 
-0.271477 4.17956 14.1651 -0.159803 4.24372 13.8385 -0.707878 4.17567 14.0307 
-4.25814 2.4513 13.6098 -4.25353 2.49476 13.3157 -4.51379 2.20508 13.3976 
-5.31011 1.00276 13.1423 -5.233 1.15812 12.7683 -5.47411 0.663377 12.8949 
-5.88785 -1.44594 12.4455 -5.87596 -1.28403 12.2483 -5.86589 -1.73375 12.1094 
-5.87599 -1.80109 12.3301 -5.88192 -1.69717 12.3639 -5.86589 -1.73375 12.1094 
-5.84048 -2.15482 12.2152 -5.86414 -1.94789 12.2824 -5.86589 -1.73375 12.1094 
-5.68585 -2.90326 11.9734 -5.74023 -2.69199 12.0406 -5.70083 -2.73259 11.7828 
-5.68585 -2.90326 11.9734 -5.70083 -2.73259 11.7828 -5.59948 -3.0678 11.6723 
-5.46609 -3.52713 11.7693 -5.51241 -3.41353 11.8062 -5.45306 -3.45847 11.5428 
-5.31053 -3.8641 11.6598 -5.41404 -3.64675 11.7304 -5.45306 -3.45847 11.5428 
-5.31053 -3.8641 11.6598 -5.29569 -3.78798 11.4241 -5.11452 -4.13488 11.3405 
-4.93127 -4.50682 11.4513 -5.05441 -4.31801 11.5123 -5.11452 -4.13488 11.3405 
-4.74131 -4.76603 11.3667 -4.76337 -4.73735 11.3761 -4.81968 -4.57188 11.1795 
-4.51035 -5.04534 11.276 -4.6033 -4.93728 11.3111 -4.46715 -5.01806 11.0607 
-4.25847 -5.31291 11.189 -4.43397 -5.13018 11.2484 -4.46715 -5.01806 11.0607 
-4.25847 -5.31291 11.189 -4.46715 -5.01806 11.0607 -4.15512 -5.28812 10.8616 
-3.99496 -5.55941 11.1089 -4.06887 -5.49336 11.1304 -4.15512 -5.28812 10.8616 
-3.68998 -5.81116 11.0305 -3.87384 -5.6629 11.0753 -3.75968 -5.67137 10.8316 
-3.68998 -5.81116 11.0305 -3.75968 -5.67137 10.8316 -3.44211 -5.96128 10.8816 
-3.05236 -6.23544 10.8901 -3.2436 -6.11928 10.927 -3.11383 -6.06401 10.5829 
-3.05236 -6.23544 10.8901 -3.11383 -6.06401 10.5829 -2.78558 -6.25449 10.5414 
-2.4459 -6.53958 10.7905 -2.55464 -6.49107 10.8062 -2.38926 -6.48273 10.5653 
-2.08414 -6.6836 10.7442 -2.31407 -6.595 10.7725 -2.38926 -6.48273 10.5653 
-1.34268 -6.89963 10.6764 -1.56638 -6.84382 10.6916 -1.47502 -6.74826 10.3874 
-1.34268 -6.89963 10.6764 -1.47502 -6.74826 10.3874 -1.08546 -6.86574 10.4381 
-0.652598 -7.01111 10.6373 -0.790345 -6.99494 10.6425 -0.638131 -6.93007 10.4156 
-0.272156 -7.03962 10.628 -0.527782 -7.02307 10.6334 -0.638131 -6.93007 10.4156 
0.501267 -7.02703 10.636 0.264157 -7.03998 10.6279 0.401376 -6.95069 10.4134 
0.501267 -7.02703 10.636 0.401376 -6.95069 10.4134 0.963209 -6.90346 10.4642 
1.20587 -6.92692 10.6646 1.05132 -6.95563 10.6553 0.963209 -6.90346 10.4642 
1.92573 -6.73764 10.7261 1.81944 -6.77155 10.7151 1.92496 -6.65674 10.5099 
2.27474 -6.61082 10.7673 2.06884 -6.68855 10.7421 1.92496 -6.65674 10.5099 
2.94392 -6.2954 10.8698 2.79007 -6.37699 10.8433 2.91496 -6.22918 10.6497 
3.01987 -6.25297 10.8836 2.91496 -6.22918 10.6497 3.25197 -6.08356 10.8351 
3.56574 -5.90195 10.9976 3.46079 -5.97617 10.9735 3.56214 -5.8229 10.7856 
3.85572 -5.67789 11.0704 3.67101 -5.82394 11.023 3.56214 -5.8229 10.7856 
4.41491 -5.15182 11.2414 4.25571 -5.31567 11.1881 4.3433 -5.14116 11.0046 
4.41491 -5.15182 11.2414 4.3433 -5.14116 11.0046 4.68334 -4.76362 11.1488 
4.84968 -4.62129 11.4138 4.76337 -4.73735 11.3761 4.68334 -4.76362 11.1488 
5.0533 -4.3195 11.5104 4.91384 -4.53078 11.4432 4.92809 -4.41815 11.2366 
5.23333 -4.01186 11.6118 5.18481 -4.09945 11.5833 5.13086 -4.09783 11.3355 
5.40553 -3.6665 11.7227 5.30477 -3.87555 11.6561 5.36743 -3.60631 11.4116 
5.40553 -3.6665 11.7227 5.36743 -3.60631 11.4116 5.50028 -3.34112 11.5878 
5.53277 -3.36114 11.8232 5.51241 -3.41353 11.8062 5.50028 -3.34112 11.5878 
5.66654 -2.96743 11.9445 5.59968 -3.17633 11.8833 5.63484 -2.96872 11.7149 
5.66654 -2.96743 11.9445 5.63484 -2.96872 11.7149 5.72914 -2.55698 11.7694 
5.81389 -2.3307 12.158 5.79323 -2.4458 12.1206 5.80558 -2.25065 11.9457 
5.86267 -1.96306 12.2775 5.83456 -2.1976 12.2013 5.80558 -2.25065 11.9457 
5.88411 -1.22794 12.5191 5.88785 -1.44594 12.4455 5.87572 -1.2148 12.2812 
5.88411 -1.22794 12.5191 5.87572 -1.2148 12.2812 5.86322 -0.901447 12.5226 
5.81389 -0.561184 12.733 5.83456 -0.694278 12.6897 5.80055 -0.466013 12.5428 
5.7417 -0.206084 12.8483 5.79323 -0.44608 12.7704 5.80055 -0.466013 12.5428 
5.64935 0.131671 12.9581 5.67567 0.0437797 12.9295 5.69548 0.00598442 12.6567 
5.53277 0.469261 13.0678 5.59968 0.284454 13.0077 5.53185 0.511577 12.7422 
5.23333 1.11998 13.2792 5.30477 0.983668 13.2349 5.28072 1.07658 13.0228 
4.84968 1.72941 13.4772 4.91384 1.6389 13.4478 4.815 1.83363 13.2684 
4.61515 2.03167 13.5762 4.76337 1.84547 13.5149 4.815 1.83363 13.2684 
4.09436 2.57707 13.7597 4.25571 2.42379 13.7028 4.15765 2.57717 13.5101 
4.09436 2.57707 13.7597 4.15765 2.57717 13.5101 3.86585 2.80827 13.7247 
3.56574 3.01007 13.8933 3.67101 2.93206 13.868 3.55895 3.07307 13.6761 
3.2525 3.22179 13.9621 3.46079 3.08429 13.9175 3.55895 3.07307 13.6761 
2.58085 3.58653 14.085 2.79007 3.48511 14.0477 2.66123 3.6085 13.8474 
2.58085 3.58653 14.085 2.66123 3.6085 13.8474 2.31178 3.74515 13.9718 
2.27474 3.71894 14.1237 2.31407 3.70312 14.1185 2.31178 3.74515 13.9718 
1.92573 3.84576 14.1649 2.06884 3.79667 14.1489 1.90943 3.91607 13.9326 
1.56767 3.9516 14.1993 1.81944 3.87967 14.1759 1.90943 3.91607 13.9326 
1.20587 4.03504 14.2264 1.31017 4.01334 14.2193 1.39703 4.05573 13.9853 
0.811957 4.10109 14.2466 1.05132 4.06375 14.2357 0.910234 4.16985 13.9129 
0.811957 4.10109 14.2466 0.910234 4.16985 13.9129 0.529736 4.1908 14.0351 
0.0934164 4.15303 14.2647 0.264157 4.1481 14.2631 0.116053 4.21403 14.0433 
-3.55271e-10 4.15374 14.2649 0.116053 4.21403 14.0433 -0.271477 4.17956 14.1651 
-0.652598 4.11923 14.2537 -0.527782 4.13119 14.2576 -0.707878 4.17567 14.0307 
-1.03773 4.06629 14.2369 -0.790345 4.10306 14.2485 -0.707878 4.17567 14.0307 
-1.78965 3.88811 14.1833 -1.56638 3.95194 14.1994 -1.56227 4.03499 13.8604 
-2.4459 3.6477 14.1005 -2.31407 3.70312 14.1185 -2.45199 3.70812 13.876 
-2.78606 3.48793 14.0465 -2.55464 3.59919 14.0848 -2.45199 3.70812 13.876 
-3.10422 3.31225 13.9915 -3.01987 3.36109 14.0074 -2.93448 3.47038 13.79 
-3.44125 3.09795 13.9235 -3.2436 3.2274 13.964 -3.35872 3.22966 13.626 
-3.44125 3.09795 13.9235 -3.35872 3.22966 13.626 -3.66589 3.00919 13.5487 
-3.99496 2.66753 13.782 -3.87384 2.77102 13.8157 -3.98861 2.74856 13.4475 
-4.06887 2.60148 13.7606 -3.98861 2.74856 13.4475 -4.25814 2.4513 13.6098 
-4.51035 2.15346 13.615 -4.43397 2.2383 13.6426 -4.51379 2.20508 13.3976 
-4.74131 1.87415 13.5243 -4.6033 2.0454 13.5799 -4.51379 2.20508 13.3976 
-5.16928 1.23429 13.3232 -5.05441 1.42613 13.3787 -5.12041 1.36997 13.1184 
-5.16928 1.23429 13.3232 -5.12041 1.36997 13.1184 -5.31011 1.00276 13.1423 
-5.46609 0.635249 13.1217 -5.41404 0.754872 13.1606 -5.47411 0.663377 12.8949 
-5.59737 0.292558 13.0081 -5.51241 0.521645 13.0848 -5.47411 0.663377 12.8949 
-5.78884 -0.421173 12.7825 -5.74023 -0.199895 12.8504 -5.75417 -0.236178 12.5875 
-5.78884 -0.421173 12.7825 -5.75417 -0.236178 12.5875 -5.84901 -0.792937 12.4433 
-5.84048 -0.737064 12.6758 -5.83456 -0.694278 12.6897 -5.84901 -0.792937 12.4433 
-5.87599 -1.09079 12.5609 -5.86414 -0.943989 12.6086 -5.84901 -0.792937 12.4433 
0.450188 1.65568 2.85725 0.448935 1.69464 2.88585 0.458681 1.58608 3.23068 
0.448935 1.69464 2.88585 0.444512 1.72588 2.91954 0.458681 1.58608 3.23068 
0.444512 1.72588 2.91954 0.434324 1.77257 2.9228 0.458681 1.58608 3.23068 
0.434324 1.77257 2.9228 0.423936 1.8008 2.94194 0.408232 1.75709 3.27361 
0.411846 1.83688 2.92977 0.394232 1.8643 2.9627 0.408232 1.75709 3.27361 
0.394232 1.8643 2.9627 0.369665 1.91545 2.93136 0.408232 1.75709 3.27361 
0.369665 1.91545 2.93136 0.348775 1.92932 2.97807 0.309442 1.872 3.32955 
0.327087 1.95504 2.97902 0.30432 1.97415 2.99228 0.309442 1.872 3.32955 
0.272103 2.01461 2.95598 0.228648 2.023 3.02515 0.207917 1.93984 3.33986 
0.228648 2.023 3.02515 0.186867 2.05251 3.00364 0.207917 1.93984 3.33986 
0.186867 2.05251 3.00364 0.155624 2.06026 3.0209 0.0964883 1.97499 3.36887 
0.0964883 1.97499 3.36887 0.155624 2.06026 3.0209 0.124493 2.07327 3.01432 
0.124493 2.07327 3.01432 0.0850226 2.07203 3.04976 0.0964883 1.97499 3.36887 
0.0850226 2.07203 3.04976 0.0391996 2.09181 3.00858 0.0964883 1.97499 3.36887 
0.0391996 2.09181 3.00858 0.00461801 2.08628 3.03081 -0.0281912 1.9845 3.36225 
-0.0282704 2.08911 3.01946 -0.0683429 2.07934 3.03653 -0.0281912 1.9845 3.36225 
-0.0683429 2.07934 3.03653 -0.156045 1.96714 3.33889 -0.0281912 1.9845 3.36225 
-0.0683429 2.07934 3.03653 -0.113422 2.07607 3.01553 -0.156045 1.96714 3.33889 
-0.113422 2.07607 3.01553 -0.150125 2.05604 3.04143 -0.156045 1.96714 3.33889 
-0.150125 2.05604 3.04143 -0.18603 2.04838 3.01704 -0.156045 1.96714 3.33889 
-0.18603 2.04838 3.01704 -0.213624 2.02802 3.03683 -0.156045 1.96714 3.33889 
-0.213624 2.02802 3.03683 -0.252882 2.01573 2.99662 -0.301733 1.81927 3.55661 
-0.252882 2.01573 2.99662 -0.28538 1.98542 3.01268 -0.301733 1.81927 3.55661 
-0.28538 1.98542 3.01268 -0.374568 1.81049 3.2784 -0.301733 1.81927 3.55661 
-0.28538 1.98542 3.01268 -0.319585 1.96404 2.97654 -0.374568 1.81049 3.2784 
-0.319585 1.96404 2.97654 -0.342795 1.93545 2.98231 -0.374568 1.81049 3.2784 
-0.363218 1.91556 2.9602 -0.385806 1.87926 2.96387 -0.374568 1.81049 3.2784 
-0.385806 1.87926 2.96387 -0.407292 1.84384 2.94091 -0.374568 1.81049 3.2784 
-0.407292 1.84384 2.94091 -0.420749 1.80729 2.95021 -0.437801 1.67831 3.25507 
-0.431333 1.78409 2.92082 -0.4414 1.74366 2.91886 -0.437801 1.67831 3.25507 
-0.4414 1.74366 2.91886 -0.457593 1.56212 3.22069 -0.437801 1.67831 3.25507 
-0.4414 1.74366 2.91886 -0.447975 1.70411 2.89321 -0.457593 1.56212 3.22069 
-0.447975 1.70411 2.89321 -0.450435 1.65783 2.90576 -0.457593 1.56212 3.22069 
-0.450435 1.65783 2.90576 -0.448091 1.61706 2.87935 -0.457593 1.56212 3.22069 
-0.448091 1.61706 2.87935 -0.443477 1.58609 2.86683 -0.432701 1.41454 3.13396 
-0.432701 1.41454 3.13396 -0.443477 1.58609 2.86683 -0.436864 1.55851 2.8477 
-0.436864 1.55851 2.8477 -0.425595 1.51295 2.86149 -0.432701 1.41454 3.13396 
-0.425595 1.51295 2.86149 -0.407939 1.48065 2.82252 -0.432701 1.41454 3.13396 
-0.407939 1.48065 2.82252 -0.392055 1.44806 2.82344 -0.432701 1.41454 3.13396 
-0.332979 1.2605 3.0973 -0.432701 1.41454 3.13396 -0.392055 1.44806 2.82344 
-0.374915 1.42592 2.80078 -0.351738 1.39579 2.78927 -0.332979 1.2605 3.0973 
-0.351738 1.39579 2.78927 -0.320872 1.3633 2.77789 -0.332979 1.2605 3.0973 
-0.320872 1.3633 2.77789 -0.295412 1.33299 2.79399 -0.332979 1.2605 3.0973 
-0.269796 1.30981 2.79823 -0.243707 1.29891 2.77352 -0.225185 1.17443 3.0918 
-0.243707 1.29891 2.77352 -0.206917 1.31479 2.65467 -0.225185 1.17443 3.0918 
-0.206917 1.31479 2.65467 -0.159167 1.25598 2.76618 -0.0859126 1.11767 3.09363 
-0.159167 1.25598 2.76618 -0.114739 1.24803 2.74573 -0.0859126 1.11767 3.09363 
-0.114739 1.24803 2.74573 -0.0811423 1.23711 2.75541 -0.0859126 1.11767 3.09363 
-0.0486067 1.23586 2.74365 -0.00844419 1.22733 2.76062 -0.0859126 1.11767 3.09363 
-0.00844419 1.22733 2.76062 0.0782662 1.13285 3.04683 -0.0859126 1.11767 3.09363 
-0.00844419 1.22733 2.76062 0.0376113 1.23892 2.73075 0.0782662 1.13285 3.04683 
0.0376113 1.23892 2.73075 0.0719892 1.23079 2.76963 0.0782662 1.13285 3.04683 
0.104252 1.24561 2.74478 0.143095 1.25004 2.76612 0.0782662 1.13285 3.04683 
0.143095 1.25004 2.76612 0.203563 1.16101 3.09787 0.0782662 1.13285 3.04683 
0.143095 1.25004 2.76612 0.185843 1.272 2.75382 0.203563 1.16101 3.09787 
0.185843 1.272 2.75382 0.221852 1.28819 2.76206 0.203563 1.16101 3.09787 
0.221852 1.28819 2.76206 0.261238 1.31385 2.76542 0.299871 1.22129 3.11554 
0.261238 1.31385 2.76542 0.287853 1.32973 2.78354 0.299871 1.22129 3.11554 
0.299871 1.22129 3.11554 0.287853 1.32973 2.78354 0.312379 1.35316 2.78197 
0.312379 1.35316 2.78197 0.340562 1.36853 2.8294 0.299871 1.22129 3.11554 
0.340562 1.36853 2.8294 0.391337 1.32922 3.12985 0.299871 1.22129 3.11554 
0.340562 1.36853 2.8294 0.36878 1.41637 2.80089 0.391337 1.32922 3.12985 
0.36878 1.41637 2.80089 0.387438 1.44045 2.82097 0.391337 1.32922 3.12985 
0.403173 1.47201 2.8173 0.419453 1.49907 2.8509 0.391337 1.32922 3.12985 
0.419453 1.49907 2.8509 0.443771 1.44762 3.18182 0.391337 1.32922 3.12985 
0.419453 1.49907 2.8509 0.433861 1.54807 2.84259 0.443771 1.44762 3.18182 
0.433861 1.54807 2.84259 0.441773 1.57215 2.87831 0.443771 1.44762 3.18182 
0.44692 1.60676 2.87705 0.450188 1.65568 2.85725 0.458681 1.58608 3.23068 
0.458681 1.58608 3.23068 0.408232 1.75709 3.27361 0.487509 1.45727 3.76483 
0.408232 1.75709 3.27361 0.309442 1.872 3.32955 0.415963 1.63672 3.78477 
0.309442 1.872 3.32955 0.207917 1.93984 3.33986 0.31933 1.74167 3.83325 
0.207917 1.93984 3.33986 0.0964883 1.97499 3.36887 0.217973 1.80055 3.87526 
0.0964883 1.97499 3.36887 -0.0281912 1.9845 3.36225 0.0250206 1.84882 3.90853 
-0.0281912 1.9845 3.36225 -0.156045 1.96714 3.33889 0.0250206 1.84882 3.90853 
-0.374568 1.81049 3.2784 -0.437801 1.67831 3.25507 -0.417497 1.66592 3.61425 
-0.437801 1.67831 3.25507 -0.457593 1.56212 3.22069 -0.476987 1.48377 3.72613 
-0.457593 1.56212 3.22069 -0.432701 1.41454 3.13396 -0.485013 1.36898 3.68013 
-0.432701 1.41454 3.13396 -0.332979 1.2605 3.0973 -0.38033 1.14065 3.52238 
-0.332979 1.2605 3.0973 -0.225185 1.17443 3.0918 -0.243622 0.972936 3.62111 
-0.225185 1.17443 3.0918 -0.0859126 1.11767 3.09363 -0.0860385 0.920489 3.59051 
-0.0859126 1.11767 3.09363 0.0782662 1.13285 3.04683 -0.0860385 0.920489 3.59051 
0.0782662 1.13285 3.04683 0.203563 1.16101 3.09787 0.24378 0.993941 3.56819 
0.203563 1.16101 3.09787 0.299871 1.22129 3.11554 0.24378 0.993941 3.56819 
0.299871 1.22129 3.11554 0.391337 1.32922 3.12985 0.353442 1.07581 3.60419 
0.391337 1.32922 3.12985 0.443771 1.44762 3.18182 0.422185 1.24149 3.46538 
0.443771 1.44762 3.18182 0.458681 1.58608 3.23068 0.47708 1.30168 3.67543 
-0.165442 1.83582 3.8232 -0.301733 1.81927 3.55661 -0.272712 1.70179 4.22514 
-0.301733 1.81927 3.55661 -0.417497 1.66592 3.61425 -0.383017 1.62473 4.14523 
-0.417497 1.66592 3.61425 -0.476987 1.48377 3.72613 -0.472552 1.50303 4.1354 
-0.485013 1.36898 3.68013 -0.453901 1.31729 3.49821 -0.503965 1.13391 4.01852 
-0.453901 1.31729 3.49821 -0.38033 1.14065 3.52238 -0.455745 1.02991 3.97395 
0.353442 1.07581 3.60419 0.422185 1.24149 3.46538 0.475046 1.03373 4.02806 
0.487509 1.45727 3.76483 0.415963 1.63672 3.78477 0.509545 1.42413 4.38448 
0.415963 1.63672 3.78477 0.31933 1.74167 3.83325 0.433964 1.53153 4.45619 
0.31933 1.74167 3.83325 0.217973 1.80055 3.87526 0.341043 1.61212 4.50919 
0.217973 1.80055 3.87526 0.0250206 1.84882 3.90853 0.175023 1.70835 4.47271 
0.0250206 1.84882 3.90853 -0.165442 1.83582 3.8232 -0.139864 1.73753 4.36451 
-0.165442 1.83582 3.8232 -0.272712 1.70179 4.22514 -0.139864 1.73753 4.36451 
-0.472552 1.50303 4.1354 -0.476987 1.48377 3.72613 -0.540249 1.29139 4.14074 
-0.476987 1.48377 3.72613 -0.485013 1.36898 3.68013 -0.540249 1.29139 4.14074 
-0.38033 1.14065 3.52238 -0.243622 0.972936 3.62111 -0.350515 0.842546 4.04639 
-0.243622 0.972936 3.62111 -0.0860385 0.920489 3.59051 -0.173773 0.7477 4.01833 
-0.0860385 0.920489 3.59051 0.102498 0.949382 3.53584 -0.012359 0.721974 4.01251 
0.102498 0.949382 3.53584 0.24378 0.993941 3.56819 0.30154 0.746607 4.15922 
0.24378 0.993941 3.56819 0.353442 1.07581 3.60419 0.399908 0.881498 4.07344 
0.353442 1.07581 3.60419 0.475046 1.03373 4.02806 0.399908 0.881498 4.07344 
0.475046 1.03373 4.02806 0.47708 1.30168 3.67543 0.534463 1.12722 4.16184 
0.47708 1.30168 3.67543 0.487509 1.45727 3.76483 0.544091 1.28895 4.19744 
0.544091 1.28895 4.19744 0.509545 1.42413 4.38448 0.599627 1.25962 4.73514 
0.0190862 1.73001 4.49343 -0.139864 1.73753 4.36451 -0.114835 1.66549 4.87446 
-0.139864 1.73753 4.36451 -0.272712 1.70179 4.22514 -0.244959 1.63049 4.83484 
-0.272712 1.70179 4.22514 -0.383017 1.62473 4.14523 -0.364201 1.56797 4.8057 
-0.383017 1.62473 4.14523 -0.472552 1.50303 4.1354 -0.469538 1.48491 4.61042 
-0.472552 1.50303 4.1354 -0.540249 1.29139 4.14074 -0.558115 1.33924 4.56833 
-0.540249 1.29139 4.14074 -0.503965 1.13391 4.01852 -0.582466 0.991506 4.46708 
-0.503965 1.13391 4.01852 -0.455745 1.02991 3.97395 -0.582466 0.991506 4.46708 
-0.455745 1.02991 3.97395 -0.350515 0.842546 4.04639 -0.490402 0.804673 4.40735 
-0.350515 0.842546 4.04639 -0.173773 0.7477 4.01833 -0.351057 0.669326 4.35711 
-0.173773 0.7477 4.01833 -0.012359 0.721974 4.01251 -0.0224644 0.479288 4.48612 
-0.012359 0.721974 4.01251 0.137208 0.736211 4.02087 0.125063 0.476528 4.51549 
0.137208 0.736211 4.02087 0.30154 0.746607 4.15922 0.277912 0.533112 4.51857 
0.399908 0.881498 4.07344 0.475046 1.03373 4.02806 0.502934 0.747621 4.51966 
0.475046 1.03373 4.02806 0.534463 1.12722 4.16184 0.583651 0.897334 4.56697 
0.534463 1.12722 4.16184 0.544091 1.28895 4.19744 0.600646 1.10404 4.5114 
0.600646 1.10404 4.5114 0.599627 1.25962 4.73514 0.708732 0.97991 5.03005 
0.509545 1.42413 4.38448 0.433964 1.53153 4.45619 0.578532 1.34399 5.08631 
0.433964 1.53153 4.45619 0.341043 1.61212 4.50919 0.493094 1.44412 5.12371 
0.341043 1.61212 4.50919 0.175023 1.70835 4.47271 0.394459 1.52171 5.19097 
0.175023 1.70835 4.47271 0.0190862 1.73001 4.49343 0.0230119 1.65692 5.03932 
-0.364201 1.56797 4.8057 -0.469538 1.48491 4.61042 -0.467865 1.47002 5.21895 
-0.469538 1.48491 4.61042 -0.558115 1.33924 4.56833 -0.620094 1.28659 5.05932 
-0.558115 1.33924 4.56833 -0.595126 1.17819 4.51992 -0.693165 1.05811 5.01723 
-0.595126 1.17819 4.51992 -0.582466 0.991506 4.46708 -0.690286 0.881924 4.96007 
-0.582466 0.991506 4.46708 -0.490402 0.804673 4.40735 -0.637889 0.71217 4.89797 
-0.490402 0.804673 4.40735 -0.351057 0.669326 4.35711 -0.520861 0.544505 4.83363 
-0.351057 0.669326 4.35711 -0.172699 0.508185 4.48174 -0.336734 0.351659 4.8623 
0.277912 0.533112 4.51857 0.30154 0.746607 4.15922 0.4617 0.471914 4.8342 
0.30154 0.746607 4.15922 0.502934 0.747621 4.51966 0.4617 0.471914 4.8342 
0.583651 0.897334 4.56697 0.600646 1.10404 4.5114 0.705883 0.7513 5.06388 
0.708732 0.97991 5.03005 0.599627 1.25962 4.73514 0.747127 1.10315 5.41581 
0.394459 1.52171 5.19097 0.192405 1.6359 4.99394 0.265326 1.57241 5.53594 
0.192405 1.6359 4.99394 0.0230119 1.65692 5.03932 0.0771368 1.61092 5.52696 
0.0230119 1.65692 5.03932 -0.114835 1.66549 4.87446 -0.083308 1.61214 5.49741 
-0.114835 1.66549 4.87446 -0.244959 1.63049 4.83484 -0.282085 1.57572 5.35114 
-0.244959 1.63049 4.83484 -0.364201 1.56797 4.8057 -0.282085 1.57572 5.35114 
-0.172699 0.508185 4.48174 -0.0224644 0.479288 4.48612 -0.132792 0.23826 4.91625 
-0.0224644 0.479288 4.48612 0.125063 0.476528 4.51549 0.125173 0.249691 4.88936 
0.125063 0.476528 4.51549 0.277912 0.533112 4.51857 0.125173 0.249691 4.88936 
0.277912 0.533112 4.51857 0.4617 0.471914 4.8342 0.364909 0.193917 5.13283 
0.4617 0.471914 4.8342 0.502934 0.747621 4.51966 0.632253 0.549345 5.04128 
0.502934 0.747621 4.51966 0.583651 0.897334 4.56697 0.632253 0.549345 5.04128 
0.708732 0.97991 5.03005 0.747127 1.10315 5.41581 0.826592 0.868909 5.47969 
0.747127 1.10315 5.41581 0.578532 1.34399 5.08631 0.686795 1.25662 5.58002 
0.578532 1.34399 5.08631 0.493094 1.44412 5.12371 0.555316 1.40359 5.64699 
0.493094 1.44412 5.12371 0.394459 1.52171 5.19097 0.555316 1.40359 5.64699 
0.394459 1.52171 5.19097 0.265326 1.57241 5.53594 0.420073 1.49701 5.68013 
-0.083308 1.61214 5.49741 -0.282085 1.57572 5.35114 -0.257075 1.57007 5.69546 
-0.282085 1.57572 5.35114 -0.467865 1.47002 5.21895 -0.42877 1.49224 5.67245 
-0.467865 1.47002 5.21895 -0.620094 1.28659 5.05932 -0.590969 1.37163 5.63431 
-0.620094 1.28659 5.05932 -0.693165 1.05811 5.01723 -0.818493 0.915681 5.47636 
-0.693165 1.05811 5.01723 -0.690286 0.881924 4.96007 -0.818493 0.915681 5.47636 
-0.690286 0.881924 4.96007 -0.637889 0.71217 4.89797 -0.811325 0.684577 5.41594 
-0.637889 0.71217 4.89797 -0.520861 0.544505 4.83363 -0.731708 0.309912 5.48498 
-0.520861 0.544505 4.83363 -0.336734 0.351659 4.8623 -0.571574 0.182831 5.36776 
-0.336734 0.351659 4.8623 -0.132792 0.23826 4.91625 -0.238795 -0.00658718 5.33635 
-0.132792 0.23826 4.91625 0.125173 0.249691 4.88936 -0.005185 -0.0674257 5.36629 
0.364909 0.193917 5.13283 0.4617 0.471914 4.8342 0.568017 0.118568 5.44766 
0.4617 0.471914 4.8342 0.632253 0.549345 5.04128 0.700307 0.282714 5.45962 
0.632253 0.549345 5.04128 0.705883 0.7513 5.06388 0.805032 0.422942 5.54091 
0.705883 0.7513 5.06388 0.708732 0.97991 5.03005 0.835844 0.601031 5.51665 
0.826592 0.868909 5.47969 0.747127 1.10315 5.41581 0.940192 0.888904 5.97234 
0.747127 1.10315 5.41581 0.686795 1.25662 5.58002 0.863738 1.10306 6.07947 
0.686795 1.25662 5.58002 0.555316 1.40359 5.64699 0.750428 1.26532 6.14086 
0.555316 1.40359 5.64699 0.420073 1.49701 5.68013 0.491717 1.47508 6.25457 
0.420073 1.49701 5.68013 0.265326 1.57241 5.53594 0.272608 1.56212 6.05707 
0.265326 1.57241 5.53594 0.0771368 1.61092 5.52696 0.272608 1.56212 6.05707 
0.0771368 1.61092 5.52696 -0.083308 1.61214 5.49741 0.0555328 1.5968 6.05491 
-0.083308 1.61214 5.49741 -0.257075 1.57007 5.69546 -0.122363 1.5921 6.04201 
-0.257075 1.57007 5.69546 -0.42877 1.49224 5.67245 -0.496297 1.46981 6.18222 
-0.42877 1.49224 5.67245 -0.590969 1.37163 5.63431 -0.63794 1.35685 5.96869 
-0.590969 1.37163 5.63431 -0.728078 1.18682 5.53866 -0.811581 1.15024 5.92526 
-0.728078 1.18682 5.53866 -0.818493 0.915681 5.47636 -0.924445 0.897904 5.91487 
-0.818493 0.915681 5.47636 -0.811325 0.684577 5.41594 -0.92358 0.695636 5.7669 
-0.811325 0.684577 5.41594 -0.798141 0.471304 5.49148 -0.958244 0.414296 5.89941 
-0.571574 0.182831 5.36776 -0.390259 0.0375576 5.36893 -0.613962 -0.0836044 5.7345 
-0.238795 -0.00658718 5.33635 -0.005185 -0.0674257 5.36629 -0.207582 -0.250387 5.64942 
0.364909 0.193917 5.13283 0.568017 0.118568 5.44766 0.499064 -0.0856337 5.62112 
0.835844 0.601031 5.51665 0.826592 0.868909 5.47969 1.00239 0.642055 6.00251 
0.491717 1.47508 6.25457 0.272608 1.56212 6.05707 0.347121 1.54935 6.48519 
0.272608 1.56212 6.05707 0.0555328 1.5968 6.05491 0.0836088 1.60765 6.61462 
0.0555328 1.5968 6.05491 -0.122363 1.5921 6.04201 0.0836088 1.60765 6.61462 
-0.496297 1.46981 6.18222 -0.63794 1.35685 5.96869 -0.758 1.31758 6.4706 
-0.63794 1.35685 5.96869 -0.811581 1.15024 5.92526 -0.906571 1.15051 6.44129 
-0.924445 0.897904 5.91487 -0.92358 0.695636 5.7669 -1.0702 0.723304 6.25963 
-0.92358 0.695636 5.7669 -0.958244 0.414296 5.89941 -1.08083 0.494738 6.19245 
-0.958244 0.414296 5.89941 -0.798141 0.471304 5.49148 -0.93605 0.208001 5.94724 
-0.798141 0.471304 5.49148 -0.731708 0.309912 5.48498 -0.93605 0.208001 5.94724 
-0.731708 0.309912 5.48498 -0.571574 0.182831 5.36776 -0.792167 0.00582331 5.86206 
-0.613962 -0.0836044 5.7345 -0.390259 0.0375576 5.36893 -0.496527 -0.357949 5.94322 
-0.390259 0.0375576 5.36893 -0.238795 -0.00658718 5.33635 -0.496527 -0.357949 5.94322 
-0.207582 -0.250387 5.64942 -0.005185 -0.0674257 5.36629 -0.102179 -0.460638 5.90234 
-0.005185 -0.0674257 5.36629 0.142716 -0.0376318 5.3454 0.237537 -0.455371 5.92712 
0.142716 -0.0376318 5.3454 0.291959 -0.0241893 5.38775 0.387035 -0.396766 5.92384 
0.499064 -0.0856337 5.62112 0.568017 0.118568 5.44766 0.713387 -0.203231 5.97523 
0.568017 0.118568 5.44766 0.700307 0.282714 5.45962 0.855409 -0.104432 6.05702 
0.700307 0.282714 5.45962 0.805032 0.422942 5.54091 0.911604 0.213405 5.89017 
0.805032 0.422942 5.54091 0.835844 0.601031 5.51665 1.02016 0.421873 6.03843 
0.835844 0.601031 5.51665 1.00239 0.642055 6.00251 1.02016 0.421873 6.03843 
1.00239 0.642055 6.00251 0.940192 0.888904 5.97234 1.21432 0.635018 6.62129 
0.940192 0.888904 5.97234 0.863738 1.10306 6.07947 1.14654 0.853167 6.66355 
0.863738 1.10306 6.07947 0.750428 1.26532 6.14086 0.901642 1.20254 6.5964 
0.750428 1.26532 6.14086 0.621043 1.38793 6.1767 0.773687 1.33279 6.64671 
0.621043 1.38793 6.1767 0.491717 1.47508 6.25457 0.593947 1.45985 6.67602 
0.491717 1.47508 6.25457 0.347121 1.54935 6.48519 0.447733 1.54674 6.88855 
-0.150415 1.59823 6.58776 -0.30336 1.55316 6.26886 -0.346337 1.58281 6.92167 
-0.30336 1.55316 6.26886 -0.496297 1.46981 6.18222 -0.488975 1.52786 6.86053 
-0.980624 1.026 6.39065 -0.924445 0.897904 5.91487 -1.15488 0.830656 6.65439 
-1.08083 0.494738 6.19245 -0.958244 0.414296 5.89941 -1.17211 0.188907 6.43642 
-0.958244 0.414296 5.89941 -0.93605 0.208001 5.94724 -1.11457 -0.0106 6.39972 
-0.93605 0.208001 5.94724 -0.792167 0.00582331 5.86206 -1.01502 -0.211874 6.36907 
-0.792167 0.00582331 5.86206 -0.613962 -0.0836044 5.7345 -0.758889 -0.441628 6.25986 
-0.496527 -0.357949 5.94322 -0.207582 -0.250387 5.64942 -0.31252 -0.530481 6.04257 
0.387035 -0.396766 5.92384 0.499064 -0.0856337 5.62112 0.592266 -0.401251 6.0623 
0.911604 0.213405 5.89017 1.02016 0.421873 6.03843 1.18383 0.192192 6.45866 
1.02016 0.421873 6.03843 1.00239 0.642055 6.00251 1.15103 0.438981 6.36401 
1.15103 0.438981 6.36401 1.21432 0.635018 6.62129 1.35546 0.303643 6.81967 
1.08298 1.00271 6.72076 0.901642 1.20254 6.5964 1.10395 1.18078 7.25066 
0.901642 1.20254 6.5964 0.773687 1.33279 6.64671 0.909408 1.3244 7.13588 
0.773687 1.33279 6.64671 0.593947 1.45985 6.67602 0.708125 1.47905 7.22067 
0.447733 1.54674 6.88855 0.347121 1.54935 6.48519 0.275413 1.63828 7.26361 
0.347121 1.54935 6.48519 0.0836088 1.60765 6.61462 0.275413 1.63828 7.26361 
0.0836088 1.60765 6.61462 -0.150415 1.59823 6.58776 -0.196624 1.65031 7.27215 
-0.150415 1.59823 6.58776 -0.346337 1.58281 6.92167 -0.196624 1.65031 7.27215 
-0.488975 1.52786 6.86053 -0.616572 1.44741 6.68353 -0.735641 1.45947 7.20935 
-0.616572 1.44741 6.68353 -0.758 1.31758 6.4706 -0.951462 1.29996 7.1644 
-0.758 1.31758 6.4706 -0.906571 1.15051 6.44129 -1.1192 1.10552 7.09498 
-0.906571 1.15051 6.44129 -0.980624 1.026 6.39065 -1.20848 0.948329 7.01914 
-1.15488 0.830656 6.65439 -1.0702 0.723304 6.25963 -1.26567 0.63521 6.7599 
-1.0702 0.723304 6.25963 -1.08083 0.494738 6.19245 -1.28106 0.374421 6.66144 
-0.758889 -0.441628 6.25986 -0.496527 -0.357949 5.94322 -0.678406 -0.738068 6.47836 
-0.496527 -0.357949 5.94322 -0.31252 -0.530481 6.04257 -0.496466 -0.824044 6.45461 
-0.31252 -0.530481 6.04257 -0.102179 -0.460638 5.90234 -0.28494 -0.848935 6.39505 
-0.102179 -0.460638 5.90234 0.0758263 -0.479333 5.9228 0.128556 -0.791129 6.29261 
0.0758263 -0.479333 5.9228 0.237537 -0.455371 5.92712 0.128556 -0.791129 6.29261 
0.237537 -0.455371 5.92712 0.387035 -0.396766 5.92384 0.457348 -0.718056 6.3129 
0.387035 -0.396766 5.92384 0.592266 -0.401251 6.0623 0.457348 -0.718056 6.3129 
0.592266 -0.401251 6.0623 0.713387 -0.203231 5.97523 0.770263 -0.52944 6.34796 
0.713387 -0.203231 5.97523 0.855409 -0.104432 6.05702 1.03019 -0.461398 6.57383 
0.855409 -0.104432 6.05702 1.08709 -0.00365791 6.34537 1.17429 -0.29159 6.64955 
1.18383 0.192192 6.45866 1.15103 0.438981 6.36401 1.35546 0.303643 6.81967 
1.35546 0.303643 6.81967 1.21432 0.635018 6.62129 1.41396 0.473682 7.02446 
1.21432 0.635018 6.62129 1.14654 0.853167 6.66355 1.37923 0.660708 7.08456 
1.14654 0.853167 6.66355 1.08298 1.00271 6.72076 1.36383 0.849351 7.28511 
1.08298 1.00271 6.72076 1.10395 1.18078 7.25066 1.26486 1.04586 7.38331 
0.708125 1.47905 7.22067 0.447733 1.54674 6.88855 0.506719 1.59615 7.39623 
0.447733 1.54674 6.88855 0.275413 1.63828 7.26361 0.506719 1.59615 7.39623 
-0.196624 1.65031 7.27215 -0.346337 1.58281 6.92167 -0.461292 1.63806 7.5773 
-0.346337 1.58281 6.92167 -0.488975 1.52786 6.86053 -0.582966 1.56555 7.38705 
-1.20848 0.948329 7.01914 -1.15488 0.830656 6.65439 -1.365 0.713021 7.09811 
-1.15488 0.830656 6.65439 -1.26567 0.63521 6.7599 -1.365 0.713021 7.09811 
-1.26567 0.63521 6.7599 -1.28106 0.374421 6.66144 -1.47648 0.450083 7.15982 
-1.28106 0.374421 6.66144 -1.17211 0.188907 6.43642 -1.39021 0.0756556 6.88127 
-1.17211 0.188907 6.43642 -1.11457 -0.0106 6.39972 -1.34102 -0.124451 6.83493 
-1.11457 -0.0106 6.39972 -1.01502 -0.211874 6.36907 -1.30509 -0.371101 6.87784 
-1.01502 -0.211874 6.36907 -0.899895 -0.345984 6.32368 -1.17314 -0.57046 6.82017 
-0.899895 -0.345984 6.32368 -0.758889 -0.441628 6.25986 -0.997177 -0.801036 6.79648 
-0.0967045 -0.780344 6.27997 0.128556 -0.791129 6.29261 0.109423 -1.15218 6.68061 
0.128556 -0.791129 6.29261 0.457348 -0.718056 6.3129 0.313957 -1.12446 6.69044 
0.457348 -0.718056 6.3129 0.770263 -0.52944 6.34796 0.712596 -0.842627 6.60159 
0.770263 -0.52944 6.34796 1.03019 -0.461398 6.57383 0.918172 -0.69821 6.63582 
1.08709 -0.00365791 6.34537 1.18383 0.192192 6.45866 1.48339 -0.0316998 7.06785 
1.35546 0.303643 6.81967 1.41396 0.473682 7.02446 1.57196 0.210956 7.25274 
1.41396 0.473682 7.02446 1.37923 0.660708 7.08456 1.63739 0.420382 7.49323 
1.10395 1.18078 7.25066 0.909408 1.3244 7.13588 1.05816 1.34465 7.62965 
0.909408 1.3244 7.13588 0.708125 1.47905 7.22067 0.883011 1.52121 7.85776 
0.708125 1.47905 7.22067 0.506719 1.59615 7.39623 0.628273 1.64135 7.87427 
0.506719 1.59615 7.39623 0.275413 1.63828 7.26361 0.383155 1.68847 7.74308 
0.275413 1.63828 7.26361 0.0183677 1.66641 7.29621 0.139297 1.73008 7.7626 
0.0183677 1.66641 7.29621 -0.196624 1.65031 7.27215 -0.202379 1.721 7.7334 
-0.196624 1.65031 7.27215 -0.461292 1.63806 7.5773 -0.202379 1.721 7.7334 
-0.582966 1.56555 7.38705 -0.735641 1.45947 7.20935 -0.732712 1.58962 7.837 
-0.735641 1.45947 7.20935 -0.951462 1.29996 7.1644 -0.979843 1.45255 7.81651 
-0.951462 1.29996 7.1644 -1.1192 1.10552 7.09498 -1.16703 1.24471 7.59619 
-1.1192 1.10552 7.09498 -1.20848 0.948329 7.01914 -1.3997 1.02879 7.69846 
-1.20848 0.948329 7.01914 -1.365 0.713021 7.09811 -1.51814 0.825745 7.63821 
-1.49081 0.259806 7.10768 -1.39021 0.0756556 6.88127 -1.63963 -0.0466323 7.34479 
-1.39021 0.0756556 6.88127 -1.34102 -0.124451 6.83493 -1.56808 -0.316369 7.25123 
-0.997177 -0.801036 6.79648 -0.678406 -0.738068 6.47836 -0.842351 -1.03003 6.85916 
-0.678406 -0.738068 6.47836 -0.496466 -0.824044 6.45461 -0.63745 -1.13299 6.82438 
-0.496466 -0.824044 6.45461 -0.28494 -0.848935 6.39505 -0.368475 -1.24292 6.81508 
0.535952 -1.06376 6.71123 0.712596 -0.842627 6.60159 0.764091 -1.21235 6.96715 
0.712596 -0.842627 6.60159 0.918172 -0.69821 6.63582 0.970535 -1.0736 6.99146 
0.918172 -0.69821 6.63582 1.03019 -0.461398 6.57383 1.1977 -0.89827 7.06218 
1.03019 -0.461398 6.57383 1.17429 -0.29159 6.64955 1.36972 -0.686034 7.12639 
1.17429 -0.29159 6.64955 1.39409 -0.199158 6.94869 1.49937 -0.490012 7.20332 
1.36383 0.849351 7.28511 1.26486 1.04586 7.38331 1.51792 0.954301 7.82623 
1.26486 1.04586 7.38331 1.10395 1.18078 7.25066 1.32472 1.21773 7.9073 
1.10395 1.18078 7.25066 1.05816 1.34465 7.62965 1.32472 1.21773 7.9073 
1.05816 1.34465 7.62965 0.883011 1.52121 7.85776 1.08936 1.42815 7.96687 
0.628273 1.64135 7.87427 0.383155 1.68847 7.74308 0.4535 1.77587 8.24951 
0.383155 1.68847 7.74308 0.139297 1.73008 7.7626 0.201234 1.81899 8.25688 
0.139297 1.73008 7.7626 -0.202379 1.721 7.7334 -0.031127 1.82851 8.26313 
-0.202379 1.721 7.7334 -0.461292 1.63806 7.5773 -0.558909 1.75128 8.25018 
-0.979843 1.45255 7.81651 -1.16703 1.24471 7.59619 -1.27882 1.26266 7.91349 
-1.62775 0.584831 7.60231 -1.47648 0.450083 7.15982 -1.72536 0.334322 7.61741 
-1.47648 0.450083 7.15982 -1.49081 0.259806 7.10768 -1.73665 0.101734 7.54087 
-1.49081 0.259806 7.10768 -1.63963 -0.0466323 7.34479 -1.73665 0.101734 7.54087 
-1.30509 -0.371101 6.87784 -1.17314 -0.57046 6.82017 -1.41698 -0.94276 7.31758 
-1.17314 -0.57046 6.82017 -0.997177 -0.801036 6.79648 -1.26191 -1.14531 7.28906 
-0.997177 -0.801036 6.79648 -0.842351 -1.03003 6.85916 -1.09852 -1.30019 7.263 
-0.842351 -1.03003 6.85916 -0.63745 -1.13299 6.82438 -0.763252 -1.49387 7.20155 
-0.63745 -1.13299 6.82438 -0.368475 -1.24292 6.81508 -0.483545 -1.58559 7.16362 
-0.368475 -1.24292 6.81508 -0.0792005 -1.14354 6.67002 -0.200012 -1.61054 7.12791 
-0.0792005 -1.14354 6.67002 0.109423 -1.15218 6.68061 0.0331969 -1.60221 7.10574 
0.109423 -1.15218 6.68061 0.313957 -1.12446 6.69044 0.322822 -1.57409 7.11303 
0.313957 -1.12446 6.69044 0.535952 -1.06376 6.71123 0.612192 -1.54358 7.17515 
1.49937 -0.490012 7.20332 1.39409 -0.199158 6.94869 1.73349 -0.442591 7.52774 
1.39409 -0.199158 6.94869 1.48339 -0.0316998 7.06785 1.80218 -0.249194 7.61175 
1.48339 -0.0316998 7.06785 1.57196 0.210956 7.25274 1.83476 0.0579834 7.70295 
1.83476 0.0579834 7.70295 1.63739 0.420382 7.49323 1.878 0.375172 7.93399 
1.63739 0.420382 7.49323 1.5818 0.696047 7.6101 1.878 0.375172 7.93399 
1.5818 0.696047 7.6101 1.51792 0.954301 7.82623 1.68613 0.904449 8.11062 
1.51792 0.954301 7.82623 1.32472 1.21773 7.9073 1.55789 1.16502 8.29087 
1.32472 1.21773 7.9073 1.08936 1.42815 7.96687 1.29885 1.44568 8.42239 
1.08936 1.42815 7.96687 0.883011 1.52121 7.85776 1.03071 1.64574 8.53534 
0.883011 1.52121 7.85776 0.628273 1.64135 7.87427 0.774525 1.76476 8.56254 
-0.558909 1.75128 8.25018 -0.732712 1.58962 7.837 -0.85965 1.67489 8.36606 
-0.732712 1.58962 7.837 -0.979843 1.45255 7.81651 -1.10504 1.53622 8.32156 
-0.979843 1.45255 7.81651 -1.27882 1.26266 7.91349 -1.34212 1.40599 8.41305 
-1.27882 1.26266 7.91349 -1.3997 1.02879 7.69846 -1.56009 1.19342 8.35301 
-1.3997 1.02879 7.69846 -1.51814 0.825745 7.63821 -1.74377 0.925481 8.26365 
-1.51814 0.825745 7.63821 -1.62775 0.584831 7.60231 -1.93555 0.509053 8.15158 
-1.62775 0.584831 7.60231 -1.72536 0.334322 7.61741 -1.97877 0.292573 8.07431 
-1.72536 0.334322 7.61741 -1.73665 0.101734 7.54087 -1.98292 0.0942767 7.98055 
-1.73665 0.101734 7.54087 -1.63963 -0.0466323 7.34479 -1.89515 -0.116228 7.76851 
-1.63963 -0.0466323 7.34479 -1.56808 -0.316369 7.25123 -1.85497 -0.389159 7.69744 
-1.56808 -0.316369 7.25123 -1.51357 -0.666864 7.29115 -1.7575 -0.655815 7.60102 
-1.51357 -0.666864 7.29115 -1.41698 -0.94276 7.31758 -1.70853 -1.0198 7.66976 
0.612192 -1.54358 7.17515 0.764091 -1.21235 6.96715 0.898587 -1.73599 7.45586 
0.764091 -1.21235 6.96715 0.970535 -1.0736 6.99146 0.898587 -1.73599 7.45586 
0.970535 -1.0736 6.99146 1.1977 -0.89827 7.06218 1.33949 -1.23352 7.40672 
1.1977 -0.89827 7.06218 1.36972 -0.686034 7.12639 1.54919 -1.01226 7.49151 
1.36972 -0.686034 7.12639 1.49937 -0.490012 7.20332 1.70586 -0.745166 7.56077 
1.83476 0.0579834 7.70295 1.878 0.375172 7.93399 2.1572 0.247053 8.34773 
1.878 0.375172 7.93399 1.79711 0.671568 8.04113 2.05255 0.656868 8.4956 
1.79711 0.671568 8.04113 1.68613 0.904449 8.11062 2.05255 0.656868 8.4956 
1.68613 0.904449 8.11062 1.55789 1.16502 8.29087 1.80458 1.11603 8.66587 
0.774525 1.76476 8.56254 0.4535 1.77587 8.24951 0.536601 1.9233 8.86571 
0.4535 1.77587 8.24951 0.201234 1.81899 8.25688 0.225644 1.97763 8.8841 
0.201234 1.81899 8.25688 -0.031127 1.82851 8.26313 -0.0389473 1.95449 8.76646 
-0.031127 1.82851 8.26313 -0.244881 1.81269 8.25218 -0.284737 1.93388 8.74764 
-0.244881 1.81269 8.25218 -0.558909 1.75128 8.25018 -0.593607 1.87289 8.73227 
-0.558909 1.75128 8.25018 -0.85965 1.67489 8.36606 -0.901498 1.79538 8.81259 
-0.85965 1.67489 8.36606 -1.10504 1.53622 8.32156 -1.25844 1.62938 8.81637 
-1.89515 -0.116228 7.76851 -1.85497 -0.389159 7.69744 -2.08467 -0.336741 8.03231 
-1.85497 -0.389159 7.69744 -1.7575 -0.655815 7.60102 -2.07186 -0.725426 8.02697 
-1.70853 -1.0198 7.66976 -1.41698 -0.94276 7.31758 -1.65881 -1.39612 7.78593 
-1.41698 -0.94276 7.31758 -1.26191 -1.14531 7.28906 -1.65881 -1.39612 7.78593 
-1.26191 -1.14531 7.28906 -1.09852 -1.30019 7.263 -1.44301 -1.62208 7.72679 
-1.09852 -1.30019 7.263 -0.956129 -1.39949 7.2359 -1.07674 -1.87367 7.64759 
-0.956129 -1.39949 7.2359 -0.763252 -1.49387 7.20155 -1.07674 -1.87367 7.64759 
-0.763252 -1.49387 7.20155 -0.483545 -1.58559 7.16362 -0.646272 -2.04471 7.58526 
-0.483545 -1.58559 7.16362 -0.200012 -1.61054 7.12791 -0.373201 -1.99156 7.47082 
-0.200012 -1.61054 7.12791 0.0331969 -1.60221 7.10574 -0.126189 -2.02748 7.46895 
0.0331969 -1.60221 7.10574 0.322822 -1.57409 7.11303 0.123141 -2.02546 7.46618 
0.322822 -1.57409 7.11303 0.612192 -1.54358 7.17515 0.664635 -1.92783 7.50063 
1.13013 -1.52679 7.44239 1.33949 -1.23352 7.40672 1.38751 -1.67137 7.71325 
1.33949 -1.23352 7.40672 1.54919 -1.01226 7.49151 1.80495 -1.26992 7.86711 
1.54919 -1.01226 7.49151 1.70586 -0.745166 7.56077 1.80495 -1.26992 7.86711 
1.70586 -0.745166 7.56077 1.73349 -0.442591 7.52774 2.07465 -0.715952 8.03305 
1.73349 -0.442591 7.52774 1.80218 -0.249194 7.61175 2.11855 -0.51751 8.08004 
1.80218 -0.249194 7.61175 1.83476 0.0579834 7.70295 2.14894 -0.321893 8.13786 
1.80458 1.11603 8.66587 1.55789 1.16502 8.29087 1.70325 1.33723 8.87231 
1.55789 1.16502 8.29087 1.29885 1.44568 8.42239 1.70325 1.33723 8.87231 
1.29885 1.44568 8.42239 1.03071 1.64574 8.53534 1.23908 1.70414 8.98156 
1.03071 1.64574 8.53534 0.774525 1.76476 8.56254 1.01047 1.82637 9.0171 
0.225644 1.97763 8.8841 -0.0389473 1.95449 8.76646 -0.0410984 2.09808 9.2475 
-0.0389473 1.95449 8.76646 -0.284737 1.93388 8.74764 -0.256604 2.08374 9.24027 
-0.284737 1.93388 8.74764 -0.593607 1.87289 8.73227 -0.50892 1.99738 9.07731 
-1.25844 1.62938 8.81637 -1.34212 1.40599 8.41305 -1.60398 1.43521 8.90425 
-1.34212 1.40599 8.41305 -1.56009 1.19342 8.35301 -1.60398 1.43521 8.90425 
-1.56009 1.19342 8.35301 -1.74377 0.925481 8.26365 -1.96947 0.98366 8.74747 
-1.74377 0.925481 8.26365 -1.86731 0.720379 8.23662 -2.08826 0.763191 8.67166 
-1.86731 0.720379 8.23662 -1.93555 0.509053 8.15158 -2.19837 0.47148 8.57199 
-1.93555 0.509053 8.15158 -1.97877 0.292573 8.07431 -2.26575 0.190748 8.48993 
-1.97877 0.292573 8.07431 -1.98292 0.0942767 7.98055 -2.283 -0.0748018 8.39137 
-1.98292 0.0942767 7.98055 -2.08467 -0.336741 8.03231 -2.37001 -0.384602 8.4385 
-1.98631 -0.97866 7.9718 -1.70853 -1.0198 7.66976 -1.94941 -1.26881 8.01344 
-0.646272 -2.04471 7.58526 -0.373201 -1.99156 7.47082 -0.417705 -2.41583 7.79714 
-0.373201 -1.99156 7.47082 -0.126189 -2.02748 7.46895 -0.140436 -2.44951 7.79086 
-0.126189 -2.02748 7.46895 0.123141 -2.02546 7.46618 0.137264 -2.46154 7.79799 
0.123141 -2.02546 7.46618 0.414171 -1.98645 7.47469 0.375284 -2.41455 7.79216 
0.414171 -1.98645 7.47469 0.664635 -1.92783 7.50063 0.613211 -2.35308 7.79599 
0.664635 -1.92783 7.50063 0.898587 -1.73599 7.45586 0.868301 -2.2747 7.8246 
0.898587 -1.73599 7.45586 1.13013 -1.52679 7.44239 1.29704 -2.08618 7.90477 
2.15778 -0.0780133 8.20455 2.1572 0.247053 8.34773 2.54704 0.0443199 8.83422 
2.1572 0.247053 8.34773 2.05255 0.656868 8.4956 2.40514 0.392695 8.83546 
2.05255 0.656868 8.4956 1.91463 0.934426 8.59017 2.17066 0.948619 9.02301 
1.91463 0.934426 8.59017 1.80458 1.11603 8.66587 2.11053 1.15639 9.20838 
1.80458 1.11603 8.66587 1.70325 1.33723 8.87231 1.96204 1.35113 9.28751 
1.70325 1.33723 8.87231 1.4537 1.55217 8.92334 1.79986 1.52117 9.34926 
1.4537 1.55217 8.92334 1.23908 1.70414 8.98156 1.54768 1.71734 9.39971 
1.23908 1.70414 8.98156 1.01047 1.82637 9.0171 1.2982 1.88222 9.47134 
1.01047 1.82637 9.0171 0.760824 1.99291 9.24517 1.05245 2.00888 9.52418 
0.536601 1.9233 8.86571 0.225644 1.97763 8.8841 0.542256 2.15048 9.53959 
-0.256604 2.08374 9.24027 -0.50892 1.99738 9.07731 -0.541318 2.16382 9.571 
-0.7372 1.99808 9.24114 -0.901498 1.79538 8.81259 -1.03174 1.94507 9.34543 
-0.901498 1.79538 8.81259 -1.25844 1.62938 8.81637 -1.29822 1.80924 9.30264 
-1.25844 1.62938 8.81637 -1.60398 1.43521 8.90425 -1.82226 1.511 9.35978 
-1.60398 1.43521 8.90425 -1.81483 1.19591 8.80755 -1.85617 1.3678 9.15899 
-1.81483 1.19591 8.80755 -1.96947 0.98366 8.74747 -2.12395 1.12123 9.17581 
-1.96947 0.98366 8.74747 -2.08826 0.763191 8.67166 -2.33224 0.824095 9.12276 
-2.08826 0.763191 8.67166 -2.19837 0.47148 8.57199 -2.46596 0.506966 9.01975 
-2.19837 0.47148 8.57199 -2.26575 0.190748 8.48993 -2.5656 0.101186 8.88351 
-2.26575 0.190748 8.48993 -2.283 -0.0748018 8.39137 -2.5656 0.101186 8.88351 
-2.33277 -0.60247 8.36269 -2.07186 -0.725426 8.02697 -2.38912 -0.88194 8.42893 
-2.07186 -0.725426 8.02697 -1.98631 -0.97866 7.9718 -2.26908 -1.16547 8.32422 
-1.98631 -0.97866 7.9718 -1.94941 -1.26881 8.01344 -2.14034 -1.4205 8.25176 
-1.94941 -1.26881 8.01344 -1.65881 -1.39612 7.78593 -1.92367 -1.71049 8.15141 
-1.65881 -1.39612 7.78593 -1.44301 -1.62208 7.72679 -1.64267 -1.98992 8.06512 
-1.44301 -1.62208 7.72679 -1.2769 -1.78512 7.70897 -1.40201 -2.17098 8.01098 
-1.2769 -1.78512 7.70897 -1.07674 -1.87367 7.64759 -1.40201 -2.17098 8.01098 
-1.07674 -1.87367 7.64759 -0.844905 -1.9913 7.61913 -1.13347 -2.31238 7.95497 
-0.844905 -1.9913 7.61913 -0.646272 -2.04471 7.58526 -0.762579 -2.45065 7.90009 
-0.646272 -2.04471 7.58526 -0.417705 -2.41583 7.79714 -0.762579 -2.45065 7.90009 
1.29704 -2.08618 7.90477 1.38751 -1.67137 7.71325 1.65768 -2.16004 8.16296 
1.38751 -1.67137 7.71325 1.59668 -1.50959 7.78944 1.86586 -1.79942 8.14255 
1.59668 -1.50959 7.78944 1.80495 -1.26992 7.86711 1.86586 -1.79942 8.14255 
1.80495 -1.26992 7.86711 2.00231 -0.964182 7.98563 2.28605 -1.18578 8.34237 
2.00231 -0.964182 7.98563 2.07465 -0.715952 8.03305 2.28605 -1.18578 8.34237 
2.07465 -0.715952 8.03305 2.11855 -0.51751 8.08004 2.40144 -0.837029 8.44281 
2.11855 -0.51751 8.08004 2.14894 -0.321893 8.13786 2.45297 -0.560934 8.51918 
2.14894 -0.321893 8.13786 2.15778 -0.0780133 8.20455 2.48504 -0.2292 8.63012 
2.54704 0.0443199 8.83422 2.40514 0.392695 8.83546 2.60822 0.348666 9.09556 
2.40514 0.392695 8.83546 2.29039 0.71036 8.93861 2.60135 0.701757 9.37819 
2.29039 0.71036 8.93861 2.17066 0.948619 9.02301 2.45893 0.980764 9.47375 
1.05245 2.00888 9.52418 0.760824 1.99291 9.24517 0.914913 2.19784 9.86698 
0.243869 2.20114 9.57522 -0.0410984 2.09808 9.2475 0.0190684 2.27702 9.74038 
-0.0410984 2.09808 9.2475 -0.256604 2.08374 9.24027 -0.296806 2.25933 9.73142 
-0.541318 2.16382 9.571 -0.7372 1.99808 9.24114 -0.947421 2.17634 9.83485 
-0.7372 1.99808 9.24114 -1.03174 1.94507 9.34543 -0.947421 2.17634 9.83485 
-1.03174 1.94507 9.34543 -1.29822 1.80924 9.30264 -1.2923 2.03176 9.78424 
-1.29822 1.80924 9.30264 -1.60079 1.68046 9.3933 -1.57154 1.87643 9.74144 
-1.85617 1.3678 9.15899 -2.12395 1.12123 9.17581 -2.23201 1.30532 9.57776 
-2.60126 -0.254175 8.78542 -2.37001 -0.384602 8.4385 -2.79626 -0.585124 8.94496 
-2.37001 -0.384602 8.4385 -2.33277 -0.60247 8.36269 -2.7262 -0.914279 8.82042 
-2.33277 -0.60247 8.36269 -2.38912 -0.88194 8.42893 -2.7262 -0.914279 8.82042 
-2.38912 -0.88194 8.42893 -2.26908 -1.16547 8.32422 -2.64042 -1.21592 8.72863 
-2.26908 -1.16547 8.32422 -2.14034 -1.4205 8.25176 -2.43419 -1.72088 8.60519 
-2.14034 -1.4205 8.25176 -1.92367 -1.71049 8.15141 -2.2206 -1.97311 8.49426 
-1.92367 -1.71049 8.15141 -1.64267 -1.98992 8.06512 -1.99036 -2.19277 8.40338 
-1.64267 -1.98992 8.06512 -1.40201 -2.17098 8.01098 -1.59048 -2.56015 8.32291 
-1.40201 -2.17098 8.01098 -1.13347 -2.31238 7.95497 -1.30514 -2.7237 8.26953 
-1.13347 -2.31238 7.95497 -0.762579 -2.45065 7.90009 -0.888208 -2.7274 8.11386 
-0.762579 -2.45065 7.90009 -0.417705 -2.41583 7.79714 -0.560116 -2.94317 8.1712 
-0.417705 -2.41583 7.79714 -0.140436 -2.44951 7.79086 -0.270653 -2.98394 8.15843 
-0.140436 -2.44951 7.79086 0.137264 -2.46154 7.79799 0.0422456 -2.99983 8.15432 
0.137264 -2.46154 7.79799 0.375284 -2.41455 7.79216 0.42093 -2.94615 8.14867 
0.375284 -2.41455 7.79216 0.613211 -2.35308 7.79599 0.68265 -2.76298 8.08061 
0.613211 -2.35308 7.79599 0.868301 -2.2747 7.8246 1.03431 -2.81571 8.218 
0.868301 -2.2747 7.8246 1.09168 -2.19362 7.86389 1.23708 -2.57965 8.15912 
1.09168 -2.19362 7.86389 1.29704 -2.08618 7.90477 1.52339 -2.58273 8.3007 
1.65768 -2.16004 8.16296 1.86586 -1.79942 8.14255 1.96847 -2.0542 8.32986 
1.86586 -1.79942 8.14255 2.18668 -1.54635 8.33356 2.1401 -1.86377 8.39172 
2.28605 -1.18578 8.34237 2.40144 -0.837029 8.44281 2.67384 -1.17755 8.76066 
2.40144 -0.837029 8.44281 2.45297 -0.560934 8.51918 2.63723 -0.851885 8.72052 
2.45297 -0.560934 8.51918 2.48504 -0.2292 8.63012 2.69079 -0.564356 8.81718 
2.54704 0.0443199 8.83422 2.60822 0.348666 9.09556 2.85611 0.160041 9.30837 
2.45893 0.980764 9.47375 2.11053 1.15639 9.20838 2.3457 1.28556 9.68722 
2.11053 1.15639 9.20838 1.96204 1.35113 9.28751 2.3457 1.28556 9.68722 
1.96204 1.35113 9.28751 1.79986 1.52117 9.34926 2.05615 1.5954 9.78261 
1.79986 1.52117 9.34926 1.54768 1.71734 9.39971 1.87149 1.84161 9.98603 
1.54768 1.71734 9.39971 1.2982 1.88222 9.47134 1.57796 2.04809 10.0656 
1.2982 1.88222 9.47134 1.05245 2.00888 9.52418 1.21112 2.15658 9.97532 
0.914913 2.19784 9.86698 0.542256 2.15048 9.53959 0.638381 2.40097 10.1729 
0.542256 2.15048 9.53959 0.243869 2.20114 9.57522 0.227364 2.46609 10.2091 
0.243869 2.20114 9.57522 0.0190684 2.27702 9.74038 0.227364 2.46609 10.2091 
0.0190684 2.27702 9.74038 -0.296806 2.25933 9.73142 -0.186581 2.47313 10.2232 
-0.296806 2.25933 9.73142 -0.541318 2.16382 9.571 -0.476989 2.42974 10.1892 
-0.541318 2.16382 9.571 -0.947421 2.17634 9.83485 -0.803268 2.29287 10.0074 
-1.57154 1.87643 9.74144 -1.60079 1.68046 9.3933 -1.95348 1.81186 10.0185 
-1.60079 1.68046 9.3933 -1.82226 1.511 9.35978 -2.07988 1.57713 9.78452 
-2.23201 1.30532 9.57776 -2.12395 1.12123 9.17581 -2.53634 1.00559 9.59495 
-2.12395 1.12123 9.17581 -2.33224 0.824095 9.12276 -2.53634 1.00559 9.59495 
-2.33224 0.824095 9.12276 -2.46596 0.506966 9.01975 -2.79837 0.68489 9.62261 
-2.46596 0.506966 9.01975 -2.5656 0.101186 8.88351 -2.82667 0.32609 9.37331 
-2.5656 0.101186 8.88351 -2.60126 -0.254175 8.78542 -2.92233 -0.376501 9.14975 
-1.30514 -2.7237 8.26953 -0.888208 -2.7274 8.11386 -0.983732 -3.14794 8.38464 
1.03431 -2.81571 8.218 1.23708 -2.57965 8.15912 1.39067 -3.00065 8.44848 
1.52339 -2.58273 8.3007 1.65768 -2.16004 8.16296 1.92827 -2.64244 8.54625 
1.65768 -2.16004 8.16296 1.96847 -2.0542 8.32986 2.14987 -2.43562 8.60528 
1.96847 -2.0542 8.32986 2.1401 -1.86377 8.39172 2.36753 -2.2159 8.68306 
2.1401 -1.86377 8.39172 2.18668 -1.54635 8.33356 2.55145 -1.93833 8.75574 
2.67384 -1.17755 8.76066 2.63723 -0.851885 8.72052 2.97851 -1.04155 9.08565 
2.63723 -0.851885 8.72052 2.69079 -0.564356 8.81718 3.03569 -0.766038 9.18386 
2.69079 -0.564356 8.81718 2.77915 -0.242561 9.01672 3.05912 -0.420046 9.29645 
2.77915 -0.242561 9.01672 2.85611 0.160041 9.30837 3.25708 -0.116643 9.64655 
2.85611 0.160041 9.30837 2.79812 0.425212 9.4109 3.18126 0.256045 9.75991 
2.79812 0.425212 9.4109 2.60135 0.701757 9.37819 3.05238 0.600706 9.85767 
2.60135 0.701757 9.37819 2.45893 0.980764 9.47375 2.88085 0.943462 9.95514 
2.45893 0.980764 9.47375 2.3457 1.28556 9.68722 2.71922 1.2095 10.0463 
2.3457 1.28556 9.68722 2.05615 1.5954 9.78261 2.23273 1.65435 10.0633 
1.57796 2.04809 10.0656 1.21112 2.15658 9.97532 1.35714 2.35264 10.4599 
1.21112 2.15658 9.97532 0.914913 2.19784 9.86698 1.05005 2.46131 10.4846 
-0.476989 2.42974 10.1892 -0.803268 2.29287 10.0074 -0.849513 2.43329 10.3269 
-0.803268 2.29287 10.0074 -0.947421 2.17634 9.83485 -1.28832 2.37203 10.4506 
-0.947421 2.17634 9.83485 -1.2923 2.03176 9.78424 -1.45131 2.20608 10.2505 
-1.2923 2.03176 9.78424 -1.57154 1.87643 9.74144 -1.77312 2.02679 10.1998 
-1.95348 1.81186 10.0185 -2.07988 1.57713 9.78452 -2.33425 1.69541 10.2327 
-2.07988 1.57713 9.78452 -2.23201 1.30532 9.57776 -2.46385 1.52535 10.1428 
-2.23201 1.30532 9.57776 -2.53634 1.00559 9.59495 -2.59223 1.2468 9.93725 
-2.79837 0.68489 9.62261 -2.82667 0.32609 9.37331 -3.04713 0.317526 9.63891 
-2.98672 -0.0760544 9.34896 -2.92233 -0.376501 9.14975 -3.15495 -0.528704 9.36893 
-2.92233 -0.376501 9.14975 -2.79626 -0.585124 8.94496 -3.15495 -0.528704 9.36893 
-2.79626 -0.585124 8.94496 -2.7262 -0.914279 8.82042 -3.11811 -0.891311 9.24915 
-2.7262 -0.914279 8.82042 -2.64042 -1.21592 8.72863 -2.97606 -1.45058 9.07062 
-2.64042 -1.21592 8.72863 -2.54979 -1.47458 8.6649 -2.81969 -1.78822 8.953 
-2.54979 -1.47458 8.6649 -2.43419 -1.72088 8.60519 -2.81969 -1.78822 8.953 
-2.43419 -1.72088 8.60519 -2.2206 -1.97311 8.49426 -2.62793 -2.10865 8.85361 
-2.2206 -1.97311 8.49426 -1.99036 -2.19277 8.40338 -2.2415 -2.56316 8.70646 
-1.99036 -2.19277 8.40338 -1.80169 -2.40226 8.36855 -1.95375 -2.80253 8.6236 
-1.80169 -2.40226 8.36855 -1.59048 -2.56015 8.32291 -1.95375 -2.80253 8.6236 
-1.59048 -2.56015 8.32291 -1.30514 -2.7237 8.26953 -1.6408 -3.01301 8.55976 
-0.983732 -3.14794 8.38464 -0.560116 -2.94317 8.1712 -0.676332 -3.53912 8.52401 
-0.560116 -2.94317 8.1712 -0.270653 -2.98394 8.15843 -0.357767 -3.5881 8.50899 
-0.270653 -2.98394 8.15843 0.0422456 -2.99983 8.15432 -0.115102 -3.44914 8.41876 
0.0422456 -2.99983 8.15432 0.42093 -2.94615 8.14867 0.204883 -3.44164 8.41739 
0.844256 -3.17263 8.3629 1.03431 -2.81571 8.218 1.20972 -3.38656 8.57528 
1.39067 -3.00065 8.44848 1.52339 -2.58273 8.3007 1.77582 -3.09381 8.65824 
2.55145 -1.93833 8.75574 2.53907 -1.46899 8.6528 2.85788 -1.72965 8.97969 
2.53907 -1.46899 8.6528 2.67384 -1.17755 8.76066 2.99563 -1.39603 9.08835 
2.23273 1.65435 10.0633 1.87149 1.84161 9.98603 2.17988 2.04104 10.5752 
1.87149 1.84161 9.98603 1.57796 2.04809 10.0656 1.77174 2.21809 10.5119 
1.05005 2.46131 10.4846 0.638381 2.40097 10.1729 0.711496 2.70486 10.8013 
0.638381 2.40097 10.1729 0.227364 2.46609 10.2091 0.302272 2.73821 10.7795 
0.227364 2.46609 10.2091 -0.186581 2.47313 10.2232 -0.0343354 2.75267 10.7894 
-0.186581 2.47313 10.2232 -0.476989 2.42974 10.1892 -0.393158 2.72443 10.765 
-0.476989 2.42974 10.1892 -0.849513 2.43329 10.3269 -0.698049 2.6255 10.6501 
-0.849513 2.43329 10.3269 -1.28832 2.37203 10.4506 -1.11878 2.60401 10.7743 
-1.45131 2.20608 10.2505 -1.77312 2.02679 10.1998 -1.94385 2.20377 10.6273 
-1.77312 2.02679 10.1998 -1.95348 1.81186 10.0185 -2.12269 1.97533 10.4257 
-2.46385 1.52535 10.1428 -2.59223 1.2468 9.93725 -2.78195 1.29695 10.2031 
-2.59223 1.2468 9.93725 -2.78793 0.948981 9.84958 -3.11625 0.985514 10.2523 
-2.78793 0.948981 9.84958 -2.79837 0.68489 9.62261 -3.2816 0.632324 10.1311 
-2.79837 0.68489 9.62261 -3.04713 0.317526 9.63891 -3.2816 0.632324 10.1311 
-3.04713 0.317526 9.63891 -2.98672 -0.0760544 9.34896 -3.36128 -0.130749 9.74925 
-2.98672 -0.0760544 9.34896 -3.15495 -0.528704 9.36893 -3.3887 -0.45121 9.65114 
-3.15495 -0.528704 9.36893 -3.11811 -0.891311 9.24915 -3.47931 -0.837301 9.62994 
-3.11811 -0.891311 9.24915 -3.06103 -1.17856 9.15831 -3.41973 -1.31082 9.49209 
-3.06103 -1.17856 9.15831 -2.97606 -1.45058 9.07062 -3.30583 -1.68917 9.37451 
-2.97606 -1.45058 9.07062 -2.81969 -1.78822 8.953 -3.16326 -2.07728 9.27249 
-2.81969 -1.78822 8.953 -2.62793 -2.10865 8.85361 -2.92977 -2.41814 9.14354 
-2.62793 -2.10865 8.85361 -2.44837 -2.34577 8.77905 -2.65137 -2.74208 9.02242 
-2.44837 -2.34577 8.77905 -2.2415 -2.56316 8.70646 -2.65137 -2.74208 9.02242 
-2.2415 -2.56316 8.70646 -1.95375 -2.80253 8.6236 -2.24157 -2.94423 8.83682 
-1.95375 -2.80253 8.6236 -1.6408 -3.01301 8.55976 -1.85606 -3.20658 8.73833 
-1.6408 -3.01301 8.55976 -1.37272 -3.15529 8.51603 -1.493 -3.42601 8.68488 
-1.37272 -3.15529 8.51603 -0.983732 -3.14794 8.38464 -1.0989 -3.57143 8.6278 
-0.357767 -3.5881 8.50899 -0.115102 -3.44914 8.41876 0.028769 -3.90838 8.65362 
-0.115102 -3.44914 8.41876 0.204883 -3.44164 8.41739 0.028769 -3.90838 8.65362 
0.204883 -3.44164 8.41739 0.573846 -3.4042 8.43515 0.4535 -3.72444 8.58585 
0.573846 -3.4042 8.43515 0.844256 -3.17263 8.3629 0.861201 -3.74772 8.66005 
1.20972 -3.38656 8.57528 1.39067 -3.00065 8.44848 1.55123 -3.39623 8.69351 
1.77582 -3.09381 8.65824 1.92827 -2.64244 8.54625 2.15576 -3.0088 8.81101 
1.92827 -2.64244 8.54625 2.14987 -2.43562 8.60528 2.47102 -2.73775 8.90724 
2.14987 -2.43562 8.60528 2.36753 -2.2159 8.68306 2.47102 -2.73775 8.90724 
2.36753 -2.2159 8.68306 2.55145 -1.93833 8.75574 2.91328 -2.16991 9.08574 
2.55145 -1.93833 8.75574 2.85788 -1.72965 8.97969 2.91328 -2.16991 9.08574 
2.85788 -1.72965 8.97969 2.99563 -1.39603 9.08835 3.14161 -1.73873 9.22951 
2.99563 -1.39603 9.08835 2.97851 -1.04155 9.08565 3.26944 -1.38167 9.34808 
2.97851 -1.04155 9.08565 3.03569 -0.766038 9.18386 3.34109 -1.07521 9.44766 
3.03569 -0.766038 9.18386 3.05912 -0.420046 9.29645 3.37594 -0.753019 9.54575 
3.38897 -0.449718 9.65089 3.25708 -0.116643 9.64655 3.748 -0.286221 10.0821 
3.25708 -0.116643 9.64655 3.18126 0.256045 9.75991 3.55723 0.101348 10.0746 
3.18126 0.256045 9.75991 3.05238 0.600706 9.85767 3.45525 0.475058 10.2009 
3.05238 0.600706 9.85767 2.88085 0.943462 9.95514 3.31932 0.795472 10.2975 
2.88085 0.943462 9.95514 2.71922 1.2095 10.0463 3.10389 1.19876 10.4331 
2.71922 1.2095 10.0463 2.52578 1.46894 10.1329 2.80463 1.59299 10.5573 
2.17988 2.04104 10.5752 1.77174 2.21809 10.5119 2.20795 2.28761 10.9423 
1.77174 2.21809 10.5119 1.35714 2.35264 10.4599 1.72062 2.44367 10.8378 
1.35714 2.35264 10.4599 1.05005 2.46131 10.4846 1.33908 2.61254 10.8954 
1.05005 2.46131 10.4846 0.711496 2.70486 10.8013 1.03478 2.81782 11.1084 
-0.393158 2.72443 10.765 -0.698049 2.6255 10.6501 -0.7667 2.86365 11.0998 
-1.11878 2.60401 10.7743 -1.28832 2.37203 10.4506 -1.55544 2.61853 11.0231 
-2.12269 1.97533 10.4257 -2.33425 1.69541 10.2327 -2.74924 1.84455 10.8026 
-2.33425 1.69541 10.2327 -2.46385 1.52535 10.1428 -2.83754 1.55207 10.543 
-2.46385 1.52535 10.1428 -2.78195 1.29695 10.2031 -2.83754 1.55207 10.543 
-3.2816 0.632324 10.1311 -3.29029 0.246719 9.87718 -3.6807 0.220425 10.2695 
-3.29029 0.246719 9.87718 -3.36128 -0.130749 9.74925 -3.7487 -0.202869 10.1148 
-3.36128 -0.130749 9.74925 -3.3887 -0.45121 9.65114 -3.7807 -0.650682 9.97533 
-3.3887 -0.45121 9.65114 -3.47931 -0.837301 9.62994 -3.7807 -0.650682 9.97533 
-2.65137 -2.74208 9.02242 -2.24157 -2.94423 8.83682 -2.54521 -3.26308 9.10236 
-2.24157 -2.94423 8.83682 -1.85606 -3.20658 8.73833 -2.20835 -3.54986 9.02406 
-1.85606 -3.20658 8.73833 -1.493 -3.42601 8.68488 -1.79636 -3.78386 8.94144 
-1.493 -3.42601 8.68488 -1.0989 -3.57143 8.6278 -1.48279 -3.94429 8.90079 
-1.0989 -3.57143 8.6278 -0.676332 -3.53912 8.52401 -0.747366 -3.9893 8.75068 
-0.676332 -3.53912 8.52401 -0.357767 -3.5881 8.50899 -0.396417 -4.04063 8.73369 
0.028769 -3.90838 8.65362 0.4535 -3.72444 8.58585 0.500987 -4.26441 8.84251 
0.861201 -3.74772 8.66005 1.20972 -3.38656 8.57528 1.15153 -3.88293 8.78432 
1.20972 -3.38656 8.57528 1.55123 -3.39623 8.69351 1.63121 -3.81638 8.89601 
1.55123 -3.39623 8.69351 1.77582 -3.09381 8.65824 1.96365 -3.69886 8.97432 
1.77582 -3.09381 8.65824 2.15576 -3.0088 8.81101 2.18286 -3.55125 9.0144 
2.15576 -3.0088 8.81101 2.47102 -2.73775 8.90724 2.45109 -3.16167 9.02024 
2.78602 -2.61328 9.08441 2.91328 -2.16991 9.08574 3.11051 -2.38216 9.26488 
2.91328 -2.16991 9.08574 3.14161 -1.73873 9.22951 3.39977 -2.16424 9.46496 
3.14161 -1.73873 9.22951 3.26944 -1.38167 9.34808 3.53386 -1.45674 9.57933 
3.26944 -1.38167 9.34808 3.34109 -1.07521 9.44766 3.53386 -1.45674 9.57933 
3.34109 -1.07521 9.44766 3.37594 -0.753019 9.54575 3.59868 -1.03601 9.70139 
3.37594 -0.753019 9.54575 3.38897 -0.449718 9.65089 3.72759 -0.630685 9.9308 
3.748 -0.286221 10.0821 3.55723 0.101348 10.0746 3.81129 0.0576568 10.301 
3.55723 0.101348 10.0746 3.45525 0.475058 10.2009 3.69948 0.479167 10.4448 
3.45525 0.475058 10.2009 3.31932 0.795472 10.2975 3.56315 0.817643 10.5535 
3.31932 0.795472 10.2975 3.10389 1.19876 10.4331 3.45806 1.25161 10.8145 
3.10389 1.19876 10.4331 2.80463 1.59299 10.5573 3.08105 1.58927 10.8055 
2.80463 1.59299 10.5573 2.43674 1.84934 10.537 2.79429 1.91072 10.9132 
2.43674 1.84934 10.537 2.17988 2.04104 10.5752 2.48861 2.17025 10.9931 
2.20795 2.28761 10.9423 1.72062 2.44367 10.8378 1.86314 2.57337 11.1179 
1.72062 2.44367 10.8378 1.33908 2.61254 10.8954 1.43438 2.76803 11.1885 
1.03478 2.81782 11.1084 0.711496 2.70486 10.8013 0.70656 2.96701 11.2531 
0.711496 2.70486 10.8013 0.302272 2.73821 10.7795 0.335258 3.01572 11.2691 
0.302272 2.73821 10.7795 -0.0343354 2.75267 10.7894 -0.048007 3.02821 11.273 
-0.0343354 2.75267 10.7894 -0.393158 2.72443 10.765 -0.427265 3.00677 11.2654 
-0.7667 2.86365 11.0998 -1.11878 2.60401 10.7743 -1.2308 2.84324 11.2162 
-1.55544 2.61853 11.0231 -1.69294 2.37358 10.7135 -1.86442 2.5763 11.1262 
-1.69294 2.37358 10.7135 -1.94385 2.20377 10.6273 -2.18908 2.38828 11.0643 
-3.20376 1.26137 10.5958 -3.11625 0.985514 10.2523 -3.55367 1.0812 10.7583 
-3.11625 0.985514 10.2523 -3.2816 0.632324 10.1311 -3.67194 0.760576 10.6161 
-3.7807 -0.650682 9.97533 -3.47931 -0.837301 9.62994 -3.86197 -1.11949 9.92044 
-3.47931 -0.837301 9.62994 -3.41973 -1.31082 9.49209 -3.86197 -1.11949 9.92044 
-3.41973 -1.31082 9.49209 -3.30583 -1.68917 9.37451 -3.62147 -2.00075 9.62575 
-3.30583 -1.68917 9.37451 -3.16326 -2.07728 9.27249 -3.62147 -2.00075 9.62575 
-3.16326 -2.07728 9.27249 -2.92977 -2.41814 9.14354 -3.40034 -2.49493 9.48492 
-2.92977 -2.41814 9.14354 -2.65137 -2.74208 9.02242 -3.13575 -2.86407 9.35654 
-1.13226 -4.08786 8.86889 -0.747366 -3.9893 8.75068 -0.850486 -4.5131 8.98731 
-0.747366 -3.9893 8.75068 -0.396417 -4.04063 8.73369 -0.425208 -4.35457 8.87421 
-0.396417 -4.04063 8.73369 0.028769 -3.90838 8.65362 0.0388086 -4.37347 8.86399 
0.500987 -4.26441 8.84251 0.861201 -3.74772 8.66005 0.981464 -4.25254 8.90211 
0.861201 -3.74772 8.66005 1.15153 -3.88293 8.78432 0.981464 -4.25254 8.90211 
1.15153 -3.88293 8.78432 1.63121 -3.81638 8.89601 1.43522 -4.1129 8.95077 
2.18286 -3.55125 9.0144 2.45109 -3.16167 9.02024 2.71294 -3.55468 9.26217 
2.8087 -3.03912 9.19367 2.78602 -2.61328 9.08441 3.24859 -2.96193 9.44191 
2.78602 -2.61328 9.08441 3.11051 -2.38216 9.26488 3.24859 -2.96193 9.44191 
3.51988 -1.92384 9.55107 3.53386 -1.45674 9.57933 3.85743 -1.81404 9.82403 
3.53386 -1.45674 9.57933 3.59868 -1.03601 9.70139 3.8862 -1.06835 9.95229 
3.59868 -1.03601 9.70139 3.72759 -0.630685 9.9308 3.8862 -1.06835 9.95229 
3.72759 -0.630685 9.9308 3.748 -0.286221 10.0821 4.12921 -0.321228 10.4123 
3.748 -0.286221 10.0821 3.81129 0.0576568 10.301 4.12921 -0.321228 10.4123 
3.81129 0.0576568 10.301 3.69948 0.479167 10.4448 4.06419 0.538788 10.8104 
3.69948 0.479167 10.4448 3.56315 0.817643 10.5535 4.06419 0.538788 10.8104 
3.45806 1.25161 10.8145 3.08105 1.58927 10.8055 3.42142 1.72106 11.2152 
3.08105 1.58927 10.8055 2.79429 1.91072 10.9132 3.02486 1.96558 11.1564 
2.79429 1.91072 10.9132 2.48861 2.17025 10.9931 2.81954 2.28494 11.366 
2.48861 2.17025 10.9931 2.20795 2.28761 10.9423 2.32126 2.52804 11.3287 
2.20795 2.28761 10.9423 1.86314 2.57337 11.1179 2.32126 2.52804 11.3287 
1.86314 2.57337 11.1179 1.43438 2.76803 11.1885 1.84548 2.89153 11.5562 
1.43438 2.76803 11.1885 1.03478 2.81782 11.1084 1.39168 3.07347 11.6231 
1.03478 2.81782 11.1084 0.70656 2.96701 11.2531 0.773 3.23068 11.6778 
0.70656 2.96701 11.2531 0.335258 3.01572 11.2691 0.378858 3.19153 11.5547 
0.335258 3.01572 11.2691 -0.048007 3.02821 11.273 -0.114668 3.20941 11.5621 
-0.048007 3.02821 11.273 -0.427265 3.00677 11.2654 -0.114668 3.20941 11.5621 
-0.427265 3.00677 11.2654 -0.7667 2.86365 11.0998 -0.854736 3.12347 11.5333 
-0.7667 2.86365 11.0998 -1.2308 2.84324 11.2162 -1.27316 3.10353 11.625 
-1.2308 2.84324 11.2162 -1.55544 2.61853 11.0231 -1.66248 2.97712 11.5945 
-1.55544 2.61853 11.0231 -1.86442 2.5763 11.1262 -1.95001 2.85279 11.5581 
-1.86442 2.5763 11.1262 -2.18908 2.38828 11.0643 -2.2186 2.70491 11.5035 
-2.18908 2.38828 11.0643 -2.41603 2.11746 10.8708 -2.75509 2.35589 11.4047 
-2.41603 2.11746 10.8708 -2.74924 1.84455 10.8026 -3.04449 2.09236 11.3091 
-2.74924 1.84455 10.8026 -3.1388 1.51633 10.7818 -3.31399 1.79576 11.206 
-3.1388 1.51633 10.7818 -3.20376 1.26137 10.5958 -3.57451 1.47343 11.1089 
-3.66722 0.562633 10.4699 -3.6807 0.220425 10.2695 -4.0799 0.417493 10.7526 
-3.6807 0.220425 10.2695 -3.7487 -0.202869 10.1148 -4.11338 -0.178069 10.4623 
-3.7487 -0.202869 10.1148 -3.7807 -0.650682 9.97533 -4.14793 -0.550384 10.3396 
-3.7807 -0.650682 9.97533 -3.86197 -1.11949 9.92044 -4.14639 -0.93744 10.2117 
-3.86197 -1.11949 9.92044 -3.77563 -1.56699 9.77799 -4.08793 -1.42159 10.0525 
-3.77563 -1.56699 9.77799 -3.62147 -2.00075 9.62575 -4.10044 -1.93833 9.99672 
-3.62147 -2.00075 9.62575 -3.40034 -2.49493 9.48492 -3.79125 -2.67609 9.76229 
-3.40034 -2.49493 9.48492 -3.13575 -2.86407 9.35654 -3.58005 -3.01652 9.651 
-3.13575 -2.86407 9.35654 -2.89911 -3.14536 9.26711 -3.32287 -3.32434 9.53995 
-2.89911 -3.14536 9.26711 -2.54521 -3.26308 9.10236 -2.86124 -3.57543 9.3388 
-2.54521 -3.26308 9.10236 -2.20835 -3.54986 9.02406 -2.55436 -4.01414 9.30873 
-2.20835 -3.54986 9.02406 -1.79636 -3.78386 8.94144 -2.1636 -4.11315 9.18133 
-1.79636 -3.78386 8.94144 -1.48279 -3.94429 8.90079 -1.80723 -4.29744 9.12209 
-1.48279 -3.94429 8.90079 -1.13226 -4.08786 8.86889 -1.27824 -4.65963 9.11425 
-0.850486 -4.5131 8.98731 -0.425208 -4.35457 8.87421 -0.384228 -4.68244 9.00112 
-0.425208 -4.35457 8.87421 0.0388086 -4.37347 8.86399 -0.384228 -4.68244 9.00112 
0.0388086 -4.37347 8.86399 0.500987 -4.26441 8.84251 0.361577 -4.82285 9.0558 
0.500987 -4.26441 8.84251 0.981464 -4.25254 8.90211 0.756832 -4.62393 9.01438 
0.981464 -4.25254 8.90211 1.43522 -4.1129 8.95077 1.25575 -4.50233 9.05149 
1.43522 -4.1129 8.95077 1.63121 -3.81638 8.89601 1.7179 -4.33729 9.10916 
1.63121 -3.81638 8.89601 1.96365 -3.69886 8.97432 2.08107 -4.15007 9.16349 
1.96365 -3.69886 8.97432 2.18286 -3.55125 9.0144 2.41734 -3.95296 9.23403 
2.71294 -3.55468 9.26217 2.8087 -3.03912 9.19367 3.19773 -3.5001 9.50104 
3.51762 -2.58675 9.57574 3.39977 -2.16424 9.46496 3.88691 -2.50806 9.82309 
3.39977 -2.16424 9.46496 3.51988 -1.92384 9.55107 4.00784 -2.23314 9.91009 
3.93654 -1.54344 9.91474 3.8862 -1.06835 9.95229 4.24663 -1.36838 10.1932 
3.8862 -1.06835 9.95229 3.72759 -0.630685 9.9308 4.15248 -0.741741 10.2782 
4.15248 -0.741741 10.2782 4.12921 -0.321228 10.4123 4.56251 -0.521606 10.6921 
3.89871 0.958125 10.9603 3.45806 1.25161 10.8145 3.99396 1.25155 11.2555 
3.42142 1.72106 11.2152 3.02486 1.96558 11.1564 3.31146 2.15128 11.5539 
2.81954 2.28494 11.366 2.32126 2.52804 11.3287 2.73711 2.64036 11.7179 
0.773 3.23068 11.6778 0.378858 3.19153 11.5547 0.485109 3.48237 11.9926 
0.378858 3.19153 11.5547 -0.114668 3.20941 11.5621 0.157338 3.49467 11.9857 
-0.572171 3.27304 11.7058 -0.854736 3.12347 11.5333 -0.933128 3.43926 11.9997 
-3.57451 1.47343 11.1089 -3.55367 1.0812 10.7583 -3.9102 1.16209 11.1194 
-3.55367 1.0812 10.7583 -3.67194 0.760576 10.6161 -4.09308 0.794529 11.0004 
-4.19978 0.112367 10.6832 -4.11338 -0.178069 10.4623 -4.53524 -0.194469 10.8063 
-4.11338 -0.178069 10.4623 -4.14793 -0.550384 10.3396 -4.56821 -0.606963 10.6651 
-4.14793 -0.550384 10.3396 -4.14639 -0.93744 10.2117 -4.58828 -0.993841 10.5493 
-4.14639 -0.93744 10.2117 -4.08793 -1.42159 10.0525 -4.54062 -1.47069 10.394 
-3.32287 -3.32434 9.53995 -2.86124 -3.57543 9.3388 -3.31514 -3.8294 9.61285 
-2.55436 -4.01414 9.30873 -2.1636 -4.11315 9.18133 -2.36426 -4.57731 9.37966 
-2.1636 -4.11315 9.18133 -1.80723 -4.29744 9.12209 -1.98588 -4.76164 9.31377 
-1.27824 -4.65963 9.11425 -0.850486 -4.5131 8.98731 -1.03001 -5.07303 9.20838 
-0.850486 -4.5131 8.98731 -0.384228 -4.68244 9.00112 -0.714109 -5.12606 9.18704 
0.361577 -4.82285 9.0558 0.756832 -4.62393 9.01438 0.791655 -4.94925 9.13497 
0.756832 -4.62393 9.01438 1.25575 -4.50233 9.05149 1.3258 -4.81282 9.16982 
1.25575 -4.50233 9.05149 1.7179 -4.33729 9.10916 1.90115 -4.82739 9.30908 
1.7179 -4.33729 9.10916 2.08107 -4.15007 9.16349 2.29359 -4.62209 9.3684 
2.08107 -4.15007 9.16349 2.41734 -3.95296 9.23403 2.6644 -4.38247 9.43899 
2.41734 -3.95296 9.23403 2.71294 -3.55468 9.26217 2.96945 -3.91445 9.46107 
3.19773 -3.5001 9.50104 3.24859 -2.96193 9.44191 3.60813 -3.49404 9.71589 
3.24859 -2.96193 9.44191 3.51762 -2.58675 9.57574 3.97473 -2.94792 9.88689 
4.00784 -2.23314 9.91009 3.85743 -1.81404 9.82403 4.38214 -2.07842 10.1838 
3.85743 -1.81404 9.82403 3.93654 -1.54344 9.91474 4.44335 -1.77754 10.2673 
4.28006 -1.07223 10.2878 4.15248 -0.741741 10.2782 4.61201 -0.84955 10.6137 
4.5276 -0.194094 10.8017 4.16458 0.0989821 10.6457 4.58712 0.0991879 10.984 
4.16458 0.0989821 10.6457 4.06419 0.538788 10.8104 4.47449 0.51245 11.1223 
4.06419 0.538788 10.8104 3.89871 0.958125 10.9603 4.30682 0.922207 11.2533 
3.84553 1.49461 11.3384 3.42142 1.72106 11.2152 3.65649 1.93242 11.5745 
3.42142 1.72106 11.2152 3.31146 2.15128 11.5539 3.65649 1.93242 11.5745 
3.31146 2.15128 11.5539 2.81954 2.28494 11.366 3.10159 2.49549 11.7682 
2.44593 2.80801 11.7517 1.84548 2.89153 11.5562 2.04008 3.14743 11.9626 
1.84548 2.89153 11.5562 1.39168 3.07347 11.6231 1.52284 3.35886 12.0436 
1.39168 3.07347 11.6231 1.08919 3.17569 11.6739 1.18837 3.45391 12.0751 
1.08919 3.17569 11.6739 0.773 3.23068 11.6778 0.859948 3.53021 12.105 
-0.267426 3.50707 12.0061 -0.572171 3.27304 11.7058 -0.627434 3.55919 12.1093 
-0.933128 3.43926 11.9997 -1.27316 3.10353 11.625 -1.39489 3.40761 12.0683 
-1.27316 3.10353 11.625 -1.66248 2.97712 11.5945 -1.83479 3.24961 12.012 
-1.66248 2.97712 11.5945 -1.95001 2.85279 11.5581 -2.30949 3.0274 11.9373 
-1.95001 2.85279 11.5581 -2.2186 2.70491 11.5035 -2.30949 3.0274 11.9373 
-2.2186 2.70491 11.5035 -2.49914 2.54695 11.4696 -2.73377 2.76491 11.8512 
-2.49914 2.54695 11.4696 -2.75509 2.35589 11.4047 -3.00166 2.56817 11.7853 
-2.75509 2.35589 11.4047 -3.04449 2.09236 11.3091 -3.34547 2.28055 11.6995 
-3.04449 2.09236 11.3091 -3.31399 1.79576 11.206 -3.64356 1.95034 11.5844 
-3.31399 1.79576 11.206 -3.57451 1.47343 11.1089 -3.90287 1.62757 11.4847 
-3.57451 1.47343 11.1089 -3.9102 1.16209 11.1194 -4.09719 1.31773 11.381 
-3.9102 1.16209 11.1194 -4.09308 0.794529 11.0004 -4.2994 0.919102 11.2439 
-4.09308 0.794529 11.0004 -4.0799 0.417493 10.7526 -4.49664 0.423733 11.0884 
-4.0799 0.417493 10.7526 -4.19978 0.112367 10.6832 -4.58594 0.102381 10.9861 
-4.4703 -1.80643 10.2818 -4.10044 -1.93833 9.99672 -4.50928 -2.15534 10.2582 
-4.10044 -1.93833 9.99672 -3.96413 -2.31764 9.87573 -4.34903 -2.56896 10.1192 
-3.96413 -2.31764 9.87573 -3.79125 -2.67609 9.76229 -4.1556 -2.96106 9.99176 
-3.79125 -2.67609 9.76229 -3.58005 -3.01652 9.651 -3.93723 -3.32277 9.87804 
-3.58005 -3.01652 9.651 -3.32287 -3.32434 9.53995 -3.65664 -3.6863 9.75891 
-3.0841 -4.05309 9.54297 -2.55436 -4.01414 9.30873 -2.78374 -4.4806 9.50125 
-2.55436 -4.01414 9.30873 -2.36426 -4.57731 9.37966 -2.78374 -4.4806 9.50125 
-1.98588 -4.76164 9.31377 -1.58577 -4.57704 9.15527 -1.55184 -5.09183 9.29855 
-1.58577 -4.57704 9.15527 -1.27824 -4.65963 9.11425 -1.55184 -5.09183 9.29855 
-0.319697 -5.18348 9.17771 0.0476027 -4.85346 9.05773 -0.025338 -5.32159 9.21277 
0.0476027 -4.85346 9.05773 0.361577 -4.82285 9.0558 0.498283 -5.2982 9.21996 
0.361577 -4.82285 9.0558 0.791655 -4.94925 9.13497 0.498283 -5.2982 9.21996 
0.791655 -4.94925 9.13497 1.3258 -4.81282 9.16982 1.06523 -5.21657 9.2541 
2.6644 -4.38247 9.43899 2.96945 -3.91445 9.46107 3.15729 -4.18522 9.59365 
2.96945 -3.91445 9.46107 3.19773 -3.5001 9.50104 3.4992 -3.85102 9.70156 
3.97473 -2.94792 9.88689 3.88691 -2.50806 9.82309 4.25411 -2.76582 10.0542 
3.88691 -2.50806 9.82309 4.00784 -2.23314 9.91009 4.3878 -2.4679 10.15 
4.44335 -1.77754 10.2673 4.24663 -1.36838 10.1932 4.69508 -1.34725 10.5297 
4.24663 -1.36838 10.1932 4.28006 -1.07223 10.2878 4.69508 -1.34725 10.5297 
4.61201 -0.84955 10.6137 4.56251 -0.521606 10.6921 5.07815 -0.7405 10.9847 
4.56251 -0.521606 10.6921 4.5276 -0.194094 10.8017 5.01926 -0.215152 11.1535 
4.5276 -0.194094 10.8017 4.58712 0.0991879 10.984 5.01926 -0.215152 11.1535 
4.90705 0.300275 11.3208 5.01926 -0.215152 11.1535 4.58712 0.0991879 10.984 
4.47449 0.51245 11.1223 4.75521 0.74863 11.4684 4.90705 0.300275 11.3208 
4.75521 0.74863 11.4684 4.47449 0.51245 11.1223 4.30682 0.922207 11.2533 
3.84553 1.49461 11.3384 4.2344 1.73159 11.7922 4.52382 1.22685 11.6124 
3.84553 1.49461 11.3384 3.65649 1.93242 11.5745 4.2344 1.73159 11.7922 
3.65649 1.93242 11.5745 3.31146 2.15128 11.5539 3.6082 2.45563 12.0239 
3.27718 2.74695 12.1203 3.6082 2.45563 12.0239 3.10159 2.49549 11.7682 
3.27718 2.74695 12.1203 3.10159 2.49549 11.7682 2.73711 2.64036 11.7179 
2.73711 2.64036 11.7179 2.98466 2.95945 12.1867 3.27718 2.74695 12.1203 
2.44593 2.80801 11.7517 2.66658 3.15815 12.2466 2.98466 2.95945 12.1867 
2.04008 3.14743 11.9626 2.19707 3.40203 12.3242 2.66658 3.15815 12.2466 
2.04008 3.14743 11.9626 1.52284 3.35886 12.0436 1.69894 3.59792 12.3882 
1.52284 3.35886 12.0436 1.18837 3.45391 12.0751 1.25959 3.73462 12.4398 
1.18837 3.45391 12.0751 0.859948 3.53021 12.105 1.25959 3.73462 12.4398 
0.676179 3.84638 12.4783 1.25959 3.73462 12.4398 0.859948 3.53021 12.105 
0.676179 3.84638 12.4783 0.859948 3.53021 12.105 0.485109 3.48237 11.9926 
0.676179 3.84638 12.4783 0.485109 3.48237 11.9926 0.157338 3.49467 11.9857 
-0.267426 3.50707 12.0061 -0.464176 3.86789 12.4843 0.109471 3.88853 12.4953 
-0.627434 3.55919 12.1093 -0.933128 3.43926 11.9997 -1.11133 3.7609 12.4399 
-0.933128 3.43926 11.9997 -1.39489 3.40761 12.0683 -1.11133 3.7609 12.4399 
-2.07712 3.46365 12.3533 -1.68421 3.61245 12.4011 -1.83479 3.24961 12.012 
-2.07712 3.46365 12.3533 -1.83479 3.24961 12.012 -2.30949 3.0274 11.9373 
-2.30949 3.0274 11.9373 -2.58313 3.21946 12.2752 -2.07712 3.46365 12.3533 
-2.73377 2.76491 11.8512 -2.99251 2.95415 12.1851 -2.58313 3.21946 12.2752 
-3.00166 2.56817 11.7853 -3.37643 2.66859 12.0967 -2.99251 2.95415 12.1851 
-3.00166 2.56817 11.7853 -3.34547 2.28055 11.6995 -3.37643 2.66859 12.0967 
-3.34547 2.28055 11.6995 -3.64356 1.95034 11.5844 -3.7286 2.32314 11.974 
-4.2912 1.64349 11.7618 -4.03289 1.99759 11.8779 -3.90287 1.62757 11.4847 
-4.2912 1.64349 11.7618 -3.90287 1.62757 11.4847 -4.09719 1.31773 11.381 
-4.09719 1.31773 11.381 -4.56993 1.17192 11.6074 -4.2912 1.64349 11.7618 
-4.56993 1.17192 11.6074 -4.09719 1.31773 11.381 -4.2994 0.919102 11.2439 
-4.2994 0.919102 11.2439 -4.75859 0.740284 11.4657 -4.56993 1.17192 11.6074 
-4.49664 0.423733 11.0884 -4.90754 0.303652 11.3237 -4.75859 0.740284 11.4657 
-4.49664 0.423733 11.0884 -4.58594 0.102381 10.9861 -4.90754 0.303652 11.3237 
-4.58594 0.102381 10.9861 -4.53524 -0.194469 10.8063 -5.00644 -0.172638 11.1631 
-4.53524 -0.194469 10.8063 -4.56821 -0.606963 10.6651 -5.07011 -0.607414 11.0284 
-5.0821 -1.03401 10.8907 -5.07011 -0.607414 11.0284 -4.58828 -0.993841 10.5493 
-4.58828 -0.993841 10.5493 -5.04388 -1.46231 10.7439 -5.0821 -1.03401 10.8907 
-4.54062 -1.47069 10.394 -4.96602 -1.98654 10.5806 -5.04388 -1.46231 10.7439 
-4.50928 -2.15534 10.2582 -4.34903 -2.56896 10.1192 -4.78335 -2.59049 10.3841 
-4.34903 -2.56896 10.1192 -4.1556 -2.96106 9.99176 -4.52524 -3.15429 10.2025 
-4.2465 -3.613 10.053 -4.52524 -3.15429 10.2025 -4.1556 -2.96106 9.99176 
-4.2465 -3.613 10.053 -3.93723 -3.32277 9.87804 -3.65664 -3.6863 9.75891 
-3.31514 -3.8294 9.61285 -3.53525 -4.43543 9.79033 -3.90401 -4.05735 9.91355 
-3.0841 -4.05309 9.54297 -2.78374 -4.4806 9.50125 -3.10336 -4.77781 9.67343 
-2.78374 -4.4806 9.50125 -2.36426 -4.57731 9.37966 -2.72802 -5.02604 9.59234 
-2.21625 -5.28458 9.49883 -2.72802 -5.02604 9.59234 -2.36426 -4.57731 9.37966 
-2.21625 -5.28458 9.49883 -1.98588 -4.76164 9.31377 -1.55184 -5.09183 9.29855 
-1.55184 -5.09183 9.29855 -1.70456 -5.5036 9.43796 -2.21625 -5.28458 9.49883 
-1.55184 -5.09183 9.29855 -1.23366 -5.63786 9.39323 -1.70456 -5.5036 9.43796 
-0.714109 -5.12606 9.18704 -0.801506 -5.71484 9.36512 -1.23366 -5.63786 9.39323 
-0.714109 -5.12606 9.18704 -0.319697 -5.18348 9.17771 -0.380146 -5.82394 9.36772 
-0.319697 -5.18348 9.17771 -0.025338 -5.32159 9.21277 -0.380146 -5.82394 9.36772 
-0.025338 -5.32159 9.21277 0.498283 -5.2982 9.21996 0.171139 -5.81206 9.35681 
0.683954 -5.73596 9.36141 0.171139 -5.81206 9.35681 0.498283 -5.2982 9.21996 
0.498283 -5.2982 9.21996 1.07158 -5.66607 9.38032 0.683954 -5.73596 9.36141 
1.07158 -5.66607 9.38032 0.498283 -5.2982 9.21996 1.06523 -5.21657 9.2541 
1.06523 -5.21657 9.2541 1.47545 -5.56293 9.41168 1.07158 -5.66607 9.38032 
1.50995 -5.09764 9.29358 1.98794 -5.40625 9.47342 1.47545 -5.56293 9.41168 
1.90115 -4.82739 9.30908 2.29359 -4.62209 9.3684 2.48846 -5.15388 9.54535 
2.29359 -4.62209 9.3684 2.6644 -4.38247 9.43899 2.89046 -4.92675 9.62615 
3.33206 -4.61216 9.73251 2.89046 -4.92675 9.62615 2.6644 -4.38247 9.43899 
3.4992 -3.85102 9.70156 3.99799 -3.92734 9.94592 3.7314 -4.31342 9.8633 
3.80542 -3.21 9.80163 4.3071 -3.52675 10.0849 3.99799 -3.92734 9.94592 
3.80542 -3.21 9.80163 3.97473 -2.94792 9.88689 4.3071 -3.52675 10.0849 
3.97473 -2.94792 9.88689 4.25411 -2.76582 10.0542 4.56699 -3.08901 10.2271 
4.25411 -2.76582 10.0542 4.3878 -2.4679 10.15 4.56699 -3.08901 10.2271 
4.8113 -2.48483 10.4114 4.56699 -3.08901 10.2271 4.3878 -2.4679 10.15 
4.8113 -2.48483 10.4114 4.38214 -2.07842 10.1838 4.44335 -1.77754 10.2673 
4.44335 -1.77754 10.2673 4.95198 -2.02414 10.5675 4.8113 -2.48483 10.4114 
4.69508 -1.34725 10.5297 5.06311 -1.25857 10.8104 5.01032 -1.68803 10.6694 
4.61201 -0.84955 10.6137 5.07815 -0.7405 10.9847 5.06311 -1.25857 10.8104 
5.06311 -1.25857 10.8104 4.69508 -1.34725 10.5297 4.61201 -0.84955 10.6137 
5.01032 -1.68803 10.6694 4.44335 -1.77754 10.2673 4.69508 -1.34725 10.5297 
4.44335 -1.77754 10.2673 5.01032 -1.68803 10.6694 4.95198 -2.02414 10.5675 
4.3878 -2.4679 10.15 4.38214 -2.07842 10.1838 4.8113 -2.48483 10.4114 
4.56699 -3.08901 10.2271 4.3071 -3.52675 10.0849 3.97473 -2.94792 9.88689 
3.99799 -3.92734 9.94592 3.60813 -3.49404 9.71589 3.80542 -3.21 9.80163 
3.99799 -3.92734 9.94592 3.4992 -3.85102 9.70156 3.60813 -3.49404 9.71589 
3.7314 -4.31342 9.8633 3.15729 -4.18522 9.59365 3.4992 -3.85102 9.70156 
3.15729 -4.18522 9.59365 3.7314 -4.31342 9.8633 3.33206 -4.61216 9.73251 
2.6644 -4.38247 9.43899 3.15729 -4.18522 9.59365 3.33206 -4.61216 9.73251 
2.89046 -4.92675 9.62615 2.48846 -5.15388 9.54535 2.29359 -4.62209 9.3684 
2.48846 -5.15388 9.54535 1.98794 -5.40625 9.47342 1.90115 -4.82739 9.30908 
1.98794 -5.40625 9.47342 1.50995 -5.09764 9.29358 1.90115 -4.82739 9.30908 
1.47545 -5.56293 9.41168 1.06523 -5.21657 9.2541 1.50995 -5.09764 9.29358 
0.171139 -5.81206 9.35681 -0.380146 -5.82394 9.36772 -0.025338 -5.32159 9.21277 
-0.380146 -5.82394 9.36772 -0.801506 -5.71484 9.36512 -0.714109 -5.12606 9.18704 
-1.23366 -5.63786 9.39323 -1.03001 -5.07303 9.20838 -0.714109 -5.12606 9.18704 
-1.23366 -5.63786 9.39323 -1.55184 -5.09183 9.29855 -1.03001 -5.07303 9.20838 
-2.36426 -4.57731 9.37966 -1.98588 -4.76164 9.31377 -2.21625 -5.28458 9.49883 
-2.72802 -5.02604 9.59234 -3.10336 -4.77781 9.67343 -2.78374 -4.4806 9.50125 
-3.10336 -4.77781 9.67343 -3.53525 -4.43543 9.79033 -3.0841 -4.05309 9.54297 
-3.53525 -4.43543 9.79033 -3.31514 -3.8294 9.61285 -3.0841 -4.05309 9.54297 
-3.90401 -4.05735 9.91355 -3.65664 -3.6863 9.75891 -3.31514 -3.8294 9.61285 
-3.65664 -3.6863 9.75891 -3.90401 -4.05735 9.91355 -4.2465 -3.613 10.053 
-4.1556 -2.96106 9.99176 -3.93723 -3.32277 9.87804 -4.2465 -3.613 10.053 
-4.52524 -3.15429 10.2025 -4.78335 -2.59049 10.3841 -4.34903 -2.56896 10.1192 
-4.78335 -2.59049 10.3841 -4.96602 -1.98654 10.5806 -4.50928 -2.15534 10.2582 
-4.96602 -1.98654 10.5806 -4.4703 -1.80643 10.2818 -4.50928 -2.15534 10.2582 
-4.96602 -1.98654 10.5806 -4.54062 -1.47069 10.394 -4.4703 -1.80643 10.2818 
-5.04388 -1.46231 10.7439 -4.58828 -0.993841 10.5493 -4.54062 -1.47069 10.394 
-4.56821 -0.606963 10.6651 -4.58828 -0.993841 10.5493 -5.07011 -0.607414 11.0284 
-5.07011 -0.607414 11.0284 -5.00644 -0.172638 11.1631 -4.53524 -0.194469 10.8063 
-5.00644 -0.172638 11.1631 -4.90754 0.303652 11.3237 -4.58594 0.102381 10.9861 
-4.75859 0.740284 11.4657 -4.2994 0.919102 11.2439 -4.49664 0.423733 11.0884 
-3.64356 1.95034 11.5844 -3.90287 1.62757 11.4847 -4.03289 1.99759 11.8779 
-4.03289 1.99759 11.8779 -3.7286 2.32314 11.974 -3.64356 1.95034 11.5844 
-3.7286 2.32314 11.974 -3.37643 2.66859 12.0967 -3.34547 2.28055 11.6995 
-2.99251 2.95415 12.1851 -2.73377 2.76491 11.8512 -3.00166 2.56817 11.7853 
-2.58313 3.21946 12.2752 -2.30949 3.0274 11.9373 -2.73377 2.76491 11.8512 
-1.39489 3.40761 12.0683 -1.83479 3.24961 12.012 -1.68421 3.61245 12.4011 
-1.68421 3.61245 12.4011 -1.11133 3.7609 12.4399 -1.39489 3.40761 12.0683 
-1.11133 3.7609 12.4399 -0.464176 3.86789 12.4843 -0.627434 3.55919 12.1093 
-0.464176 3.86789 12.4843 -0.267426 3.50707 12.0061 -0.627434 3.55919 12.1093 
0.109471 3.88853 12.4953 0.157338 3.49467 11.9857 -0.267426 3.50707 12.0061 
0.157338 3.49467 11.9857 0.109471 3.88853 12.4953 0.676179 3.84638 12.4783 
1.25959 3.73462 12.4398 1.69894 3.59792 12.3882 1.52284 3.35886 12.0436 
1.69894 3.59792 12.3882 2.19707 3.40203 12.3242 2.04008 3.14743 11.9626 
2.66658 3.15815 12.2466 2.44593 2.80801 11.7517 2.04008 3.14743 11.9626 
2.98466 2.95945 12.1867 2.73711 2.64036 11.7179 2.44593 2.80801 11.7517 
3.31146 2.15128 11.5539 3.10159 2.49549 11.7682 3.6082 2.45563 12.0239 
3.6082 2.45563 12.0239 3.90776 2.1281 11.9106 3.65649 1.93242 11.5745 
3.90776 2.1281 11.9106 4.2344 1.73159 11.7922 3.65649 1.93242 11.5745 
4.52382 1.22685 11.6124 3.99396 1.25155 11.2555 3.84553 1.49461 11.3384 
4.52382 1.22685 11.6124 4.30682 0.922207 11.2533 3.99396 1.25155 11.2555 
4.30682 0.922207 11.2533 4.52382 1.22685 11.6124 4.75521 0.74863 11.4684 
4.58712 0.0991879 10.984 4.47449 0.51245 11.1223 4.90705 0.300275 11.3208 
5.01926 -0.215152 11.1535 5.07815 -0.7405 10.9847 4.56251 -0.521606 10.6921 
4.61201 -0.84955 10.6137 4.69508 -1.34725 10.5297 4.28006 -1.07223 10.2878 
4.38214 -2.07842 10.1838 4.3878 -2.4679 10.15 4.00784 -2.23314 9.91009 
4.3878 -2.4679 10.15 4.25411 -2.76582 10.0542 3.88691 -2.50806 9.82309 
3.60813 -3.49404 9.71589 3.4992 -3.85102 9.70156 3.19773 -3.5001 9.50104 
3.4992 -3.85102 9.70156 3.15729 -4.18522 9.59365 2.96945 -3.91445 9.46107 
1.90115 -4.82739 9.30908 1.50995 -5.09764 9.29358 1.3258 -4.81282 9.16982 
1.50995 -5.09764 9.29358 1.06523 -5.21657 9.2541 1.3258 -4.81282 9.16982 
1.06523 -5.21657 9.2541 0.498283 -5.2982 9.21996 0.791655 -4.94925 9.13497 
0.498283 -5.2982 9.21996 -0.025338 -5.32159 9.21277 0.0476027 -4.85346 9.05773 
-1.03001 -5.07303 9.20838 -1.55184 -5.09183 9.29855 -1.27824 -4.65963 9.11425 
-3.31514 -3.8294 9.61285 -3.65664 -3.6863 9.75891 -3.32287 -3.32434 9.53995 
-3.65664 -3.6863 9.75891 -3.93723 -3.32277 9.87804 -3.58005 -3.01652 9.651 
-3.93723 -3.32277 9.87804 -4.1556 -2.96106 9.99176 -3.79125 -2.67609 9.76229 
-4.1556 -2.96106 9.99176 -4.34903 -2.56896 10.1192 -3.96413 -2.31764 9.87573 
-4.34903 -2.56896 10.1192 -4.50928 -2.15534 10.2582 -4.10044 -1.93833 9.99672 
-4.53524 -0.194469 10.8063 -4.58594 0.102381 10.9861 -4.19978 0.112367 10.6832 
-4.58594 0.102381 10.9861 -4.49664 0.423733 11.0884 -4.0799 0.417493 10.7526 
-4.49664 0.423733 11.0884 -4.2994 0.919102 11.2439 -4.09308 0.794529 11.0004 
-4.2994 0.919102 11.2439 -4.09719 1.31773 11.381 -3.9102 1.16209 11.1194 
-4.09719 1.31773 11.381 -3.90287 1.62757 11.4847 -3.57451 1.47343 11.1089 
-3.90287 1.62757 11.4847 -3.64356 1.95034 11.5844 -3.31399 1.79576 11.206 
-3.64356 1.95034 11.5844 -3.34547 2.28055 11.6995 -3.04449 2.09236 11.3091 
-3.34547 2.28055 11.6995 -3.00166 2.56817 11.7853 -2.75509 2.35589 11.4047 
-3.00166 2.56817 11.7853 -2.73377 2.76491 11.8512 -2.49914 2.54695 11.4696 
-2.73377 2.76491 11.8512 -2.30949 3.0274 11.9373 -2.2186 2.70491 11.5035 
-2.30949 3.0274 11.9373 -1.83479 3.24961 12.012 -1.66248 2.97712 11.5945 
-1.83479 3.24961 12.012 -1.39489 3.40761 12.0683 -1.27316 3.10353 11.625 
-0.933128 3.43926 11.9997 -0.627434 3.55919 12.1093 -0.572171 3.27304 11.7058 
0.485109 3.48237 11.9926 0.859948 3.53021 12.105 0.773 3.23068 11.6778 
0.859948 3.53021 12.105 1.18837 3.45391 12.0751 1.08919 3.17569 11.6739 
1.18837 3.45391 12.0751 1.52284 3.35886 12.0436 1.39168 3.07347 11.6231 
1.52284 3.35886 12.0436 2.04008 3.14743 11.9626 1.84548 2.89153 11.5562 
2.73711 2.64036 11.7179 3.10159 2.49549 11.7682 2.81954 2.28494 11.366 
3.99396 1.25155 11.2555 4.30682 0.922207 11.2533 3.89871 0.958125 10.9603 
4.30682 0.922207 11.2533 4.47449 0.51245 11.1223 4.06419 0.538788 10.8104 
4.47449 0.51245 11.1223 4.58712 0.0991879 10.984 4.16458 0.0989821 10.6457 
4.24663 -1.36838 10.1932 4.44335 -1.77754 10.2673 3.93654 -1.54344 9.91474 
4.44335 -1.77754 10.2673 4.38214 -2.07842 10.1838 3.85743 -1.81404 9.82403 
3.88691 -2.50806 9.82309 3.97473 -2.94792 9.88689 3.51762 -2.58675 9.57574 
3.97473 -2.94792 9.88689 3.80542 -3.21 9.80163 3.24859 -2.96193 9.44191 
3.80542 -3.21 9.80163 3.60813 -3.49404 9.71589 3.24859 -2.96193 9.44191 
3.19773 -3.5001 9.50104 2.96945 -3.91445 9.46107 2.71294 -3.55468 9.26217 
2.96945 -3.91445 9.46107 2.6644 -4.38247 9.43899 2.41734 -3.95296 9.23403 
2.6644 -4.38247 9.43899 2.29359 -4.62209 9.3684 2.08107 -4.15007 9.16349 
2.29359 -4.62209 9.3684 1.90115 -4.82739 9.30908 1.7179 -4.33729 9.10916 
1.90115 -4.82739 9.30908 1.3258 -4.81282 9.16982 1.25575 -4.50233 9.05149 
1.3258 -4.81282 9.16982 0.791655 -4.94925 9.13497 0.756832 -4.62393 9.01438 
0.0476027 -4.85346 9.05773 -0.319697 -5.18348 9.17771 -0.384228 -4.68244 9.00112 
-0.319697 -5.18348 9.17771 -0.714109 -5.12606 9.18704 -0.384228 -4.68244 9.00112 
-0.714109 -5.12606 9.18704 -1.03001 -5.07303 9.20838 -0.850486 -4.5131 8.98731 
-1.58577 -4.57704 9.15527 -1.98588 -4.76164 9.31377 -1.80723 -4.29744 9.12209 
-1.98588 -4.76164 9.31377 -2.36426 -4.57731 9.37966 -2.1636 -4.11315 9.18133 
-2.55436 -4.01414 9.30873 -3.0841 -4.05309 9.54297 -2.86124 -3.57543 9.3388 
-3.0841 -4.05309 9.54297 -3.31514 -3.8294 9.61285 -2.86124 -3.57543 9.3388 
-4.10044 -1.93833 9.99672 -4.4703 -1.80643 10.2818 -4.08793 -1.42159 10.0525 
-4.4703 -1.80643 10.2818 -4.54062 -1.47069 10.394 -4.08793 -1.42159 10.0525 
-4.54062 -1.47069 10.394 -4.58828 -0.993841 10.5493 -4.14639 -0.93744 10.2117 
-4.58828 -0.993841 10.5493 -4.56821 -0.606963 10.6651 -4.14793 -0.550384 10.3396 
-4.56821 -0.606963 10.6651 -4.53524 -0.194469 10.8063 -4.11338 -0.178069 10.4623 
-4.0799 0.417493 10.7526 -4.09308 0.794529 11.0004 -3.67194 0.760576 10.6161 
-4.09308 0.794529 11.0004 -3.9102 1.16209 11.1194 -3.55367 1.0812 10.7583 
-1.27316 3.10353 11.625 -0.933128 3.43926 11.9997 -0.854736 3.12347 11.5333 
-0.572171 3.27304 11.7058 -0.267426 3.50707 12.0061 -0.114668 3.20941 11.5621 
-0.267426 3.50707 12.0061 0.157338 3.49467 11.9857 -0.114668 3.20941 11.5621 
0.157338 3.49467 11.9857 0.485109 3.48237 11.9926 0.378858 3.19153 11.5547 
1.84548 2.89153 11.5562 2.44593 2.80801 11.7517 2.32126 2.52804 11.3287 
2.44593 2.80801 11.7517 2.73711 2.64036 11.7179 2.32126 2.52804 11.3287 
2.81954 2.28494 11.366 3.31146 2.15128 11.5539 3.02486 1.96558 11.1564 
3.42142 1.72106 11.2152 3.84553 1.49461 11.3384 3.45806 1.25161 10.8145 
3.84553 1.49461 11.3384 3.99396 1.25155 11.2555 3.45806 1.25161 10.8145 
4.16458 0.0989821 10.6457 4.5276 -0.194094 10.8017 4.12921 -0.321228 10.4123 
4.5276 -0.194094 10.8017 4.56251 -0.521606 10.6921 4.12921 -0.321228 10.4123 
4.56251 -0.521606 10.6921 4.61201 -0.84955 10.6137 4.15248 -0.741741 10.2782 
4.15248 -0.741741 10.2782 4.28006 -1.07223 10.2878 3.8862 -1.06835 9.95229 
4.28006 -1.07223 10.2878 4.24663 -1.36838 10.1932 3.8862 -1.06835 9.95229 
3.85743 -1.81404 9.82403 4.00784 -2.23314 9.91009 3.51988 -1.92384 9.55107 
4.00784 -2.23314 9.91009 3.88691 -2.50806 9.82309 3.39977 -2.16424 9.46496 
3.24859 -2.96193 9.44191 3.19773 -3.5001 9.50104 2.8087 -3.03912 9.19367 
2.71294 -3.55468 9.26217 2.41734 -3.95296 9.23403 2.18286 -3.55125 9.0144 
2.41734 -3.95296 9.23403 2.08107 -4.15007 9.16349 1.96365 -3.69886 8.97432 
2.08107 -4.15007 9.16349 1.7179 -4.33729 9.10916 1.63121 -3.81638 8.89601 
1.7179 -4.33729 9.10916 1.25575 -4.50233 9.05149 1.43522 -4.1129 8.95077 
1.25575 -4.50233 9.05149 0.756832 -4.62393 9.01438 0.981464 -4.25254 8.90211 
0.756832 -4.62393 9.01438 0.361577 -4.82285 9.0558 0.500987 -4.26441 8.84251 
0.361577 -4.82285 9.0558 0.0476027 -4.85346 9.05773 0.0388086 -4.37347 8.86399 
0.0476027 -4.85346 9.05773 -0.384228 -4.68244 9.00112 0.0388086 -4.37347 8.86399 
-0.850486 -4.5131 8.98731 -1.27824 -4.65963 9.11425 -1.13226 -4.08786 8.86889 
-1.27824 -4.65963 9.11425 -1.58577 -4.57704 9.15527 -1.48279 -3.94429 8.90079 
-1.58577 -4.57704 9.15527 -1.80723 -4.29744 9.12209 -1.48279 -3.94429 8.90079 
-1.80723 -4.29744 9.12209 -2.1636 -4.11315 9.18133 -1.79636 -3.78386 8.94144 
-2.1636 -4.11315 9.18133 -2.55436 -4.01414 9.30873 -2.20835 -3.54986 9.02406 
-2.55436 -4.01414 9.30873 -2.86124 -3.57543 9.3388 -2.54521 -3.26308 9.10236 
-2.86124 -3.57543 9.3388 -3.32287 -3.32434 9.53995 -2.89911 -3.14536 9.26711 
-3.32287 -3.32434 9.53995 -3.58005 -3.01652 9.651 -3.13575 -2.86407 9.35654 
-3.58005 -3.01652 9.651 -3.79125 -2.67609 9.76229 -3.40034 -2.49493 9.48492 
-3.79125 -2.67609 9.76229 -3.96413 -2.31764 9.87573 -3.62147 -2.00075 9.62575 
-3.96413 -2.31764 9.87573 -4.10044 -1.93833 9.99672 -3.62147 -2.00075 9.62575 
-4.10044 -1.93833 9.99672 -4.08793 -1.42159 10.0525 -3.77563 -1.56699 9.77799 
-4.08793 -1.42159 10.0525 -4.14639 -0.93744 10.2117 -3.86197 -1.11949 9.92044 
-4.14639 -0.93744 10.2117 -4.14793 -0.550384 10.3396 -3.7807 -0.650682 9.97533 
-4.14793 -0.550384 10.3396 -4.11338 -0.178069 10.4623 -3.7487 -0.202869 10.1148 
-4.11338 -0.178069 10.4623 -4.19978 0.112367 10.6832 -3.6807 0.220425 10.2695 
-4.19978 0.112367 10.6832 -4.0799 0.417493 10.7526 -3.6807 0.220425 10.2695 
-4.0799 0.417493 10.7526 -3.67194 0.760576 10.6161 -3.66722 0.562633 10.4699 
-3.55367 1.0812 10.7583 -3.57451 1.47343 11.1089 -3.20376 1.26137 10.5958 
-3.57451 1.47343 11.1089 -3.31399 1.79576 11.206 -3.1388 1.51633 10.7818 
-3.31399 1.79576 11.206 -3.04449 2.09236 11.3091 -2.74924 1.84455 10.8026 
-3.04449 2.09236 11.3091 -2.75509 2.35589 11.4047 -2.41603 2.11746 10.8708 
-2.75509 2.35589 11.4047 -2.49914 2.54695 11.4696 -2.18908 2.38828 11.0643 
-2.49914 2.54695 11.4696 -2.2186 2.70491 11.5035 -2.18908 2.38828 11.0643 
-2.2186 2.70491 11.5035 -1.95001 2.85279 11.5581 -1.86442 2.5763 11.1262 
-1.95001 2.85279 11.5581 -1.66248 2.97712 11.5945 -1.55544 2.61853 11.0231 
-1.66248 2.97712 11.5945 -1.27316 3.10353 11.625 -1.2308 2.84324 11.2162 
-1.27316 3.10353 11.625 -0.854736 3.12347 11.5333 -0.7667 2.86365 11.0998 
-0.854736 3.12347 11.5333 -0.572171 3.27304 11.7058 -0.427265 3.00677 11.2654 
-0.572171 3.27304 11.7058 -0.114668 3.20941 11.5621 -0.427265 3.00677 11.2654 
-0.114668 3.20941 11.5621 0.378858 3.19153 11.5547 0.335258 3.01572 11.2691 
0.378858 3.19153 11.5547 0.773 3.23068 11.6778 0.70656 2.96701 11.2531 
0.773 3.23068 11.6778 1.08919 3.17569 11.6739 1.03478 2.81782 11.1084 
1.08919 3.17569 11.6739 1.39168 3.07347 11.6231 1.03478 2.81782 11.1084 
1.39168 3.07347 11.6231 1.84548 2.89153 11.5562 1.43438 2.76803 11.1885 
1.84548 2.89153 11.5562 2.32126 2.52804 11.3287 1.86314 2.57337 11.1179 
2.32126 2.52804 11.3287 2.81954 2.28494 11.366 2.48861 2.17025 10.9931 
2.81954 2.28494 11.366 3.02486 1.96558 11.1564 2.79429 1.91072 10.9132 
3.02486 1.96558 11.1564 3.42142 1.72106 11.2152 3.08105 1.58927 10.8055 
3.45806 1.25161 10.8145 3.89871 0.958125 10.9603 3.56315 0.817643 10.5535 
3.89871 0.958125 10.9603 4.06419 0.538788 10.8104 3.56315 0.817643 10.5535 
4.06419 0.538788 10.8104 4.16458 0.0989821 10.6457 3.81129 0.0576568 10.301 
4.16458 0.0989821 10.6457 4.12921 -0.321228 10.4123 3.81129 0.0576568 10.301 
4.12921 -0.321228 10.4123 4.15248 -0.741741 10.2782 3.72759 -0.630685 9.9308 
3.8862 -1.06835 9.95229 3.93654 -1.54344 9.91474 3.53386 -1.45674 9.57933 
3.93654 -1.54344 9.91474 3.85743 -1.81404 9.82403 3.53386 -1.45674 9.57933 
3.39977 -2.16424 9.46496 3.51762 -2.58675 9.57574 3.11051 -2.38216 9.26488 
3.51762 -2.58675 9.57574 3.24859 -2.96193 9.44191 3.11051 -2.38216 9.26488 
2.8087 -3.03912 9.19367 2.71294 -3.55468 9.26217 2.45109 -3.16167 9.02024 
1.43522 -4.1129 8.95077 0.981464 -4.25254 8.90211 1.15153 -3.88293 8.78432 
0.500987 -4.26441 8.84251 0.0388086 -4.37347 8.86399 0.028769 -3.90838 8.65362 
0.0388086 -4.37347 8.86399 -0.425208 -4.35457 8.87421 -0.396417 -4.04063 8.73369 
-0.425208 -4.35457 8.87421 -0.850486 -4.5131 8.98731 -0.747366 -3.9893 8.75068 
-2.54521 -3.26308 9.10236 -2.89911 -3.14536 9.26711 -2.65137 -2.74208 9.02242 
-2.89911 -3.14536 9.26711 -3.13575 -2.86407 9.35654 -2.65137 -2.74208 9.02242 
-3.13575 -2.86407 9.35654 -3.40034 -2.49493 9.48492 -2.92977 -2.41814 9.14354 
-3.40034 -2.49493 9.48492 -3.62147 -2.00075 9.62575 -3.16326 -2.07728 9.27249 
-3.62147 -2.00075 9.62575 -3.77563 -1.56699 9.77799 -3.41973 -1.31082 9.49209 
-3.77563 -1.56699 9.77799 -3.86197 -1.11949 9.92044 -3.41973 -1.31082 9.49209 
-3.6807 0.220425 10.2695 -3.66722 0.562633 10.4699 -3.2816 0.632324 10.1311 
-3.66722 0.562633 10.4699 -3.67194 0.760576 10.6161 -3.2816 0.632324 10.1311 
-3.67194 0.760576 10.6161 -3.55367 1.0812 10.7583 -3.11625 0.985514 10.2523 
-3.20376 1.26137 10.5958 -3.1388 1.51633 10.7818 -2.83754 1.55207 10.543 
-3.1388 1.51633 10.7818 -2.74924 1.84455 10.8026 -2.83754 1.55207 10.543 
-2.41603 2.11746 10.8708 -2.18908 2.38828 11.0643 -1.94385 2.20377 10.6273 
-2.18908 2.38828 11.0643 -1.86442 2.5763 11.1262 -1.69294 2.37358 10.7135 
-1.55544 2.61853 11.0231 -1.2308 2.84324 11.2162 -1.11878 2.60401 10.7743 
-0.7667 2.86365 11.0998 -0.427265 3.00677 11.2654 -0.393158 2.72443 10.765 
-0.427265 3.00677 11.2654 -0.048007 3.02821 11.273 -0.0343354 2.75267 10.7894 
-0.048007 3.02821 11.273 0.335258 3.01572 11.2691 0.302272 2.73821 10.7795 
0.335258 3.01572 11.2691 0.70656 2.96701 11.2531 0.711496 2.70486 10.8013 
1.03478 2.81782 11.1084 1.43438 2.76803 11.1885 1.33908 2.61254 10.8954 
1.43438 2.76803 11.1885 1.86314 2.57337 11.1179 1.72062 2.44367 10.8378 
2.20795 2.28761 10.9423 2.48861 2.17025 10.9931 2.17988 2.04104 10.5752 
2.48861 2.17025 10.9931 2.79429 1.91072 10.9132 2.43674 1.84934 10.537 
2.79429 1.91072 10.9132 3.08105 1.58927 10.8055 2.80463 1.59299 10.5573 
3.08105 1.58927 10.8055 3.45806 1.25161 10.8145 3.10389 1.19876 10.4331 
3.45806 1.25161 10.8145 3.56315 0.817643 10.5535 3.31932 0.795472 10.2975 
3.56315 0.817643 10.5535 3.69948 0.479167 10.4448 3.45525 0.475058 10.2009 
3.69948 0.479167 10.4448 3.81129 0.0576568 10.301 3.55723 0.101348 10.0746 
3.72759 -0.630685 9.9308 3.59868 -1.03601 9.70139 3.37594 -0.753019 9.54575 
3.59868 -1.03601 9.70139 3.53386 -1.45674 9.57933 3.34109 -1.07521 9.44766 
3.53386 -1.45674 9.57933 3.51988 -1.92384 9.55107 3.14161 -1.73873 9.22951 
3.51988 -1.92384 9.55107 3.39977 -2.16424 9.46496 3.14161 -1.73873 9.22951 
3.39977 -2.16424 9.46496 3.11051 -2.38216 9.26488 2.91328 -2.16991 9.08574 
2.78602 -2.61328 9.08441 2.8087 -3.03912 9.19367 2.47102 -2.73775 8.90724 
2.8087 -3.03912 9.19367 2.45109 -3.16167 9.02024 2.47102 -2.73775 8.90724 
2.45109 -3.16167 9.02024 2.18286 -3.55125 9.0144 2.15576 -3.0088 8.81101 
2.18286 -3.55125 9.0144 1.96365 -3.69886 8.97432 1.77582 -3.09381 8.65824 
1.96365 -3.69886 8.97432 1.63121 -3.81638 8.89601 1.55123 -3.39623 8.69351 
1.63121 -3.81638 8.89601 1.15153 -3.88293 8.78432 1.20972 -3.38656 8.57528 
0.861201 -3.74772 8.66005 0.500987 -4.26441 8.84251 0.4535 -3.72444 8.58585 
0.028769 -3.90838 8.65362 -0.396417 -4.04063 8.73369 -0.357767 -3.5881 8.50899 
-0.396417 -4.04063 8.73369 -0.747366 -3.9893 8.75068 -0.676332 -3.53912 8.52401 
-0.747366 -3.9893 8.75068 -1.13226 -4.08786 8.86889 -1.0989 -3.57143 8.6278 
-1.13226 -4.08786 8.86889 -1.48279 -3.94429 8.90079 -1.0989 -3.57143 8.6278 
-1.48279 -3.94429 8.90079 -1.79636 -3.78386 8.94144 -1.493 -3.42601 8.68488 
-1.79636 -3.78386 8.94144 -2.20835 -3.54986 9.02406 -1.85606 -3.20658 8.73833 
-2.20835 -3.54986 9.02406 -2.54521 -3.26308 9.10236 -2.24157 -2.94423 8.83682 
-3.7807 -0.650682 9.97533 -3.7487 -0.202869 10.1148 -3.36128 -0.130749 9.74925 
-3.7487 -0.202869 10.1148 -3.6807 0.220425 10.2695 -3.29029 0.246719 9.87718 
-3.11625 0.985514 10.2523 -3.20376 1.26137 10.5958 -2.78195 1.29695 10.2031 
-3.20376 1.26137 10.5958 -2.83754 1.55207 10.543 -2.78195 1.29695 10.2031 
-2.83754 1.55207 10.543 -2.74924 1.84455 10.8026 -2.33425 1.69541 10.2327 
-2.74924 1.84455 10.8026 -2.41603 2.11746 10.8708 -2.12269 1.97533 10.4257 
-2.41603 2.11746 10.8708 -1.94385 2.20377 10.6273 -2.12269 1.97533 10.4257 
-1.69294 2.37358 10.7135 -1.55544 2.61853 11.0231 -1.28832 2.37203 10.4506 
-1.11878 2.60401 10.7743 -0.7667 2.86365 11.0998 -0.698049 2.6255 10.6501 
1.03478 2.81782 11.1084 1.33908 2.61254 10.8954 1.05005 2.46131 10.4846 
1.33908 2.61254 10.8954 1.72062 2.44367 10.8378 1.35714 2.35264 10.4599 
1.72062 2.44367 10.8378 2.20795 2.28761 10.9423 1.77174 2.21809 10.5119 
2.43674 1.84934 10.537 2.80463 1.59299 10.5573 2.52578 1.46894 10.1329 
2.80463 1.59299 10.5573 3.10389 1.19876 10.4331 2.71922 1.2095 10.0463 
3.10389 1.19876 10.4331 3.31932 0.795472 10.2975 2.88085 0.943462 9.95514 
3.31932 0.795472 10.2975 3.45525 0.475058 10.2009 3.05238 0.600706 9.85767 
3.45525 0.475058 10.2009 3.55723 0.101348 10.0746 3.18126 0.256045 9.75991 
3.55723 0.101348 10.0746 3.748 -0.286221 10.0821 3.25708 -0.116643 9.64655 
3.748 -0.286221 10.0821 3.72759 -0.630685 9.9308 3.38897 -0.449718 9.65089 
3.38897 -0.449718 9.65089 3.37594 -0.753019 9.54575 3.05912 -0.420046 9.29645 
3.37594 -0.753019 9.54575 3.34109 -1.07521 9.44766 3.03569 -0.766038 9.18386 
3.34109 -1.07521 9.44766 3.26944 -1.38167 9.34808 2.97851 -1.04155 9.08565 
3.26944 -1.38167 9.34808 3.14161 -1.73873 9.22951 2.99563 -1.39603 9.08835 
3.14161 -1.73873 9.22951 2.91328 -2.16991 9.08574 2.85788 -1.72965 8.97969 
2.91328 -2.16991 9.08574 2.78602 -2.61328 9.08441 2.36753 -2.2159 8.68306 
2.78602 -2.61328 9.08441 2.47102 -2.73775 8.90724 2.36753 -2.2159 8.68306 
2.47102 -2.73775 8.90724 2.15576 -3.0088 8.81101 1.92827 -2.64244 8.54625 
1.77582 -3.09381 8.65824 1.55123 -3.39623 8.69351 1.39067 -3.00065 8.44848 
1.20972 -3.38656 8.57528 0.861201 -3.74772 8.66005 0.844256 -3.17263 8.3629 
0.861201 -3.74772 8.66005 0.4535 -3.72444 8.58585 0.573846 -3.4042 8.43515 
0.4535 -3.72444 8.58585 0.028769 -3.90838 8.65362 0.204883 -3.44164 8.41739 
-0.676332 -3.53912 8.52401 -1.0989 -3.57143 8.6278 -0.983732 -3.14794 8.38464 
-1.0989 -3.57143 8.6278 -1.493 -3.42601 8.68488 -1.37272 -3.15529 8.51603 
-1.493 -3.42601 8.68488 -1.85606 -3.20658 8.73833 -1.6408 -3.01301 8.55976 
-1.85606 -3.20658 8.73833 -2.24157 -2.94423 8.83682 -1.95375 -2.80253 8.6236 
-2.24157 -2.94423 8.83682 -2.65137 -2.74208 9.02242 -2.2415 -2.56316 8.70646 
-2.65137 -2.74208 9.02242 -2.92977 -2.41814 9.14354 -2.62793 -2.10865 8.85361 
-2.92977 -2.41814 9.14354 -3.16326 -2.07728 9.27249 -2.81969 -1.78822 8.953 
-3.16326 -2.07728 9.27249 -3.30583 -1.68917 9.37451 -2.97606 -1.45058 9.07062 
-3.30583 -1.68917 9.37451 -3.41973 -1.31082 9.49209 -3.06103 -1.17856 9.15831 
-3.41973 -1.31082 9.49209 -3.47931 -0.837301 9.62994 -3.11811 -0.891311 9.24915 
-3.47931 -0.837301 9.62994 -3.3887 -0.45121 9.65114 -3.15495 -0.528704 9.36893 
-3.3887 -0.45121 9.65114 -3.36128 -0.130749 9.74925 -2.98672 -0.0760544 9.34896 
-3.36128 -0.130749 9.74925 -3.29029 0.246719 9.87718 -3.04713 0.317526 9.63891 
-3.29029 0.246719 9.87718 -3.2816 0.632324 10.1311 -3.04713 0.317526 9.63891 
-3.2816 0.632324 10.1311 -3.11625 0.985514 10.2523 -2.78793 0.948981 9.84958 
-3.11625 0.985514 10.2523 -2.78195 1.29695 10.2031 -2.59223 1.2468 9.93725 
-2.33425 1.69541 10.2327 -2.12269 1.97533 10.4257 -1.95348 1.81186 10.0185 
-2.12269 1.97533 10.4257 -1.94385 2.20377 10.6273 -1.77312 2.02679 10.1998 
-1.94385 2.20377 10.6273 -1.69294 2.37358 10.7135 -1.45131 2.20608 10.2505 
-1.69294 2.37358 10.7135 -1.28832 2.37203 10.4506 -1.45131 2.20608 10.2505 
-1.11878 2.60401 10.7743 -0.698049 2.6255 10.6501 -0.849513 2.43329 10.3269 
-0.698049 2.6255 10.6501 -0.393158 2.72443 10.765 -0.476989 2.42974 10.1892 
-0.393158 2.72443 10.765 -0.0343354 2.75267 10.7894 -0.186581 2.47313 10.2232 
-0.0343354 2.75267 10.7894 0.302272 2.73821 10.7795 0.227364 2.46609 10.2091 
0.302272 2.73821 10.7795 0.711496 2.70486 10.8013 0.638381 2.40097 10.1729 
1.35714 2.35264 10.4599 1.77174 2.21809 10.5119 1.57796 2.04809 10.0656 
1.77174 2.21809 10.5119 2.17988 2.04104 10.5752 1.87149 1.84161 9.98603 
2.17988 2.04104 10.5752 2.43674 1.84934 10.537 2.23273 1.65435 10.0633 
2.43674 1.84934 10.537 2.52578 1.46894 10.1329 2.23273 1.65435 10.0633 
3.25708 -0.116643 9.64655 3.38897 -0.449718 9.65089 3.05912 -0.420046 9.29645 
2.97851 -1.04155 9.08565 2.99563 -1.39603 9.08835 2.67384 -1.17755 8.76066 
2.99563 -1.39603 9.08835 2.85788 -1.72965 8.97969 2.53907 -1.46899 8.6528 
1.92827 -2.64244 8.54625 1.77582 -3.09381 8.65824 1.52339 -2.58273 8.3007 
1.39067 -3.00065 8.44848 1.20972 -3.38656 8.57528 1.03431 -2.81571 8.218 
0.844256 -3.17263 8.3629 0.573846 -3.4042 8.43515 0.42093 -2.94615 8.14867 
0.573846 -3.4042 8.43515 0.204883 -3.44164 8.41739 0.42093 -2.94615 8.14867 
0.204883 -3.44164 8.41739 -0.115102 -3.44914 8.41876 0.0422456 -2.99983 8.15432 
-0.115102 -3.44914 8.41876 -0.357767 -3.5881 8.50899 -0.270653 -2.98394 8.15843 
-0.357767 -3.5881 8.50899 -0.676332 -3.53912 8.52401 -0.560116 -2.94317 8.1712 
-0.983732 -3.14794 8.38464 -1.37272 -3.15529 8.51603 -1.30514 -2.7237 8.26953 
-1.37272 -3.15529 8.51603 -1.6408 -3.01301 8.55976 -1.30514 -2.7237 8.26953 
-1.6408 -3.01301 8.55976 -1.95375 -2.80253 8.6236 -1.59048 -2.56015 8.32291 
-1.95375 -2.80253 8.6236 -2.2415 -2.56316 8.70646 -1.99036 -2.19277 8.40338 
-2.2415 -2.56316 8.70646 -2.44837 -2.34577 8.77905 -2.2206 -1.97311 8.49426 
-2.44837 -2.34577 8.77905 -2.62793 -2.10865 8.85361 -2.2206 -1.97311 8.49426 
-2.62793 -2.10865 8.85361 -2.81969 -1.78822 8.953 -2.43419 -1.72088 8.60519 
-2.81969 -1.78822 8.953 -2.97606 -1.45058 9.07062 -2.64042 -1.21592 8.72863 
-2.97606 -1.45058 9.07062 -3.06103 -1.17856 9.15831 -2.7262 -0.914279 8.82042 
-3.06103 -1.17856 9.15831 -3.11811 -0.891311 9.24915 -2.7262 -0.914279 8.82042 
-3.11811 -0.891311 9.24915 -3.15495 -0.528704 9.36893 -2.79626 -0.585124 8.94496 
-2.98672 -0.0760544 9.34896 -3.04713 0.317526 9.63891 -2.82667 0.32609 9.37331 
-2.79837 0.68489 9.62261 -2.78793 0.948981 9.84958 -2.53634 1.00559 9.59495 
-2.78793 0.948981 9.84958 -2.59223 1.2468 9.93725 -2.53634 1.00559 9.59495 
-2.59223 1.2468 9.93725 -2.46385 1.52535 10.1428 -2.23201 1.30532 9.57776 
-2.46385 1.52535 10.1428 -2.33425 1.69541 10.2327 -2.07988 1.57713 9.78452 
-1.95348 1.81186 10.0185 -1.77312 2.02679 10.1998 -1.57154 1.87643 9.74144 
-1.77312 2.02679 10.1998 -1.45131 2.20608 10.2505 -1.2923 2.03176 9.78424 
-1.45131 2.20608 10.2505 -1.28832 2.37203 10.4506 -0.947421 2.17634 9.83485 
-1.28832 2.37203 10.4506 -0.849513 2.43329 10.3269 -0.803268 2.29287 10.0074 
0.638381 2.40097 10.1729 1.05005 2.46131 10.4846 0.914913 2.19784 9.86698 
1.05005 2.46131 10.4846 1.35714 2.35264 10.4599 1.21112 2.15658 9.97532 
1.87149 1.84161 9.98603 2.23273 1.65435 10.0633 2.05615 1.5954 9.78261 
2.23273 1.65435 10.0633 2.52578 1.46894 10.1329 2.3457 1.28556 9.68722 
2.52578 1.46894 10.1329 2.71922 1.2095 10.0463 2.3457 1.28556 9.68722 
2.71922 1.2095 10.0463 2.88085 0.943462 9.95514 2.45893 0.980764 9.47375 
2.88085 0.943462 9.95514 3.05238 0.600706 9.85767 2.60135 0.701757 9.37819 
3.05238 0.600706 9.85767 3.18126 0.256045 9.75991 2.79812 0.425212 9.4109 
3.18126 0.256045 9.75991 3.25708 -0.116643 9.64655 2.85611 0.160041 9.30837 
3.25708 -0.116643 9.64655 3.05912 -0.420046 9.29645 2.77915 -0.242561 9.01672 
3.05912 -0.420046 9.29645 3.03569 -0.766038 9.18386 2.69079 -0.564356 8.81718 
3.03569 -0.766038 9.18386 2.97851 -1.04155 9.08565 2.63723 -0.851885 8.72052 
2.53907 -1.46899 8.6528 2.55145 -1.93833 8.75574 2.18668 -1.54635 8.33356 
2.55145 -1.93833 8.75574 2.36753 -2.2159 8.68306 2.1401 -1.86377 8.39172 
2.36753 -2.2159 8.68306 2.14987 -2.43562 8.60528 1.96847 -2.0542 8.32986 
2.14987 -2.43562 8.60528 1.92827 -2.64244 8.54625 1.65768 -2.16004 8.16296 
1.52339 -2.58273 8.3007 1.39067 -3.00065 8.44848 1.23708 -2.57965 8.15912 
1.03431 -2.81571 8.218 0.844256 -3.17263 8.3629 0.68265 -2.76298 8.08061 
0.844256 -3.17263 8.3629 0.42093 -2.94615 8.14867 0.68265 -2.76298 8.08061 
-0.560116 -2.94317 8.1712 -0.983732 -3.14794 8.38464 -0.888208 -2.7274 8.11386 
-2.79626 -0.585124 8.94496 -2.92233 -0.376501 9.14975 -2.60126 -0.254175 8.78542 
-2.92233 -0.376501 9.14975 -2.98672 -0.0760544 9.34896 -2.5656 0.101186 8.88351 
-2.98672 -0.0760544 9.34896 -2.82667 0.32609 9.37331 -2.5656 0.101186 8.88351 
-2.82667 0.32609 9.37331 -2.79837 0.68489 9.62261 -2.46596 0.506966 9.01975 
-2.79837 0.68489 9.62261 -2.53634 1.00559 9.59495 -2.33224 0.824095 9.12276 
-2.23201 1.30532 9.57776 -2.07988 1.57713 9.78452 -1.82226 1.511 9.35978 
-2.07988 1.57713 9.78452 -1.95348 1.81186 10.0185 -1.60079 1.68046 9.3933 
-0.803268 2.29287 10.0074 -0.476989 2.42974 10.1892 -0.541318 2.16382 9.571 
-0.476989 2.42974 10.1892 -0.186581 2.47313 10.2232 -0.296806 2.25933 9.73142 
-0.186581 2.47313 10.2232 0.227364 2.46609 10.2091 0.0190684 2.27702 9.74038 
0.227364 2.46609 10.2091 0.638381 2.40097 10.1729 0.542256 2.15048 9.53959 
0.914913 2.19784 9.86698 1.21112 2.15658 9.97532 1.05245 2.00888 9.52418 
1.21112 2.15658 9.97532 1.57796 2.04809 10.0656 1.2982 1.88222 9.47134 
1.57796 2.04809 10.0656 1.87149 1.84161 9.98603 1.54768 1.71734 9.39971 
1.87149 1.84161 9.98603 2.05615 1.5954 9.78261 1.79986 1.52117 9.34926 
2.05615 1.5954 9.78261 2.3457 1.28556 9.68722 1.96204 1.35113 9.28751 
2.60135 0.701757 9.37819 2.79812 0.425212 9.4109 2.60822 0.348666 9.09556 
2.79812 0.425212 9.4109 2.85611 0.160041 9.30837 2.60822 0.348666 9.09556 
2.85611 0.160041 9.30837 2.77915 -0.242561 9.01672 2.54704 0.0443199 8.83422 
2.77915 -0.242561 9.01672 2.69079 -0.564356 8.81718 2.48504 -0.2292 8.63012 
2.69079 -0.564356 8.81718 2.63723 -0.851885 8.72052 2.45297 -0.560934 8.51918 
2.63723 -0.851885 8.72052 2.67384 -1.17755 8.76066 2.40144 -0.837029 8.44281 
2.67384 -1.17755 8.76066 2.53907 -1.46899 8.6528 2.28605 -1.18578 8.34237 
2.53907 -1.46899 8.6528 2.18668 -1.54635 8.33356 2.28605 -1.18578 8.34237 
2.1401 -1.86377 8.39172 1.96847 -2.0542 8.32986 1.86586 -1.79942 8.14255 
1.65768 -2.16004 8.16296 1.52339 -2.58273 8.3007 1.29704 -2.08618 7.90477 
1.52339 -2.58273 8.3007 1.23708 -2.57965 8.15912 1.09168 -2.19362 7.86389 
1.23708 -2.57965 8.15912 1.03431 -2.81571 8.218 0.868301 -2.2747 7.8246 
1.03431 -2.81571 8.218 0.68265 -2.76298 8.08061 0.613211 -2.35308 7.79599 
0.68265 -2.76298 8.08061 0.42093 -2.94615 8.14867 0.375284 -2.41455 7.79216 
0.42093 -2.94615 8.14867 0.0422456 -2.99983 8.15432 0.137264 -2.46154 7.79799 
0.0422456 -2.99983 8.15432 -0.270653 -2.98394 8.15843 -0.140436 -2.44951 7.79086 
-0.270653 -2.98394 8.15843 -0.560116 -2.94317 8.1712 -0.417705 -2.41583 7.79714 
-0.560116 -2.94317 8.1712 -0.888208 -2.7274 8.11386 -0.762579 -2.45065 7.90009 
-0.888208 -2.7274 8.11386 -1.30514 -2.7237 8.26953 -1.13347 -2.31238 7.95497 
-1.30514 -2.7237 8.26953 -1.59048 -2.56015 8.32291 -1.40201 -2.17098 8.01098 
-1.59048 -2.56015 8.32291 -1.80169 -2.40226 8.36855 -1.64267 -1.98992 8.06512 
-1.80169 -2.40226 8.36855 -1.99036 -2.19277 8.40338 -1.64267 -1.98992 8.06512 
-1.99036 -2.19277 8.40338 -2.2206 -1.97311 8.49426 -1.92367 -1.71049 8.15141 
-2.2206 -1.97311 8.49426 -2.43419 -1.72088 8.60519 -2.14034 -1.4205 8.25176 
-2.43419 -1.72088 8.60519 -2.54979 -1.47458 8.6649 -2.26908 -1.16547 8.32422 
-2.54979 -1.47458 8.6649 -2.64042 -1.21592 8.72863 -2.26908 -1.16547 8.32422 
-2.64042 -1.21592 8.72863 -2.7262 -0.914279 8.82042 -2.38912 -0.88194 8.42893 
-2.7262 -0.914279 8.82042 -2.79626 -0.585124 8.94496 -2.37001 -0.384602 8.4385 
-2.23201 1.30532 9.57776 -1.82226 1.511 9.35978 -1.85617 1.3678 9.15899 
-1.57154 1.87643 9.74144 -1.2923 2.03176 9.78424 -1.29822 1.80924 9.30264 
-1.2923 2.03176 9.78424 -0.947421 2.17634 9.83485 -1.03174 1.94507 9.34543 
-0.541318 2.16382 9.571 -0.296806 2.25933 9.73142 -0.256604 2.08374 9.24027 
-0.296806 2.25933 9.73142 0.0190684 2.27702 9.74038 -0.0410984 2.09808 9.2475 
0.542256 2.15048 9.53959 0.914913 2.19784 9.86698 0.760824 1.99291 9.24517 
2.11053 1.15639 9.20838 2.45893 0.980764 9.47375 2.17066 0.948619 9.02301 
2.45893 0.980764 9.47375 2.60135 0.701757 9.37819 2.29039 0.71036 8.93861 
2.60135 0.701757 9.37819 2.60822 0.348666 9.09556 2.40514 0.392695 8.83546 
2.54704 0.0443199 8.83422 2.77915 -0.242561 9.01672 2.48504 -0.2292 8.63012 
2.48504 -0.2292 8.63012 2.45297 -0.560934 8.51918 2.14894 -0.321893 8.13786 
2.45297 -0.560934 8.51918 2.40144 -0.837029 8.44281 2.11855 -0.51751 8.08004 
2.40144 -0.837029 8.44281 2.28605 -1.18578 8.34237 2.07465 -0.715952 8.03305 
2.28605 -1.18578 8.34237 2.18668 -1.54635 8.33356 1.80495 -1.26992 7.86711 
2.18668 -1.54635 8.33356 1.86586 -1.79942 8.14255 1.80495 -1.26992 7.86711 
1.86586 -1.79942 8.14255 1.65768 -2.16004 8.16296 1.38751 -1.67137 7.71325 
-0.762579 -2.45065 7.90009 -1.13347 -2.31238 7.95497 -0.844905 -1.9913 7.61913 
-1.13347 -2.31238 7.95497 -1.40201 -2.17098 8.01098 -1.07674 -1.87367 7.64759 
-1.40201 -2.17098 8.01098 -1.64267 -1.98992 8.06512 -1.44301 -1.62208 7.72679 
-1.64267 -1.98992 8.06512 -1.92367 -1.71049 8.15141 -1.65881 -1.39612 7.78593 
-1.92367 -1.71049 8.15141 -2.14034 -1.4205 8.25176 -1.94941 -1.26881 8.01344 
-2.14034 -1.4205 8.25176 -2.26908 -1.16547 8.32422 -1.98631 -0.97866 7.9718 
-2.26908 -1.16547 8.32422 -2.38912 -0.88194 8.42893 -2.07186 -0.725426 8.02697 
-2.37001 -0.384602 8.4385 -2.60126 -0.254175 8.78542 -2.283 -0.0748018 8.39137 
-2.60126 -0.254175 8.78542 -2.5656 0.101186 8.88351 -2.283 -0.0748018 8.39137 
-2.5656 0.101186 8.88351 -2.46596 0.506966 9.01975 -2.19837 0.47148 8.57199 
-2.46596 0.506966 9.01975 -2.33224 0.824095 9.12276 -2.08826 0.763191 8.67166 
-2.33224 0.824095 9.12276 -2.12395 1.12123 9.17581 -1.96947 0.98366 8.74747 
-2.12395 1.12123 9.17581 -1.85617 1.3678 9.15899 -1.81483 1.19591 8.80755 
-1.85617 1.3678 9.15899 -1.82226 1.511 9.35978 -1.60398 1.43521 8.90425 
-1.82226 1.511 9.35978 -1.60079 1.68046 9.3933 -1.25844 1.62938 8.81637 
-1.60079 1.68046 9.3933 -1.29822 1.80924 9.30264 -1.25844 1.62938 8.81637 
-1.29822 1.80924 9.30264 -1.03174 1.94507 9.34543 -0.901498 1.79538 8.81259 
-0.7372 1.99808 9.24114 -0.541318 2.16382 9.571 -0.50892 1.99738 9.07731 
-0.0410984 2.09808 9.2475 0.243869 2.20114 9.57522 0.225644 1.97763 8.8841 
0.243869 2.20114 9.57522 0.542256 2.15048 9.53959 0.225644 1.97763 8.8841 
0.542256 2.15048 9.53959 0.760824 1.99291 9.24517 0.536601 1.9233 8.86571 
1.05245 2.00888 9.52418 1.2982 1.88222 9.47134 1.01047 1.82637 9.0171 
1.2982 1.88222 9.47134 1.54768 1.71734 9.39971 1.23908 1.70414 8.98156 
1.54768 1.71734 9.39971 1.79986 1.52117 9.34926 1.4537 1.55217 8.92334 
1.79986 1.52117 9.34926 1.96204 1.35113 9.28751 1.70325 1.33723 8.87231 
1.96204 1.35113 9.28751 2.11053 1.15639 9.20838 1.80458 1.11603 8.66587 
2.11053 1.15639 9.20838 2.17066 0.948619 9.02301 1.91463 0.934426 8.59017 
2.17066 0.948619 9.02301 2.29039 0.71036 8.93861 2.05255 0.656868 8.4956 
2.29039 0.71036 8.93861 2.40514 0.392695 8.83546 2.05255 0.656868 8.4956 
2.40514 0.392695 8.83546 2.54704 0.0443199 8.83422 2.1572 0.247053 8.34773 
2.54704 0.0443199 8.83422 2.48504 -0.2292 8.63012 2.15778 -0.0780133 8.20455 
1.38751 -1.67137 7.71325 1.29704 -2.08618 7.90477 1.13013 -1.52679 7.44239 
1.29704 -2.08618 7.90477 1.09168 -2.19362 7.86389 0.898587 -1.73599 7.45586 
1.09168 -2.19362 7.86389 0.868301 -2.2747 7.8246 0.898587 -1.73599 7.45586 
0.868301 -2.2747 7.8246 0.613211 -2.35308 7.79599 0.664635 -1.92783 7.50063 
0.613211 -2.35308 7.79599 0.375284 -2.41455 7.79216 0.414171 -1.98645 7.47469 
0.375284 -2.41455 7.79216 0.137264 -2.46154 7.79799 0.123141 -2.02546 7.46618 
0.137264 -2.46154 7.79799 -0.140436 -2.44951 7.79086 -0.126189 -2.02748 7.46895 
-0.140436 -2.44951 7.79086 -0.417705 -2.41583 7.79714 -0.373201 -1.99156 7.47082 
-1.65881 -1.39612 7.78593 -1.94941 -1.26881 8.01344 -1.70853 -1.0198 7.66976 
-2.07186 -0.725426 8.02697 -2.33277 -0.60247 8.36269 -2.08467 -0.336741 8.03231 
-2.33277 -0.60247 8.36269 -2.37001 -0.384602 8.4385 -2.08467 -0.336741 8.03231 
-2.37001 -0.384602 8.4385 -2.283 -0.0748018 8.39137 -1.98292 0.0942767 7.98055 
-2.283 -0.0748018 8.39137 -2.26575 0.190748 8.48993 -1.97877 0.292573 8.07431 
-2.26575 0.190748 8.48993 -2.19837 0.47148 8.57199 -1.93555 0.509053 8.15158 
-2.19837 0.47148 8.57199 -2.08826 0.763191 8.67166 -1.86731 0.720379 8.23662 
-2.08826 0.763191 8.67166 -1.96947 0.98366 8.74747 -1.74377 0.925481 8.26365 
-1.96947 0.98366 8.74747 -1.81483 1.19591 8.80755 -1.56009 1.19342 8.35301 
-1.81483 1.19591 8.80755 -1.60398 1.43521 8.90425 -1.56009 1.19342 8.35301 
-0.901498 1.79538 8.81259 -0.7372 1.99808 9.24114 -0.593607 1.87289 8.73227 
-0.7372 1.99808 9.24114 -0.50892 1.99738 9.07731 -0.593607 1.87289 8.73227 
-0.50892 1.99738 9.07731 -0.256604 2.08374 9.24027 -0.284737 1.93388 8.74764 
-0.256604 2.08374 9.24027 -0.0410984 2.09808 9.2475 -0.0389473 1.95449 8.76646 
0.536601 1.9233 8.86571 0.760824 1.99291 9.24517 0.774525 1.76476 8.56254 
0.760824 1.99291 9.24517 1.01047 1.82637 9.0171 0.774525 1.76476 8.56254 
1.01047 1.82637 9.0171 1.23908 1.70414 8.98156 1.03071 1.64574 8.53534 
1.23908 1.70414 8.98156 1.4537 1.55217 8.92334 1.29885 1.44568 8.42239 
1.4537 1.55217 8.92334 1.70325 1.33723 8.87231 1.29885 1.44568 8.42239 
2.15778 -0.0780133 8.20455 2.14894 -0.321893 8.13786 1.83476 0.0579834 7.70295 
2.14894 -0.321893 8.13786 2.11855 -0.51751 8.08004 1.80218 -0.249194 7.61175 
2.11855 -0.51751 8.08004 2.07465 -0.715952 8.03305 1.73349 -0.442591 7.52774 
2.07465 -0.715952 8.03305 2.00231 -0.964182 7.98563 1.70586 -0.745166 7.56077 
2.00231 -0.964182 7.98563 1.80495 -1.26992 7.86711 1.70586 -0.745166 7.56077 
1.80495 -1.26992 7.86711 1.59668 -1.50959 7.78944 1.33949 -1.23352 7.40672 
1.59668 -1.50959 7.78944 1.38751 -1.67137 7.71325 1.33949 -1.23352 7.40672 
0.898587 -1.73599 7.45586 0.664635 -1.92783 7.50063 0.612192 -1.54358 7.17515 
0.664635 -1.92783 7.50063 0.414171 -1.98645 7.47469 0.322822 -1.57409 7.11303 
0.414171 -1.98645 7.47469 0.123141 -2.02546 7.46618 0.322822 -1.57409 7.11303 
0.123141 -2.02546 7.46618 -0.126189 -2.02748 7.46895 0.0331969 -1.60221 7.10574 
-0.126189 -2.02748 7.46895 -0.373201 -1.99156 7.47082 -0.200012 -1.61054 7.12791 
-0.373201 -1.99156 7.47082 -0.646272 -2.04471 7.58526 -0.483545 -1.58559 7.16362 
-0.646272 -2.04471 7.58526 -0.844905 -1.9913 7.61913 -0.763252 -1.49387 7.20155 
-0.844905 -1.9913 7.61913 -1.07674 -1.87367 7.64759 -0.763252 -1.49387 7.20155 
-1.07674 -1.87367 7.64759 -1.2769 -1.78512 7.70897 -1.09852 -1.30019 7.263 
-1.2769 -1.78512 7.70897 -1.44301 -1.62208 7.72679 -1.09852 -1.30019 7.263 
-1.44301 -1.62208 7.72679 -1.65881 -1.39612 7.78593 -1.26191 -1.14531 7.28906 
-1.70853 -1.0198 7.66976 -1.98631 -0.97866 7.9718 -1.7575 -0.655815 7.60102 
-1.98631 -0.97866 7.9718 -2.07186 -0.725426 8.02697 -1.7575 -0.655815 7.60102 
-2.07186 -0.725426 8.02697 -2.08467 -0.336741 8.03231 -1.85497 -0.389159 7.69744 
-2.08467 -0.336741 8.03231 -1.98292 0.0942767 7.98055 -1.89515 -0.116228 7.76851 
-1.34212 1.40599 8.41305 -1.25844 1.62938 8.81637 -1.10504 1.53622 8.32156 
-1.25844 1.62938 8.81637 -0.901498 1.79538 8.81259 -0.85965 1.67489 8.36606 
-0.901498 1.79538 8.81259 -0.593607 1.87289 8.73227 -0.558909 1.75128 8.25018 
-0.593607 1.87289 8.73227 -0.284737 1.93388 8.74764 -0.244881 1.81269 8.25218 
-0.284737 1.93388 8.74764 -0.0389473 1.95449 8.76646 -0.031127 1.82851 8.26313 
-0.0389473 1.95449 8.76646 0.225644 1.97763 8.8841 0.201234 1.81899 8.25688 
0.225644 1.97763 8.8841 0.536601 1.9233 8.86571 0.4535 1.77587 8.24951 
1.80458 1.11603 8.66587 1.91463 0.934426 8.59017 1.68613 0.904449 8.11062 
1.91463 0.934426 8.59017 2.05255 0.656868 8.4956 1.68613 0.904449 8.11062 
2.05255 0.656868 8.4956 2.1572 0.247053 8.34773 1.878 0.375172 7.93399 
2.1572 0.247053 8.34773 2.15778 -0.0780133 8.20455 1.83476 0.0579834 7.70295 
1.73349 -0.442591 7.52774 1.70586 -0.745166 7.56077 1.49937 -0.490012 7.20332 
1.70586 -0.745166 7.56077 1.54919 -1.01226 7.49151 1.36972 -0.686034 7.12639 
1.54919 -1.01226 7.49151 1.33949 -1.23352 7.40672 1.1977 -0.89827 7.06218 
1.33949 -1.23352 7.40672 1.13013 -1.52679 7.44239 0.970535 -1.0736 6.99146 
1.13013 -1.52679 7.44239 0.898587 -1.73599 7.45586 0.970535 -1.0736 6.99146 
-1.70853 -1.0198 7.66976 -1.7575 -0.655815 7.60102 -1.51357 -0.666864 7.29115 
-1.7575 -0.655815 7.60102 -1.85497 -0.389159 7.69744 -1.56808 -0.316369 7.25123 
-1.85497 -0.389159 7.69744 -1.89515 -0.116228 7.76851 -1.63963 -0.0466323 7.34479 
-1.89515 -0.116228 7.76851 -1.98292 0.0942767 7.98055 -1.73665 0.101734 7.54087 
-1.98292 0.0942767 7.98055 -1.97877 0.292573 8.07431 -1.72536 0.334322 7.61741 
-1.97877 0.292573 8.07431 -1.93555 0.509053 8.15158 -1.62775 0.584831 7.60231 
-1.93555 0.509053 8.15158 -1.86731 0.720379 8.23662 -1.51814 0.825745 7.63821 
-1.86731 0.720379 8.23662 -1.74377 0.925481 8.26365 -1.51814 0.825745 7.63821 
-1.74377 0.925481 8.26365 -1.56009 1.19342 8.35301 -1.3997 1.02879 7.69846 
-1.56009 1.19342 8.35301 -1.34212 1.40599 8.41305 -1.27882 1.26266 7.91349 
-1.34212 1.40599 8.41305 -1.10504 1.53622 8.32156 -0.979843 1.45255 7.81651 
-1.10504 1.53622 8.32156 -0.85965 1.67489 8.36606 -0.732712 1.58962 7.837 
0.4535 1.77587 8.24951 0.774525 1.76476 8.56254 0.628273 1.64135 7.87427 
0.774525 1.76476 8.56254 1.03071 1.64574 8.53534 0.883011 1.52121 7.85776 
1.03071 1.64574 8.53534 1.29885 1.44568 8.42239 1.08936 1.42815 7.96687 
1.29885 1.44568 8.42239 1.55789 1.16502 8.29087 1.32472 1.21773 7.9073 
1.55789 1.16502 8.29087 1.68613 0.904449 8.11062 1.51792 0.954301 7.82623 
1.68613 0.904449 8.11062 1.79711 0.671568 8.04113 1.5818 0.696047 7.6101 
1.79711 0.671568 8.04113 1.878 0.375172 7.93399 1.5818 0.696047 7.6101 
1.83476 0.0579834 7.70295 1.80218 -0.249194 7.61175 1.48339 -0.0316998 7.06785 
1.80218 -0.249194 7.61175 1.73349 -0.442591 7.52774 1.39409 -0.199158 6.94869 
0.764091 -1.21235 6.96715 0.612192 -1.54358 7.17515 0.535952 -1.06376 6.71123 
0.612192 -1.54358 7.17515 0.322822 -1.57409 7.11303 0.313957 -1.12446 6.69044 
0.322822 -1.57409 7.11303 0.0331969 -1.60221 7.10574 0.109423 -1.15218 6.68061 
0.0331969 -1.60221 7.10574 -0.200012 -1.61054 7.12791 -0.0792005 -1.14354 6.67002 
-0.200012 -1.61054 7.12791 -0.483545 -1.58559 7.16362 -0.368475 -1.24292 6.81508 
-0.483545 -1.58559 7.16362 -0.763252 -1.49387 7.20155 -0.63745 -1.13299 6.82438 
-0.763252 -1.49387 7.20155 -0.956129 -1.39949 7.2359 -0.842351 -1.03003 6.85916 
-0.956129 -1.39949 7.2359 -1.09852 -1.30019 7.263 -0.842351 -1.03003 6.85916 
-1.09852 -1.30019 7.263 -1.26191 -1.14531 7.28906 -0.997177 -0.801036 6.79648 
-1.26191 -1.14531 7.28906 -1.41698 -0.94276 7.31758 -1.17314 -0.57046 6.82017 
-1.41698 -0.94276 7.31758 -1.51357 -0.666864 7.29115 -1.30509 -0.371101 6.87784 
-1.51357 -0.666864 7.29115 -1.56808 -0.316369 7.25123 -1.30509 -0.371101 6.87784 
-1.73665 0.101734 7.54087 -1.72536 0.334322 7.61741 -1.47648 0.450083 7.15982 
-1.3997 1.02879 7.69846 -1.27882 1.26266 7.91349 -1.16703 1.24471 7.59619 
-0.732712 1.58962 7.837 -0.558909 1.75128 8.25018 -0.461292 1.63806 7.5773 
-0.558909 1.75128 8.25018 -0.244881 1.81269 8.25218 -0.202379 1.721 7.7334 
-0.244881 1.81269 8.25218 -0.031127 1.82851 8.26313 -0.202379 1.721 7.7334 
-0.031127 1.82851 8.26313 0.201234 1.81899 8.25688 0.139297 1.73008 7.7626 
0.201234 1.81899 8.25688 0.4535 1.77587 8.24951 0.383155 1.68847 7.74308 
1.08936 1.42815 7.96687 1.32472 1.21773 7.9073 1.05816 1.34465 7.62965 
1.32472 1.21773 7.9073 1.51792 0.954301 7.82623 1.26486 1.04586 7.38331 
1.51792 0.954301 7.82623 1.5818 0.696047 7.6101 1.36383 0.849351 7.28511 
1.63739 0.420382 7.49323 1.83476 0.0579834 7.70295 1.57196 0.210956 7.25274 
1.57196 0.210956 7.25274 1.48339 -0.0316998 7.06785 1.35546 0.303643 6.81967 
1.49937 -0.490012 7.20332 1.36972 -0.686034 7.12639 1.17429 -0.29159 6.64955 
1.36972 -0.686034 7.12639 1.1977 -0.89827 7.06218 1.03019 -0.461398 6.57383 
1.1977 -0.89827 7.06218 0.970535 -1.0736 6.99146 0.918172 -0.69821 6.63582 
0.970535 -1.0736 6.99146 0.764091 -1.21235 6.96715 0.712596 -0.842627 6.60159 
-0.0792005 -1.14354 6.67002 -0.368475 -1.24292 6.81508 -0.28494 -0.848935 6.39505 
-0.368475 -1.24292 6.81508 -0.63745 -1.13299 6.82438 -0.496466 -0.824044 6.45461 
-0.63745 -1.13299 6.82438 -0.842351 -1.03003 6.85916 -0.678406 -0.738068 6.47836 
-1.30509 -0.371101 6.87784 -1.56808 -0.316369 7.25123 -1.34102 -0.124451 6.83493 
-1.56808 -0.316369 7.25123 -1.63963 -0.0466323 7.34479 -1.39021 0.0756556 6.88127 
-1.47648 0.450083 7.15982 -1.62775 0.584831 7.60231 -1.365 0.713021 7.09811 
-1.62775 0.584831 7.60231 -1.51814 0.825745 7.63821 -1.365 0.713021 7.09811 
-1.51814 0.825745 7.63821 -1.3997 1.02879 7.69846 -1.20848 0.948329 7.01914 
-1.3997 1.02879 7.69846 -1.16703 1.24471 7.59619 -1.1192 1.10552 7.09498 
-1.16703 1.24471 7.59619 -0.979843 1.45255 7.81651 -0.951462 1.29996 7.1644 
-0.979843 1.45255 7.81651 -0.732712 1.58962 7.837 -0.735641 1.45947 7.20935 
-0.732712 1.58962 7.837 -0.461292 1.63806 7.5773 -0.582966 1.56555 7.38705 
-0.202379 1.721 7.7334 0.139297 1.73008 7.7626 0.0183677 1.66641 7.29621 
0.139297 1.73008 7.7626 0.383155 1.68847 7.74308 0.275413 1.63828 7.26361 
0.383155 1.68847 7.74308 0.628273 1.64135 7.87427 0.506719 1.59615 7.39623 
0.628273 1.64135 7.87427 0.883011 1.52121 7.85776 0.708125 1.47905 7.22067 
0.883011 1.52121 7.85776 1.05816 1.34465 7.62965 0.909408 1.3244 7.13588 
1.36383 0.849351 7.28511 1.5818 0.696047 7.6101 1.37923 0.660708 7.08456 
1.5818 0.696047 7.6101 1.63739 0.420382 7.49323 1.37923 0.660708 7.08456 
1.63739 0.420382 7.49323 1.57196 0.210956 7.25274 1.41396 0.473682 7.02446 
1.35546 0.303643 6.81967 1.48339 -0.0316998 7.06785 1.18383 0.192192 6.45866 
1.48339 -0.0316998 7.06785 1.39409 -0.199158 6.94869 1.08709 -0.00365791 6.34537 
1.39409 -0.199158 6.94869 1.17429 -0.29159 6.64955 1.08709 -0.00365791 6.34537 
0.918172 -0.69821 6.63582 0.712596 -0.842627 6.60159 0.770263 -0.52944 6.34796 
0.712596 -0.842627 6.60159 0.535952 -1.06376 6.71123 0.457348 -0.718056 6.3129 
0.535952 -1.06376 6.71123 0.313957 -1.12446 6.69044 0.457348 -0.718056 6.3129 
0.313957 -1.12446 6.69044 0.109423 -1.15218 6.68061 0.128556 -0.791129 6.29261 
0.109423 -1.15218 6.68061 -0.0792005 -1.14354 6.67002 -0.0967045 -0.780344 6.27997 
-0.0792005 -1.14354 6.67002 -0.28494 -0.848935 6.39505 -0.0967045 -0.780344 6.27997 
-0.678406 -0.738068 6.47836 -0.997177 -0.801036 6.79648 -0.758889 -0.441628 6.25986 
-0.997177 -0.801036 6.79648 -1.17314 -0.57046 6.82017 -0.899895 -0.345984 6.32368 
-1.17314 -0.57046 6.82017 -1.30509 -0.371101 6.87784 -1.01502 -0.211874 6.36907 
-1.30509 -0.371101 6.87784 -1.34102 -0.124451 6.83493 -1.11457 -0.0106 6.39972 
-1.34102 -0.124451 6.83493 -1.39021 0.0756556 6.88127 -1.17211 0.188907 6.43642 
-1.39021 0.0756556 6.88127 -1.49081 0.259806 7.10768 -1.28106 0.374421 6.66144 
-1.49081 0.259806 7.10768 -1.47648 0.450083 7.15982 -1.28106 0.374421 6.66144 
-1.47648 0.450083 7.15982 -1.365 0.713021 7.09811 -1.26567 0.63521 6.7599 
-0.735641 1.45947 7.20935 -0.582966 1.56555 7.38705 -0.488975 1.52786 6.86053 
-0.582966 1.56555 7.38705 -0.461292 1.63806 7.5773 -0.346337 1.58281 6.92167 
1.26486 1.04586 7.38331 1.36383 0.849351 7.28511 1.08298 1.00271 6.72076 
1.36383 0.849351 7.28511 1.37923 0.660708 7.08456 1.14654 0.853167 6.66355 
1.37923 0.660708 7.08456 1.41396 0.473682 7.02446 1.21432 0.635018 6.62129 
1.17429 -0.29159 6.64955 1.03019 -0.461398 6.57383 0.855409 -0.104432 6.05702 
1.03019 -0.461398 6.57383 0.770263 -0.52944 6.34796 0.713387 -0.203231 5.97523 
0.770263 -0.52944 6.34796 0.457348 -0.718056 6.3129 0.592266 -0.401251 6.0623 
0.457348 -0.718056 6.3129 0.128556 -0.791129 6.29261 0.237537 -0.455371 5.92712 
0.128556 -0.791129 6.29261 -0.0967045 -0.780344 6.27997 -0.102179 -0.460638 5.90234 
-0.0967045 -0.780344 6.27997 -0.28494 -0.848935 6.39505 -0.102179 -0.460638 5.90234 
-0.28494 -0.848935 6.39505 -0.496466 -0.824044 6.45461 -0.31252 -0.530481 6.04257 
-0.496466 -0.824044 6.45461 -0.678406 -0.738068 6.47836 -0.496527 -0.357949 5.94322 
-1.17211 0.188907 6.43642 -1.28106 0.374421 6.66144 -1.08083 0.494738 6.19245 
-1.28106 0.374421 6.66144 -1.26567 0.63521 6.7599 -1.0702 0.723304 6.25963 
-1.15488 0.830656 6.65439 -1.20848 0.948329 7.01914 -0.980624 1.026 6.39065 
-1.20848 0.948329 7.01914 -1.1192 1.10552 7.09498 -0.906571 1.15051 6.44129 
-1.1192 1.10552 7.09498 -0.951462 1.29996 7.1644 -0.758 1.31758 6.4706 
-0.951462 1.29996 7.1644 -0.735641 1.45947 7.20935 -0.616572 1.44741 6.68353 
-0.196624 1.65031 7.27215 0.0183677 1.66641 7.29621 0.0836088 1.60765 6.61462 
0.0183677 1.66641 7.29621 0.275413 1.63828 7.26361 0.0836088 1.60765 6.61462 
0.447733 1.54674 6.88855 0.708125 1.47905 7.22067 0.593947 1.45985 6.67602 
0.708125 1.47905 7.22067 0.909408 1.3244 7.13588 0.773687 1.33279 6.64671 
0.909408 1.3244 7.13588 1.10395 1.18078 7.25066 0.901642 1.20254 6.5964 
1.15103 0.438981 6.36401 1.18383 0.192192 6.45866 1.02016 0.421873 6.03843 
1.18383 0.192192 6.45866 1.08709 -0.00365791 6.34537 0.911604 0.213405 5.89017 
1.08709 -0.00365791 6.34537 0.855409 -0.104432 6.05702 0.911604 0.213405 5.89017 
0.713387 -0.203231 5.97523 0.592266 -0.401251 6.0623 0.499064 -0.0856337 5.62112 
-0.102179 -0.460638 5.90234 -0.31252 -0.530481 6.04257 -0.207582 -0.250387 5.64942 
-0.496527 -0.357949 5.94322 -0.758889 -0.441628 6.25986 -0.613962 -0.0836044 5.7345 
-0.758889 -0.441628 6.25986 -0.899895 -0.345984 6.32368 -0.792167 0.00582331 5.86206 
-0.899895 -0.345984 6.32368 -1.01502 -0.211874 6.36907 -0.792167 0.00582331 5.86206 
-1.01502 -0.211874 6.36907 -1.11457 -0.0106 6.39972 -0.93605 0.208001 5.94724 
-1.11457 -0.0106 6.39972 -1.17211 0.188907 6.43642 -0.958244 0.414296 5.89941 
-1.0702 0.723304 6.25963 -1.15488 0.830656 6.65439 -0.924445 0.897904 5.91487 
-0.758 1.31758 6.4706 -0.616572 1.44741 6.68353 -0.496297 1.46981 6.18222 
-0.616572 1.44741 6.68353 -0.488975 1.52786 6.86053 -0.496297 1.46981 6.18222 
-0.488975 1.52786 6.86053 -0.346337 1.58281 6.92167 -0.30336 1.55316 6.26886 
0.447733 1.54674 6.88855 0.593947 1.45985 6.67602 0.491717 1.47508 6.25457 
0.593947 1.45985 6.67602 0.773687 1.33279 6.64671 0.621043 1.38793 6.1767 
0.773687 1.33279 6.64671 0.901642 1.20254 6.5964 0.750428 1.26532 6.14086 
0.901642 1.20254 6.5964 1.08298 1.00271 6.72076 0.863738 1.10306 6.07947 
1.08298 1.00271 6.72076 1.14654 0.853167 6.66355 0.863738 1.10306 6.07947 
1.14654 0.853167 6.66355 1.21432 0.635018 6.62129 0.940192 0.888904 5.97234 
1.21432 0.635018 6.62129 1.15103 0.438981 6.36401 1.00239 0.642055 6.00251 
1.02016 0.421873 6.03843 0.911604 0.213405 5.89017 0.805032 0.422942 5.54091 
0.911604 0.213405 5.89017 0.855409 -0.104432 6.05702 0.700307 0.282714 5.45962 
0.855409 -0.104432 6.05702 0.713387 -0.203231 5.97523 0.568017 0.118568 5.44766 
0.499064 -0.0856337 5.62112 0.387035 -0.396766 5.92384 0.291959 -0.0241893 5.38775 
0.387035 -0.396766 5.92384 0.237537 -0.455371 5.92712 0.142716 -0.0376318 5.3454 
0.237537 -0.455371 5.92712 0.0758263 -0.479333 5.9228 -0.005185 -0.0674257 5.36629 
0.0758263 -0.479333 5.9228 -0.102179 -0.460638 5.90234 -0.005185 -0.0674257 5.36629 
-0.207582 -0.250387 5.64942 -0.496527 -0.357949 5.94322 -0.238795 -0.00658718 5.33635 
-0.613962 -0.0836044 5.7345 -0.792167 0.00582331 5.86206 -0.571574 0.182831 5.36776 
-0.792167 0.00582331 5.86206 -0.93605 0.208001 5.94724 -0.731708 0.309912 5.48498 
-1.08083 0.494738 6.19245 -1.0702 0.723304 6.25963 -0.92358 0.695636 5.7669 
-0.924445 0.897904 5.91487 -0.980624 1.026 6.39065 -0.811581 1.15024 5.92526 
-0.980624 1.026 6.39065 -0.906571 1.15051 6.44129 -0.811581 1.15024 5.92526 
-0.906571 1.15051 6.44129 -0.758 1.31758 6.4706 -0.63794 1.35685 5.96869 
-0.30336 1.55316 6.26886 -0.150415 1.59823 6.58776 -0.122363 1.5921 6.04201 
-0.150415 1.59823 6.58776 0.0836088 1.60765 6.61462 -0.122363 1.5921 6.04201 
0.0836088 1.60765 6.61462 0.347121 1.54935 6.48519 0.272608 1.56212 6.05707 
0.499064 -0.0856337 5.62112 0.291959 -0.0241893 5.38775 0.364909 0.193917 5.13283 
-0.958244 0.414296 5.89941 -0.92358 0.695636 5.7669 -0.811325 0.684577 5.41594 
-0.92358 0.695636 5.7669 -0.924445 0.897904 5.91487 -0.818493 0.915681 5.47636 
-0.924445 0.897904 5.91487 -0.811581 1.15024 5.92526 -0.728078 1.18682 5.53866 
-0.811581 1.15024 5.92526 -0.63794 1.35685 5.96869 -0.590969 1.37163 5.63431 
-0.63794 1.35685 5.96869 -0.496297 1.46981 6.18222 -0.42877 1.49224 5.67245 
-0.496297 1.46981 6.18222 -0.30336 1.55316 6.26886 -0.257075 1.57007 5.69546 
-0.30336 1.55316 6.26886 -0.122363 1.5921 6.04201 -0.257075 1.57007 5.69546 
-0.122363 1.5921 6.04201 0.0555328 1.5968 6.05491 -0.083308 1.61214 5.49741 
0.0555328 1.5968 6.05491 0.272608 1.56212 6.05707 0.0771368 1.61092 5.52696 
0.272608 1.56212 6.05707 0.491717 1.47508 6.25457 0.420073 1.49701 5.68013 
0.491717 1.47508 6.25457 0.621043 1.38793 6.1767 0.555316 1.40359 5.64699 
0.621043 1.38793 6.1767 0.750428 1.26532 6.14086 0.555316 1.40359 5.64699 
0.750428 1.26532 6.14086 0.863738 1.10306 6.07947 0.686795 1.25662 5.58002 
0.863738 1.10306 6.07947 0.940192 0.888904 5.97234 0.747127 1.10315 5.41581 
0.940192 0.888904 5.97234 1.00239 0.642055 6.00251 0.826592 0.868909 5.47969 
0.826592 0.868909 5.47969 0.835844 0.601031 5.51665 0.708732 0.97991 5.03005 
0.835844 0.601031 5.51665 0.805032 0.422942 5.54091 0.705883 0.7513 5.06388 
0.805032 0.422942 5.54091 0.700307 0.282714 5.45962 0.632253 0.549345 5.04128 
0.700307 0.282714 5.45962 0.568017 0.118568 5.44766 0.4617 0.471914 4.8342 
0.364909 0.193917 5.13283 0.291959 -0.0241893 5.38775 0.125173 0.249691 4.88936 
0.291959 -0.0241893 5.38775 0.142716 -0.0376318 5.3454 0.125173 0.249691 4.88936 
0.142716 -0.0376318 5.3454 -0.005185 -0.0674257 5.36629 0.125173 0.249691 4.88936 
-0.005185 -0.0674257 5.36629 -0.238795 -0.00658718 5.33635 -0.132792 0.23826 4.91625 
-0.238795 -0.00658718 5.33635 -0.390259 0.0375576 5.36893 -0.336734 0.351659 4.8623 
-0.390259 0.0375576 5.36893 -0.571574 0.182831 5.36776 -0.336734 0.351659 4.8623 
-0.571574 0.182831 5.36776 -0.731708 0.309912 5.48498 -0.520861 0.544505 4.83363 
-0.731708 0.309912 5.48498 -0.798141 0.471304 5.49148 -0.637889 0.71217 4.89797 
-0.798141 0.471304 5.49148 -0.811325 0.684577 5.41594 -0.637889 0.71217 4.89797 
-0.811325 0.684577 5.41594 -0.818493 0.915681 5.47636 -0.690286 0.881924 4.96007 
-0.818493 0.915681 5.47636 -0.728078 1.18682 5.53866 -0.620094 1.28659 5.05932 
-0.728078 1.18682 5.53866 -0.590969 1.37163 5.63431 -0.620094 1.28659 5.05932 
-0.590969 1.37163 5.63431 -0.42877 1.49224 5.67245 -0.467865 1.47002 5.21895 
-0.42877 1.49224 5.67245 -0.257075 1.57007 5.69546 -0.282085 1.57572 5.35114 
0.420073 1.49701 5.68013 0.555316 1.40359 5.64699 0.394459 1.52171 5.19097 
0.555316 1.40359 5.64699 0.686795 1.25662 5.58002 0.578532 1.34399 5.08631 
0.705883 0.7513 5.06388 0.632253 0.549345 5.04128 0.583651 0.897334 4.56697 
0.364909 0.193917 5.13283 0.125173 0.249691 4.88936 0.277912 0.533112 4.51857 
0.125173 0.249691 4.88936 -0.132792 0.23826 4.91625 -0.0224644 0.479288 4.48612 
-0.132792 0.23826 4.91625 -0.336734 0.351659 4.8623 -0.172699 0.508185 4.48174 
-0.467865 1.47002 5.21895 -0.282085 1.57572 5.35114 -0.364201 1.56797 4.8057 
-0.282085 1.57572 5.35114 -0.083308 1.61214 5.49741 -0.114835 1.66549 4.87446 
-0.083308 1.61214 5.49741 0.0771368 1.61092 5.52696 0.0230119 1.65692 5.03932 
0.0771368 1.61092 5.52696 0.265326 1.57241 5.53594 0.192405 1.6359 4.99394 
0.578532 1.34399 5.08631 0.747127 1.10315 5.41581 0.599627 1.25962 4.73514 
0.708732 0.97991 5.03005 0.705883 0.7513 5.06388 0.600646 1.10404 4.5114 
-0.336734 0.351659 4.8623 -0.520861 0.544505 4.83363 -0.351057 0.669326 4.35711 
-0.520861 0.544505 4.83363 -0.637889 0.71217 4.89797 -0.490402 0.804673 4.40735 
-0.637889 0.71217 4.89797 -0.690286 0.881924 4.96007 -0.582466 0.991506 4.46708 
-0.690286 0.881924 4.96007 -0.693165 1.05811 5.01723 -0.595126 1.17819 4.51992 
-0.693165 1.05811 5.01723 -0.620094 1.28659 5.05932 -0.558115 1.33924 4.56833 
-0.620094 1.28659 5.05932 -0.467865 1.47002 5.21895 -0.469538 1.48491 4.61042 
-0.114835 1.66549 4.87446 0.0230119 1.65692 5.03932 0.0190862 1.73001 4.49343 
0.0230119 1.65692 5.03932 0.192405 1.6359 4.99394 0.175023 1.70835 4.47271 
0.192405 1.6359 4.99394 0.394459 1.52171 5.19097 0.175023 1.70835 4.47271 
0.394459 1.52171 5.19097 0.493094 1.44412 5.12371 0.341043 1.61212 4.50919 
0.493094 1.44412 5.12371 0.578532 1.34399 5.08631 0.433964 1.53153 4.45619 
0.578532 1.34399 5.08631 0.599627 1.25962 4.73514 0.509545 1.42413 4.38448 
0.600646 1.10404 4.5114 0.583651 0.897334 4.56697 0.534463 1.12722 4.16184 
0.583651 0.897334 4.56697 0.502934 0.747621 4.51966 0.475046 1.03373 4.02806 
0.502934 0.747621 4.51966 0.30154 0.746607 4.15922 0.399908 0.881498 4.07344 
0.277912 0.533112 4.51857 0.125063 0.476528 4.51549 0.137208 0.736211 4.02087 
0.125063 0.476528 4.51549 -0.0224644 0.479288 4.48612 -0.012359 0.721974 4.01251 
-0.0224644 0.479288 4.48612 -0.172699 0.508185 4.48174 -0.173773 0.7477 4.01833 
-0.172699 0.508185 4.48174 -0.351057 0.669326 4.35711 -0.173773 0.7477 4.01833 
-0.351057 0.669326 4.35711 -0.490402 0.804673 4.40735 -0.350515 0.842546 4.04639 
-0.490402 0.804673 4.40735 -0.582466 0.991506 4.46708 -0.455745 1.02991 3.97395 
-0.582466 0.991506 4.46708 -0.595126 1.17819 4.51992 -0.540249 1.29139 4.14074 
-0.595126 1.17819 4.51992 -0.558115 1.33924 4.56833 -0.540249 1.29139 4.14074 
-0.558115 1.33924 4.56833 -0.469538 1.48491 4.61042 -0.472552 1.50303 4.1354 
-0.469538 1.48491 4.61042 -0.364201 1.56797 4.8057 -0.383017 1.62473 4.14523 
-0.364201 1.56797 4.8057 -0.244959 1.63049 4.83484 -0.272712 1.70179 4.22514 
-0.244959 1.63049 4.83484 -0.114835 1.66549 4.87446 -0.139864 1.73753 4.36451 
0.599627 1.25962 4.73514 0.600646 1.10404 4.5114 0.544091 1.28895 4.19744 
0.544091 1.28895 4.19744 0.534463 1.12722 4.16184 0.47708 1.30168 3.67543 
0.399908 0.881498 4.07344 0.30154 0.746607 4.15922 0.24378 0.993941 3.56819 
0.30154 0.746607 4.15922 0.137208 0.736211 4.02087 0.102498 0.949382 3.53584 
0.137208 0.736211 4.02087 -0.012359 0.721974 4.01251 0.102498 0.949382 3.53584 
-0.012359 0.721974 4.01251 -0.173773 0.7477 4.01833 -0.0860385 0.920489 3.59051 
-0.173773 0.7477 4.01833 -0.350515 0.842546 4.04639 -0.243622 0.972936 3.62111 
-0.350515 0.842546 4.04639 -0.455745 1.02991 3.97395 -0.38033 1.14065 3.52238 
-0.503965 1.13391 4.01852 -0.540249 1.29139 4.14074 -0.485013 1.36898 3.68013 
-0.139864 1.73753 4.36451 0.0190862 1.73001 4.49343 0.0250206 1.84882 3.90853 
0.0190862 1.73001 4.49343 0.175023 1.70835 4.47271 0.0250206 1.84882 3.90853 
0.175023 1.70835 4.47271 0.341043 1.61212 4.50919 0.217973 1.80055 3.87526 
0.341043 1.61212 4.50919 0.433964 1.53153 4.45619 0.31933 1.74167 3.83325 
0.433964 1.53153 4.45619 0.509545 1.42413 4.38448 0.415963 1.63672 3.78477 
0.509545 1.42413 4.38448 0.544091 1.28895 4.19744 0.487509 1.45727 3.76483 
0.47708 1.30168 3.67543 0.475046 1.03373 4.02806 0.422185 1.24149 3.46538 
-0.455745 1.02991 3.97395 -0.503965 1.13391 4.01852 -0.453901 1.31729 3.49821 
-0.472552 1.50303 4.1354 -0.383017 1.62473 4.14523 -0.417497 1.66592 3.61425 
-0.383017 1.62473 4.14523 -0.272712 1.70179 4.22514 -0.301733 1.81927 3.55661 
0.487509 1.45727 3.76483 0.47708 1.30168 3.67543 0.458681 1.58608 3.23068 
0.47708 1.30168 3.67543 0.422185 1.24149 3.46538 0.443771 1.44762 3.18182 
0.422185 1.24149 3.46538 0.353442 1.07581 3.60419 0.391337 1.32922 3.12985 
0.353442 1.07581 3.60419 0.24378 0.993941 3.56819 0.299871 1.22129 3.11554 
0.24378 0.993941 3.56819 0.102498 0.949382 3.53584 0.0782662 1.13285 3.04683 
0.102498 0.949382 3.53584 -0.0860385 0.920489 3.59051 0.0782662 1.13285 3.04683 
-0.0860385 0.920489 3.59051 -0.243622 0.972936 3.62111 -0.225185 1.17443 3.0918 
-0.243622 0.972936 3.62111 -0.38033 1.14065 3.52238 -0.332979 1.2605 3.0973 
-0.38033 1.14065 3.52238 -0.453901 1.31729 3.49821 -0.432701 1.41454 3.13396 
-0.453901 1.31729 3.49821 -0.485013 1.36898 3.68013 -0.432701 1.41454 3.13396 
-0.485013 1.36898 3.68013 -0.476987 1.48377 3.72613 -0.457593 1.56212 3.22069 
-0.476987 1.48377 3.72613 -0.417497 1.66592 3.61425 -0.437801 1.67831 3.25507 
-0.417497 1.66592 3.61425 -0.301733 1.81927 3.55661 -0.374568 1.81049 3.2784 
-0.301733 1.81927 3.55661 -0.165442 1.83582 3.8232 -0.156045 1.96714 3.33889 
-0.165442 1.83582 3.8232 0.0250206 1.84882 3.90853 -0.156045 1.96714 3.33889 
0.0250206 1.84882 3.90853 0.217973 1.80055 3.87526 0.0964883 1.97499 3.36887 
0.217973 1.80055 3.87526 0.31933 1.74167 3.83325 0.207917 1.93984 3.33986 
0.31933 1.74167 3.83325 0.415963 1.63672 3.78477 0.309442 1.872 3.32955 
0.415963 1.63672 3.78477 0.487509 1.45727 3.76483 0.408232 1.75709 3.27361 
0.458681 1.58608 3.23068 0.443771 1.44762 3.18182 0.44692 1.60676 2.87705 
0.441773 1.57215 2.87831 0.44692 1.60676 2.87705 0.443771 1.44762 3.18182 
0.387438 1.44045 2.82097 0.403173 1.47201 2.8173 0.391337 1.32922 3.12985 
0.299871 1.22129 3.11554 0.203563 1.16101 3.09787 0.221852 1.28819 2.76206 
0.0719892 1.23079 2.76963 0.104252 1.24561 2.74478 0.0782662 1.13285 3.04683 
-0.0811423 1.23711 2.75541 -0.0486067 1.23586 2.74365 -0.0859126 1.11767 3.09363 
-0.0859126 1.11767 3.09363 -0.225185 1.17443 3.0918 -0.206917 1.31479 2.65467 
-0.225185 1.17443 3.0918 -0.332979 1.2605 3.0973 -0.269796 1.30981 2.79823 
-0.295412 1.33299 2.79399 -0.269796 1.30981 2.79823 -0.332979 1.2605 3.0973 
-0.392055 1.44806 2.82344 -0.374915 1.42592 2.80078 -0.332979 1.2605 3.0973 
-0.432701 1.41454 3.13396 -0.457593 1.56212 3.22069 -0.448091 1.61706 2.87935 
-0.420749 1.80729 2.95021 -0.431333 1.78409 2.92082 -0.437801 1.67831 3.25507 
-0.437801 1.67831 3.25507 -0.374568 1.81049 3.2784 -0.407292 1.84384 2.94091 
-0.342795 1.93545 2.98231 -0.363218 1.91556 2.9602 -0.374568 1.81049 3.2784 
-0.301733 1.81927 3.55661 -0.156045 1.96714 3.33889 -0.213624 2.02802 3.03683 
0.00461801 2.08628 3.03081 -0.0282704 2.08911 3.01946 -0.0281912 1.9845 3.36225 
-0.0281912 1.9845 3.36225 0.0964883 1.97499 3.36887 0.0391996 2.09181 3.00858 
0.0964883 1.97499 3.36887 0.207917 1.93984 3.33986 0.186867 2.05251 3.00364 
0.207917 1.93984 3.33986 0.309442 1.872 3.32955 0.272103 2.01461 2.95598 
0.30432 1.97415 2.99228 0.272103 2.01461 2.95598 0.309442 1.872 3.32955 
0.348775 1.92932 2.97807 0.327087 1.95504 2.97902 0.309442 1.872 3.32955 
0.309442 1.872 3.32955 0.408232 1.75709 3.27361 0.369665 1.91545 2.93136 
0.423936 1.8008 2.94194 0.411846 1.83688 2.92977 0.408232 1.75709 3.27361 
0.408232 1.75709 3.27361 0.458681 1.58608 3.23068 0.434324 1.77257 2.9228 
0.45 3.70964 -3.42175 0.444512 1.72588 2.91954 0.448935 1.69464 2.88585 
0.444512 1.72588 2.91954 0.45 3.70964 -3.42175 0.443163 3.78396 -3.39761 
0.448935 1.69464 2.88585 0.450188 1.65568 2.85725 0.45 3.70964 -3.42175 
0.443163 3.78396 -3.39761 0.423936 1.8008 2.94194 0.434324 1.77257 2.9228 
0.434324 1.77257 2.9228 0.444512 1.72588 2.91954 0.443163 3.78396 -3.39761 
0.423936 1.8008 2.94194 0.443163 3.78396 -3.39761 0.422862 3.85602 -3.37419 
0.422862 3.85602 -3.37419 0.394232 1.8643 2.9627 0.411846 1.83688 2.92977 
0.394232 1.8643 2.9627 0.422862 3.85602 -3.37419 0.389711 3.92363 -3.35223 
0.411846 1.83688 2.92977 0.423936 1.8008 2.94194 0.422862 3.85602 -3.37419 
0.389711 3.92363 -3.35223 0.348775 1.92932 2.97807 0.369665 1.91545 2.93136 
0.369665 1.91545 2.93136 0.394232 1.8643 2.9627 0.389711 3.92363 -3.35223 
0.348775 1.92932 2.97807 0.389711 3.92363 -3.35223 0.34472 3.98474 -3.33237 
0.34472 3.98474 -3.33237 0.30432 1.97415 2.99228 0.327087 1.95504 2.97902 
0.30432 1.97415 2.99228 0.34472 3.98474 -3.33237 0.289254 4.03749 -3.31523 
0.289254 4.03749 -3.31523 0.228648 2.023 3.02515 0.272103 2.01461 2.95598 
0.228648 2.023 3.02515 0.289254 4.03749 -3.31523 0.225 4.08028 -3.30133 
0.225 4.08028 -3.30133 0.155624 2.06026 3.0209 0.186867 2.05251 3.00364 
0.186867 2.05251 3.00364 0.228648 2.023 3.02515 0.225 4.08028 -3.30133 
0.153909 4.11181 -3.29108 0.124493 2.07327 3.01432 0.155624 2.06026 3.0209 
0.155624 2.06026 3.0209 0.225 4.08028 -3.30133 0.153909 4.11181 -3.29108 
0.153909 4.11181 -3.29108 0.0850226 2.07203 3.04976 0.124493 2.07327 3.01432 
0.0850226 2.07203 3.04976 0.153909 4.11181 -3.29108 0.0781417 4.13111 -3.28481 
0.0781417 4.13111 -3.28481 0.00461801 2.08628 3.03081 0.0391996 2.09181 3.00858 
0.0391996 2.09181 3.00858 0.0850226 2.07203 3.04976 0.0781417 4.13111 -3.28481 
0.00461801 2.08628 3.03081 0.0781417 4.13111 -3.28481 -3.55271e-10 4.13762 -3.2827 
-3.55271e-10 4.13762 -3.2827 -0.0683429 2.07934 3.03653 -0.0282704 2.08911 3.01946 
-0.0683429 2.07934 3.03653 -3.55271e-10 4.13762 -3.2827 -0.0781417 4.13111 -3.28481 
-0.0781417 4.13111 -3.28481 -0.150125 2.05604 3.04143 -0.113422 2.07607 3.01553 
-0.113422 2.07607 3.01553 -0.0683429 2.07934 3.03653 -0.0781417 4.13111 -3.28481 
-0.150125 2.05604 3.04143 -0.0781417 4.13111 -3.28481 -0.153909 4.11181 -3.29108 
-0.153909 4.11181 -3.29108 -0.213624 2.02802 3.03683 -0.18603 2.04838 3.01704 
-0.213624 2.02802 3.03683 -0.153909 4.11181 -3.29108 -0.225 4.08028 -3.30133 
-0.18603 2.04838 3.01704 -0.150125 2.05604 3.04143 -0.153909 4.11181 -3.29108 
-0.225 4.08028 -3.30133 -0.28538 1.98542 3.01268 -0.252882 2.01573 2.99662 
-0.28538 1.98542 3.01268 -0.225 4.08028 -3.30133 -0.289254 4.03749 -3.31523 
-0.252882 2.01573 2.99662 -0.213624 2.02802 3.03683 -0.225 4.08028 -3.30133 
-0.289254 4.03749 -3.31523 -0.342795 1.93545 2.98231 -0.319585 1.96404 2.97654 
-0.319585 1.96404 2.97654 -0.28538 1.98542 3.01268 -0.289254 4.03749 -3.31523 
-0.342795 1.93545 2.98231 -0.289254 4.03749 -3.31523 -0.34472 3.98474 -3.33237 
-0.34472 3.98474 -3.33237 -0.385806 1.87926 2.96387 -0.363218 1.91556 2.9602 
-0.385806 1.87926 2.96387 -0.34472 3.98474 -3.33237 -0.389711 3.92363 -3.35223 
-0.363218 1.91556 2.9602 -0.342795 1.93545 2.98231 -0.34472 3.98474 -3.33237 
-0.389711 3.92363 -3.35223 -0.420749 1.80729 2.95021 -0.407292 1.84384 2.94091 
-0.407292 1.84384 2.94091 -0.385806 1.87926 2.96387 -0.389711 3.92363 -3.35223 
-0.420749 1.80729 2.95021 -0.389711 3.92363 -3.35223 -0.422862 3.85602 -3.37419 
-0.422862 3.85602 -3.37419 -0.4414 1.74366 2.91886 -0.431333 1.78409 2.92082 
-0.4414 1.74366 2.91886 -0.422862 3.85602 -3.37419 -0.443163 3.78396 -3.39761 
-0.443163 3.78396 -3.39761 -0.450435 1.65783 2.90576 -0.447975 1.70411 2.89321 
-0.447975 1.70411 2.89321 -0.4414 1.74366 2.91886 -0.443163 3.78396 -3.39761 
-0.450435 1.65783 2.90576 -0.443163 3.78396 -3.39761 -0.45 3.70964 -3.42175 
-0.45 3.70964 -3.42175 -0.443477 1.58609 2.86683 -0.448091 1.61706 2.87935 
-0.448091 1.61706 2.87935 -0.450435 1.65783 2.90576 -0.45 3.70964 -3.42175 
-0.443163 3.63532 -3.4459 -0.436864 1.55851 2.8477 -0.443477 1.58609 2.86683 
-0.443477 1.58609 2.86683 -0.45 3.70964 -3.42175 -0.443163 3.63532 -3.4459 
-0.443163 3.63532 -3.4459 -0.425595 1.51295 2.86149 -0.436864 1.55851 2.8477 
-0.425595 1.51295 2.86149 -0.443163 3.63532 -3.4459 -0.422862 3.56327 -3.46932 
-0.422862 3.56327 -3.46932 -0.392055 1.44806 2.82344 -0.407939 1.48065 2.82252 
-0.407939 1.48065 2.82252 -0.425595 1.51295 2.86149 -0.422862 3.56327 -3.46932 
-0.392055 1.44806 2.82344 -0.422862 3.56327 -3.46932 -0.389711 3.49565 -3.49128 
-0.389711 3.49565 -3.49128 -0.351738 1.39579 2.78927 -0.374915 1.42592 2.80078 
-0.351738 1.39579 2.78927 -0.389711 3.49565 -3.49128 -0.34472 3.43454 -3.51114 
-0.34472 3.43454 -3.51114 -0.295412 1.33299 2.79399 -0.320872 1.3633 2.77789 
-0.320872 1.3633 2.77789 -0.351738 1.39579 2.78927 -0.34472 3.43454 -3.51114 
-0.295412 1.33299 2.79399 -0.34472 3.43454 -3.51114 -0.289254 3.38179 -3.52828 
-0.289254 3.38179 -3.52828 -0.243707 1.29891 2.77352 -0.269796 1.30981 2.79823 
-0.225 3.339 -3.54218 -0.206917 1.31479 2.65467 -0.243707 1.29891 2.77352 
-0.243707 1.29891 2.77352 -0.289254 3.38179 -3.52828 -0.225 3.339 -3.54218 
-0.225 3.339 -3.54218 -0.159167 1.25598 2.76618 -0.206917 1.31479 2.65467 
-0.159167 1.25598 2.76618 -0.225 3.339 -3.54218 -0.153909 3.30748 -3.55243 
-0.153909 3.30748 -3.55243 -0.0811423 1.23711 2.75541 -0.114739 1.24803 2.74573 
-0.114739 1.24803 2.74573 -0.159167 1.25598 2.76618 -0.153909 3.30748 -3.55243 
-0.0811423 1.23711 2.75541 -0.153909 3.30748 -3.55243 -0.0781417 3.28817 -3.5587 
-0.0781417 3.28817 -3.5587 -0.00844419 1.22733 2.76062 -0.0486067 1.23586 2.74365 
-0.00844419 1.22733 2.76062 -0.0781417 3.28817 -3.5587 -3.55271e-10 3.28167 -3.56081 
-0.0486067 1.23586 2.74365 -0.0811423 1.23711 2.75541 -0.0781417 3.28817 -3.5587 
-3.55271e-10 3.28167 -3.56081 0.0719892 1.23079 2.76963 0.0376113 1.23892 2.73075 
0.0376113 1.23892 2.73075 -0.00844419 1.22733 2.76062 -3.55271e-10 3.28167 -3.56081 
0.0719892 1.23079 2.76963 -3.55271e-10 3.28167 -3.56081 0.0781417 3.28817 -3.5587 
0.0781417 3.28817 -3.5587 0.143095 1.25004 2.76612 0.104252 1.24561 2.74478 
0.143095 1.25004 2.76612 0.0781417 3.28817 -3.5587 0.153909 3.30748 -3.55243 
0.153909 3.30748 -3.55243 0.221852 1.28819 2.76206 0.185843 1.272 2.75382 
0.185843 1.272 2.75382 0.143095 1.25004 2.76612 0.153909 3.30748 -3.55243 
0.221852 1.28819 2.76206 0.153909 3.30748 -3.55243 0.225 3.339 -3.54218 
0.225 3.339 -3.54218 0.287853 1.32973 2.78354 0.261238 1.31385 2.76542 
0.261238 1.31385 2.76542 0.221852 1.28819 2.76206 0.225 3.339 -3.54218 
0.289254 3.38179 -3.52828 0.312379 1.35316 2.78197 0.287853 1.32973 2.78354 
0.287853 1.32973 2.78354 0.225 3.339 -3.54218 0.289254 3.38179 -3.52828 
0.289254 3.38179 -3.52828 0.340562 1.36853 2.8294 0.312379 1.35316 2.78197 
0.340562 1.36853 2.8294 0.289254 3.38179 -3.52828 0.34472 3.43454 -3.51114 
0.34472 3.43454 -3.51114 0.387438 1.44045 2.82097 0.36878 1.41637 2.80089 
0.36878 1.41637 2.80089 0.340562 1.36853 2.8294 0.34472 3.43454 -3.51114 
0.387438 1.44045 2.82097 0.34472 3.43454 -3.51114 0.389711 3.49565 -3.49128 
0.389711 3.49565 -3.49128 0.419453 1.49907 2.8509 0.403173 1.47201 2.8173 
0.419453 1.49907 2.8509 0.389711 3.49565 -3.49128 0.422862 3.56327 -3.46932 
0.422862 3.56327 -3.46932 0.441773 1.57215 2.87831 0.433861 1.54807 2.84259 
0.433861 1.54807 2.84259 0.419453 1.49907 2.8509 0.422862 3.56327 -3.46932 
0.441773 1.57215 2.87831 0.422862 3.56327 -3.46932 0.443163 3.63532 -3.4459 
0.443163 3.63532 -3.4459 0.450188 1.65568 2.85725 0.44692 1.60676 2.87705 
0.450188 1.65568 2.85725 0.443163 3.63532 -3.4459 0.45 3.70964 -3.42175 
0.44692 1.60676 2.87705 0.441773 1.57215 2.87831 0.443163 3.63532 -3.4459 
0.403173 1.47201 2.8173 0.387438 1.44045 2.82097 0.389711 3.49565 -3.49128 
0.104252 1.24561 2.74478 0.0719892 1.23079 2.76963 0.0781417 3.28817 -3.5587 
-0.269796 1.30981 2.79823 -0.295412 1.33299 2.79399 -0.289254 3.38179 -3.52828 
-0.374915 1.42592 2.80078 -0.392055 1.44806 2.82344 -0.389711 3.49565 -3.49128 
-0.431333 1.78409 2.92082 -0.420749 1.80729 2.95021 -0.422862 3.85602 -3.37419 
-0.0282704 2.08911 3.01946 0.00461801 2.08628 3.03081 -3.55271e-10 4.13762 -3.2827 
0.272103 2.01461 2.95598 0.30432 1.97415 2.99228 0.289254 4.03749 -3.31523 
0.327087 1.95504 2.97902 0.348775 1.92932 2.97807 0.34472 3.98474 -3.33237 
-0.225 4.08028 -3.30133 0.443163 3.63532 -3.4459 0.422862 3.56327 -3.46932 
0.422862 3.56327 -3.46932 0.389711 3.49565 -3.49128 -0.225 4.08028 -3.30133 
0.389711 3.49565 -3.49128 0.34472 3.43454 -3.51114 -0.225 4.08028 -3.30133 
0.34472 3.43454 -3.51114 0.289254 3.38179 -3.52828 -0.225 4.08028 -3.30133 
0.289254 3.38179 -3.52828 0.225 3.339 -3.54218 -0.225 4.08028 -3.30133 
0.225 3.339 -3.54218 0.153909 3.30748 -3.55243 -0.225 4.08028 -3.30133 
0.153909 3.30748 -3.55243 0.0781417 3.28817 -3.5587 -0.225 4.08028 -3.30133 
0.0781417 3.28817 -3.5587 -3.55271e-10 3.28167 -3.56081 -0.225 4.08028 -3.30133 
-3.55271e-10 3.28167 -3.56081 -0.0781417 3.28817 -3.5587 -0.225 4.08028 -3.30133 
-0.0781417 3.28817 -3.5587 -0.153909 3.30748 -3.55243 -0.225 4.08028 -3.30133 
-0.153909 3.30748 -3.55243 -0.225 3.339 -3.54218 -0.225 4.08028 -3.30133 
-0.225 3.339 -3.54218 -0.289254 3.38179 -3.52828 -0.225 4.08028 -3.30133 
-0.289254 3.38179 -3.52828 -0.34472 3.43454 -3.51114 -0.225 4.08028 -3.30133 
-0.34472 3.43454 -3.51114 -0.389711 3.49565 -3.49128 -0.225 4.08028 -3.30133 
-0.389711 3.49565 -3.49128 -0.422862 3.56327 -3.46932 -0.225 4.08028 -3.30133 
-0.422862 3.56327 -3.46932 -0.443163 3.63532 -3.4459 -0.225 4.08028 -3.30133 
-0.443163 3.63532 -3.4459 -0.45 3.70964 -3.42175 -0.225 4.08028 -3.30133 
-0.45 3.70964 -3.42175 -0.443163 3.78396 -3.39761 -0.225 4.08028 -3.30133 
-0.443163 3.78396 -3.39761 -0.422862 3.85602 -3.37419 -0.225 4.08028 -3.30133 
-0.422862 3.85602 -3.37419 -0.389711 3.92363 -3.35223 -0.225 4.08028 -3.30133 
-0.389711 3.92363 -3.35223 -0.34472 3.98474 -3.33237 -0.225 4.08028 -3.30133 
-0.34472 3.98474 -3.33237 -0.289254 4.03749 -3.31523 -0.225 4.08028 -3.30133 
-0.153909 4.11181 -3.29108 -0.0781417 4.13111 -3.28481 -0.225 4.08028 -3.30133 
-0.0781417 4.13111 -3.28481 -3.55271e-10 4.13762 -3.2827 -0.225 4.08028 -3.30133 
-3.55271e-10 4.13762 -3.2827 0.0781417 4.13111 -3.28481 -0.225 4.08028 -3.30133 
0.0781417 4.13111 -3.28481 0.153909 4.11181 -3.29108 -0.225 4.08028 -3.30133 
0.153909 4.11181 -3.29108 0.225 4.08028 -3.30133 -0.225 4.08028 -3.30133 
0.225 4.08028 -3.30133 0.289254 4.03749 -3.31523 -0.225 4.08028 -3.30133 
0.289254 4.03749 -3.31523 0.34472 3.98474 -3.33237 -0.225 4.08028 -3.30133 
0.34472 3.98474 -3.33237 0.389711 3.92363 -3.35223 -0.225 4.08028 -3.30133 
0.389711 3.92363 -3.35223 0.422862 3.85602 -3.37419 -0.225 4.08028 -3.30133 
0.422862 3.85602 -3.37419 0.443163 3.78396 -3.39761 -0.225 4.08028 -3.30133 
0.443163 3.78396 -3.39761 0.45 3.70964 -3.42175 -0.225 4.08028 -3.30133 
0.45 3.70964 -3.42175 0.443163 3.63532 -3.4459 -0.225 4.08028 -3.30133 
-0.301 3.40062 -2.4707 0.296427 3.45033 -2.45455 0.282847 3.49853 -2.43889 
0.282847 3.49853 -2.43889 0.260674 3.54376 -2.42419 -0.301 3.40062 -2.4707 
0.260674 3.54376 -2.42419 0.230579 3.58463 -2.41091 -0.301 3.40062 -2.4707 
0.230579 3.58463 -2.41091 0.193479 3.61992 -2.39945 -0.301 3.40062 -2.4707 
0.193479 3.61992 -2.39945 0.1505 3.64854 -2.39015 -0.301 3.40062 -2.4707 
0.1505 3.64854 -2.39015 0.102948 3.66963 -2.38329 -0.301 3.40062 -2.4707 
0.102948 3.66963 -2.38329 0.0522681 3.68254 -2.3791 -0.301 3.40062 -2.4707 
0.0522681 3.68254 -2.3791 -3.55271e-10 3.68689 -2.37768 -0.301 3.40062 -2.4707 
-3.55271e-10 3.68689 -2.37768 -0.0522681 3.68254 -2.3791 -0.301 3.40062 -2.4707 
-0.0522681 3.68254 -2.3791 -0.102948 3.66963 -2.38329 -0.301 3.40062 -2.4707 
-0.102948 3.66963 -2.38329 -0.1505 3.64854 -2.39015 -0.301 3.40062 -2.4707 
-0.1505 3.64854 -2.39015 -0.193479 3.61992 -2.39945 -0.301 3.40062 -2.4707 
-0.193479 3.61992 -2.39945 -0.230579 3.58463 -2.41091 -0.301 3.40062 -2.4707 
-0.230579 3.58463 -2.41091 -0.260674 3.54376 -2.42419 -0.301 3.40062 -2.4707 
-0.260674 3.54376 -2.42419 -0.282847 3.49853 -2.43889 -0.301 3.40062 -2.4707 
-0.282847 3.49853 -2.43889 -0.296427 3.45033 -2.45455 -0.301 3.40062 -2.4707 
-0.296427 3.35091 -2.48685 -0.282847 3.30272 -2.50251 -0.301 3.40062 -2.4707 
-0.282847 3.30272 -2.50251 -0.260674 3.25749 -2.51721 -0.301 3.40062 -2.4707 
-0.260674 3.25749 -2.51721 -0.230579 3.21661 -2.53049 -0.301 3.40062 -2.4707 
-0.230579 3.21661 -2.53049 -0.193479 3.18133 -2.54195 -0.301 3.40062 -2.4707 
-0.193479 3.18133 -2.54195 -0.1505 3.15271 -2.55125 -0.301 3.40062 -2.4707 
-0.1505 3.15271 -2.55125 -0.102948 3.13162 -2.5581 -0.301 3.40062 -2.4707 
-0.102948 3.13162 -2.5581 -0.0522681 3.11871 -2.5623 -0.301 3.40062 -2.4707 
-0.0522681 3.11871 -2.5623 -3.55271e-10 3.11436 -2.56371 -0.301 3.40062 -2.4707 
-3.55271e-10 3.11436 -2.56371 0.0522681 3.11871 -2.5623 -0.301 3.40062 -2.4707 
0.0522681 3.11871 -2.5623 0.102948 3.13162 -2.5581 -0.301 3.40062 -2.4707 
0.102948 3.13162 -2.5581 0.1505 3.15271 -2.55125 -0.301 3.40062 -2.4707 
0.1505 3.15271 -2.55125 0.193479 3.18133 -2.54195 -0.301 3.40062 -2.4707 
0.193479 3.18133 -2.54195 0.230579 3.21661 -2.53049 -0.301 3.40062 -2.4707 
0.230579 3.21661 -2.53049 0.260674 3.25749 -2.51721 -0.301 3.40062 -2.4707 
0.260674 3.25749 -2.51721 0.282847 3.30272 -2.50251 -0.301 3.40062 -2.4707 
0.282847 3.30272 -2.50251 0.296427 3.35091 -2.48685 -0.301 3.40062 -2.4707 
0.296427 3.35091 -2.48685 0.301 3.40062 -2.4707 -0.301 3.40062 -2.4707 
0.301 3.40062 -2.4707 0.296427 3.45033 -2.45455 -0.301 3.40062 -2.4707 
-0.296427 3.35091 -2.48685 -0.300117 0.261104 7.11719 -0.295717 0.238336 7.07263 
-0.301 3.40062 -2.4707 -0.301002 0.304684 7.09556 -0.300117 0.261104 7.11719 
-0.300117 0.261104 7.11719 -0.296427 3.35091 -2.48685 -0.301 3.40062 -2.4707 
-0.282847 3.30272 -2.50251 -0.295717 0.238336 7.07263 -0.286972 0.196644 7.09625 
-0.295717 0.238336 7.07263 -0.282847 3.30272 -2.50251 -0.296427 3.35091 -2.48685 
-0.286972 0.196644 7.09625 -0.280176 0.177163 7.09297 -0.282847 3.30272 -2.50251 
-0.260674 3.25749 -2.51721 -0.280176 0.177163 7.09297 -0.269746 0.155994 7.08304 
-0.280176 0.177163 7.09297 -0.260674 3.25749 -2.51721 -0.282847 3.30272 -2.50251 
-0.269746 0.155994 7.08304 -0.259365 0.136675 7.0799 -0.260674 3.25749 -2.51721 
-0.230579 3.21661 -2.53049 -0.246197 0.118322 7.0708 -0.231483 0.0999498 7.06488 
-0.230579 3.21661 -2.53049 -0.259365 0.136675 7.0799 -0.246197 0.118322 7.0708 
-0.259365 0.136675 7.0799 -0.230579 3.21661 -2.53049 -0.260674 3.25749 -2.51721 
-0.193479 3.18133 -2.54195 -0.216877 0.0845097 7.05981 -0.190527 0.0706512 7.02183 
-0.230579 3.21661 -2.53049 -0.231483 0.0999498 7.06488 -0.216877 0.0845097 7.05981 
-0.216877 0.0845097 7.05981 -0.193479 3.18133 -2.54195 -0.230579 3.21661 -2.53049 
-0.1505 3.15271 -2.55125 -0.190527 0.0706512 7.02183 -0.163614 0.0427338 7.04624 
-0.190527 0.0706512 7.02183 -0.1505 3.15271 -2.55125 -0.193479 3.18133 -2.54195 
-0.163614 0.0427338 7.04624 -0.145683 0.0318551 7.04447 -0.1505 3.15271 -2.55125 
-0.102948 3.13162 -2.5581 -0.145683 0.0318551 7.04447 -0.12313 0.0217967 7.03943 
-0.145683 0.0318551 7.04447 -0.102948 3.13162 -2.5581 -0.1505 3.15271 -2.55125 
-0.12313 0.0217967 7.03943 -0.102095 0.0132257 7.03823 -0.102948 3.13162 -2.5581 
-0.0522681 3.11871 -2.5623 -0.0797594 0.00698238 7.03462 -0.0449797 0.00329274 7.02073 
-0.0522681 3.11871 -2.5623 -0.102095 0.0132257 7.03823 -0.0797594 0.00698238 7.03462 
-0.102095 0.0132257 7.03823 -0.0522681 3.11871 -2.5623 -0.102948 3.13162 -2.5581 
-3.55271e-10 3.11436 -2.56371 -0.0449797 0.00329274 7.02073 -0.00845798 -0.00227879 7.02835 
-0.0449797 0.00329274 7.02073 -3.55271e-10 3.11436 -2.56371 -0.0522681 3.11871 -2.5623 
0.0522681 3.11871 -2.5623 0.0115291 -0.00304066 7.03136 0.0345197 -0.00136195 7.03191 
-3.55271e-10 3.11436 -2.56371 -0.00845798 -0.00227879 7.02835 0.0115291 -0.00304066 7.03136 
0.0115291 -0.00304066 7.03136 0.0522681 3.11871 -2.5623 -3.55271e-10 3.11436 -2.56371 
0.0345197 -0.00136195 7.03191 0.0558809 -0.00124469 7.04172 0.0522681 3.11871 -2.5623 
0.102948 3.13162 -2.5581 0.0558809 -0.00124469 7.04172 0.0906628 0.00310584 7.05625 
0.0558809 -0.00124469 7.04172 0.102948 3.13162 -2.5581 0.0522681 3.11871 -2.5623 
0.1505 3.15271 -2.55125 0.12313 0.0217967 7.03943 0.155215 0.0425986 7.02793 
0.102948 3.13162 -2.5581 0.0906628 0.00310584 7.05625 0.12313 0.0217967 7.03943 
0.12313 0.0217967 7.03943 0.1505 3.15271 -2.55125 0.102948 3.13162 -2.5581 
0.193479 3.18133 -2.54195 0.155215 0.0425986 7.02793 0.182474 0.0553504 7.05034 
0.155215 0.0425986 7.02793 0.193479 3.18133 -2.54195 0.1505 3.15271 -2.55125 
0.182474 0.0553504 7.05034 0.198638 0.067943 7.05384 0.193479 3.18133 -2.54195 
0.230579 3.21661 -2.53049 0.198638 0.067943 7.05384 0.216877 0.0845097 7.05981 
0.198638 0.067943 7.05384 0.230579 3.21661 -2.53049 0.193479 3.18133 -2.54195 
0.216877 0.0845097 7.05981 0.231792 0.0995348 7.06732 0.230579 3.21661 -2.53049 
0.260674 3.25749 -2.51721 0.246197 0.118322 7.0708 0.265218 0.158619 7.04392 
0.260674 3.25749 -2.51721 0.231792 0.0995348 7.06732 0.246197 0.118322 7.0708 
0.231792 0.0995348 7.06732 0.260674 3.25749 -2.51721 0.230579 3.21661 -2.53049 
0.282847 3.30272 -2.50251 0.265218 0.158619 7.04392 0.280474 0.179641 7.0879 
0.265218 0.158619 7.04392 0.282847 3.30272 -2.50251 0.260674 3.25749 -2.51721 
0.296427 3.35091 -2.48685 0.286972 0.196644 7.09625 0.293082 0.21779 7.10312 
0.282847 3.30272 -2.50251 0.280474 0.179641 7.0879 0.286972 0.196644 7.09625 
0.286972 0.196644 7.09625 0.296427 3.35091 -2.48685 0.282847 3.30272 -2.50251 
0.293082 0.21779 7.10312 0.297307 0.236274 7.11365 0.296427 3.35091 -2.48685 
0.301 3.40062 -2.4707 0.297307 0.236274 7.11365 0.301002 0.282385 7.08832 
0.297307 0.236274 7.11365 0.301 3.40062 -2.4707 0.296427 3.35091 -2.48685 
0.296427 3.45033 -2.45455 0.300117 0.304931 7.13143 0.295717 0.34954 7.10877 
0.301 3.40062 -2.4707 0.301002 0.282385 7.08832 0.300117 0.304931 7.13143 
0.300117 0.304931 7.13143 0.296427 3.45033 -2.45455 0.301 3.40062 -2.4707 
0.282847 3.49853 -2.43889 0.295717 0.34954 7.10877 0.286972 0.36939 7.15237 
0.295717 0.34954 7.10877 0.282847 3.49853 -2.43889 0.296427 3.45033 -2.45455 
0.286972 0.36939 7.15237 0.280176 0.387078 7.16117 0.282847 3.49853 -2.43889 
0.260674 3.54376 -2.42419 0.280176 0.387078 7.16117 0.269746 0.41004 7.16558 
0.280176 0.387078 7.16117 0.260674 3.54376 -2.42419 0.282847 3.49853 -2.43889 
0.269746 0.41004 7.16558 0.259365 0.427513 7.1744 0.260674 3.54376 -2.42419 
0.230579 3.58463 -2.41091 0.246197 0.447713 7.17782 0.231483 0.466054 7.18384 
0.230579 3.58463 -2.41091 0.259365 0.427513 7.1744 0.246197 0.447713 7.17782 
0.259365 0.427513 7.1744 0.230579 3.58463 -2.41091 0.260674 3.54376 -2.42419 
0.193479 3.61992 -2.39945 0.216877 0.481525 7.18881 0.190527 0.515061 7.16623 
0.230579 3.58463 -2.41091 0.231483 0.466054 7.18384 0.216877 0.481525 7.18881 
0.216877 0.481525 7.18881 0.193479 3.61992 -2.39945 0.230579 3.58463 -2.41091 
0.1505 3.64854 -2.39015 0.190527 0.515061 7.16623 0.163614 0.523301 7.20238 
0.190527 0.515061 7.16623 0.1505 3.64854 -2.39015 0.193479 3.61992 -2.39945 
0.163614 0.523301 7.20238 0.145683 0.533142 7.20735 0.1505 3.64854 -2.39015 
0.102948 3.66963 -2.38329 0.145683 0.533142 7.20735 0.12313 0.544238 7.20919 
0.145683 0.533142 7.20735 0.102948 3.66963 -2.38329 0.1505 3.64854 -2.39015 
0.12313 0.544238 7.20919 0.102095 0.551879 7.21325 0.102948 3.66963 -2.38329 
0.0522681 3.68254 -2.3791 0.0797594 0.559052 7.214 0.0449797 0.570203 7.20493 
0.0522681 3.68254 -2.3791 0.102095 0.551879 7.21325 0.0797594 0.559052 7.214 
0.102095 0.551879 7.21325 0.0522681 3.68254 -2.3791 0.102948 3.66963 -2.38329 
-3.55271e-10 3.68689 -2.37768 0.0449797 0.570203 7.20493 0.00845798 0.570229 7.21437 
0.0449797 0.570203 7.20493 -3.55271e-10 3.68689 -2.37768 0.0522681 3.68254 -2.3791 
-0.0522681 3.68254 -2.3791 -0.0115291 0.569075 7.21726 -0.0345197 0.567397 7.21671 
-3.55271e-10 3.68689 -2.37768 0.00845798 0.570229 7.21437 -0.0115291 0.569075 7.21726 
-0.0115291 0.569075 7.21726 -0.0522681 3.68254 -2.3791 -3.55271e-10 3.68689 -2.37768 
-0.0345197 0.567397 7.21671 -0.0558809 0.561534 7.22458 -0.0522681 3.68254 -2.3791 
-0.102948 3.66963 -2.38329 -0.0558809 0.561534 7.22458 -0.0906628 0.549478 7.23377 
-0.0558809 0.561534 7.22458 -0.102948 3.66963 -2.38329 -0.0522681 3.68254 -2.3791 
-0.1505 3.64854 -2.39015 -0.12313 0.544238 7.20919 -0.155215 0.534169 7.18765 
-0.102948 3.66963 -2.38329 -0.0906628 0.549478 7.23377 -0.12313 0.544238 7.20919 
-0.12313 0.544238 7.20919 -0.1505 3.64854 -2.39015 -0.102948 3.66963 -2.38329 
-0.193479 3.61992 -2.39945 -0.155215 0.534169 7.18765 -0.182474 0.510684 7.19828 
-0.155215 0.534169 7.18765 -0.193479 3.61992 -2.39945 -0.1505 3.64854 -2.39015 
-0.182474 0.510684 7.19828 -0.198638 0.498438 7.19372 -0.193479 3.61992 -2.39945 
-0.230579 3.58463 -2.41091 -0.198638 0.498438 7.19372 -0.216877 0.481525 7.18881 
-0.198638 0.498438 7.19372 -0.230579 3.58463 -2.41091 -0.193479 3.61992 -2.39945 
-0.216877 0.481525 7.18881 -0.231792 0.464953 7.18606 -0.230579 3.58463 -2.41091 
-0.260674 3.54376 -2.42419 -0.246197 0.447713 7.17782 -0.265218 0.43091 7.13239 
-0.260674 3.54376 -2.42419 -0.231792 0.464953 7.18606 -0.246197 0.447713 7.17782 
-0.231792 0.464953 7.18606 -0.260674 3.54376 -2.42419 -0.230579 3.58463 -2.41091 
-0.282847 3.49853 -2.43889 -0.265218 0.43091 7.13239 -0.280474 0.388052 7.15562 
-0.265218 0.43091 7.13239 -0.282847 3.49853 -2.43889 -0.260674 3.54376 -2.42419 
-0.296427 3.45033 -2.45455 -0.286972 0.36939 7.15237 -0.293082 0.348244 7.1455 
-0.282847 3.49853 -2.43889 -0.280474 0.388052 7.15562 -0.286972 0.36939 7.15237 
-0.286972 0.36939 7.15237 -0.296427 3.45033 -2.45455 -0.282847 3.49853 -2.43889 
-0.293082 0.348244 7.1455 -0.297307 0.327099 7.14316 -0.296427 3.45033 -2.45455 
-0.301 3.40062 -2.4707 -0.297307 0.327099 7.14316 -0.301002 0.304684 7.09556 
-0.297307 0.327099 7.14316 -0.301 3.40062 -2.4707 -0.296427 3.45033 -2.45455 
2.02725 -0.41345 9.75666 1.76869 -0.330914 9.64383 1.77667 -0.585109 9.56181 
1.77667 -0.585109 9.56181 2.03315 -0.557176 9.71016 2.02725 -0.41345 9.75666 
1.76869 -0.330914 9.64383 2.02725 -0.41345 9.75666 2.0097 -0.271887 9.80215 
1.76869 -0.330914 9.64383 2.0097 -0.271887 9.80215 1.98348 -0.129062 9.84948 
1.98348 -0.129062 9.84948 1.70876 0.00313807 9.76135 1.76869 -0.330914 9.64383 
1.70876 0.00313807 9.76135 1.98348 -0.129062 9.84948 1.94186 0.00926387 9.893 
1.70876 0.00313807 9.76135 1.94186 0.00926387 9.893 1.89173 0.140429 9.93444 
1.70876 0.00313807 9.76135 1.89173 0.140429 9.93444 1.82544 0.276419 9.97641 
1.82544 0.276419 9.97641 1.4756 0.441681 9.9 1.70876 0.00313807 9.76135 
1.4756 0.441681 9.9 1.82544 0.276419 9.97641 1.75207 0.395324 10.0116 
1.4756 0.441681 9.9 1.75207 0.395324 10.0116 1.68829 0.519206 10.0593 
1.27359 0.757433 10.0416 1.4756 0.441681 9.9 1.53859 0.646431 10.0787 
1.4756 0.441681 9.9 1.68829 0.519206 10.0593 1.53859 0.646431 10.0787 
0.920206 1.01083 10.1274 1.27359 0.757433 10.0416 1.21236 0.989411 10.2098 
0.825732 1.21 10.2843 0.685361 1.26221 10.3007 0.563004 1.16118 10.1777 
0.563004 1.16118 10.1777 0.685361 1.26221 10.3007 0.541382 1.30653 10.3156 
0.563004 1.16118 10.1777 0.541382 1.30653 10.3156 0.394957 1.33896 10.3258 
0.394957 1.33896 10.3258 0.227119 1.27649 10.2528 0.563004 1.16118 10.1777 
0.227119 1.27649 10.2528 0.0953936 1.37536 10.3385 -0.0535274 1.37321 10.3356 
-0.0535274 1.37321 10.3356 -0.0999485 1.18156 10.1414 0.227119 1.27649 10.2528 
-0.0999485 1.18156 10.1414 -0.0535274 1.37321 10.3356 -0.209479 1.36206 10.3309 
-0.0999485 1.18156 10.1414 -0.209479 1.36206 10.3309 -0.351242 1.34052 10.3225 
-0.351242 1.34052 10.3225 -0.429014 1.14059 10.1347 -0.0999485 1.18156 10.1414 
-0.429014 1.14059 10.1347 -0.351242 1.34052 10.3225 -0.496443 1.30952 10.3114 
-0.429014 1.14059 10.1347 -0.496443 1.30952 10.3114 -0.654576 1.26672 10.2987 
-0.654576 1.26672 10.2987 -0.667326 1.04304 10.0841 -0.429014 1.14059 10.1347 
-0.667326 1.04304 10.0841 -0.654576 1.26672 10.2987 -0.834181 1.19128 10.2697 
-0.978754 0.901825 10.049 -0.667326 1.04304 10.0841 -0.99791 1.11912 10.2503 
-1.24302 0.691463 9.97579 -0.978754 0.901825 10.049 -1.24612 0.968976 10.205 
-1.56928 0.670011 10.108 -1.66233 0.555915 10.0717 -1.45401 0.495174 9.92876 
-1.45401 0.495174 9.92876 -1.24302 0.691463 9.97579 -1.56928 0.670011 10.108 
-1.74411 0.435678 10.0324 -1.68819 0.231148 9.87668 -1.45401 0.495174 9.92876 
-1.45401 0.495174 9.92876 -1.66233 0.555915 10.0717 -1.74411 0.435678 10.0324 
-1.68819 0.231148 9.87668 -1.74411 0.435678 10.0324 -1.81719 0.308789 9.99107 
-1.68819 0.231148 9.87668 -1.81719 0.308789 9.99107 -1.88091 0.179652 9.94996 
-1.68819 0.231148 9.87668 -1.88091 0.179652 9.94996 -1.92964 0.0451033 9.90449 
-1.92964 0.0451033 9.90449 -1.82182 -0.157741 9.74867 -1.68819 0.231148 9.87668 
-1.82182 -0.157741 9.74867 -1.92964 0.0451033 9.90449 -1.96644 -0.0919232 9.85769 
-1.82182 -0.157741 9.74867 -1.96644 -0.0919232 9.85769 -1.97367 -0.261476 9.788 
-1.97367 -0.261476 9.788 -1.77358 -0.585402 9.55447 -1.82182 -0.157741 9.74867 
-1.84836 -0.990682 9.50788 -1.77358 -0.585402 9.55447 -2.00026 -0.888643 9.60096 
-1.69691 -1.26443 9.38942 -1.84836 -0.990682 9.50788 -1.92961 -1.15866 9.51335 
-1.57074 -1.78434 9.31122 -1.37877 -1.7993 9.24699 -1.56332 -1.58777 9.31618 
-1.37877 -1.7993 9.24699 -1.36358 -1.99272 9.24403 -1.24612 -2.08274 9.21346 
-1.24612 -2.08274 9.21346 -1.06601 -1.99172 9.15587 -1.37877 -1.7993 9.24699 
-1.06601 -1.99172 9.15587 -1.24612 -2.08274 9.21346 -1.12456 -2.16468 9.18639 
-1.06601 -1.99172 9.15587 -1.12456 -2.16468 9.18639 -0.997976 -2.23087 9.16182 
-0.997976 -2.23087 9.16182 -0.795108 -2.19048 9.11853 -1.06601 -1.99172 9.15587 
-0.318243 -2.32582 9.07285 -0.609714 -2.27838 9.09774 -0.498536 -2.43057 9.10068 
-0.000761073 -2.30672 9.05176 -0.318243 -2.32582 9.07285 -0.209214 -2.47211 9.08396 
0.238081 -2.33709 9.06919 -0.000761073 -2.30672 9.05176 0.095385 -2.48999 9.08259 
0.562757 -2.21786 9.07802 0.238081 -2.33709 9.06919 0.394992 -2.45304 9.09367 
0.541312 -2.42086 9.10451 0.68538 -2.37729 9.1186 0.562757 -2.21786 9.07802 
0.825782 -2.32369 9.13593 0.917228 -1.97121 9.11196 0.562757 -2.21786 9.07802 
0.562757 -2.21786 9.07802 0.68538 -2.37729 9.1186 0.825782 -2.32369 9.13593 
0.917228 -1.97121 9.11196 0.825782 -2.32369 9.13593 0.959022 -2.26008 9.15589 
0.917228 -1.97121 9.11196 0.959022 -2.26008 9.15589 1.09237 -2.19025 9.18024 
0.917228 -1.97121 9.11196 1.09237 -2.19025 9.18024 1.21229 -2.10201 9.20529 
1.21229 -2.10201 9.20529 1.20406 -1.76711 9.18071 0.917228 -1.97121 9.11196 
1.20406 -1.76711 9.18071 1.21229 -2.10201 9.20529 1.32557 -2.0152 9.23339 
1.20406 -1.76711 9.18071 1.32557 -2.0152 9.23339 1.44419 -1.91684 9.26765 
1.44419 -1.91684 9.26765 1.43103 -1.51724 9.25798 1.20406 -1.76711 9.18071 
1.43103 -1.51724 9.25798 1.44419 -1.91684 9.26765 1.57828 -1.76861 9.31468 
1.64073 -1.15015 9.37206 1.43103 -1.51724 9.25798 1.75737 -1.50871 9.39593 
1.88857 -0.937769 9.53749 1.64073 -1.15015 9.37206 1.93999 -1.12128 9.52459 
1.77667 -0.585109 9.56181 1.88857 -0.937769 9.53749 2.00971 -0.842071 9.61689 
2.02728 -0.700831 9.6633 2.03315 -0.557176 9.71016 1.77667 -0.585109 9.56181 
1.34656 0.167591 9.60994 1.70876 0.00313807 9.76135 1.4756 0.441681 9.9 
1.06301 0.681869 9.86722 1.27359 0.757433 10.0416 0.920206 1.01083 10.1274 
0.747948 0.866879 9.91531 0.920206 1.01083 10.1274 0.563004 1.16118 10.1777 
0.328316 1.03731 9.98916 0.563004 1.16118 10.1777 0.227119 1.27649 10.2528 
-1.46823 0.166211 9.69448 -1.68819 0.231148 9.87668 -1.82182 -0.157741 9.74867 
-1.58467 -0.190424 9.58097 -1.82182 -0.157741 9.74867 -1.77358 -0.585402 9.55447 
-1.55994 -0.886876 9.35483 -1.84836 -0.990682 9.50788 -1.69691 -1.26443 9.38942 
-1.46091 -1.16775 9.26899 -1.69691 -1.26443 9.38942 -1.56332 -1.58777 9.31618 
-1.28718 -1.41794 9.18392 -1.56332 -1.58777 9.31618 -1.37877 -1.7993 9.24699 
-1.06242 -1.64677 9.10859 -1.37877 -1.7993 9.24699 -1.06601 -1.99172 9.15587 
-0.755903 -1.83548 9.04302 -1.06601 -1.99172 9.15587 -0.795108 -2.19048 9.11853 
-0.755903 -1.83548 9.04302 -0.795108 -2.19048 9.11853 -0.609714 -2.27838 9.09774 
-0.489035 -1.93867 9.00819 -0.609714 -2.27838 9.09774 -0.318243 -2.32582 9.07285 
-0.118773 -2.0205 8.98618 -0.318243 -2.32582 9.07285 -0.000761073 -2.30672 9.05176 
-0.118773 -2.0205 8.98618 -0.000761073 -2.30672 9.05176 0.238081 -2.33709 9.06919 
0.298817 -1.99846 8.99515 0.238081 -2.33709 9.06919 0.562757 -2.21786 9.07802 
0.617445 -1.93399 9.03154 0.562757 -2.21786 9.07802 0.917228 -1.97121 9.11196 
1.58345 -0.778352 9.38928 1.88857 -0.937769 9.53749 1.77667 -0.585109 9.56181 
1.45933 -0.403248 9.39027 1.77667 -0.585109 9.56181 1.76869 -0.330914 9.64383 
1.45933 -0.403248 9.39027 1.76869 -0.330914 9.64383 1.70876 0.00313807 9.76135 
1.42014 -0.0814128 9.508 1.70876 0.00313807 9.76135 1.34656 0.167591 9.60994 
1.11541 0.442394 9.66146 1.4756 0.441681 9.9 1.06301 0.681869 9.86722 
-0.0510425 0.937543 9.82635 -0.0999485 1.18156 10.1414 -0.429014 1.14059 10.1347 
-0.47629 0.870607 9.80891 -0.429014 1.14059 10.1347 -0.667326 1.04304 10.0841 
-0.47629 0.870607 9.80891 -0.667326 1.04304 10.0841 -0.978754 0.901825 10.049 
-0.855728 0.685819 9.75125 -0.978754 0.901825 10.049 -1.24302 0.691463 9.97579 
-1.13746 0.435392 9.67477 -1.24302 0.691463 9.97579 -1.45401 0.495174 9.92876 
-1.13746 0.435392 9.67477 -1.45401 0.495174 9.92876 -1.46823 0.166211 9.69448 
-1.46371 -0.518592 9.35668 -1.77358 -0.585402 9.55447 -1.55994 -0.886876 9.35483 
0.83337 -1.59057 9.00379 0.917228 -1.97121 9.11196 1.20406 -1.76711 9.18071 
1.1278 -1.33472 9.09233 1.20406 -1.76711 9.18071 1.43103 -1.51724 9.25798 
1.33857 -1.01302 9.19328 1.43103 -1.51724 9.25798 1.64073 -1.15015 9.37206 
1.33857 -1.01302 9.19328 1.64073 -1.15015 9.37206 1.58345 -0.778352 9.38928 
0.782863 0.615518 9.61951 1.06301 0.681869 9.86722 0.747948 0.866879 9.91531 
0.548432 0.73525 9.64739 0.747948 0.866879 9.91531 0.328316 1.03731 9.98916 
0.267858 0.874288 9.7514 0.328316 1.03731 9.98916 -0.0510425 0.937543 9.82635 
-1.13525 0.106001 9.37149 -1.46823 0.166211 9.69448 -1.58467 -0.190424 9.58097 
-1.21905 -0.257529 9.22534 -1.58467 -0.190424 9.58097 -1.46371 -0.518592 9.35668 
-1.27698 -0.764 9.16399 -1.55994 -0.886876 9.35483 -1.46091 -1.16775 9.26899 
-1.13894 -0.940457 9.05531 -1.46091 -1.16775 9.26899 -1.28718 -1.41794 9.18392 
-1.05623 -1.3037 9.04218 -1.28718 -1.41794 9.18392 -1.06242 -1.64677 9.10859 
-0.783375 -1.45886 8.94979 -1.06242 -1.64677 9.10859 -0.755903 -1.83548 9.04302 
-0.548432 -1.56588 8.89971 -0.755903 -1.83548 9.04302 -0.489035 -1.93867 9.00819 
-0.26671 -1.73446 8.90003 -0.489035 -1.93867 9.00819 -0.118773 -2.0205 8.98618 
0.0649912 -1.75786 8.89466 -0.118773 -2.0205 8.98618 0.298817 -1.99846 8.99515 
0.425414 -1.69542 8.91309 0.298817 -1.99846 8.99515 0.617445 -1.93399 9.03154 
0.425414 -1.69542 8.91309 0.617445 -1.93399 9.03154 0.83337 -1.59057 9.00379 
1.20615 -0.48839 9.1344 1.58345 -0.778352 9.38928 1.45933 -0.403248 9.39027 
1.22249 -0.13846 9.28479 1.45933 -0.403248 9.39027 1.42014 -0.0814128 9.508 
1.22249 -0.13846 9.28479 1.42014 -0.0814128 9.508 1.34656 0.167591 9.60994 
1.05232 0.146517 9.31792 1.34656 0.167591 9.60994 1.11541 0.442394 9.66146 
0.880799 0.385414 9.39451 1.11541 0.442394 9.66146 0.782863 0.615518 9.61951 
0.0416995 0.743316 9.49766 0.267858 0.874288 9.7514 -0.0510425 0.937543 9.82635 
-0.187331 0.735104 9.50562 -0.0510425 0.937543 9.82635 -0.47629 0.870607 9.80891 
-0.442499 0.678946 9.4969 -0.47629 0.870607 9.80891 -0.855728 0.685819 9.75125 
-0.90044 0.362635 9.3871 -0.855728 0.685819 9.75125 -1.13746 0.435392 9.67477 
-0.90044 0.362635 9.3871 -1.13746 0.435392 9.67477 -1.13525 0.106001 9.37149 
-1.10998 -0.529512 9.03241 -1.46371 -0.518592 9.35668 -1.27698 -0.764 9.16399 
-0.886414 -1.13852 8.90482 -1.05623 -1.3037 9.04218 -0.783375 -1.45886 8.94979 
-0.0420285 -1.48384 8.77353 -0.26671 -1.73446 8.90003 0.0649912 -1.75786 8.89466 
0.266757 -1.47286 8.78852 0.0649912 -1.75786 8.89466 0.425414 -1.69542 8.91309 
0.538275 -1.39812 8.83008 0.425414 -1.69542 8.91309 0.83337 -1.59057 9.00379 
0.748115 -1.26079 8.86491 0.83337 -1.59057 9.00379 1.1278 -1.33472 9.09233 
0.987285 -1.0111 8.94445 1.1278 -1.33472 9.09233 1.33857 -1.01302 9.19328 
1.1164 -0.757417 9.02444 1.33857 -1.01302 9.19328 1.20615 -0.48839 9.1344 
0.991304 0.00861707 9.12678 1.22249 -0.13846 9.28479 1.05232 0.146517 9.31792 
0.522003 0.550403 9.30753 0.782863 0.615518 9.61951 0.548432 0.73525 9.64739 
0.522003 0.550403 9.30753 0.548432 0.73525 9.64739 0.276886 0.710952 9.48314 
-0.991304 -0.67201 8.90563 -1.27698 -0.764 9.16399 -1.13894 -0.940457 9.05531 
-0.611877 -1.16381 8.7569 -0.783375 -1.45886 8.94979 -0.548432 -1.56588 8.89971 
0.925351 -0.341259 8.85165 1.20615 -0.48839 9.1344 0.967778 -0.164615 8.98001 
0.786328 0.178593 9.0201 1.05232 0.146517 9.31792 0.880799 0.385414 9.39451 
0.167782 0.585926 9.14961 0.276886 0.710952 9.48314 0.0416995 0.743316 9.49766 
-0.134872 0.595075 9.16599 0.0416995 0.743316 9.49766 -0.187331 0.735104 9.50562 
-0.134872 0.595075 9.16599 -0.187331 0.735104 9.50562 -0.442499 0.678946 9.4969 
-0.407972 0.553121 9.22597 -0.442499 0.678946 9.4969 -0.687791 0.549265 9.45512 
-0.562689 0.403251 9.07457 -0.687791 0.549265 9.45512 -0.90044 0.362635 9.3871 
-0.773604 0.212796 9.04076 -0.90044 0.362635 9.3871 -1.13525 0.106001 9.37149 
-0.886552 -0.0140911 8.96477 -1.13525 0.106001 9.37149 -1.21905 -0.257529 9.22534 
-0.925351 -0.227236 8.8887 -1.21905 -0.257529 9.22534 -1.10998 -0.529512 9.03241 
-0.786328 -0.746819 8.71941 -1.13894 -0.940457 9.05531 -0.886414 -1.13852 8.90482 
-0.099468 -1.16512 8.58732 -0.345478 -1.39645 8.76548 -0.0420285 -1.48384 8.77353 
0.134869 -1.16951 8.59263 -0.0420285 -1.48384 8.77353 0.266757 -1.47286 8.78852 
0.407972 -1.17083 8.66583 0.266757 -1.47286 8.78852 0.538275 -1.39812 8.83008 
0.407972 -1.17083 8.66583 0.538275 -1.39812 8.83008 0.748115 -1.26079 8.86491 
0.764084 -0.786485 8.70632 0.748115 -1.26079 8.86491 0.987285 -1.0111 8.94445 
0.764084 -0.786485 8.70632 0.987285 -1.0111 8.94445 1.1164 -0.757417 9.02444 
0.886552 -0.558413 8.78791 1.1164 -0.757417 9.02444 1.20615 -0.48839 9.1344 
0.708694 0.0682121 8.74918 0.991304 0.00861707 9.12678 0.786328 0.178593 9.0201 
-0.303439 0.481913 8.94835 -0.407972 0.553121 9.22597 -0.562689 0.403251 9.07457 
-0.866884 -0.388351 8.76211 -1.10998 -0.529512 9.03241 -0.991304 -0.67201 8.90563 
-0.708694 -0.498278 8.56512 -0.991304 -0.67201 8.90563 -0.786328 -0.746819 8.71941 
-0.371856 -1.03118 8.56125 -0.611877 -1.16381 8.7569 -0.345478 -1.39645 8.76548 
0.303439 -0.950034 8.48308 0.407972 -1.17083 8.66583 0.558352 -0.948478 8.62107 
0.717215 -0.104937 8.60686 0.925351 -0.341259 8.85165 0.967778 -0.164615 8.98001 
0.717215 -0.104937 8.60686 0.967778 -0.164615 8.98001 0.708694 0.0682121 8.74918 
0.572251 0.200903 8.66766 0.786328 0.178593 9.0201 0.649845 0.341206 9.06928 
0.455145 0.330517 8.72181 0.649845 0.341206 9.06928 0.417097 0.471297 9.04171 
0.277071 0.444698 8.78739 0.417097 0.471297 9.04171 0.167782 0.585926 9.14961 
0.00587748 0.497012 8.79587 0.167782 0.585926 9.14961 -0.134872 0.595075 9.16599 
-0.613944 0.175786 8.70447 -0.773604 0.212796 9.04076 -0.886552 -0.0140911 8.96477 
-0.702439 -0.0312691 8.6275 -0.886552 -0.0140911 8.96477 -0.925351 -0.227236 8.8887 
-0.717215 -0.274542 8.55175 -0.925351 -0.227236 8.8887 -0.866884 -0.388351 8.76211 
-0.717215 -0.274542 8.55175 -0.866884 -0.388351 8.76211 -0.708694 -0.498278 8.56512 
-0.572251 -0.55771 8.42117 -0.786328 -0.746819 8.71941 -0.649845 -0.907281 8.66362 
-0.455145 -0.694396 8.38879 -0.649845 -0.907281 8.66362 -0.371856 -1.03118 8.56125 
-0.277071 -0.825321 8.37474 -0.371856 -1.03118 8.56125 -0.099468 -1.16512 8.58732 
-0.00746746 -0.874282 8.35176 -0.099468 -1.16512 8.58732 0.134869 -1.16951 8.59263 
0.613944 -0.559026 8.46572 0.764084 -0.786485 8.70632 0.886552 -0.558413 8.78791 
0.702439 -0.346272 8.52515 0.886552 -0.558413 8.78791 0.925351 -0.341259 8.85165 
-0.083232 0.432934 8.46471 0.00587748 0.497012 8.79587 -0.303439 0.481913 8.94835 
-0.289338 0.397745 8.62206 -0.303439 0.481913 8.94835 -0.562689 0.403251 9.07457 
-0.421764 0.311006 8.57335 -0.562689 0.403251 9.07457 -0.613944 0.175786 8.70447 
0.083232 -0.626137 8.1206 -0.00746746 -0.874282 8.35176 0.303439 -0.950034 8.48308 
0.289338 -0.690156 8.26858 0.303439 -0.950034 8.48308 0.558352 -0.948478 8.62107 
0.421764 -0.591348 8.28015 0.558352 -0.948478 8.62107 0.613944 -0.559026 8.46572 
0.533717 0.0821059 8.35383 0.717215 -0.104937 8.60686 0.708694 0.0682121 8.74918 
0.352382 0.312827 8.38244 0.455145 0.330517 8.72181 0.277071 0.444698 8.78739 
0.140543 0.422525 8.41793 0.277071 0.444698 8.78739 0.00587748 0.497012 8.79587 
-0.457084 0.187341 8.30692 -0.613944 0.175786 8.70447 -0.702439 -0.0312691 8.6275 
-0.577802 -0.0463072 8.33776 -0.702439 -0.0312691 8.6275 -0.717215 -0.274542 8.55175 
-0.533717 -0.277135 8.2371 -0.717215 -0.274542 8.55175 -0.708694 -0.498278 8.56512 
-0.352382 -0.480611 8.12464 -0.455145 -0.694396 8.38879 -0.277071 -0.825321 8.37474 
-0.140543 -0.590216 8.08887 -0.277071 -0.825321 8.37474 -0.00746746 -0.874282 8.35176 
0.457084 -0.334701 8.1373 0.613944 -0.559026 8.46572 0.702439 -0.346272 8.52515 
0.577802 -0.163803 8.29959 0.702439 -0.346272 8.52515 0.717215 -0.104937 8.60686 
-0.13658 0.403827 8.18024 -0.083232 0.432934 8.46471 -0.289338 0.397745 8.62206 
-0.13658 0.403827 8.18024 -0.289338 0.397745 8.62206 -0.421764 0.311006 8.57335 
0.13658 -0.435382 7.90757 0.083232 -0.626137 8.1206 0.289338 -0.690156 8.26858 
0.13658 -0.435382 7.90757 0.289338 -0.690156 8.26858 0.421764 -0.591348 8.28015 
0.422514 0.0885322 7.96234 0.577802 -0.163803 8.29959 0.533717 0.0821059 8.35383 
0.422514 0.0885322 7.96234 0.533717 0.0821059 8.35383 0.38901 0.231663 8.17418 
0.225113 0.368486 8.08857 0.352382 0.312827 8.38244 0.140543 0.422525 8.41793 
0.0338038 0.422209 8.00862 0.140543 0.422525 8.41793 -0.083232 0.432934 8.46471 
-0.422514 -0.0522229 7.91661 -0.577802 -0.0463072 8.33776 -0.533717 -0.277135 8.2371 
-0.422514 -0.0522229 7.91661 -0.533717 -0.277135 8.2371 -0.38901 -0.292535 8.00386 
-0.225113 -0.352908 7.85418 -0.352382 -0.480611 8.12464 -0.140543 -0.590216 8.08887 
-0.0338038 -0.349377 7.75792 -0.140543 -0.590216 8.08887 0.083232 -0.626137 8.1206 
0.335559 0.226241 7.75068 0.422514 0.0885322 7.96234 0.38901 0.231663 8.17418 
0.217337 0.381705 7.745 0.38901 0.231663 8.17418 0.225113 0.368486 8.08857 
-0.109011 0.425079 7.85796 0.0338038 0.422209 8.00862 -0.13658 0.403827 8.18024 
-0.109011 0.425079 7.85796 -0.13658 0.403827 8.18024 -0.289047 0.331699 8.21676 
-0.291225 0.309756 7.9094 -0.289047 0.331699 8.21676 -0.457084 0.187341 8.30692 
-0.335559 -0.0392175 7.66442 -0.422514 -0.0522229 7.91661 -0.38901 -0.292535 8.00386 
-0.217337 -0.161653 7.56845 -0.38901 -0.292535 8.00386 -0.225113 -0.352908 7.85418 
0.109011 -0.263142 7.63434 -0.0338038 -0.349377 7.75792 0.13658 -0.435382 7.90757 
0.109011 -0.263142 7.63434 0.13658 -0.435382 7.90757 0.289047 -0.398493 7.97951 
0.291225 -0.200077 7.74374 0.289047 -0.398493 7.97951 0.457084 -0.334701 8.1373 
0.342425 0.143586 7.59638 0.408907 -0.11029 7.91042 0.422514 0.0885322 7.96234 
-0.310583 0.271504 7.62251 -0.291225 0.309756 7.9094 -0.408907 0.139148 7.99146 
-0.342425 0.118344 7.58818 -0.408907 0.139148 7.99146 -0.422514 -0.0522229 7.91661 
0.310583 -0.000504205 7.53413 0.291225 -0.200077 7.74374 0.408907 -0.11029 7.91042 
0.072203 0.48177 7.51217 0.217337 0.381705 7.745 0.0338038 0.422209 8.00862 
0.072203 0.48177 7.51217 0.0338038 0.422209 8.00862 -0.109011 0.425079 7.85796 
-0.072203 -0.105756 7.32127 -0.217337 -0.161653 7.56845 -0.0338038 -0.349377 7.75792 
-0.072203 -0.105756 7.32127 -0.0338038 -0.349377 7.75792 0.109011 -0.263142 7.63434 
0.287987 0.342637 7.36823 0.342425 0.143586 7.59638 0.335559 0.226241 7.75068 
0.287987 0.342637 7.36823 0.335559 0.226241 7.75068 0.217337 0.381705 7.745 
-0.254711 0.391968 7.35555 -0.193454 0.41332 7.59106 -0.310583 0.271504 7.62251 
-0.306694 0.271659 7.32039 -0.310583 0.271504 7.62251 -0.342425 0.118344 7.58818 
-0.287987 0.0914093 7.28661 -0.342425 0.118344 7.58818 -0.335559 -0.0392175 7.66442 
-0.287987 0.0914093 7.28661 -0.335559 -0.0392175 7.66442 -0.217337 -0.161653 7.56845 
0.254711 0.0589559 7.24735 0.193454 -0.0967476 7.42533 0.310583 -0.000504205 7.53413 
0.306694 0.176954 7.28962 0.310583 -0.000504205 7.53413 0.342425 0.143586 7.59638 
0.300117 0.304931 7.13143 0.306694 0.176954 7.28962 0.287987 0.342637 7.36823 
0.287987 0.342637 7.36823 0.216877 0.481525 7.18881 0.231483 0.466054 7.18384 
0.216877 0.481525 7.18881 0.287987 0.342637 7.36823 0.182371 0.462271 7.38015 
0.145683 0.533142 7.20735 0.182371 0.462271 7.38015 0.072203 0.48177 7.51217 
0.0449797 0.570203 7.20493 0.072203 0.48177 7.51217 -0.0508787 0.483712 7.52518 
-0.0508787 0.483712 7.52518 -0.0115291 0.569075 7.21726 0.00845798 0.570229 7.21437 
-0.0906628 0.549478 7.23377 -0.0508787 0.483712 7.52518 -0.193454 0.41332 7.59106 
-0.193454 0.41332 7.59106 -0.12313 0.544238 7.20919 -0.0906628 0.549478 7.23377 
-0.198638 0.498438 7.19372 -0.193454 0.41332 7.59106 -0.254711 0.391968 7.35555 
-0.265218 0.43091 7.13239 -0.254711 0.391968 7.35555 -0.306694 0.271659 7.32039 
-0.306694 0.271659 7.32039 -0.286972 0.36939 7.15237 -0.280474 0.388052 7.15562 
-0.300117 0.261104 7.11719 -0.306694 0.271659 7.32039 -0.287987 0.0914093 7.28661 
-0.287987 0.0914093 7.28661 -0.216877 0.0845097 7.05981 -0.231483 0.0999498 7.06488 
-0.216877 0.0845097 7.05981 -0.287987 0.0914093 7.28661 -0.182371 -0.0123805 7.22593 
-0.145683 0.0318551 7.04447 -0.182371 -0.0123805 7.22593 -0.072203 -0.105756 7.32127 
-0.0449797 0.00329274 7.02073 -0.072203 -0.105756 7.32127 0.0508787 -0.114971 7.33065 
0.0508787 -0.114971 7.33065 0.0115291 -0.00304066 7.03136 -0.00845798 -0.00227879 7.02835 
0.0906628 0.00310584 7.05625 0.0508787 -0.114971 7.33065 0.193454 -0.0967476 7.42533 
0.193454 -0.0967476 7.42533 0.12313 0.0217967 7.03943 0.0906628 0.00310584 7.05625 
0.198638 0.067943 7.05384 0.193454 -0.0967476 7.42533 0.254711 0.0589559 7.24735 
0.265218 0.158619 7.04392 0.254711 0.0589559 7.24735 0.306694 0.176954 7.28962 
0.306694 0.176954 7.28962 0.286972 0.196644 7.09625 0.280474 0.179641 7.0879 
0.306694 0.176954 7.28962 0.301002 0.282385 7.08832 0.297307 0.236274 7.11365 
0.297307 0.236274 7.11365 0.293082 0.21779 7.10312 0.306694 0.176954 7.28962 
0.306694 0.176954 7.28962 0.293082 0.21779 7.10312 0.286972 0.196644 7.09625 
0.306694 0.176954 7.28962 0.280474 0.179641 7.0879 0.265218 0.158619 7.04392 
0.254711 0.0589559 7.24735 0.265218 0.158619 7.04392 0.246197 0.118322 7.0708 
0.254711 0.0589559 7.24735 0.246197 0.118322 7.0708 0.231792 0.0995348 7.06732 
0.231792 0.0995348 7.06732 0.216877 0.0845097 7.05981 0.254711 0.0589559 7.24735 
0.254711 0.0589559 7.24735 0.216877 0.0845097 7.05981 0.198638 0.067943 7.05384 
0.198638 0.067943 7.05384 0.182474 0.0553504 7.05034 0.193454 -0.0967476 7.42533 
0.193454 -0.0967476 7.42533 0.182474 0.0553504 7.05034 0.155215 0.0425986 7.02793 
0.193454 -0.0967476 7.42533 0.155215 0.0425986 7.02793 0.12313 0.0217967 7.03943 
0.0508787 -0.114971 7.33065 0.0906628 0.00310584 7.05625 0.0558809 -0.00124469 7.04172 
0.0558809 -0.00124469 7.04172 0.0345197 -0.00136195 7.03191 0.0508787 -0.114971 7.33065 
0.0508787 -0.114971 7.33065 0.0345197 -0.00136195 7.03191 0.0115291 -0.00304066 7.03136 
0.0508787 -0.114971 7.33065 -0.00845798 -0.00227879 7.02835 -0.0449797 0.00329274 7.02073 
-0.072203 -0.105756 7.32127 -0.0449797 0.00329274 7.02073 -0.0797594 0.00698238 7.03462 
-0.072203 -0.105756 7.32127 -0.0797594 0.00698238 7.03462 -0.102095 0.0132257 7.03823 
-0.102095 0.0132257 7.03823 -0.12313 0.0217967 7.03943 -0.072203 -0.105756 7.32127 
-0.072203 -0.105756 7.32127 -0.12313 0.0217967 7.03943 -0.145683 0.0318551 7.04447 
-0.145683 0.0318551 7.04447 -0.163614 0.0427338 7.04624 -0.182371 -0.0123805 7.22593 
-0.182371 -0.0123805 7.22593 -0.163614 0.0427338 7.04624 -0.190527 0.0706512 7.02183 
-0.182371 -0.0123805 7.22593 -0.190527 0.0706512 7.02183 -0.216877 0.0845097 7.05981 
-0.287987 0.0914093 7.28661 -0.231483 0.0999498 7.06488 -0.246197 0.118322 7.0708 
-0.287987 0.0914093 7.28661 -0.246197 0.118322 7.0708 -0.259365 0.136675 7.0799 
-0.259365 0.136675 7.0799 -0.269746 0.155994 7.08304 -0.287987 0.0914093 7.28661 
-0.287987 0.0914093 7.28661 -0.269746 0.155994 7.08304 -0.280176 0.177163 7.09297 
-0.280176 0.177163 7.09297 -0.286972 0.196644 7.09625 -0.287987 0.0914093 7.28661 
-0.287987 0.0914093 7.28661 -0.286972 0.196644 7.09625 -0.295717 0.238336 7.07263 
-0.287987 0.0914093 7.28661 -0.295717 0.238336 7.07263 -0.300117 0.261104 7.11719 
-0.306694 0.271659 7.32039 -0.300117 0.261104 7.11719 -0.301002 0.304684 7.09556 
-0.306694 0.271659 7.32039 -0.301002 0.304684 7.09556 -0.297307 0.327099 7.14316 
-0.297307 0.327099 7.14316 -0.293082 0.348244 7.1455 -0.306694 0.271659 7.32039 
-0.306694 0.271659 7.32039 -0.293082 0.348244 7.1455 -0.286972 0.36939 7.15237 
-0.306694 0.271659 7.32039 -0.280474 0.388052 7.15562 -0.265218 0.43091 7.13239 
-0.254711 0.391968 7.35555 -0.265218 0.43091 7.13239 -0.246197 0.447713 7.17782 
-0.254711 0.391968 7.35555 -0.246197 0.447713 7.17782 -0.231792 0.464953 7.18606 
-0.231792 0.464953 7.18606 -0.216877 0.481525 7.18881 -0.254711 0.391968 7.35555 
-0.254711 0.391968 7.35555 -0.216877 0.481525 7.18881 -0.198638 0.498438 7.19372 
-0.198638 0.498438 7.19372 -0.182474 0.510684 7.19828 -0.193454 0.41332 7.59106 
-0.193454 0.41332 7.59106 -0.182474 0.510684 7.19828 -0.155215 0.534169 7.18765 
-0.193454 0.41332 7.59106 -0.155215 0.534169 7.18765 -0.12313 0.544238 7.20919 
-0.0508787 0.483712 7.52518 -0.0906628 0.549478 7.23377 -0.0558809 0.561534 7.22458 
-0.0558809 0.561534 7.22458 -0.0345197 0.567397 7.21671 -0.0508787 0.483712 7.52518 
-0.0508787 0.483712 7.52518 -0.0345197 0.567397 7.21671 -0.0115291 0.569075 7.21726 
-0.0508787 0.483712 7.52518 0.00845798 0.570229 7.21437 0.0449797 0.570203 7.20493 
0.072203 0.48177 7.51217 0.0449797 0.570203 7.20493 0.0797594 0.559052 7.214 
0.072203 0.48177 7.51217 0.0797594 0.559052 7.214 0.102095 0.551879 7.21325 
0.102095 0.551879 7.21325 0.12313 0.544238 7.20919 0.072203 0.48177 7.51217 
0.072203 0.48177 7.51217 0.12313 0.544238 7.20919 0.145683 0.533142 7.20735 
0.145683 0.533142 7.20735 0.163614 0.523301 7.20238 0.182371 0.462271 7.38015 
0.182371 0.462271 7.38015 0.163614 0.523301 7.20238 0.190527 0.515061 7.16623 
0.182371 0.462271 7.38015 0.190527 0.515061 7.16623 0.216877 0.481525 7.18881 
0.287987 0.342637 7.36823 0.231483 0.466054 7.18384 0.246197 0.447713 7.17782 
0.287987 0.342637 7.36823 0.246197 0.447713 7.17782 0.259365 0.427513 7.1744 
0.259365 0.427513 7.1744 0.269746 0.41004 7.16558 0.287987 0.342637 7.36823 
0.287987 0.342637 7.36823 0.269746 0.41004 7.16558 0.280176 0.387078 7.16117 
0.280176 0.387078 7.16117 0.286972 0.36939 7.15237 0.287987 0.342637 7.36823 
0.287987 0.342637 7.36823 0.286972 0.36939 7.15237 0.295717 0.34954 7.10877 
0.287987 0.342637 7.36823 0.295717 0.34954 7.10877 0.300117 0.304931 7.13143 
0.306694 0.176954 7.28962 0.300117 0.304931 7.13143 0.301002 0.282385 7.08832 
0.310583 -0.000504205 7.53413 0.306694 0.176954 7.28962 0.254711 0.0589559 7.24735 
-0.217337 -0.161653 7.56845 -0.072203 -0.105756 7.32127 -0.182371 -0.0123805 7.22593 
-0.217337 -0.161653 7.56845 -0.182371 -0.0123805 7.22593 -0.287987 0.0914093 7.28661 
-0.342425 0.118344 7.58818 -0.287987 0.0914093 7.28661 -0.306694 0.271659 7.32039 
-0.310583 0.271504 7.62251 -0.306694 0.271659 7.32039 -0.254711 0.391968 7.35555 
0.217337 0.381705 7.745 0.072203 0.48177 7.51217 0.182371 0.462271 7.38015 
0.217337 0.381705 7.745 0.182371 0.462271 7.38015 0.287987 0.342637 7.36823 
0.342425 0.143586 7.59638 0.287987 0.342637 7.36823 0.306694 0.176954 7.28962 
0.109011 -0.263142 7.63434 0.193454 -0.0967476 7.42533 0.0508787 -0.114971 7.33065 
0.109011 -0.263142 7.63434 0.0508787 -0.114971 7.33065 -0.072203 -0.105756 7.32127 
-0.109011 0.425079 7.85796 -0.193454 0.41332 7.59106 -0.0508787 0.483712 7.52518 
-0.109011 0.425079 7.85796 -0.0508787 0.483712 7.52518 0.072203 0.48177 7.51217 
0.408907 -0.11029 7.91042 0.342425 0.143586 7.59638 0.310583 -0.000504205 7.53413 
0.291225 -0.200077 7.74374 0.310583 -0.000504205 7.53413 0.193454 -0.0967476 7.42533 
0.291225 -0.200077 7.74374 0.193454 -0.0967476 7.42533 0.109011 -0.263142 7.63434 
-0.225113 -0.352908 7.85418 -0.0338038 -0.349377 7.75792 -0.217337 -0.161653 7.56845 
-0.422514 -0.0522229 7.91661 -0.335559 -0.0392175 7.66442 -0.342425 0.118344 7.58818 
-0.408907 0.139148 7.99146 -0.342425 0.118344 7.58818 -0.310583 0.271504 7.62251 
-0.291225 0.309756 7.9094 -0.310583 0.271504 7.62251 -0.193454 0.41332 7.59106 
-0.291225 0.309756 7.9094 -0.193454 0.41332 7.59106 -0.109011 0.425079 7.85796 
0.225113 0.368486 8.08857 0.0338038 0.422209 8.00862 0.217337 0.381705 7.745 
0.422514 0.0885322 7.96234 0.335559 0.226241 7.75068 0.342425 0.143586 7.59638 
0.457084 -0.334701 8.1373 0.408907 -0.11029 7.91042 0.291225 -0.200077 7.74374 
0.289047 -0.398493 7.97951 0.291225 -0.200077 7.74374 0.109011 -0.263142 7.63434 
-0.38901 -0.292535 8.00386 -0.217337 -0.161653 7.56845 -0.335559 -0.0392175 7.66442 
-0.457084 0.187341 8.30692 -0.408907 0.139148 7.99146 -0.291225 0.309756 7.9094 
-0.289047 0.331699 8.21676 -0.291225 0.309756 7.9094 -0.109011 0.425079 7.85796 
0.38901 0.231663 8.17418 0.217337 0.381705 7.745 0.335559 0.226241 7.75068 
0.577802 -0.163803 8.29959 0.422514 0.0885322 7.96234 0.408907 -0.11029 7.91042 
0.083232 -0.626137 8.1206 0.13658 -0.435382 7.90757 -0.0338038 -0.349377 7.75792 
-0.140543 -0.590216 8.08887 -0.0338038 -0.349377 7.75792 -0.225113 -0.352908 7.85418 
-0.352382 -0.480611 8.12464 -0.225113 -0.352908 7.85418 -0.38901 -0.292535 8.00386 
-0.577802 -0.0463072 8.33776 -0.422514 -0.0522229 7.91661 -0.408907 0.139148 7.99146 
-0.083232 0.432934 8.46471 -0.13658 0.403827 8.18024 0.0338038 0.422209 8.00862 
0.140543 0.422525 8.41793 0.0338038 0.422209 8.00862 0.225113 0.368486 8.08857 
0.352382 0.312827 8.38244 0.225113 0.368486 8.08857 0.38901 0.231663 8.17418 
0.577802 -0.163803 8.29959 0.408907 -0.11029 7.91042 0.457084 -0.334701 8.1373 
0.421764 -0.591348 8.28015 0.457084 -0.334701 8.1373 0.289047 -0.398493 7.97951 
0.421764 -0.591348 8.28015 0.289047 -0.398493 7.97951 0.13658 -0.435382 7.90757 
-0.572251 -0.55771 8.42117 -0.352382 -0.480611 8.12464 -0.38901 -0.292535 8.00386 
-0.572251 -0.55771 8.42117 -0.38901 -0.292535 8.00386 -0.533717 -0.277135 8.2371 
-0.577802 -0.0463072 8.33776 -0.408907 0.139148 7.99146 -0.457084 0.187341 8.30692 
-0.421764 0.311006 8.57335 -0.457084 0.187341 8.30692 -0.289047 0.331699 8.21676 
-0.421764 0.311006 8.57335 -0.289047 0.331699 8.21676 -0.13658 0.403827 8.18024 
0.572251 0.200903 8.66766 0.352382 0.312827 8.38244 0.38901 0.231663 8.17418 
0.572251 0.200903 8.66766 0.38901 0.231663 8.17418 0.533717 0.0821059 8.35383 
0.702439 -0.346272 8.52515 0.577802 -0.163803 8.29959 0.457084 -0.334701 8.1373 
0.613944 -0.559026 8.46572 0.457084 -0.334701 8.1373 0.421764 -0.591348 8.28015 
-0.00746746 -0.874282 8.35176 0.083232 -0.626137 8.1206 -0.140543 -0.590216 8.08887 
-0.277071 -0.825321 8.37474 -0.140543 -0.590216 8.08887 -0.352382 -0.480611 8.12464 
-0.455145 -0.694396 8.38879 -0.352382 -0.480611 8.12464 -0.572251 -0.55771 8.42117 
-0.708694 -0.498278 8.56512 -0.572251 -0.55771 8.42117 -0.533717 -0.277135 8.2371 
-0.717215 -0.274542 8.55175 -0.533717 -0.277135 8.2371 -0.577802 -0.0463072 8.33776 
-0.702439 -0.0312691 8.6275 -0.577802 -0.0463072 8.33776 -0.457084 0.187341 8.30692 
-0.613944 0.175786 8.70447 -0.457084 0.187341 8.30692 -0.421764 0.311006 8.57335 
0.00587748 0.497012 8.79587 -0.083232 0.432934 8.46471 0.140543 0.422525 8.41793 
0.277071 0.444698 8.78739 0.140543 0.422525 8.41793 0.352382 0.312827 8.38244 
0.455145 0.330517 8.72181 0.352382 0.312827 8.38244 0.572251 0.200903 8.66766 
0.708694 0.0682121 8.74918 0.572251 0.200903 8.66766 0.533717 0.0821059 8.35383 
0.717215 -0.104937 8.60686 0.533717 0.0821059 8.35383 0.577802 -0.163803 8.29959 
0.558352 -0.948478 8.62107 0.421764 -0.591348 8.28015 0.289338 -0.690156 8.26858 
0.303439 -0.950034 8.48308 0.289338 -0.690156 8.26858 0.083232 -0.626137 8.1206 
-0.562689 0.403251 9.07457 -0.421764 0.311006 8.57335 -0.289338 0.397745 8.62206 
-0.303439 0.481913 8.94835 -0.289338 0.397745 8.62206 -0.083232 0.432934 8.46471 
0.925351 -0.341259 8.85165 0.717215 -0.104937 8.60686 0.702439 -0.346272 8.52515 
0.886552 -0.558413 8.78791 0.702439 -0.346272 8.52515 0.613944 -0.559026 8.46572 
0.764084 -0.786485 8.70632 0.613944 -0.559026 8.46572 0.558352 -0.948478 8.62107 
0.134869 -1.16951 8.59263 0.303439 -0.950034 8.48308 -0.00746746 -0.874282 8.35176 
-0.099468 -1.16512 8.58732 -0.00746746 -0.874282 8.35176 -0.277071 -0.825321 8.37474 
-0.371856 -1.03118 8.56125 -0.277071 -0.825321 8.37474 -0.455145 -0.694396 8.38879 
-0.649845 -0.907281 8.66362 -0.455145 -0.694396 8.38879 -0.572251 -0.55771 8.42117 
-0.786328 -0.746819 8.71941 -0.572251 -0.55771 8.42117 -0.708694 -0.498278 8.56512 
-0.925351 -0.227236 8.8887 -0.717215 -0.274542 8.55175 -0.702439 -0.0312691 8.6275 
-0.886552 -0.0140911 8.96477 -0.702439 -0.0312691 8.6275 -0.613944 0.175786 8.70447 
-0.773604 0.212796 9.04076 -0.613944 0.175786 8.70447 -0.562689 0.403251 9.07457 
-0.134872 0.595075 9.16599 -0.303439 0.481913 8.94835 0.00587748 0.497012 8.79587 
0.167782 0.585926 9.14961 0.00587748 0.497012 8.79587 0.277071 0.444698 8.78739 
0.417097 0.471297 9.04171 0.277071 0.444698 8.78739 0.455145 0.330517 8.72181 
0.649845 0.341206 9.06928 0.455145 0.330517 8.72181 0.572251 0.200903 8.66766 
0.786328 0.178593 9.0201 0.572251 0.200903 8.66766 0.708694 0.0682121 8.74918 
0.407972 -1.17083 8.66583 0.303439 -0.950034 8.48308 0.134869 -1.16951 8.59263 
-0.611877 -1.16381 8.7569 -0.371856 -1.03118 8.56125 -0.649845 -0.907281 8.66362 
-0.991304 -0.67201 8.90563 -0.708694 -0.498278 8.56512 -0.866884 -0.388351 8.76211 
-1.10998 -0.529512 9.03241 -0.866884 -0.388351 8.76211 -0.925351 -0.227236 8.8887 
-0.407972 0.553121 9.22597 -0.303439 0.481913 8.94835 -0.134872 0.595075 9.16599 
0.522003 0.550403 9.30753 0.167782 0.585926 9.14961 0.417097 0.471297 9.04171 
0.522003 0.550403 9.30753 0.417097 0.471297 9.04171 0.649845 0.341206 9.06928 
0.991304 0.00861707 9.12678 0.708694 0.0682121 8.74918 0.967778 -0.164615 8.98001 
1.20615 -0.48839 9.1344 0.925351 -0.341259 8.85165 0.886552 -0.558413 8.78791 
1.1164 -0.757417 9.02444 0.886552 -0.558413 8.78791 0.764084 -0.786485 8.70632 
0.748115 -1.26079 8.86491 0.764084 -0.786485 8.70632 0.558352 -0.948478 8.62107 
0.748115 -1.26079 8.86491 0.558352 -0.948478 8.62107 0.407972 -1.17083 8.66583 
0.266757 -1.47286 8.78852 0.407972 -1.17083 8.66583 0.134869 -1.16951 8.59263 
-0.0420285 -1.48384 8.77353 0.134869 -1.16951 8.59263 -0.099468 -1.16512 8.58732 
-0.345478 -1.39645 8.76548 -0.099468 -1.16512 8.58732 -0.371856 -1.03118 8.56125 
-0.886414 -1.13852 8.90482 -0.611877 -1.16381 8.7569 -0.649845 -0.907281 8.66362 
-0.886414 -1.13852 8.90482 -0.649845 -0.907281 8.66362 -0.786328 -0.746819 8.71941 
-1.13894 -0.940457 9.05531 -0.786328 -0.746819 8.71941 -0.991304 -0.67201 8.90563 
-1.21905 -0.257529 9.22534 -0.925351 -0.227236 8.8887 -0.886552 -0.0140911 8.96477 
-1.13525 0.106001 9.37149 -0.886552 -0.0140911 8.96477 -0.773604 0.212796 9.04076 
-0.90044 0.362635 9.3871 -0.773604 0.212796 9.04076 -0.562689 0.403251 9.07457 
-0.687791 0.549265 9.45512 -0.562689 0.403251 9.07457 -0.407972 0.553121 9.22597 
-0.442499 0.678946 9.4969 -0.407972 0.553121 9.22597 -0.134872 0.595075 9.16599 
0.0416995 0.743316 9.49766 -0.134872 0.595075 9.16599 0.167782 0.585926 9.14961 
0.276886 0.710952 9.48314 0.167782 0.585926 9.14961 0.522003 0.550403 9.30753 
0.880799 0.385414 9.39451 0.522003 0.550403 9.30753 0.649845 0.341206 9.06928 
0.880799 0.385414 9.39451 0.649845 0.341206 9.06928 0.786328 0.178593 9.0201 
1.05232 0.146517 9.31792 0.786328 0.178593 9.0201 0.991304 0.00861707 9.12678 
-0.548432 -1.56588 8.89971 -0.345478 -1.39645 8.76548 -0.611877 -1.16381 8.7569 
-0.783375 -1.45886 8.94979 -0.611877 -1.16381 8.7569 -0.886414 -1.13852 8.90482 
-1.27698 -0.764 9.16399 -0.991304 -0.67201 8.90563 -1.10998 -0.529512 9.03241 
0.782863 0.615518 9.61951 0.522003 0.550403 9.30753 0.880799 0.385414 9.39451 
1.22249 -0.13846 9.28479 0.991304 0.00861707 9.12678 0.967778 -0.164615 8.98001 
1.22249 -0.13846 9.28479 0.967778 -0.164615 8.98001 1.20615 -0.48839 9.1344 
1.33857 -1.01302 9.19328 1.1164 -0.757417 9.02444 0.987285 -1.0111 8.94445 
1.1278 -1.33472 9.09233 0.987285 -1.0111 8.94445 0.748115 -1.26079 8.86491 
0.83337 -1.59057 9.00379 0.748115 -1.26079 8.86491 0.538275 -1.39812 8.83008 
0.425414 -1.69542 8.91309 0.538275 -1.39812 8.83008 0.266757 -1.47286 8.78852 
0.0649912 -1.75786 8.89466 0.266757 -1.47286 8.78852 -0.0420285 -1.48384 8.77353 
-0.26671 -1.73446 8.90003 -0.0420285 -1.48384 8.77353 -0.345478 -1.39645 8.76548 
-0.26671 -1.73446 8.90003 -0.345478 -1.39645 8.76548 -0.548432 -1.56588 8.89971 
-1.05623 -1.3037 9.04218 -0.886414 -1.13852 8.90482 -1.13894 -0.940457 9.05531 
-1.46371 -0.518592 9.35668 -1.10998 -0.529512 9.03241 -1.21905 -0.257529 9.22534 
-0.855728 0.685819 9.75125 -0.90044 0.362635 9.3871 -0.687791 0.549265 9.45512 
-0.855728 0.685819 9.75125 -0.687791 0.549265 9.45512 -0.442499 0.678946 9.4969 
-0.47629 0.870607 9.80891 -0.442499 0.678946 9.4969 -0.187331 0.735104 9.50562 
-0.0510425 0.937543 9.82635 -0.187331 0.735104 9.50562 0.0416995 0.743316 9.49766 
0.267858 0.874288 9.7514 0.0416995 0.743316 9.49766 0.276886 0.710952 9.48314 
0.267858 0.874288 9.7514 0.276886 0.710952 9.48314 0.548432 0.73525 9.64739 
1.11541 0.442394 9.66146 0.880799 0.385414 9.39451 1.05232 0.146517 9.31792 
1.34656 0.167591 9.60994 1.05232 0.146517 9.31792 1.22249 -0.13846 9.28479 
1.45933 -0.403248 9.39027 1.22249 -0.13846 9.28479 1.20615 -0.48839 9.1344 
1.58345 -0.778352 9.38928 1.20615 -0.48839 9.1344 1.33857 -1.01302 9.19328 
0.298817 -1.99846 8.99515 0.425414 -1.69542 8.91309 0.0649912 -1.75786 8.89466 
-0.118773 -2.0205 8.98618 0.0649912 -1.75786 8.89466 -0.26671 -1.73446 8.90003 
-0.489035 -1.93867 9.00819 -0.26671 -1.73446 8.90003 -0.548432 -1.56588 8.89971 
-0.755903 -1.83548 9.04302 -0.548432 -1.56588 8.89971 -0.783375 -1.45886 8.94979 
-1.06242 -1.64677 9.10859 -0.783375 -1.45886 8.94979 -1.05623 -1.3037 9.04218 
-1.28718 -1.41794 9.18392 -1.05623 -1.3037 9.04218 -1.13894 -0.940457 9.05531 
-1.46091 -1.16775 9.26899 -1.13894 -0.940457 9.05531 -1.27698 -0.764 9.16399 
-1.55994 -0.886876 9.35483 -1.27698 -0.764 9.16399 -1.46371 -0.518592 9.35668 
-1.58467 -0.190424 9.58097 -1.21905 -0.257529 9.22534 -1.13525 0.106001 9.37149 
-1.46823 0.166211 9.69448 -1.13525 0.106001 9.37149 -1.13746 0.435392 9.67477 
0.328316 1.03731 9.98916 0.267858 0.874288 9.7514 0.548432 0.73525 9.64739 
0.747948 0.866879 9.91531 0.548432 0.73525 9.64739 0.782863 0.615518 9.61951 
1.06301 0.681869 9.86722 0.782863 0.615518 9.61951 1.11541 0.442394 9.66146 
1.77667 -0.585109 9.56181 1.45933 -0.403248 9.39027 1.58345 -0.778352 9.38928 
1.43103 -1.51724 9.25798 1.33857 -1.01302 9.19328 1.1278 -1.33472 9.09233 
1.20406 -1.76711 9.18071 1.1278 -1.33472 9.09233 0.83337 -1.59057 9.00379 
0.917228 -1.97121 9.11196 0.83337 -1.59057 9.00379 0.617445 -1.93399 9.03154 
-1.77358 -0.585402 9.55447 -1.46371 -0.518592 9.35668 -1.58467 -0.190424 9.58097 
-1.24302 0.691463 9.97579 -1.13746 0.435392 9.67477 -0.855728 0.685819 9.75125 
-0.978754 0.901825 10.049 -0.855728 0.685819 9.75125 -0.47629 0.870607 9.80891 
-0.429014 1.14059 10.1347 -0.47629 0.870607 9.80891 -0.0510425 0.937543 9.82635 
-0.0999485 1.18156 10.1414 -0.0510425 0.937543 9.82635 0.328316 1.03731 9.98916 
1.4756 0.441681 9.9 1.11541 0.442394 9.66146 1.34656 0.167591 9.60994 
1.70876 0.00313807 9.76135 1.42014 -0.0814128 9.508 1.45933 -0.403248 9.39027 
1.88857 -0.937769 9.53749 1.58345 -0.778352 9.38928 1.64073 -1.15015 9.37206 
0.562757 -2.21786 9.07802 0.617445 -1.93399 9.03154 0.298817 -1.99846 8.99515 
0.238081 -2.33709 9.06919 0.298817 -1.99846 8.99515 -0.118773 -2.0205 8.98618 
-0.318243 -2.32582 9.07285 -0.118773 -2.0205 8.98618 -0.489035 -1.93867 9.00819 
-0.609714 -2.27838 9.09774 -0.489035 -1.93867 9.00819 -0.755903 -1.83548 9.04302 
-1.06601 -1.99172 9.15587 -0.755903 -1.83548 9.04302 -1.06242 -1.64677 9.10859 
-1.37877 -1.7993 9.24699 -1.06242 -1.64677 9.10859 -1.28718 -1.41794 9.18392 
-1.56332 -1.58777 9.31618 -1.28718 -1.41794 9.18392 -1.46091 -1.16775 9.26899 
-1.69691 -1.26443 9.38942 -1.46091 -1.16775 9.26899 -1.55994 -0.886876 9.35483 
-1.84836 -0.990682 9.50788 -1.55994 -0.886876 9.35483 -1.77358 -0.585402 9.55447 
-1.82182 -0.157741 9.74867 -1.58467 -0.190424 9.58097 -1.46823 0.166211 9.69448 
-1.68819 0.231148 9.87668 -1.46823 0.166211 9.69448 -1.45401 0.495174 9.92876 
0.227119 1.27649 10.2528 -0.0999485 1.18156 10.1414 0.328316 1.03731 9.98916 
0.563004 1.16118 10.1777 0.328316 1.03731 9.98916 0.747948 0.866879 9.91531 
0.920206 1.01083 10.1274 0.747948 0.866879 9.91531 1.06301 0.681869 9.86722 
1.27359 0.757433 10.0416 1.06301 0.681869 9.86722 1.4756 0.441681 9.9 
2.00971 -0.842071 9.61689 2.02728 -0.700831 9.6633 1.77667 -0.585109 9.56181 
1.89174 -1.25339 9.48157 1.93999 -1.12128 9.52459 1.64073 -1.15015 9.37206 
1.83384 -1.39306 9.43849 1.89174 -1.25339 9.48157 1.64073 -1.15015 9.37206 
1.75737 -1.50871 9.39593 1.83384 -1.39306 9.43849 1.64073 -1.15015 9.37206 
1.68175 -1.62799 9.35777 1.75737 -1.50871 9.39593 1.43103 -1.51724 9.25798 
1.57828 -1.76861 9.31468 1.68175 -1.62799 9.35777 1.43103 -1.51724 9.25798 
0.394992 -2.45304 9.09367 0.541312 -2.42086 9.10451 0.562757 -2.21786 9.07802 
-0.0535005 -2.48647 9.08148 0.095385 -2.48999 9.08259 -0.000761073 -2.30672 9.05176 
-0.209214 -2.47211 9.08396 -0.0535005 -2.48647 9.08148 -0.000761073 -2.30672 9.05176 
-1.56332 -1.58777 9.31618 -1.69691 -1.26443 9.38942 -1.74355 -1.54805 9.38721 
-1.81761 -1.42393 9.42846 -1.74355 -1.54805 9.38721 -1.69691 -1.26443 9.38942 
-1.88088 -1.29424 9.47106 -1.81761 -1.42393 9.42846 -1.69691 -1.26443 9.38942 
-1.92961 -1.15866 9.51335 -1.88088 -1.29424 9.47106 -1.69691 -1.26443 9.38942 
-2.01495 -0.735934 9.64719 -2.00026 -0.888643 9.60096 -1.77358 -0.585402 9.55447 
-2.02106 -0.51525 9.71737 -2.01495 -0.735934 9.64719 -1.77358 -0.585402 9.55447 
-1.97367 -0.261476 9.788 -2.02106 -0.51525 9.71737 -1.77358 -0.585402 9.55447 
-1.47069 0.778134 10.144 -1.56928 0.670011 10.108 -1.24302 0.691463 9.97579 
-1.36358 0.878221 10.1769 -1.47069 0.778134 10.144 -1.24302 0.691463 9.97579 
-1.24612 0.968976 10.205 -1.36358 0.878221 10.1769 -1.24302 0.691463 9.97579 
-1.12457 1.05119 10.2313 -1.24612 0.968976 10.205 -0.978754 0.901825 10.049 
-0.99791 1.11912 10.2503 -1.12457 1.05119 10.2313 -0.978754 0.901825 10.049 
-0.834181 1.19128 10.2697 -0.99791 1.11912 10.2503 -0.667326 1.04304 10.0841 
0.563004 1.16118 10.1777 0.920206 1.01083 10.1274 0.825732 1.21 10.2843 
0.959018 1.1463 10.2627 0.825732 1.21 10.2843 0.920206 1.01083 10.1274 
1.09116 1.07329 10.2392 0.959018 1.1463 10.2627 0.920206 1.01083 10.1274 
1.21236 0.989411 10.2098 1.09116 1.07329 10.2392 0.920206 1.01083 10.1274 
1.32553 0.902636 10.1814 1.21236 0.989411 10.2098 1.27359 0.757433 10.0416 
1.43917 0.79915 10.1466 1.32553 0.902636 10.1814 1.27359 0.757433 10.0416 
1.53859 0.646431 10.0787 1.43917 0.79915 10.1466 1.27359 0.757433 10.0416 
4.57933 -0.726328 10.9059 2.02725 -0.41345 9.75666 2.03315 -0.557176 9.71016 
2.03315 -0.557176 9.71016 4.58408 -0.924759 10.8415 4.57933 -0.726328 10.9059 
4.56651 -0.555433 10.9606 4.53998 -0.315709 11.0396 2.0097 -0.271887 9.80215 
2.0097 -0.271887 9.80215 2.02725 -0.41345 9.75666 4.56651 -0.555433 10.9606 
4.50827 -0.135142 11.098 4.47099 0.0395278 11.1547 1.98348 -0.129062 9.84948 
2.0097 -0.271887 9.80215 4.53998 -0.315709 11.0396 4.50827 -0.135142 11.098 
1.98348 -0.129062 9.84948 2.0097 -0.271887 9.80215 4.50827 -0.135142 11.098 
4.40675 0.277236 11.2319 1.94186 0.00926387 9.893 1.98348 -0.129062 9.84948 
1.98348 -0.129062 9.84948 4.47099 0.0395278 11.1547 4.40675 0.277236 11.2319 
4.40675 0.277236 11.2319 4.35323 0.441334 11.2853 1.94186 0.00926387 9.893 
4.35323 0.441334 11.2853 4.28596 0.622168 11.3441 1.89173 0.140429 9.93444 
1.89173 0.140429 9.93444 1.94186 0.00926387 9.893 4.35323 0.441334 11.2853 
4.28596 0.622168 11.3441 4.20457 0.812159 11.4058 1.89173 0.140429 9.93444 
4.20457 0.812159 11.4058 4.12941 0.969243 11.4568 1.82544 0.276419 9.97641 
1.82544 0.276419 9.97641 1.89173 0.140429 9.93444 4.20457 0.812159 11.4058 
4.01634 1.17733 11.5245 1.75207 0.395324 10.0116 1.82544 0.276419 9.97641 
1.82544 0.276419 9.97641 4.12941 0.969243 11.4568 4.01634 1.17733 11.5245 
4.01634 1.17733 11.5245 3.91673 1.34048 11.5775 1.75207 0.395324 10.0116 
3.91673 1.34048 11.5775 3.81648 1.48678 11.6236 1.68829 0.519206 10.0593 
1.68829 0.519206 10.0593 1.75207 0.395324 10.0116 3.91673 1.34048 11.5775 
3.62588 1.73378 11.7013 1.53859 0.646431 10.0787 1.68829 0.519206 10.0593 
1.68829 0.519206 10.0593 3.81648 1.48678 11.6236 3.62588 1.73378 11.7013 
1.53859 0.646431 10.0787 3.62588 1.73378 11.7013 3.42976 1.96826 11.7814 
3.42976 1.96826 11.7814 3.26084 2.14362 11.8398 1.43917 0.79915 10.1466 
3.12888 2.26148 11.8767 1.32553 0.902636 10.1814 1.43917 0.79915 10.1466 
1.32553 0.902636 10.1814 3.12888 2.26148 11.8767 2.97051 2.39588 11.9204 
2.81127 2.51888 11.9604 1.21236 0.989411 10.2098 1.32553 0.902636 10.1814 
1.21236 0.989411 10.2098 2.81127 2.51888 11.9604 2.66726 2.62153 11.9936 
2.66726 2.62153 11.9936 2.45438 2.75778 12.0379 1.09116 1.07329 10.2392 
2.29204 2.85087 12.0682 0.959018 1.1463 10.2627 1.09116 1.07329 10.2392 
1.09116 1.07329 10.2392 2.45438 2.75778 12.0379 2.29204 2.85087 12.0682 
1.88305 3.04975 12.1321 0.825732 1.21 10.2843 0.959018 1.1463 10.2627 
0.685361 1.26221 10.3007 1.88305 3.04975 12.1321 1.73012 3.11253 12.1533 
0.685361 1.26221 10.3007 1.73012 3.11253 12.1533 1.53848 3.18217 12.1759 
0.685361 1.26221 10.3007 0.825732 1.21 10.2843 1.88305 3.04975 12.1321 
1.33693 3.24543 12.1964 0.541382 1.30653 10.3156 0.685361 1.26221 10.3007 
0.685361 1.26221 10.3007 1.53848 3.18217 12.1759 1.33693 3.24543 12.1964 
1.16394 3.29195 12.2111 0.919594 3.34657 12.2293 0.394957 1.33896 10.3258 
0.394957 1.33896 10.3258 0.541382 1.30653 10.3156 1.16394 3.29195 12.2111 
0.727414 3.37972 12.2401 0.227119 1.27649 10.2528 0.394957 1.33896 10.3258 
0.394957 1.33896 10.3258 0.919594 3.34657 12.2293 0.727414 3.37972 12.2401 
0.727414 3.37972 12.2401 0.544466 3.40414 12.2477 0.227119 1.27649 10.2528 
0.287115 3.42826 12.2566 0.0953936 1.37536 10.3385 0.227119 1.27649 10.2528 
0.227119 1.27649 10.2528 0.544466 3.40414 12.2477 0.287115 3.42826 12.2566 
0.287115 3.42826 12.2566 0.104348 3.43383 12.2577 0.0953936 1.37536 10.3385 
0.104348 3.43383 12.2577 -0.0940894 3.43424 12.2578 -0.0535274 1.37321 10.3356 
-0.0535274 1.37321 10.3356 0.0953936 1.37536 10.3385 0.104348 3.43383 12.2577 
-0.341367 3.42638 12.2571 -0.209479 1.36206 10.3309 -0.0535274 1.37321 10.3356 
-0.0535274 1.37321 10.3356 -0.0940894 3.43424 12.2578 -0.341367 3.42638 12.2571 
-0.734276 3.37883 12.2398 -0.351242 1.34052 10.3225 -0.209479 1.36206 10.3309 
-0.209479 1.36206 10.3309 -0.520661 3.40675 12.2489 -0.734276 3.37883 12.2398 
-0.734276 3.37883 12.2398 -0.932659 3.34378 12.2284 -0.351242 1.34052 10.3225 
-0.932659 3.34378 12.2284 -1.10939 3.30324 12.2136 -0.496443 1.30952 10.3114 
-0.496443 1.30952 10.3114 -0.351242 1.34052 10.3225 -0.932659 3.34378 12.2284 
-1.35829 3.24023 12.1951 -0.654576 1.26672 10.2987 -0.496443 1.30952 10.3114 
-0.496443 1.30952 10.3114 -1.10939 3.30324 12.2136 -1.35829 3.24023 12.1951 
-1.65544 3.14198 12.1628 -0.834181 1.19128 10.2697 -0.654576 1.26672 10.2987 
-1.65544 3.14198 12.1628 -1.94931 3.02463 12.1262 -0.834181 1.19128 10.2697 
-2.10898 2.94617 12.0992 -0.99791 1.11912 10.2503 -0.834181 1.19128 10.2697 
-0.99791 1.11912 10.2503 -2.10898 2.94617 12.0992 -2.29204 2.85087 12.0682 
-2.47036 2.74774 12.0347 -1.12457 1.05119 10.2313 -0.99791 1.11912 10.2503 
-1.12457 1.05119 10.2313 -2.47036 2.74774 12.0347 -2.62072 2.65403 12.0048 
-2.62072 2.65403 12.0048 -2.82471 2.50993 11.9577 -1.24612 0.968976 10.205 
-2.97315 2.39362 11.9197 -1.36358 0.878221 10.1769 -1.24612 0.968976 10.205 
-1.36358 0.878221 10.1769 -2.97315 2.39362 11.9197 -3.11304 2.27562 11.8811 
-3.11304 2.27562 11.8811 -3.30557 2.09715 11.8234 -1.47069 0.778134 10.144 
-1.56928 0.670011 10.108 -3.30557 2.09715 11.8234 -3.49838 1.87332 11.743 
-1.56928 0.670011 10.108 -1.47069 0.778134 10.144 -3.30557 2.09715 11.8234 
-3.68391 1.66983 11.6845 -1.66233 0.555915 10.0717 -1.56928 0.670011 10.108 
-1.56928 0.670011 10.108 -3.49838 1.87332 11.743 -3.68391 1.66983 11.6845 
-3.78843 1.53024 11.6389 -3.92219 1.33226 11.5748 -1.74411 0.435678 10.0324 
-1.74411 0.435678 10.0324 -1.66233 0.555915 10.0717 -3.78843 1.53024 11.6389 
-4.02108 1.16859 11.5216 -1.81719 0.308789 9.99107 -1.74411 0.435678 10.0324 
-1.74411 0.435678 10.0324 -3.92219 1.33226 11.5748 -4.02108 1.16859 11.5216 
-4.02108 1.16859 11.5216 -4.10539 1.01451 11.4711 -1.81719 0.308789 9.99107 
-4.21571 0.791791 11.3998 -1.88091 0.179652 9.94996 -1.81719 0.308789 9.99107 
-1.81719 0.308789 9.99107 -4.10539 1.01451 11.4711 -4.21571 0.791791 11.3998 
-4.21571 0.791791 11.3998 -4.28334 0.628356 11.3461 -1.88091 0.179652 9.94996 
-4.28334 0.628356 11.3461 -4.34919 0.453509 11.2892 -1.92964 0.0451033 9.90449 
-1.92964 0.0451033 9.90449 -1.88091 0.179652 9.94996 -4.28334 0.628356 11.3461 
-4.4259 0.225607 11.2171 -1.96644 -0.0919232 9.85769 -1.92964 0.0451033 9.90449 
-1.92964 0.0451033 9.90449 -4.34919 0.453509 11.2892 -4.4259 0.225607 11.2171 
-4.4259 0.225607 11.2171 -4.46581 0.0591886 11.1612 -1.96644 -0.0919232 9.85769 
-4.46581 0.0591886 11.1612 -4.51822 -0.214125 11.0696 -1.97367 -0.261476 9.788 
-1.97367 -0.261476 9.788 -1.96644 -0.0919232 9.85769 -4.46581 0.0591886 11.1612 
-4.51822 -0.214125 11.0696 -4.56348 -0.501306 10.9793 -1.97367 -0.261476 9.788 
-4.56348 -0.501306 10.9793 -2.02106 -0.51525 9.71737 -1.97367 -0.261476 9.788 
-2.02106 -0.51525 9.71737 -4.56348 -0.501306 10.9793 -4.58065 -0.744781 10.9 
-4.57322 -1.03954 10.7988 -4.56262 -1.34741 10.7039 -2.01495 -0.735934 9.64719 
-4.54139 -1.51841 10.6486 -2.00026 -0.888643 9.60096 -2.01495 -0.735934 9.64719 
-2.00026 -0.888643 9.60096 -4.54139 -1.51841 10.6486 -4.50898 -1.71111 10.586 
-4.46581 -1.90871 10.5218 -1.84836 -0.990682 9.50788 -2.00026 -0.888643 9.60096 
-1.84836 -0.990682 9.50788 -4.46581 -1.90871 10.5218 -4.42262 -2.07491 10.4679 
-4.42262 -2.07491 10.4679 -4.34928 -2.30299 10.3936 -1.92961 -1.15866 9.51335 
-4.28334 -2.47787 10.3368 -1.88088 -1.29424 9.47106 -1.92961 -1.15866 9.51335 
-1.88088 -1.29424 9.47106 -4.28334 -2.47787 10.3368 -4.21424 -2.64048 10.2838 
-4.21424 -2.64048 10.2838 -4.10297 -2.87155 10.2091 -1.81761 -1.42393 9.42846 
-1.74355 -1.54805 9.38721 -4.10297 -2.87155 10.2091 -4.02108 -3.01811 10.1613 
-1.74355 -1.54805 9.38721 -4.02108 -3.01811 10.1613 -3.92442 -3.17688 10.1094 
-1.74355 -1.54805 9.38721 -1.81761 -1.42393 9.42846 -4.10297 -2.87155 10.2091 
-1.56332 -1.58777 9.31618 -3.92442 -3.17688 10.1094 -3.78917 -3.3788 10.0439 
-1.56332 -1.58777 9.31618 -1.74355 -1.54805 9.38721 -3.92442 -3.17688 10.1094 
-3.68391 -3.51935 9.99843 -3.55161 -3.68136 9.94577 -1.57074 -1.78434 9.31122 
-1.56332 -1.58777 9.31618 -3.78917 -3.3788 10.0439 -3.68391 -3.51935 9.99843 
-1.57074 -1.78434 9.31122 -1.56332 -1.58777 9.31618 -3.68391 -3.51935 9.99843 
-3.42057 -3.8272 9.8984 -1.37877 -1.7993 9.24699 -1.57074 -1.78434 9.31122 
-1.57074 -1.78434 9.31122 -3.55161 -3.68136 9.94577 -3.42057 -3.8272 9.8984 
-3.42057 -3.8272 9.8984 -3.2969 -3.95281 9.85696 -1.37877 -1.7993 9.24699 
-3.11341 -4.12517 9.80152 -1.36358 -1.99272 9.24403 -1.37877 -1.7993 9.24699 
-1.37877 -1.7993 9.24699 -3.2969 -3.95281 9.85696 -3.11341 -4.12517 9.80152 
-3.11341 -4.12517 9.80152 -2.97315 -4.24314 9.76326 -1.36358 -1.99272 9.24403 
-2.97315 -4.24314 9.76326 -2.82483 -4.35974 9.72571 -1.24612 -2.08274 9.21346 
-1.24612 -2.08274 9.21346 -1.36358 -1.99272 9.24403 -2.97315 -4.24314 9.76326 
-2.62038 -4.50328 9.67897 -1.12456 -2.16468 9.18639 -1.24612 -2.08274 9.21346 
-1.24612 -2.08274 9.21346 -2.82483 -4.35974 9.72571 -2.62038 -4.50328 9.67897 
-2.62038 -4.50328 9.67897 -2.47036 -4.59726 9.64819 -1.12456 -2.16468 9.18639 
-2.47036 -4.59726 9.64819 -2.29204 -4.70039 9.61469 -0.997976 -2.23087 9.16182 
-0.997976 -2.23087 9.16182 -1.12456 -2.16468 9.18639 -2.47036 -4.59726 9.64819 
-2.29204 -4.70039 9.61469 -2.10898 -4.79569 9.58372 -0.997976 -2.23087 9.16182 
-2.10898 -4.79569 9.58372 -1.9479 -4.872 9.55895 -0.795108 -2.19048 9.11853 
-0.795108 -2.19048 9.11853 -0.997976 -2.23087 9.16182 -2.10898 -4.79569 9.58372 
-0.795108 -2.19048 9.11853 -1.9479 -4.872 9.55895 -1.71488 -4.96835 9.52764 
-1.71488 -4.96835 9.52764 -1.53512 -5.03275 9.50669 -0.609714 -2.27838 9.09774 
-1.53512 -5.03275 9.50669 -1.35843 -5.0905 9.48851 -0.609714 -2.27838 9.09774 
-1.35843 -5.0905 9.48851 -1.10999 -5.15476 9.4668 -0.498536 -2.43057 9.10068 
-0.932659 -5.19329 9.45453 -0.318243 -2.32582 9.07285 -0.498536 -2.43057 9.10068 
-0.318243 -2.32582 9.07285 -0.932659 -5.19329 9.45453 -0.7343 -5.22833 9.44314 
-0.7343 -5.22833 9.44314 -0.493913 -5.25963 9.43298 -0.209214 -2.47211 9.08396 
-0.312829 -5.27432 9.42821 -0.0940996 -5.28376 9.42513 -0.0535005 -2.48647 9.08148 
-0.209214 -2.47211 9.08396 -0.493913 -5.25963 9.43298 -0.312829 -5.27432 9.42821 
0.104348 -5.28335 9.42527 0.095385 -2.48999 9.08259 -0.0535005 -2.48647 9.08148 
0.095385 -2.48999 9.08259 0.104348 -5.28335 9.42527 0.286778 -5.27316 9.42708 
0.286778 -5.27316 9.42708 0.544612 -5.2547 9.43483 0.238081 -2.33709 9.06919 
0.727414 -5.22924 9.44285 0.919586 -5.19598 9.45358 0.394992 -2.45304 9.09367 
0.238081 -2.33709 9.06919 0.544612 -5.2547 9.43483 0.727414 -5.22924 9.44285 
1.16479 -5.1447 9.47149 0.541312 -2.42086 9.10451 0.394992 -2.45304 9.09367 
1.33693 -5.09495 9.48649 1.53848 -5.03169 9.50704 0.68538 -2.37729 9.1186 
0.541312 -2.42086 9.10451 1.16479 -5.1447 9.47149 1.33693 -5.09495 9.48649 
0.68538 -2.37729 9.1186 0.541312 -2.42086 9.10451 1.33693 -5.09495 9.48649 
1.73012 -4.96205 9.52967 0.825782 -2.32369 9.13593 0.68538 -2.37729 9.1186 
0.68538 -2.37729 9.1186 1.53848 -5.03169 9.50704 1.73012 -4.96205 9.52967 
1.73012 -4.96205 9.52967 1.89577 -4.89316 9.55134 0.825782 -2.32369 9.13593 
1.89577 -4.89316 9.55134 2.12608 -4.78745 9.58629 0.959022 -2.26008 9.15589 
0.959022 -2.26008 9.15589 0.825782 -2.32369 9.13593 1.89577 -4.89316 9.55134 
2.29204 -4.70039 9.61469 2.45485 -4.6082 9.64504 1.09237 -2.19025 9.18024 
0.959022 -2.26008 9.15589 2.12608 -4.78745 9.58629 2.29204 -4.70039 9.61469 
1.09237 -2.19025 9.18024 0.959022 -2.26008 9.15589 2.29204 -4.70039 9.61469 
2.6673 -4.47093 9.68914 1.21229 -2.10201 9.20529 1.09237 -2.19025 9.18024 
1.09237 -2.19025 9.18024 2.45485 -4.6082 9.64504 2.6673 -4.47093 9.68914 
2.6673 -4.47093 9.68914 2.81127 -4.3684 9.72256 1.21229 -2.10201 9.20529 
2.81127 -4.3684 9.72256 2.97052 -4.24539 9.76253 1.32557 -2.0152 9.23339 
1.32557 -2.0152 9.23339 1.21229 -2.10201 9.20529 2.81127 -4.3684 9.72256 
2.97052 -4.24539 9.76253 3.12888 -4.111 9.80619 1.32557 -2.0152 9.23339 
3.12888 -4.111 9.80619 3.25865 -3.99131 9.84489 1.44419 -1.91684 9.26765 
1.44419 -1.91684 9.26765 1.32557 -2.0152 9.23339 3.12888 -4.111 9.80619 
3.47251 -3.769 9.91607 1.57828 -1.76861 9.31468 1.44419 -1.91684 9.26765 
1.44419 -1.91684 9.26765 3.25865 -3.99131 9.84489 3.47251 -3.769 9.91607 
3.47251 -3.769 9.91607 3.66974 -3.538 9.99228 1.57828 -1.76861 9.31468 
3.66974 -3.538 9.99228 3.81919 -3.33758 10.0577 1.68175 -1.62799 9.35777 
3.91673 -3.19 10.1054 1.75737 -1.50871 9.39593 1.68175 -1.62799 9.35777 
1.75737 -1.50871 9.39593 3.91673 -3.19 10.1054 4.01637 -3.02673 10.1585 
4.01637 -3.02673 10.1585 4.12995 -2.819 10.2262 1.83384 -1.39306 9.43849 
4.20457 -2.66168 10.2771 1.89174 -1.25339 9.48157 1.83384 -1.39306 9.43849 
1.89174 -1.25339 9.48157 4.20457 -2.66168 10.2771 4.28599 -2.47171 10.3388 
4.35323 -2.29085 10.3976 1.93999 -1.12128 9.52459 1.89174 -1.25339 9.48157 
1.93999 -1.12128 9.52459 4.35323 -2.29085 10.3976 4.40742 -2.12658 10.4511 
4.40742 -2.12658 10.4511 4.47048 -1.88846 10.528 1.88857 -0.937769 9.53749 
4.50827 -1.71438 10.5849 2.00971 -0.842071 9.61689 1.88857 -0.937769 9.53749 
1.88857 -0.937769 9.53749 4.47048 -1.88846 10.528 4.50827 -1.71438 10.5849 
4.56699 -1.29373 10.721 2.02728 -0.700831 9.6633 2.00971 -0.842071 9.61689 
4.57933 -1.12319 10.777 4.58408 -0.924759 10.8415 2.03315 -0.557176 9.71016 
2.02728 -0.700831 9.6633 4.56699 -1.29373 10.721 4.57933 -1.12319 10.777 
2.03315 -0.557176 9.71016 2.02728 -0.700831 9.6633 4.57933 -1.12319 10.777 
2.00971 -0.842071 9.61689 4.54012 -1.53411 10.6438 4.56699 -1.29373 10.721 
4.50827 -1.71438 10.5849 4.54012 -1.53411 10.6438 2.00971 -0.842071 9.61689 
1.88857 -0.937769 9.53749 1.93999 -1.12128 9.52459 4.40742 -2.12658 10.4511 
1.89174 -1.25339 9.48157 4.28599 -2.47171 10.3388 4.35323 -2.29085 10.3976 
1.83384 -1.39306 9.43849 4.12995 -2.819 10.2262 4.20457 -2.66168 10.2771 
1.83384 -1.39306 9.43849 1.75737 -1.50871 9.39593 4.01637 -3.02673 10.1585 
1.68175 -1.62799 9.35777 3.81919 -3.33758 10.0577 3.91673 -3.19 10.1054 
1.68175 -1.62799 9.35777 1.57828 -1.76861 9.31468 3.66974 -3.538 9.99228 
0.394992 -2.45304 9.09367 0.919586 -5.19598 9.45358 1.16479 -5.1447 9.47149 
0.394992 -2.45304 9.09367 0.238081 -2.33709 9.06919 0.727414 -5.22924 9.44285 
0.238081 -2.33709 9.06919 0.095385 -2.48999 9.08259 0.286778 -5.27316 9.42708 
-0.0535005 -2.48647 9.08148 -0.0940996 -5.28376 9.42513 0.104348 -5.28335 9.42527 
-0.0535005 -2.48647 9.08148 -0.209214 -2.47211 9.08396 -0.312829 -5.27432 9.42821 
-0.209214 -2.47211 9.08396 -0.318243 -2.32582 9.07285 -0.7343 -5.22833 9.44314 
-0.498536 -2.43057 9.10068 -1.10999 -5.15476 9.4668 -0.932659 -5.19329 9.45453 
-0.498536 -2.43057 9.10068 -0.609714 -2.27838 9.09774 -1.35843 -5.0905 9.48851 
-0.609714 -2.27838 9.09774 -0.795108 -2.19048 9.11853 -1.71488 -4.96835 9.52764 
-1.81761 -1.42393 9.42846 -1.88088 -1.29424 9.47106 -4.21424 -2.64048 10.2838 
-1.92961 -1.15866 9.51335 -4.34928 -2.30299 10.3936 -4.28334 -2.47787 10.3368 
-1.92961 -1.15866 9.51335 -1.84836 -0.990682 9.50788 -4.42262 -2.07491 10.4679 
-2.00026 -0.888643 9.60096 -4.50898 -1.71111 10.586 -4.46581 -1.90871 10.5218 
-2.01495 -0.735934 9.64719 -4.56262 -1.34741 10.7039 -4.54139 -1.51841 10.6486 
-2.01495 -0.735934 9.64719 -2.02106 -0.51525 9.71737 -4.57322 -1.03954 10.7988 
-2.02106 -0.51525 9.71737 -4.58065 -0.744781 10.9 -4.57322 -1.03954 10.7988 
-3.68391 1.66983 11.6845 -3.78843 1.53024 11.6389 -1.66233 0.555915 10.0717 
-1.47069 0.778134 10.144 -1.36358 0.878221 10.1769 -3.11304 2.27562 11.8811 
-1.24612 0.968976 10.205 -2.82471 2.50993 11.9577 -2.97315 2.39362 11.9197 
-1.24612 0.968976 10.205 -1.12457 1.05119 10.2313 -2.62072 2.65403 12.0048 
-0.99791 1.11912 10.2503 -2.29204 2.85087 12.0682 -2.47036 2.74774 12.0347 
-0.834181 1.19128 10.2697 -1.94931 3.02463 12.1262 -2.10898 2.94617 12.0992 
-0.654576 1.26672 10.2987 -1.35829 3.24023 12.1951 -1.65544 3.14198 12.1628 
-0.209479 1.36206 10.3309 -0.341367 3.42638 12.2571 -0.520661 3.40675 12.2489 
1.33693 3.24543 12.1964 1.16394 3.29195 12.2111 0.541382 1.30653 10.3156 
0.959018 1.1463 10.2627 2.12602 2.93787 12.0963 1.88305 3.04975 12.1321 
2.29204 2.85087 12.0682 2.12602 2.93787 12.0963 0.959018 1.1463 10.2627 
1.09116 1.07329 10.2392 1.21236 0.989411 10.2098 2.66726 2.62153 11.9936 
1.32553 0.902636 10.1814 2.97051 2.39588 11.9204 2.81127 2.51888 11.9604 
1.43917 0.79915 10.1466 3.26084 2.14362 11.8398 3.12888 2.26148 11.8767 
1.43917 0.79915 10.1466 1.53859 0.646431 10.0787 3.42976 1.96826 11.7814 
4.57933 -0.726328 10.9059 4.56651 -0.555433 10.9606 2.02725 -0.41345 9.75666 
-4.78814 -0.859447 10.9766 -4.57322 -1.03954 10.7988 -4.58065 -0.744781 10.9 
-4.58065 -0.744781 10.9 -4.56348 -0.501306 10.9793 -4.75437 -0.435193 11.1109 
-4.51822 -0.214125 11.0696 -4.67792 0.108528 11.3026 -4.75437 -0.435193 11.1109 
-4.51822 -0.214125 11.0696 -4.46581 0.0591886 11.1612 -4.67792 0.108528 11.3026 
-4.67792 0.108528 11.3026 -4.46581 0.0591886 11.1612 -4.4259 0.225607 11.2171 
-4.4259 0.225607 11.2171 -4.34919 0.453509 11.2892 -4.46846 0.659025 11.4626 
-4.46846 0.659025 11.4626 -4.28334 0.628356 11.3461 -4.21571 0.791791 11.3998 
-4.21571 0.791791 11.3998 -4.10539 1.01451 11.4711 -4.25578 1.12732 11.6203 
-4.25578 1.12732 11.6203 -4.02108 1.16859 11.5216 -3.92219 1.33226 11.5748 
-3.92219 1.33226 11.5748 -4.03966 1.49715 11.7457 -4.25578 1.12732 11.6203 
-3.92219 1.33226 11.5748 -3.78843 1.53024 11.6389 -4.03966 1.49715 11.7457 
-3.76359 1.86334 11.8624 -4.03966 1.49715 11.7457 -3.78843 1.53024 11.6389 
-3.68391 1.66983 11.6845 -3.49838 1.87332 11.743 -3.76359 1.86334 11.8624 
-3.49094 2.15974 11.9573 -3.76359 1.86334 11.8624 -3.49838 1.87332 11.743 
-3.49094 2.15974 11.9573 -3.49838 1.87332 11.743 -3.30557 2.09715 11.8234 
-3.30557 2.09715 11.8234 -3.11304 2.27562 11.8811 -3.0917 2.5271 12.0779 
-3.0917 2.5271 12.0779 -2.97315 2.39362 11.9197 -2.82471 2.50993 11.9577 
-2.82471 2.50993 11.9577 -2.62072 2.65403 12.0048 -2.66673 2.82469 12.1729 
-2.47036 2.74774 12.0347 -2.29204 2.85087 12.0682 -2.19756 3.09225 12.26 
-2.29204 2.85087 12.0682 -2.10898 2.94617 12.0992 -2.19756 3.09225 12.26 
-2.19756 3.09225 12.26 -2.10898 2.94617 12.0992 -1.94931 3.02463 12.1262 
-1.94931 3.02463 12.1262 -1.65544 3.14198 12.1628 -1.68797 3.30502 12.3296 
-1.68797 3.30502 12.3296 -1.65544 3.14198 12.1628 -1.35829 3.24023 12.1951 
-1.35829 3.24023 12.1951 -1.17228 3.45857 12.3774 -1.68797 3.30502 12.3296 
-1.35829 3.24023 12.1951 -1.10939 3.30324 12.2136 -1.17228 3.45857 12.3774 
-1.17228 3.45857 12.3774 -0.932659 3.34378 12.2284 -0.734276 3.37883 12.2398 
-0.734276 3.37883 12.2398 -0.636799 3.56276 12.4186 -1.17228 3.45857 12.3774 
-0.734276 3.37883 12.2398 -0.520661 3.40675 12.2489 -0.636799 3.56276 12.4186 
-0.636799 3.56276 12.4186 -0.520661 3.40675 12.2489 -0.341367 3.42638 12.2571 
-0.341367 3.42638 12.2571 -0.100402 3.60212 12.4295 -0.636799 3.56276 12.4186 
-0.341367 3.42638 12.2571 -0.0940894 3.43424 12.2578 -0.100402 3.60212 12.4295 
-0.100402 3.60212 12.4295 0.104348 3.43383 12.2577 0.287115 3.42826 12.2566 
0.287115 3.42826 12.2566 0.560501 3.56415 12.4094 -0.100402 3.60212 12.4295 
0.287115 3.42826 12.2566 0.544466 3.40414 12.2477 0.560501 3.56415 12.4094 
0.560501 3.56415 12.4094 0.727414 3.37972 12.2401 0.919594 3.34657 12.2293 
0.919594 3.34657 12.2293 1.32872 3.41077 12.3533 0.560501 3.56415 12.4094 
0.919594 3.34657 12.2293 1.16394 3.29195 12.2111 1.32872 3.41077 12.3533 
1.33693 3.24543 12.1964 1.53848 3.18217 12.1759 1.32872 3.41077 12.3533 
1.97 3.18958 12.2876 1.32872 3.41077 12.3533 1.53848 3.18217 12.1759 
1.97 3.18958 12.2876 1.73012 3.11253 12.1533 1.88305 3.04975 12.1321 
1.88305 3.04975 12.1321 2.12602 2.93787 12.0963 1.97 3.18958 12.2876 
2.49878 2.94379 12.2235 1.97 3.18958 12.2876 2.12602 2.93787 12.0963 
2.49878 2.94379 12.2235 2.29204 2.85087 12.0682 2.45438 2.75778 12.0379 
2.45438 2.75778 12.0379 2.66726 2.62153 11.9936 2.87934 2.69528 12.1384 
2.87934 2.69528 12.1384 2.81127 2.51888 11.9604 2.97051 2.39588 11.9204 
2.97051 2.39588 11.9204 3.29173 2.43336 12.0926 2.87934 2.69528 12.1384 
2.97051 2.39588 11.9204 3.12888 2.26148 11.8767 3.29173 2.43336 12.0926 
3.29173 2.43336 12.0926 3.12888 2.26148 11.8767 3.26084 2.14362 11.8398 
3.26084 2.14362 11.8398 3.42976 1.96826 11.7814 3.65003 1.9861 11.8985 
3.62588 1.73378 11.7013 3.99076 1.56789 11.7657 3.65003 1.9861 11.8985 
3.62588 1.73378 11.7013 3.81648 1.48678 11.6236 3.99076 1.56789 11.7657 
3.99076 1.56789 11.7657 3.91673 1.34048 11.5775 4.01634 1.17733 11.5245 
4.01634 1.17733 11.5245 4.25994 1.14866 11.6374 3.99076 1.56789 11.7657 
4.01634 1.17733 11.5245 4.12941 0.969243 11.4568 4.25994 1.14866 11.6374 
4.46128 0.726198 11.4977 4.25994 1.14866 11.6374 4.12941 0.969243 11.4568 
4.20457 0.812159 11.4058 4.28596 0.622168 11.3441 4.46128 0.726198 11.4977 
4.58419 0.358382 11.3717 4.46128 0.726198 11.4977 4.28596 0.622168 11.3441 
4.58419 0.358382 11.3717 4.35323 0.441334 11.2853 4.40675 0.277236 11.2319 
4.40675 0.277236 11.2319 4.47099 0.0395278 11.1547 4.72598 -0.196172 11.1919 
4.72598 -0.196172 11.1919 4.50827 -0.135142 11.098 4.53998 -0.315709 11.0396 
4.53998 -0.315709 11.0396 4.56651 -0.555433 10.9606 4.79129 -0.780347 11.0034 
4.57933 -0.726328 10.9059 4.58408 -0.924759 10.8415 4.79129 -0.780347 11.0034 
4.58408 -0.924759 10.8415 4.57933 -1.12319 10.777 4.76296 -1.36918 10.8051 
4.76296 -1.36918 10.8051 4.57933 -1.12319 10.777 4.56699 -1.29373 10.721 
4.56699 -1.29373 10.721 4.54012 -1.53411 10.6438 4.76296 -1.36918 10.8051 
4.69774 -1.87122 10.6508 4.76296 -1.36918 10.8051 4.54012 -1.53411 10.6438 
4.69774 -1.87122 10.6508 4.50827 -1.71438 10.5849 4.47048 -1.88846 10.528 
4.47048 -1.88846 10.528 4.40742 -2.12658 10.4511 4.57835 -2.30349 10.5082 
4.57835 -2.30349 10.5082 4.35323 -2.29085 10.3976 4.28599 -2.47171 10.3388 
4.28599 -2.47171 10.3388 4.33266 -2.92481 10.3093 4.57835 -2.30349 10.5082 
4.28599 -2.47171 10.3388 4.20457 -2.66168 10.2771 4.33266 -2.92481 10.3093 
4.33266 -2.92481 10.3093 4.20457 -2.66168 10.2771 4.12995 -2.819 10.2262 
4.12995 -2.819 10.2262 4.01637 -3.02673 10.1585 4.33266 -2.92481 10.3093 
4.09687 -3.48669 10.1783 4.33266 -2.92481 10.3093 4.01637 -3.02673 10.1585 
4.09687 -3.48669 10.1783 3.91673 -3.19 10.1054 3.81919 -3.33758 10.0577 
3.81919 -3.33758 10.0577 3.66974 -3.538 9.99228 3.76225 -3.77864 10.0278 
3.47251 -3.769 9.91607 3.3084 -4.26465 9.87255 3.76225 -3.77864 10.0278 
3.47251 -3.769 9.91607 3.25865 -3.99131 9.84489 3.3084 -4.26465 9.87255 
3.12888 -4.111 9.80619 2.97052 -4.24539 9.76253 3.3084 -4.26465 9.87255 
2.8437 -4.62709 9.75408 3.3084 -4.26465 9.87255 2.97052 -4.24539 9.76253 
2.8437 -4.62709 9.75408 2.81127 -4.3684 9.72256 2.6673 -4.47093 9.68914 
2.6673 -4.47093 9.68914 2.45485 -4.6082 9.64504 2.39922 -4.89798 9.66141 
2.39922 -4.89798 9.66141 2.29204 -4.70039 9.61469 2.12608 -4.78745 9.58629 
2.12608 -4.78745 9.58629 1.89577 -4.89316 9.55134 1.88831 -5.1448 9.58356 
1.88831 -5.1448 9.58356 1.73012 -4.96205 9.52967 1.53848 -5.03169 9.50704 
1.53848 -5.03169 9.50704 1.46023 -5.30724 9.53681 1.88831 -5.1448 9.58356 
1.53848 -5.03169 9.50704 1.33693 -5.09495 9.48649 1.46023 -5.30724 9.53681 
1.46023 -5.30724 9.53681 1.33693 -5.09495 9.48649 1.16479 -5.1447 9.47149 
1.16479 -5.1447 9.47149 0.930312 -5.43388 9.49268 1.46023 -5.30724 9.53681 
1.16479 -5.1447 9.47149 0.919586 -5.19598 9.45358 0.930312 -5.43388 9.49268 
0.930312 -5.43388 9.49268 0.727414 -5.22924 9.44285 0.544612 -5.2547 9.43483 
0.544612 -5.2547 9.43483 0.327826 -5.50487 9.4664 0.930312 -5.43388 9.49268 
0.544612 -5.2547 9.43483 0.286778 -5.27316 9.42708 0.327826 -5.50487 9.4664 
0.327826 -5.50487 9.4664 0.104348 -5.28335 9.42527 -0.0940996 -5.28376 9.42513 
-0.0940996 -5.28376 9.42513 -0.467051 -5.51508 9.47226 0.327826 -5.50487 9.4664 
-0.0940996 -5.28376 9.42513 -0.312829 -5.27432 9.42821 -0.467051 -5.51508 9.47226 
-0.467051 -5.51508 9.47226 -0.312829 -5.27432 9.42821 -0.493913 -5.25963 9.43298 
-0.493913 -5.25963 9.43298 -0.7343 -5.22833 9.44314 -0.467051 -5.51508 9.47226 
-1.18718 -5.38663 9.51195 -0.467051 -5.51508 9.47226 -0.7343 -5.22833 9.44314 
-1.18718 -5.38663 9.51195 -0.932659 -5.19329 9.45453 -1.10999 -5.15476 9.4668 
-1.10999 -5.15476 9.4668 -1.35843 -5.0905 9.48851 -1.18718 -5.38663 9.51195 
-1.70931 -5.2127 9.56176 -1.18718 -5.38663 9.51195 -1.35843 -5.0905 9.48851 
-1.70931 -5.2127 9.56176 -1.53512 -5.03275 9.50669 -1.71488 -4.96835 9.52764 
-1.71488 -4.96835 9.52764 -1.9479 -4.872 9.55895 -2.19386 -5.00193 9.62595 
-2.10898 -4.79569 9.58372 -2.29204 -4.70039 9.61469 -2.19386 -5.00193 9.62595 
-2.29204 -4.70039 9.61469 -2.47036 -4.59726 9.64819 -2.67893 -4.74298 9.71885 
-2.67893 -4.74298 9.71885 -2.47036 -4.59726 9.64819 -2.62038 -4.50328 9.67897 
-2.62038 -4.50328 9.67897 -2.82483 -4.35974 9.72571 -3.11932 -4.41939 9.81977 
-3.11932 -4.41939 9.81977 -2.97315 -4.24314 9.76326 -3.11341 -4.12517 9.80152 
-3.11341 -4.12517 9.80152 -3.2969 -3.95281 9.85696 -3.51404 -4.04437 9.93761 
-3.51404 -4.04437 9.93761 -3.42057 -3.8272 9.8984 -3.55161 -3.68136 9.94577 
-3.55161 -3.68136 9.94577 -3.93969 -3.56681 10.1002 -3.51404 -4.04437 9.93761 
-3.55161 -3.68136 9.94577 -3.68391 -3.51935 9.99843 -3.93969 -3.56681 10.1002 
-3.93969 -3.56681 10.1002 -3.68391 -3.51935 9.99843 -3.78917 -3.3788 10.0439 
-3.78917 -3.3788 10.0439 -3.92442 -3.17688 10.1094 -3.93969 -3.56681 10.1002 
-4.25495 -3.05409 10.2651 -3.93969 -3.56681 10.1002 -3.92442 -3.17688 10.1094 
-4.25495 -3.05409 10.2651 -4.02108 -3.01811 10.1613 -4.10297 -2.87155 10.2091 
-4.10297 -2.87155 10.2091 -4.21424 -2.64048 10.2838 -4.45889 -2.64663 10.4005 
-4.45889 -2.64663 10.4005 -4.28334 -2.47787 10.3368 -4.34928 -2.30299 10.3936 
-4.34928 -2.30299 10.3936 -4.66667 -2.02004 10.6013 -4.45889 -2.64663 10.4005 
-4.34928 -2.30299 10.3936 -4.42262 -2.07491 10.4679 -4.66667 -2.02004 10.6013 
-4.46581 -1.90871 10.5218 -4.50898 -1.71111 10.586 -4.66667 -2.02004 10.6013 
-4.77147 -1.37791 10.8077 -4.66667 -2.02004 10.6013 -4.50898 -1.71111 10.586 
-4.77147 -1.37791 10.8077 -4.54139 -1.51841 10.6486 -4.56262 -1.34741 10.7039 
-4.56262 -1.34741 10.7039 -4.57322 -1.03954 10.7988 -4.77147 -1.37791 10.8077 
-4.78814 -0.859447 10.9766 -4.77147 -1.37791 10.8077 -4.57322 -1.03954 10.7988 
-4.78814 -0.859447 10.9766 -4.75437 -0.435193 11.1109 -4.95914 -0.672255 11.1719 
-4.75437 -0.435193 11.1109 -4.67792 0.108528 11.3026 -4.97154 -0.273382 11.3504 
-4.67792 0.108528 11.3026 -4.46846 0.659025 11.4626 -4.77761 0.375632 11.5265 
-4.46846 0.659025 11.4626 -4.25578 1.12732 11.6203 -4.51186 0.982432 11.7068 
-4.25578 1.12732 11.6203 -4.03966 1.49715 11.7457 -4.23537 1.48315 11.872 
-4.03966 1.49715 11.7457 -3.76359 1.86334 11.8624 -3.91122 1.91707 12.0102 
-3.76359 1.86334 11.8624 -3.49094 2.15974 11.9573 -3.54424 2.32318 12.1463 
-3.49094 2.15974 11.9573 -3.0917 2.5271 12.0779 -3.54424 2.32318 12.1463 
-3.0917 2.5271 12.0779 -2.66673 2.82469 12.1729 -2.77096 2.92726 12.3414 
-2.66673 2.82469 12.1729 -2.19756 3.09225 12.26 -2.28373 3.1927 12.4153 
-2.19756 3.09225 12.26 -1.68797 3.30502 12.3296 -1.78871 3.41092 12.4953 
-1.68797 3.30502 12.3296 -1.17228 3.45857 12.3774 -1.45244 3.56336 12.5876 
-1.17228 3.45857 12.3774 -0.636799 3.56276 12.4186 -0.89736 3.65223 12.577 
-0.636799 3.56276 12.4186 -0.100402 3.60212 12.4295 -0.459311 3.7414 12.6407 
-0.100402 3.60212 12.4295 0.560501 3.56415 12.4094 0.151378 3.72943 12.6022 
0.560501 3.56415 12.4094 1.32872 3.41077 12.3533 1.10489 3.60635 12.5554 
1.32872 3.41077 12.3533 1.97 3.18958 12.2876 1.73037 3.4672 12.5476 
2.49878 2.94379 12.2235 2.87934 2.69528 12.1384 2.9229 2.88446 12.3749 
3.29173 2.43336 12.0926 3.65003 1.9861 11.8985 3.68758 2.17076 12.0923 
3.65003 1.9861 11.8985 3.99076 1.56789 11.7657 4.07 1.70379 11.9359 
3.99076 1.56789 11.7657 4.25994 1.14866 11.6374 4.37101 1.35304 11.8772 
4.25994 1.14866 11.6374 4.46128 0.726198 11.4977 4.60736 0.857703 11.6948 
4.46128 0.726198 11.4977 4.58419 0.358382 11.3717 4.78136 0.280474 11.4751 
4.58419 0.358382 11.3717 4.72598 -0.196172 11.1919 4.78136 0.280474 11.4751 
4.72598 -0.196172 11.1919 4.79129 -0.780347 11.0034 5.01856 -0.789332 11.1736 
4.79129 -0.780347 11.0034 4.76296 -1.36918 10.8051 4.95914 -1.32324 10.9603 
4.76296 -1.36918 10.8051 4.69774 -1.87122 10.6508 4.93297 -1.88455 10.8125 
4.69774 -1.87122 10.6508 4.57835 -2.30349 10.5082 4.74612 -2.39443 10.6093 
4.57835 -2.30349 10.5082 4.33266 -2.92481 10.3093 4.60217 -2.7847 10.4855 
4.09687 -3.48669 10.1783 3.76225 -3.77864 10.0278 3.92561 -3.90012 10.1229 
3.76225 -3.77864 10.0278 3.3084 -4.26465 9.87255 3.55128 -4.30255 9.98869 
3.3084 -4.26465 9.87255 2.8437 -4.62709 9.75408 3.13292 -4.74331 9.88974 
2.8437 -4.62709 9.75408 2.39922 -4.89798 9.66141 2.69234 -5.04282 9.7914 
2.39922 -4.89798 9.66141 1.88831 -5.1448 9.58356 2.1832 -5.24504 9.68607 
1.88831 -5.1448 9.58356 1.46023 -5.30724 9.53681 1.72745 -5.51576 9.65113 
1.46023 -5.30724 9.53681 0.930312 -5.43388 9.49268 1.06616 -5.61614 9.563 
0.930312 -5.43388 9.49268 0.327826 -5.50487 9.4664 0.449023 -5.70607 9.53627 
0.327826 -5.50487 9.4664 -0.467051 -5.51508 9.47226 -0.225675 -5.72371 9.52914 
-0.467051 -5.51508 9.47226 -1.18718 -5.38663 9.51195 -0.920531 -5.72072 9.58305 
-1.18718 -5.38663 9.51195 -1.70931 -5.2127 9.56176 -1.48689 -5.60885 9.63457 
-1.70931 -5.2127 9.56176 -2.19386 -5.00193 9.62595 -1.9832 -5.33286 9.65754 
-2.19386 -5.00193 9.62595 -2.67893 -4.74298 9.71885 -2.48983 -5.09272 9.73594 
-2.67893 -4.74298 9.71885 -3.11932 -4.41939 9.81977 -3.00259 -4.84544 9.86009 
-3.11932 -4.41939 9.81977 -3.51404 -4.04437 9.93761 -3.635 -4.22252 10.0183 
-3.51404 -4.04437 9.93761 -3.93969 -3.56681 10.1002 -4.01281 -3.80197 10.1585 
-3.93969 -3.56681 10.1002 -4.25495 -3.05409 10.2651 -4.31963 -3.34049 10.3058 
-4.25495 -3.05409 10.2651 -4.45889 -2.64663 10.4005 -4.60522 -2.94404 10.4808 
-4.45889 -2.64663 10.4005 -4.66667 -2.02004 10.6013 -4.78404 -2.27197 10.6477 
-4.66667 -2.02004 10.6013 -4.77147 -1.37791 10.8077 -4.97301 -1.75628 10.8705 
-4.77147 -1.37791 10.8077 -4.78814 -0.859447 10.9766 -5.01353 -1.22827 11.0276 
-5.01353 -1.22827 11.0276 -4.95914 -0.672255 11.1719 -5.13292 -0.715458 11.3156 
-4.97154 -0.273382 11.3504 -4.77761 0.375632 11.5265 -5.04495 -0.054791 11.5366 
-4.77761 0.375632 11.5265 -4.51186 0.982432 11.7068 -4.76057 0.806 11.8081 
-4.51186 0.982432 11.7068 -4.23537 1.48315 11.872 -4.56221 1.20169 11.9294 
-4.23537 1.48315 11.872 -3.91122 1.91707 12.0102 -4.06554 1.9513 12.1796 
-3.91122 1.91707 12.0102 -3.54424 2.32318 12.1463 -3.68237 2.38043 12.3238 
-3.54424 2.32318 12.1463 -3.1115 2.68959 12.2638 -3.24193 2.75277 12.4392 
-3.1115 2.68959 12.2638 -2.77096 2.92726 12.3414 -2.84954 3.02897 12.5306 
-2.77096 2.92726 12.3414 -2.28373 3.1927 12.4153 -2.38905 3.28643 12.61 
-2.28373 3.1927 12.4153 -1.78871 3.41092 12.4953 -1.94916 3.47915 12.6743 
-1.45244 3.56336 12.5876 -0.89736 3.65223 12.577 -1.03828 3.75567 12.775 
-0.459311 3.7414 12.6407 0.151378 3.72943 12.6022 -0.197985 3.84172 12.79 
0.151378 3.72943 12.6022 0.679877 3.68548 12.5878 0.370993 3.84306 12.8039 
0.679877 3.68548 12.5878 1.10489 3.60635 12.5554 0.934268 3.76954 12.7757 
1.10489 3.60635 12.5554 1.73037 3.4672 12.5476 1.39989 3.66882 12.7445 
1.73037 3.4672 12.5476 2.35317 3.18987 12.4448 2.16706 3.39502 12.6536 
2.9229 2.88446 12.3749 3.29173 2.43336 12.0926 3.49061 2.55357 12.3783 
3.29173 2.43336 12.0926 3.68758 2.17076 12.0923 3.49061 2.55357 12.3783 
3.68758 2.17076 12.0923 4.07 1.70379 11.9359 4.16511 1.82525 12.1357 
4.37101 1.35304 11.8772 4.60736 0.857703 11.6948 4.71228 0.933899 11.8555 
4.60736 0.857703 11.6948 4.78136 0.280474 11.4751 4.95373 0.269392 11.6302 
5.01856 -0.789332 11.1736 4.95914 -1.32324 10.9603 5.15535 -1.2413 11.1588 
4.95914 -1.32324 10.9603 4.93297 -1.88455 10.8125 5.18386 -1.67067 11.0873 
4.93297 -1.88455 10.8125 4.74612 -2.39443 10.6093 4.92685 -2.50166 10.7485 
4.74612 -2.39443 10.6093 4.60217 -2.7847 10.4855 4.76231 -2.88704 10.6073 
4.60217 -2.7847 10.4855 4.41342 -3.17597 10.3582 4.56483 -3.27525 10.4728 
4.41342 -3.17597 10.3582 4.09687 -3.48669 10.1783 4.33438 -3.67763 10.3522 
4.09687 -3.48669 10.1783 3.92561 -3.90012 10.1229 4.06865 -4.02643 10.2323 
3.92561 -3.90012 10.1229 3.55128 -4.30255 9.98869 3.66912 -4.47834 10.092 
2.69234 -5.04282 9.7914 2.1832 -5.24504 9.68607 2.26719 -5.43613 9.78177 
1.06616 -5.61614 9.563 0.449023 -5.70607 9.53627 0.582276 -5.90227 9.62807 
0.449023 -5.70607 9.53627 -0.225675 -5.72371 9.52914 0.213184 -5.92812 9.61782 
-1.48689 -5.60885 9.63457 -1.9832 -5.33286 9.65754 -2.05318 -5.52646 9.74947 
-1.9832 -5.33286 9.65754 -2.48983 -5.09272 9.73594 -2.58278 -5.26737 9.82706 
-3.34424 -4.57096 9.9451 -3.635 -4.22252 10.0183 -3.83207 -4.31979 10.1471 
-3.635 -4.22252 10.0183 -4.01281 -3.80197 10.1585 -3.83207 -4.31979 10.1471 
-4.01281 -3.80197 10.1585 -4.31963 -3.34049 10.3058 -4.45173 -3.52095 10.4161 
-4.60522 -2.94404 10.4808 -4.78404 -2.27197 10.6477 -4.95511 -2.35757 10.7789 
-5.13292 -0.715458 11.3156 -4.97154 -0.273382 11.3504 -5.2129 -0.476664 11.5133 
-1.94916 3.47915 12.6743 -1.45244 3.56336 12.5876 -1.68338 3.64462 12.8403 
-1.03828 3.75567 12.775 -0.459311 3.7414 12.6407 -0.589889 3.84667 12.8546 
1.39989 3.66882 12.7445 1.73037 3.4672 12.5476 1.85278 3.55467 12.7592 
2.16706 3.39502 12.6536 2.35317 3.18987 12.4448 2.64292 3.20096 12.6529 
2.35317 3.18987 12.4448 2.9229 2.88446 12.3749 2.64292 3.20096 12.6529 
4.16511 1.82525 12.1357 4.37101 1.35304 11.8772 4.51539 1.4477 12.1211 
4.95373 0.269392 11.6302 4.96386 -0.267363 11.3456 5.12728 -0.285838 11.5062 
4.96386 -0.267363 11.3456 5.01856 -0.789332 11.1736 5.17529 -0.72805 11.3589 
5.18386 -1.67067 11.0873 4.93297 -1.88455 10.8125 5.14065 -2.28474 10.9692 
3.66912 -4.47834 10.092 3.13292 -4.74331 9.88974 3.25413 -4.90799 10.0066 
3.13292 -4.74331 9.88974 2.69234 -5.04282 9.7914 2.80739 -5.20955 9.90329 
2.26719 -5.43613 9.78177 1.72745 -5.51576 9.65113 2.05691 -5.67459 9.82434 
-0.395144 -5.92581 9.62359 -0.920531 -5.72072 9.58305 -1.05872 -5.97015 9.72179 
-0.920531 -5.72072 9.58305 -1.48689 -5.60885 9.63457 -1.05872 -5.97015 9.72179 
-2.58278 -5.26737 9.82706 -3.00259 -4.84544 9.86009 -3.12747 -5.08659 10.0104 
-3.00259 -4.84544 9.86009 -3.34424 -4.57096 9.9451 -3.48748 -4.80835 10.1001 
-4.45173 -3.52095 10.4161 -4.60522 -2.94404 10.4808 -4.67812 -3.35265 10.5809 
-4.95511 -2.35757 10.7789 -4.97301 -1.75628 10.8705 -5.12728 -1.83239 11.0037 
-4.97301 -1.75628 10.8705 -5.01353 -1.22827 11.0276 -5.15729 -1.2495 11.1579 
-5.15729 -1.2495 11.1579 -5.13292 -0.715458 11.3156 -5.28765 -0.866823 11.4428 
-5.2129 -0.476664 11.5133 -5.04495 -0.054791 11.5366 -5.20623 0.032533 11.7952 
-5.04495 -0.054791 11.5366 -4.92327 0.406884 11.689 -5.20623 0.032533 11.7952 
-4.92327 0.406884 11.689 -4.76057 0.806 11.8081 -4.99576 0.706525 12.0247 
-4.76057 0.806 11.8081 -4.56221 1.20169 11.9294 -4.66791 1.28124 12.1341 
-4.56221 1.20169 11.9294 -4.33518 1.59631 12.0716 -4.66791 1.28124 12.1341 
-4.33518 1.59631 12.0716 -4.06554 1.9513 12.1796 -4.32381 1.8095 12.3118 
-4.06554 1.9513 12.1796 -3.68237 2.38043 12.3238 -4.02812 2.1714 12.4294 
-3.68237 2.38043 12.3238 -3.24193 2.75277 12.4392 -3.67099 2.58975 12.6365 
-3.24193 2.75277 12.4392 -2.84954 3.02897 12.5306 -3.17243 2.97664 12.7555 
-2.84954 3.02897 12.5306 -2.38905 3.28643 12.61 -2.63919 3.2996 12.8432 
-2.38905 3.28643 12.61 -1.94916 3.47915 12.6743 -2.10714 3.52317 12.8686 
-1.68338 3.64462 12.8403 -1.03828 3.75567 12.775 -1.42942 3.81103 13.0904 
-1.03828 3.75567 12.775 -0.589889 3.84667 12.8546 -0.737467 3.93863 13.1149 
-0.589889 3.84667 12.8546 -0.197985 3.84172 12.79 -0.131787 3.97105 13.0819 
-0.197985 3.84172 12.79 0.370993 3.84306 12.8039 -0.131787 3.97105 13.0819 
0.370993 3.84306 12.8039 0.934268 3.76954 12.7757 0.853674 3.89995 13.0488 
0.934268 3.76954 12.7757 1.39989 3.66882 12.7445 1.2284 3.82557 13.0167 
1.39989 3.66882 12.7445 1.85278 3.55467 12.7592 1.69422 3.73689 13.0707 
1.85278 3.55467 12.7592 2.16706 3.39502 12.6536 2.13891 3.5392 12.9317 
2.16706 3.39502 12.6536 2.64292 3.20096 12.6529 2.66599 3.28579 12.8406 
2.64292 3.20096 12.6529 3.09251 2.90234 12.5385 3.08412 3.03017 12.766 
3.09251 2.90234 12.5385 3.49061 2.55357 12.3783 3.50499 2.72059 12.6652 
3.49061 2.55357 12.3783 3.84082 2.2082 12.2655 3.8706 2.33931 12.4839 
3.84082 2.2082 12.2655 4.16511 1.82525 12.1357 4.24773 1.89901 12.3248 
4.51539 1.4477 12.1211 4.71228 0.933899 11.8555 4.80485 1.11439 12.1475 
4.71228 0.933899 11.8555 4.95373 0.269392 11.6302 4.98912 0.588346 11.915 
4.95373 0.269392 11.6302 5.12728 -0.285838 11.5062 5.13333 0.108097 11.7472 
5.12728 -0.285838 11.5062 5.17529 -0.72805 11.3589 5.31717 -0.709783 11.5448 
5.17529 -0.72805 11.3589 5.15535 -1.2413 11.1588 5.33491 -1.21123 11.3816 
4.92685 -2.50166 10.7485 4.76231 -2.88704 10.6073 4.99515 -2.93949 10.8391 
4.76231 -2.88704 10.6073 4.56483 -3.27525 10.4728 4.668 -3.46955 10.5908 
4.56483 -3.27525 10.4728 4.33438 -3.67763 10.3522 4.668 -3.46955 10.5908 
4.33438 -3.67763 10.3522 4.06865 -4.02643 10.2323 4.32381 -4.00105 10.4238 
4.06865 -4.02643 10.2323 3.66912 -4.47834 10.092 4.02812 -4.36294 10.3062 
3.66912 -4.47834 10.092 3.25413 -4.90799 10.0066 3.6715 -4.82111 10.2278 
3.25413 -4.90799 10.0066 2.80739 -5.20955 9.90329 3.17243 -5.20611 10.0968 
2.80739 -5.20955 9.90329 2.26719 -5.43613 9.78177 2.64631 -5.52426 9.98548 
1.68 -5.7966 9.77178 1.10366 -5.83674 9.65995 1.21707 -6.00019 9.77747 
1.10366 -5.83674 9.65995 0.582276 -5.90227 9.62807 0.679264 -6.09782 9.75102 
0.582276 -5.90227 9.62807 0.213184 -5.92812 9.61782 0.307554 -6.18165 9.77213 
0.213184 -5.92812 9.61782 -0.395144 -5.92581 9.62359 -0.336037 -6.13541 9.73986 
-1.65287 -5.81556 9.77355 -2.05318 -5.52646 9.74947 -2.09084 -5.70827 9.8564 
-2.05318 -5.52646 9.74947 -2.58278 -5.26737 9.82706 -2.65066 -5.44775 9.94475 
-3.48748 -4.80835 10.1001 -3.83207 -4.31979 10.1471 -3.819 -4.65826 10.2676 
-3.83207 -4.31979 10.1471 -4.21943 -3.87076 10.3038 -4.32579 -4.07179 10.447 
-4.21943 -3.87076 10.3038 -4.45173 -3.52095 10.4161 -4.60924 -3.71662 10.5979 
-4.67812 -3.35265 10.5809 -4.91814 -2.83929 10.7465 -4.9373 -3.23832 10.8256 
-4.95511 -2.35757 10.7789 -5.12728 -1.83239 11.0037 -5.13334 -2.29276 10.9671 
-5.12728 -1.83239 11.0037 -5.15729 -1.2495 11.1579 -5.33513 -1.36676 11.3371 
-5.33513 -1.36676 11.3371 -5.28765 -0.866823 11.4428 -5.43741 -1.13137 11.5622 
-5.28765 -0.866823 11.4428 -5.2129 -0.476664 11.5133 -5.39619 -0.56364 11.7363 
-4.99576 0.706525 12.0247 -4.66791 1.28124 12.1341 -4.8277 1.23506 12.3424 
-4.66791 1.28124 12.1341 -4.32381 1.8095 12.3118 -4.56596 1.64816 12.461 
-4.32381 1.8095 12.3118 -4.02812 2.1714 12.4294 -4.21786 2.10598 12.6095 
-2.63919 3.2996 12.8432 -2.10714 3.52317 12.8686 -2.27906 3.54363 13.0929 
-2.10714 3.52317 12.8686 -1.68338 3.64462 12.8403 -1.84129 3.70598 13.1251 
3.50499 2.72059 12.6652 3.8706 2.33931 12.4839 4.05388 2.29138 12.671 
3.8706 2.33931 12.4839 4.24773 1.89901 12.3248 4.05388 2.29138 12.671 
4.24773 1.89901 12.3248 4.51539 1.4477 12.1211 4.57199 1.63304 12.4465 
4.80485 1.11439 12.1475 4.98912 0.588346 11.915 5.08314 0.684373 12.1603 
4.98912 0.588346 11.915 5.13333 0.108097 11.7472 5.25966 0.173366 11.9913 
5.33491 -1.21123 11.3816 5.18386 -1.67067 11.0873 5.39317 -1.85299 11.3306 
5.18386 -1.67067 11.0873 5.14065 -2.28474 10.9692 5.39317 -1.85299 11.3306 
4.99515 -2.93949 10.8391 4.668 -3.46955 10.5908 4.8277 -3.55434 10.7862 
4.668 -3.46955 10.5908 4.32381 -4.00105 10.4238 4.56596 -3.9582 10.6393 
4.32381 -4.00105 10.4238 4.02812 -4.36294 10.3062 4.21193 -4.42038 10.4865 
2.64631 -5.52426 9.98548 2.05691 -5.67459 9.82434 2.15676 -5.8918 10.0023 
2.05691 -5.67459 9.82434 1.68 -5.7966 9.77178 1.81973 -6.01696 9.96119 
1.68 -5.7966 9.77178 1.21707 -6.00019 9.77747 1.46677 -6.13115 9.9324 
1.21707 -6.00019 9.77747 0.679264 -6.09782 9.75102 0.87182 -6.2691 9.9018 
0.307554 -6.18165 9.77213 -0.336037 -6.13541 9.73986 -0.0152766 -6.32701 9.87419 
-0.336037 -6.13541 9.73986 -1.05872 -5.97015 9.72179 -0.65408 -6.30037 9.89299 
-1.05872 -5.97015 9.72179 -1.65287 -5.81556 9.77355 -1.47158 -6.13171 9.93423 
-1.65287 -5.81556 9.77355 -2.09084 -5.70827 9.8564 -1.95466 -5.97871 9.98369 
-2.09084 -5.70827 9.8564 -2.65066 -5.44775 9.94475 -2.41733 -5.79784 10.0554 
-2.65066 -5.44775 9.94475 -3.12747 -5.08659 10.0104 -3.12842 -5.3842 10.1806 
-3.12747 -5.08659 10.0104 -3.48748 -4.80835 10.1001 -3.443 -5.15087 10.2485 
-4.9373 -3.23832 10.8256 -4.91814 -2.83929 10.7465 -5.16799 -2.7773 11.0311 
-4.91814 -2.83929 10.7465 -5.13334 -2.29276 10.9671 -5.16799 -2.7773 11.0311 
-5.39619 -0.56364 11.7363 -5.20623 0.032533 11.7952 -5.38993 -0.0316005 12.0857 
-5.20623 0.032533 11.7952 -4.99576 0.706525 12.0247 -5.18983 0.455866 12.1339 
-4.21786 2.10598 12.6095 -3.67099 2.58975 12.6365 -3.93489 2.46642 12.8565 
-3.67099 2.58975 12.6365 -3.17243 2.97664 12.7555 -3.24751 3.0024 12.9377 
-3.17243 2.97664 12.7555 -2.63919 3.2996 12.8432 -2.82993 3.27077 13.0336 
-0.737467 3.93863 13.1149 -0.131787 3.97105 13.0819 -0.374458 4.02896 13.3642 
0.465991 3.97875 13.161 0.853674 3.89995 13.0488 0.874436 3.9746 13.3466 
0.853674 3.89995 13.0488 1.2284 3.82557 13.0167 1.239 3.88744 13.2339 
1.69422 3.73689 13.0707 2.13891 3.5392 12.9317 2.18132 3.59041 13.1374 
2.13891 3.5392 12.9317 2.66599 3.28579 12.8406 2.73472 3.32103 13.0272 
2.66599 3.28579 12.8406 3.08412 3.03017 12.766 3.24517 3.0086 12.9543 
3.08412 3.03017 12.766 3.50499 2.72059 12.6652 3.24517 3.0086 12.9543 
4.57199 1.63304 12.4465 4.80485 1.11439 12.1475 4.91269 1.11539 12.3519 
5.34313 -0.355788 11.762 5.31717 -0.709783 11.5448 5.52129 -0.780338 11.8714 
5.31717 -0.709783 11.5448 5.33491 -1.21123 11.3816 5.44863 -1.17292 11.5694 
5.39317 -1.85299 11.3306 5.14065 -2.28474 10.9692 5.25979 -2.62989 11.1462 
5.14065 -2.28474 10.9692 4.99515 -2.93949 10.8391 5.25979 -2.62989 11.1462 
4.21193 -4.42038 10.4865 3.6715 -4.82111 10.2278 3.93489 -4.85271 10.4784 
3.6715 -4.82111 10.2278 3.17243 -5.20611 10.0968 3.24751 -5.33404 10.229 
3.17243 -5.20611 10.0968 2.64631 -5.52426 9.98548 2.69039 -5.67373 10.1085 
0.87182 -6.2691 9.9018 0.307554 -6.18165 9.77213 0.374458 -6.41525 9.9707 
-0.0152766 -6.32701 9.87419 -0.336037 -6.13541 9.73986 -0.65408 -6.30037 9.89299 
-4.1181 -4.45212 10.4132 -4.32579 -4.07179 10.447 -4.50461 -4.10792 10.6404 
-4.32579 -4.07179 10.447 -4.60924 -3.71662 10.5979 -4.50461 -4.10792 10.6404 
-5.33943 -1.91238 11.2473 -5.33513 -1.36676 11.3371 -5.44241 -1.6454 11.4512 
-5.43741 -1.13137 11.5622 -5.39619 -0.56364 11.7363 -5.55723 -0.870223 11.9103 
-5.39619 -0.56364 11.7363 -5.38993 -0.0316005 12.0857 -5.50133 -0.381567 12.0833 
-5.38993 -0.0316005 12.0857 -5.18983 0.455866 12.1339 -5.36571 0.295286 12.3831 
-5.18983 0.455866 12.1339 -5.05203 0.797323 12.2299 -5.15428 0.771862 12.4423 
-5.05203 0.797323 12.2299 -4.8277 1.23506 12.3424 -4.94485 1.20626 12.5851 
-4.8277 1.23506 12.3424 -4.56596 1.64816 12.461 -4.68719 1.62654 12.72 
-4.56596 1.64816 12.461 -4.21786 2.10598 12.6095 -4.47556 1.91807 12.8213 
-3.93489 2.46642 12.8565 -3.6285 2.7099 12.8513 -3.7228 2.70844 13.0816 
-3.6285 2.7099 12.8513 -3.24751 3.0024 12.9377 -3.41509 2.94954 13.1564 
-3.24751 3.0024 12.9377 -2.82993 3.27077 13.0336 -3.10845 3.16234 13.2274 
-2.82993 3.27077 13.0336 -2.27906 3.54363 13.0929 -2.67419 3.41704 13.3237 
-2.27906 3.54363 13.0929 -1.84129 3.70598 13.1251 -1.86439 3.75652 13.4186 
-1.84129 3.70598 13.1251 -1.42942 3.81103 13.0904 -1.35152 3.90704 13.4574 
-1.42942 3.81103 13.0904 -1.07132 3.89414 13.1312 -1.35152 3.90704 13.4574 
-1.07132 3.89414 13.1312 -0.737467 3.93863 13.1149 -0.741509 4.01535 13.4903 
-0.374458 4.02896 13.3642 0.00725762 4.02294 13.278 -0.0166685 4.06435 13.5221 
0.00725762 4.02294 13.278 0.465991 3.97875 13.161 0.487217 4.04309 13.5055 
0.874436 3.9746 13.3466 1.239 3.88744 13.2339 1.24258 3.92983 13.4714 
1.239 3.88744 13.2339 1.69422 3.73689 13.0707 1.62528 3.83155 13.443 
1.69422 3.73689 13.0707 2.18132 3.59041 13.1374 1.98539 3.71579 13.4072 
2.18132 3.59041 13.1374 2.73472 3.32103 13.0272 2.46353 3.52037 13.3539 
2.73472 3.32103 13.0272 3.24517 3.0086 12.9543 3.21275 3.09205 13.2027 
3.24517 3.0086 12.9543 3.63933 2.70071 12.8483 3.51675 2.87478 13.134 
3.63933 2.70071 12.8483 4.05388 2.29138 12.671 3.90678 2.54836 13.0417 
4.05388 2.29138 12.671 4.37179 1.92032 12.5619 4.47663 1.9167 12.8208 
4.37179 1.92032 12.5619 4.57199 1.63304 12.4465 4.69475 1.6153 12.7163 
4.57199 1.63304 12.4465 4.91269 1.11539 12.3519 4.97942 1.12455 12.5252 
4.91269 1.11539 12.3519 5.08314 0.684373 12.1603 5.20475 0.651148 12.4096 
5.08314 0.684373 12.1603 5.25966 0.173366 11.9913 5.37565 0.170433 12.2558 
5.25966 0.173366 11.9913 5.34313 -0.355788 11.762 5.49933 -0.39938 12.0617 
5.52129 -0.780338 11.8714 5.44863 -1.17292 11.5694 5.56749 -1.11932 11.8278 
5.44863 -1.17292 11.5694 5.39317 -1.85299 11.3306 5.55672 -1.6023 11.6717 
5.39317 -1.85299 11.3306 5.25979 -2.62989 11.1462 5.47536 -2.2342 11.4748 
5.25979 -2.62989 11.1462 5.05203 -3.13405 10.9525 5.15428 -3.23828 11.1393 
5.05203 -3.13405 10.9525 4.8277 -3.55434 10.7862 4.94485 -3.67366 10.9995 
4.8277 -3.55434 10.7862 4.56596 -3.9582 10.6393 4.68719 -4.09296 10.8616 
4.56596 -3.9582 10.6393 4.21193 -4.42038 10.4865 4.47556 -4.38837 10.7722 
3.93489 -4.85271 10.4784 3.6285 -5.04662 10.3311 3.7228 -5.18077 10.5182 
3.6285 -5.04662 10.3311 3.24751 -5.33404 10.229 3.41509 -5.41983 10.4371 
3.24751 -5.33404 10.229 2.69039 -5.67373 10.1085 3.10845 -5.63371 10.3694 
2.69039 -5.67373 10.1085 2.15676 -5.8918 10.0023 2.21218 -6.09362 10.2115 
2.15676 -5.8918 10.0023 1.81973 -6.01696 9.96119 1.86439 -6.22681 10.1749 
1.81973 -6.01696 9.96119 1.46677 -6.13115 9.9324 1.49568 -6.33484 10.1332 
1.46677 -6.13115 9.9324 0.87182 -6.2691 9.9018 1.13234 -6.42176 10.1115 
0.374458 -6.41525 9.9707 -0.0152766 -6.32701 9.87419 0.255641 -6.56783 10.1202 
-0.0152766 -6.32701 9.87419 -0.65408 -6.30037 9.89299 -0.271007 -6.53217 10.0833 
-0.65408 -6.30037 9.89299 -1.09599 -6.22218 9.91148 -1.25499 -6.3979 10.1181 
-1.09599 -6.22218 9.91148 -1.47158 -6.13171 9.93423 -1.25499 -6.3979 10.1181 
-1.47158 -6.13171 9.93423 -1.95466 -5.97871 9.98369 -1.76158 -6.26901 10.1719 
-1.95466 -5.97871 9.98369 -2.41733 -5.79784 10.0554 -2.20258 -6.10686 10.2205 
-2.41733 -5.79784 10.0554 -2.82808 -5.57231 10.119 -2.89944 -5.75494 10.3216 
-2.82808 -5.57231 10.119 -3.12842 -5.3842 10.1806 -3.21275 -5.56234 10.3908 
-3.12842 -5.3842 10.1806 -3.443 -5.15087 10.2485 -3.51982 -5.33735 10.4573 
-3.443 -5.15087 10.2485 -3.81451 -4.87367 10.3767 -3.89782 -5.0249 10.567 
-3.81451 -4.87367 10.3767 -4.1181 -4.45212 10.4132 -4.2432 -4.66317 10.6763 
-4.1181 -4.45212 10.4132 -4.50461 -4.10792 10.6404 -4.47663 -4.387 10.7726 
-4.8282 -3.70546 10.8512 -4.9373 -3.23832 10.8256 -5.05303 -3.47241 11.0733 
-4.9373 -3.23832 10.8256 -5.16799 -2.7773 11.0311 -5.27375 -2.91357 11.2257 
-5.16799 -2.7773 11.0311 -5.29998 -2.32701 11.1825 -5.42634 -2.42985 11.4086 
-5.29998 -2.32701 11.1825 -5.33943 -1.91238 11.2473 -5.51477 -1.92495 11.5486 
-5.33943 -1.91238 11.2473 -5.44241 -1.6454 11.4512 -5.51477 -1.92495 11.5486 
-5.44241 -1.6454 11.4512 -5.43741 -1.13137 11.5622 -5.56749 -1.3471 11.7538 
-4.21921 2.22163 12.9069 -3.93489 2.46642 12.8565 -4.02247 2.46182 13.1458 
-0.741509 4.01535 13.4903 -0.374458 4.02896 13.3642 -0.383217 4.05929 13.6648 
0.487217 4.04309 13.5055 0.874436 3.9746 13.3466 0.92186 4.00431 13.741 
4.21921 -4.68426 10.663 3.93489 -4.85271 10.4784 4.02247 -5.01898 10.7151 
0.741674 -6.47812 10.0806 0.374458 -6.41525 9.9707 0.255641 -6.56783 10.1202 
-4.6977 -4.07131 10.8627 -4.8282 -3.70546 10.8512 -4.93505 -3.84699 11.0959 
-5.56749 -1.3471 11.7538 -5.55723 -0.870223 11.9103 -5.6682 -1.09645 12.1277 
-5.55723 -0.870223 11.9103 -5.50133 -0.381567 12.0833 -5.59542 -0.569326 12.2363 
-5.50133 -0.381567 12.0833 -5.38993 -0.0316005 12.0857 -5.54094 -0.152894 12.4552 
-5.36571 0.295286 12.3831 -5.15428 0.771862 12.4423 -5.26584 0.678162 12.7025 
-5.15428 0.771862 12.4423 -4.94485 1.20626 12.5851 -5.06171 1.12087 12.8684 
-4.94485 1.20626 12.5851 -4.68719 1.62654 12.72 -4.77187 1.59458 13.0006 
-4.68719 1.62654 12.72 -4.47556 1.91807 12.8213 -4.43373 2.04767 13.1533 
-4.47556 1.91807 12.8213 -4.21921 2.22163 12.9069 -4.43373 2.04767 13.1533 
-4.02247 2.46182 13.1458 -3.7228 2.70844 13.0816 -3.65338 2.80902 13.4185 
-3.7228 2.70844 13.0816 -3.41509 2.94954 13.1564 -3.65338 2.80902 13.4185 
-3.41509 2.94954 13.1564 -3.10845 3.16234 13.2274 -3.19179 3.1384 13.5111 
-3.10845 3.16234 13.2274 -2.67419 3.41704 13.3237 -2.81956 3.35788 13.5726 
-2.67419 3.41704 13.3237 -2.21218 3.6272 13.37 -2.53366 3.50519 13.6839 
-2.21218 3.6272 13.37 -1.86439 3.75652 13.4186 -2.06918 3.70065 13.6798 
-1.86439 3.75652 13.4186 -1.35152 3.90704 13.4574 -1.79859 3.79294 13.7893 
-1.35152 3.90704 13.4574 -0.741509 4.01535 13.4903 -1.14315 3.9643 13.7997 
-0.383217 4.05929 13.6648 -0.0166685 4.06435 13.5221 -0.0597739 4.07074 13.8915 
-0.0166685 4.06435 13.5221 0.487217 4.04309 13.5055 0.476249 4.05489 13.8049 
0.92186 4.00431 13.741 1.24258 3.92983 13.4714 1.28171 3.93294 13.7761 
1.24258 3.92983 13.4714 1.62528 3.83155 13.443 1.69887 3.82417 13.7862 
1.62528 3.83155 13.443 1.98539 3.71579 13.4072 2.11749 3.68339 13.6879 
1.98539 3.71579 13.4072 2.46353 3.52037 13.3539 2.47054 3.53154 13.5488 
2.46353 3.52037 13.3539 2.89944 3.28852 13.26 2.91765 3.30391 13.5504 
2.89944 3.28852 13.26 3.21275 3.09205 13.2027 3.19685 3.1346 13.5323 
3.21275 3.09205 13.2027 3.51675 2.87478 13.134 3.60663 2.84518 13.4311 
3.51675 2.87478 13.134 3.90678 2.54836 13.0417 3.92118 2.56518 13.2335 
3.90678 2.54836 13.0417 4.2432 2.19675 12.9052 4.24536 2.25462 13.2281 
4.2432 2.19675 12.9052 4.47663 1.9167 12.8208 4.48359 1.9842 13.1396 
4.47663 1.9167 12.8208 4.69475 1.6153 12.7163 4.70807 1.68559 13.0435 
4.69475 1.6153 12.7163 4.97942 1.12455 12.5252 4.91073 1.38039 12.9464 
4.97942 1.12455 12.5252 5.20475 0.651148 12.4096 5.18476 0.874671 12.7805 
5.20475 0.651148 12.4096 5.37565 0.170433 12.2558 5.39382 0.360525 12.6403 
5.37565 0.170433 12.2558 5.49933 -0.39938 12.0617 5.57585 -0.437156 12.2789 
5.49933 -0.39938 12.0617 5.52129 -0.780338 11.8714 5.66301 -0.957984 12.1892 
5.52129 -0.780338 11.8714 5.56749 -1.11932 11.8278 5.66301 -0.957984 12.1892 
5.56749 -1.11932 11.8278 5.55672 -1.6023 11.6717 5.669 -1.53965 11.9872 
5.55672 -1.6023 11.6717 5.47536 -2.2342 11.4748 5.62125 -2.08578 11.8388 
5.3658 -2.82455 11.3748 5.15428 -3.23828 11.1393 5.26584 -3.31543 11.4049 
5.15428 -3.23828 11.1393 4.94485 -3.67366 10.9995 5.06171 -3.77108 11.2789 
4.94485 -3.67366 10.9995 4.68719 -4.09296 10.8616 4.77187 -4.23204 11.1074 
4.68719 -4.09296 10.8616 4.47556 -4.38837 10.7722 4.43373 -4.68838 10.9647 
4.47556 -4.38837 10.7722 4.21921 -4.68426 10.663 4.43373 -4.68838 10.9647 
4.02247 -5.01898 10.7151 3.7228 -5.18077 10.5182 3.65338 -5.46019 10.7317 
3.7228 -5.18077 10.5182 3.41509 -5.41983 10.4371 3.65338 -5.46019 10.7317 
3.41509 -5.41983 10.4371 3.10845 -5.63371 10.3694 3.19179 -5.78111 10.613 
3.10845 -5.63371 10.3694 2.66905 -5.89795 10.2956 2.81916 -5.99472 10.5332 
2.66905 -5.89795 10.2956 2.21218 -6.09362 10.2115 2.5337 -6.17938 10.5372 
2.21218 -6.09362 10.2115 1.86439 -6.22681 10.1749 2.06918 -6.33511 10.419 
1.86439 -6.22681 10.1749 1.49568 -6.33484 10.1332 1.79859 -6.47416 10.4533 
1.49568 -6.33484 10.1332 1.13234 -6.42176 10.1115 1.33269 -6.56486 10.3604 
1.13234 -6.42176 10.1115 0.741674 -6.47812 10.0806 0.992613 -6.63978 10.3482 
0.255641 -6.56783 10.1202 -0.271007 -6.53217 10.0833 0.0592456 -6.75471 10.3649 
-0.271007 -6.53217 10.0833 -0.765239 -6.4792 10.0863 -0.496743 -6.69466 10.3148 
-0.765239 -6.4792 10.0863 -1.25499 -6.3979 10.1181 -0.965678 -6.6362 10.3338 
-1.25499 -6.3979 10.1181 -1.76158 -6.26901 10.1719 -1.52391 -6.46701 10.3063 
-1.76158 -6.26901 10.1719 -2.20258 -6.10686 10.2205 -2.10758 -6.33121 10.4365 
-2.20258 -6.10686 10.2205 -2.56329 -5.93809 10.2687 -2.57177 -6.13335 10.5052 
-2.56329 -5.93809 10.2687 -2.89944 -5.75494 10.3216 -2.91765 -5.93811 10.5475 
-2.89944 -5.75494 10.3216 -3.21275 -5.56234 10.3908 -3.19685 -5.79049 10.6324 
-3.21275 -5.56234 10.3908 -3.51982 -5.33735 10.4573 -3.60586 -5.49739 10.7203 
-3.51982 -5.33735 10.4573 -3.89782 -5.0249 10.567 -3.97776 -5.15051 10.7932 
-3.89782 -5.0249 10.567 -4.2432 -4.66317 10.6763 -4.2932 -4.83582 10.9056 
-4.2432 -4.66317 10.6763 -4.47663 -4.387 10.7726 -4.50807 -4.6078 11.0137 
-4.47663 -4.387 10.7726 -4.6977 -4.07131 10.8627 -4.78018 -4.23122 11.1215 
-4.93505 -3.84699 11.0959 -5.05303 -3.47241 11.0733 -5.21549 -3.44246 11.3715 
-5.05303 -3.47241 11.0733 -5.27375 -2.91357 11.2257 -5.21549 -3.44246 11.3715 
-5.27375 -2.91357 11.2257 -5.42634 -2.42985 11.4086 -5.5022 -2.64681 11.6416 
-5.42634 -2.42985 11.4086 -5.51477 -1.92495 11.5486 -5.57585 -2.16416 11.7178 
-5.51477 -1.92495 11.5486 -5.56749 -1.3471 11.7538 -5.66108 -1.69906 11.9449 
-5.6682 -1.09645 12.1277 -5.59542 -0.569326 12.2363 -5.6604 -0.623939 12.5151 
-4.43373 2.04767 13.1533 -4.02247 2.46182 13.1458 -4.08347 2.42074 13.4086 
-0.666966 4.03398 13.8103 -0.383217 4.05929 13.6648 -0.0597739 4.07074 13.8915 
5.5022 -0.00188168 12.501 5.57585 -0.437156 12.2789 5.63851 -0.498364 12.5336 
4.43373 -4.68838 10.9647 4.02247 -5.01898 10.7151 4.08347 -5.14027 10.9519 
0.666966 -6.6815 10.3286 0.255641 -6.56783 10.1202 0.0592456 -6.75471 10.3649 
-0.965678 -6.6362 10.3338 -1.52391 -6.46701 10.3063 -1.26367 -6.70073 10.5593 
-1.52391 -6.46701 10.3063 -2.10758 -6.33121 10.4365 -1.761 -6.524 10.5177 
-4.78018 -4.23122 11.1215 -4.93505 -3.84699 11.0959 -5.07544 -3.88937 11.444 
-4.93505 -3.84699 11.0959 -5.21549 -3.44246 11.3715 -5.07544 -3.88937 11.444 
-5.5022 -2.64681 11.6416 -5.57585 -2.16416 11.7178 -5.63836 -2.26464 11.9594 
-5.6604 -0.623939 12.5151 -5.54094 -0.152894 12.4552 -5.611 -0.315029 12.7065 
-5.42106 0.31446 12.7403 -5.26584 0.678162 12.7025 -5.323 0.604113 13.0279 
-5.26584 0.678162 12.7025 -5.06171 1.12087 12.8684 -5.323 0.604113 13.0279 
-5.06171 1.12087 12.8684 -4.77187 1.59458 13.0006 -4.89932 1.40651 13.263 
-4.77187 1.59458 13.0006 -4.43373 2.04767 13.1533 -4.7052 1.6942 13.353 
-4.08347 2.42074 13.4086 -3.65338 2.80902 13.4185 -3.80983 2.65483 13.6708 
-3.65338 2.80902 13.4185 -3.19179 3.1384 13.5111 -3.43682 2.94307 13.7692 
-3.19179 3.1384 13.5111 -2.81956 3.35788 13.5726 -3.00873 3.22306 13.856 
-2.53366 3.50519 13.6839 -2.06918 3.70065 13.6798 -2.26117 3.59095 13.9801 
-1.79859 3.79294 13.7893 -1.14315 3.9643 13.7997 -1.43536 3.85884 14.0604 
-1.14315 3.9643 13.7997 -0.666966 4.03398 13.8103 -0.524763 4.01224 14.1113 
-0.666966 4.03398 13.8103 -0.0597739 4.07074 13.8915 -0.524763 4.01224 14.1113 
-0.0597739 4.07074 13.8915 0.476249 4.05489 13.8049 0.376066 4.02098 14.1128 
0.476249 4.05489 13.8049 0.92186 4.00431 13.741 0.73477 3.98987 14.0995 
0.92186 4.00431 13.741 1.28171 3.93294 13.7761 1.26621 3.89983 14.0779 
1.69887 3.82417 13.7862 2.11749 3.68339 13.6879 2.0323 3.67943 14.0047 
2.60327 3.45947 13.7623 2.91765 3.30391 13.5504 2.95415 3.25112 13.8777 
2.91765 3.30391 13.5504 3.19685 3.1346 13.5323 2.95415 3.25112 13.8777 
3.19685 3.1346 13.5323 3.60663 2.84518 13.4311 3.59896 2.8259 13.7175 
4.01327 2.48105 13.5692 4.24536 2.25462 13.2281 4.35095 2.1283 13.5098 
4.24536 2.25462 13.2281 4.48359 1.9842 13.1396 4.35095 2.1283 13.5098 
4.48359 1.9842 13.1396 4.70807 1.68559 13.0435 4.80122 1.55782 13.3124 
4.70807 1.68559 13.0435 4.91073 1.38039 12.9464 4.80122 1.55782 13.3124 
4.91073 1.38039 12.9464 5.18476 0.874671 12.7805 5.19075 0.890955 13.0879 
5.39382 0.360525 12.6403 5.5022 -0.00188168 12.501 5.55156 -0.0700548 12.776 
5.63851 -0.498364 12.5336 5.66301 -0.957984 12.1892 5.71585 -1.00645 12.5005 
5.66301 -0.957984 12.1892 5.669 -1.53965 11.9872 5.72748 -1.5083 12.3123 
5.62125 -2.08578 11.8388 5.54094 -2.49774 11.6933 5.611 -2.51429 11.9919 
5.42106 -3.04342 11.6493 5.26584 -3.31543 11.4049 5.323 -3.44679 11.7117 
5.26584 -3.31543 11.4049 5.06171 -3.77108 11.2789 5.323 -3.44679 11.7117 
5.06171 -3.77108 11.2789 4.77187 -4.23204 11.1074 4.89932 -4.23416 11.4303 
4.77187 -4.23204 11.1074 4.43373 -4.68838 10.9647 4.7052 -4.51976 11.3339 
4.08347 -5.14027 10.9519 3.65338 -5.46019 10.7317 3.80983 -5.48374 11.0264 
3.65338 -5.46019 10.7317 3.19179 -5.78111 10.613 3.43682 -5.77476 10.9366 
3.19179 -5.78111 10.613 2.81916 -5.99472 10.5332 3.00873 -6.0523 10.8422 
2.5337 -6.17938 10.5372 2.06918 -6.33511 10.419 2.26117 -6.42286 10.7264 
1.79859 -6.47416 10.4533 1.33269 -6.56486 10.3604 1.43536 -6.68681 10.6339 
1.33269 -6.56486 10.3604 0.992613 -6.63978 10.3482 1.0207 -6.77473 10.6033 
0.992613 -6.63978 10.3482 0.666966 -6.6815 10.3286 0.524763 -6.84082 10.5849 
0.666966 -6.6815 10.3286 0.0592456 -6.75471 10.3649 0.524763 -6.84082 10.5849 
0.0592456 -6.75471 10.3649 -0.496743 -6.69466 10.3148 -0.376066 -6.84878 10.581 
-0.496743 -6.69466 10.3148 -0.965678 -6.6362 10.3338 -0.73477 -6.8158 10.5885 
-1.761 -6.524 10.5177 -2.10758 -6.33121 10.4365 -2.0323 -6.50893 10.6943 
-2.57177 -6.13335 10.5052 -2.91765 -5.93811 10.5475 -2.95415 -6.0878 10.8433 
-2.91765 -5.93811 10.5475 -3.19685 -5.79049 10.6324 -2.95415 -6.0878 10.8433 
-3.19685 -5.79049 10.6324 -3.60586 -5.49739 10.7203 -3.59896 -5.64961 10.9636 
-3.97776 -5.15051 10.7932 -4.2932 -4.83582 10.9056 -4.2345 -5.08692 11.1635 
-4.2932 -4.83582 10.9056 -4.50807 -4.6078 11.0137 -4.53339 -4.74297 11.2589 
-4.50807 -4.6078 11.0137 -4.78018 -4.23122 11.1215 -4.80534 -4.37894 11.3809 
-5.07544 -3.88937 11.444 -5.21549 -3.44246 11.3715 -5.19879 -3.69919 11.6006 
-5.39614 -3.01286 11.5427 -5.5022 -2.64681 11.6416 -5.55156 -2.7533 11.9041 
-5.63836 -2.26464 11.9594 -5.66108 -1.69906 11.9449 -5.69607 -2.00404 12.1702 
-5.66108 -1.69906 11.9449 -5.6682 -1.09645 12.1277 -5.72945 -1.52434 12.3145 
-5.51399 0.0580021 12.827 -5.42106 0.31446 12.7403 -5.323 0.604113 13.0279 
-4.38943 2.08765 13.4897 -4.08347 2.42074 13.4086 -4.11224 2.35237 13.7107 
-3.00873 3.22306 13.856 -2.53366 3.50519 13.6839 -2.64564 3.38818 14.0484 
-2.26117 3.59095 13.9801 -1.79859 3.79294 13.7893 -1.80932 3.73613 14.1055 
-0.524763 4.01224 14.1113 -0.0597739 4.07074 13.8915 -0.0095616 4.0148 14.1957 
1.26621 3.89983 14.0779 1.69887 3.82417 13.7862 1.67204 3.7773 14.1163 
5.51399 -2.88689 11.8701 5.42106 -3.04342 11.6493 5.323 -3.44679 11.7117 
4.38943 -4.91847 11.2133 4.08347 -5.14027 10.9519 4.11224 -5.26253 11.2365 
3.00873 -6.0523 10.8422 2.5337 -6.17938 10.5372 2.64564 -6.299 10.9009 
2.26117 -6.42286 10.7264 1.79859 -6.47416 10.4533 1.80932 -6.61407 10.7425 
0.524763 -6.84082 10.5849 0.0592456 -6.75471 10.3649 0.0095616 -6.89252 10.6517 
-1.26367 -6.70073 10.5593 -1.761 -6.524 10.5177 -1.67204 -6.65368 10.727 
-3.91148 -5.3931 11.0557 -3.97776 -5.15051 10.7932 -4.2345 -5.08692 11.1635 
-5.72945 -1.52434 12.3145 -5.71325 -1.02861 12.4611 -5.7329 -1.23647 12.6461 
-5.71325 -1.02861 12.4611 -5.71507 -0.988568 12.7266 -5.72706 -1.13519 12.679 
-5.71325 -1.02861 12.4611 -5.6604 -0.623939 12.5151 -5.68882 -0.761802 12.7994 
-5.6604 -0.623939 12.5151 -5.611 -0.315029 12.7065 -5.63985 -0.473508 12.8981 
-5.611 -0.315029 12.7065 -5.59078 -0.253077 12.9656 -5.63985 -0.473508 12.8981 
-5.611 -0.315029 12.7065 -5.51399 0.0580021 12.827 -5.53648 -0.0434951 13.0267 
-5.51399 0.0580021 12.827 -5.323 0.604113 13.0279 -5.44816 0.230148 13.1226 
-5.323 0.604113 13.0279 -5.36234 0.459468 13.1971 -5.44816 0.230148 13.1226 
-5.323 0.604113 13.0279 -5.26374 0.689573 13.2719 -5.31943 0.563307 13.2309 
-5.323 0.604113 13.0279 -5.09707 1.07169 13.1576 -5.16218 0.900257 13.3413 
-4.89932 1.40651 13.263 -4.90338 1.35098 13.4868 -5.02031 1.15881 13.4311 
-5.02031 1.15881 13.4311 -5.09707 1.07169 13.1576 -4.89932 1.40651 13.263 
-4.89932 1.40651 13.263 -4.7052 1.6942 13.353 -4.78239 1.5329 13.5475 
-4.38943 2.08765 13.4897 -4.45169 1.95957 13.6845 -4.60602 1.7712 13.6235 
-4.60602 1.7712 13.6235 -4.7052 1.6942 13.353 -4.38943 2.08765 13.4897 
-4.38943 2.08765 13.4897 -4.28223 2.1487 13.746 -4.36982 2.05312 13.7149 
-4.11224 2.35237 13.7107 -3.80983 2.65483 13.6708 -3.89332 2.52369 13.8754 
-3.80983 2.65483 13.6708 -3.72211 2.66942 13.9152 -3.89332 2.52369 13.8754 
-3.80983 2.65483 13.6708 -3.43682 2.94307 13.7692 -3.54466 2.80812 13.9611 
-3.00873 3.22306 13.856 -3.09266 3.11274 14.0592 -3.29739 2.98249 14.0173 
-3.29739 2.98249 14.0173 -3.43682 2.94307 13.7692 -3.00873 3.22306 13.856 
-3.00873 3.22306 13.856 -2.86942 3.24185 14.1012 -2.97498 3.18245 14.0819 
-2.64564 3.38818 14.0484 -2.26117 3.59095 13.9801 -2.37433 3.48055 14.1934 
-2.26117 3.59095 13.9801 -2.16595 3.56942 14.2076 -2.37433 3.48055 14.1934 
-2.26117 3.59095 13.9801 -1.80932 3.73613 14.1055 -1.94818 3.64868 14.2365 
-1.43536 3.85884 14.0604 -1.42213 3.80284 14.2835 -1.63286 3.74749 14.2655 
-1.63286 3.74749 14.2655 -1.80932 3.73613 14.1055 -1.43536 3.85884 14.0604 
-1.43536 3.85884 14.0604 -1.0207 3.94798 14.0873 -1.27701 3.83624 14.2943 
-1.0207 3.94798 14.0873 -1.1676 3.85892 14.3017 -1.27701 3.83624 14.2943 
-1.0207 3.94798 14.0873 -0.524763 4.01224 14.1113 -0.616074 3.94221 14.3291 
-0.524763 4.01224 14.1113 -0.391633 3.96036 14.3346 -0.616074 3.94221 14.3291 
-0.524763 4.01224 14.1113 -0.0095616 4.0148 14.1957 -0.183939 3.97028 14.3379 
-0.0095616 4.0148 14.1957 -0.130635 3.97167 14.3383 -0.183939 3.97028 14.3379 
0.376066 4.02098 14.1128 0.391633 3.96036 14.3346 0.183939 3.97028 14.3379 
0.183939 3.97028 14.3379 -0.0095616 4.0148 14.1957 0.376066 4.02098 14.1128 
0.376066 4.02098 14.1128 0.73477 3.98987 14.0995 0.614585 3.94271 14.3278 
1.26621 3.89983 14.0779 1.1676 3.85892 14.3017 0.913282 3.90358 14.3162 
0.913282 3.90358 14.3162 0.73477 3.98987 14.0995 1.26621 3.89983 14.0779 
1.26621 3.89983 14.0779 1.42213 3.80284 14.2835 1.27701 3.83624 14.2943 
1.26621 3.89983 14.0779 1.67204 3.7773 14.1163 1.63286 3.74749 14.2655 
1.67204 3.7773 14.1163 1.67371 3.7358 14.2617 1.63286 3.74749 14.2655 
1.67204 3.7773 14.1163 2.0323 3.67943 14.0047 1.94819 3.64841 14.2374 
2.0323 3.67943 14.0047 2.16595 3.56942 14.2076 1.94819 3.64841 14.2374 
2.0323 3.67943 14.0047 2.47481 3.49619 13.9619 2.37379 3.48681 14.1748 
2.95415 3.25112 13.8777 2.86942 3.24185 14.1012 2.64734 3.35765 14.1388 
2.64734 3.35765 14.1388 2.47481 3.49619 13.9619 2.95415 3.25112 13.8777 
2.95415 3.25112 13.8777 3.09266 3.11274 14.0592 2.97498 3.18245 14.0819 
2.95415 3.25112 13.8777 3.30492 3.03489 13.7943 3.29739 2.98244 14.0175 
3.30492 3.03489 13.7943 3.59896 2.8259 13.7175 3.54467 2.80778 13.9621 
3.59896 2.8259 13.7175 3.72211 2.66942 13.9152 3.54467 2.80778 13.9621 
3.59896 2.8259 13.7175 4.01327 2.48105 13.5692 3.89323 2.52733 13.8644 
4.35095 2.1283 13.5098 4.28223 2.1487 13.746 4.1132 2.32121 13.802 
4.1132 2.32121 13.802 4.01327 2.48105 13.5692 4.35095 2.1283 13.5098 
4.35095 2.1283 13.5098 4.45169 1.95957 13.6845 4.36982 2.05312 13.7149 
4.35095 2.1283 13.5098 4.60449 1.82588 13.4007 4.60656 1.77145 13.6204 
4.60449 1.82588 13.4007 4.80122 1.55782 13.3124 4.78189 1.5331 13.5495 
4.80122 1.55782 13.3124 4.90338 1.35098 13.4868 4.78189 1.5331 13.5495 
4.80122 1.55782 13.3124 5.02678 1.1972 13.1965 5.02033 1.16218 13.4207 
5.02678 1.1972 13.1965 5.19075 0.890955 13.0879 5.16218 0.900343 13.341 
5.19075 0.890955 13.0879 5.26374 0.689573 13.2719 5.16218 0.900343 13.341 
5.19075 0.890955 13.0879 5.39137 0.430272 12.9746 5.31943 0.563307 13.2309 
5.39137 0.430272 12.9746 5.36234 0.459468 13.1971 5.31943 0.563307 13.2309 
5.39137 0.430272 12.9746 5.55156 -0.0700548 12.776 5.53616 -0.0445672 13.0345 
5.55156 -0.0700548 12.776 5.59078 -0.253077 12.9656 5.53616 -0.0445672 13.0345 
5.55156 -0.0700548 12.776 5.63851 -0.498364 12.5336 5.63985 -0.471519 12.8918 
5.63851 -0.498364 12.5336 5.71585 -1.00645 12.5005 5.68882 -0.761914 12.7997 
5.71585 -1.00645 12.5005 5.71507 -0.988568 12.7266 5.68882 -0.761914 12.7997 
5.71585 -1.00645 12.5005 5.7329 -1.23647 12.6461 5.72706 -1.13519 12.679 
5.71585 -1.00645 12.5005 5.72748 -1.5083 12.3123 5.73885 -1.48489 12.5654 
5.69873 -2.00833 12.1766 5.71507 -1.98121 12.4041 5.72706 -1.83458 12.4517 
5.72706 -1.83458 12.4517 5.72748 -1.5083 12.3123 5.69873 -2.00833 12.1766 
5.69873 -2.00833 12.1766 5.611 -2.51429 11.9919 5.63985 -2.49866 12.24 
5.611 -2.51429 11.9919 5.59078 -2.7167 12.1651 5.63985 -2.49866 12.24 
5.611 -2.51429 11.9919 5.51399 -2.88689 11.8701 5.53648 -2.92214 12.0913 
5.51399 -2.88689 11.8701 5.323 -3.44679 11.7117 5.44816 -3.19992 12.0081 
5.323 -3.44679 11.7117 5.36234 -3.42924 11.9336 5.44816 -3.19992 12.0081 
5.323 -3.44679 11.7117 5.26374 -3.65935 11.8588 5.31943 -3.53308 11.8999 
5.323 -3.44679 11.7117 5.09707 -3.90129 11.5417 5.16218 -3.87058 11.7911 
4.89932 -4.23416 11.4303 4.90338 -4.32076 11.6439 5.02031 -4.13258 11.7119 
5.02031 -4.13258 11.7119 5.09707 -3.90129 11.5417 4.89932 -4.23416 11.4303 
4.89932 -4.23416 11.4303 4.7052 -4.51976 11.3339 4.78239 -4.50362 11.5861 
4.38943 -4.91847 11.2133 4.45169 -4.92935 11.4462 4.60602 -4.74106 11.5075 
4.60602 -4.74106 11.5075 4.7052 -4.51976 11.3339 4.38943 -4.91847 11.2133 
4.38943 -4.91847 11.2133 4.28223 -5.11848 11.3847 4.36982 -5.0229 11.4158 
4.11224 -5.26253 11.2365 3.80983 -5.48374 11.0264 3.89332 -5.49791 11.269 
3.80983 -5.48374 11.0264 3.72211 -5.63919 11.2155 3.89332 -5.49791 11.269 
3.80983 -5.48374 11.0264 3.43682 -5.77476 10.9366 3.54466 -5.77838 11.1711 
3.00873 -6.0523 10.8422 3.09266 -6.08252 11.0715 3.29739 -5.95252 11.1142 
3.29739 -5.95252 11.1142 3.43682 -5.77476 10.9366 3.00873 -6.0523 10.8422 
3.00873 -6.0523 10.8422 2.86942 -6.21163 11.0296 2.97498 -6.15223 11.0489 
2.64564 -6.299 10.9009 2.26117 -6.42286 10.7264 2.37433 -6.45897 10.9639 
2.26117 -6.42286 10.7264 2.16595 -6.5392 10.9231 2.37433 -6.45897 10.9639 
2.26117 -6.42286 10.7264 1.80932 -6.61407 10.7425 1.94818 -6.62033 10.8999 
1.43536 -6.68681 10.6339 1.42213 -6.77262 10.8473 1.63286 -6.71727 10.8653 
1.63286 -6.71727 10.8653 1.80932 -6.61407 10.7425 1.43536 -6.68681 10.6339 
1.43536 -6.68681 10.6339 1.0207 -6.77473 10.6033 1.27701 -6.80601 10.8364 
1.0207 -6.77473 10.6033 1.1676 -6.8287 10.8291 1.27701 -6.80601 10.8364 
1.0207 -6.77473 10.6033 0.524763 -6.84082 10.5849 0.616074 -6.91219 10.8023 
0.524763 -6.84082 10.5849 0.391633 -6.93013 10.7961 0.616074 -6.91219 10.8023 
0.524763 -6.84082 10.5849 0.0095616 -6.89252 10.6517 0.183939 -6.94005 10.7929 
0.0095616 -6.89252 10.6517 0.130635 -6.94144 10.7924 0.183939 -6.94005 10.7929 
-0.376066 -6.84878 10.581 -0.391633 -6.93013 10.7961 -0.183939 -6.94005 10.7929 
-0.183939 -6.94005 10.7929 0.0095616 -6.89252 10.6517 -0.376066 -6.84878 10.581 
-0.376066 -6.84878 10.581 -0.73477 -6.8158 10.5885 -0.614585 -6.91186 10.801 
-1.26367 -6.70073 10.5593 -1.1676 -6.8287 10.8291 -0.913282 -6.87336 10.8146 
-0.913282 -6.87336 10.8146 -0.73477 -6.8158 10.5885 -1.26367 -6.70073 10.5593 
-1.26367 -6.70073 10.5593 -1.42213 -6.77262 10.8473 -1.27701 -6.80601 10.8364 
-1.26367 -6.70073 10.5593 -1.67204 -6.65368 10.727 -1.63286 -6.71727 10.8653 
-1.67204 -6.65368 10.727 -1.67371 -6.70558 10.8691 -1.63286 -6.71727 10.8653 
-1.67204 -6.65368 10.727 -2.0323 -6.50893 10.6943 -1.94819 -6.6206 10.9008 
-2.0323 -6.50893 10.6943 -2.16595 -6.5392 10.9231 -1.94819 -6.6206 10.9008 
-2.0323 -6.50893 10.6943 -2.47481 -6.33555 10.7674 -2.37379 -6.45309 10.9451 
-2.95415 -6.0878 10.8433 -2.86942 -6.21163 11.0296 -2.64734 -6.32743 10.9919 
-2.64734 -6.32743 10.9919 -2.47481 -6.33555 10.7674 -2.95415 -6.0878 10.8433 
-2.95415 -6.0878 10.8433 -3.09266 -6.08252 11.0715 -2.97498 -6.15223 11.0489 
-2.95415 -6.0878 10.8433 -3.30492 -5.86383 10.903 -3.29739 -5.95258 11.1143 
-3.30492 -5.86383 10.903 -3.59896 -5.64961 10.9636 -3.54467 -5.7787 11.1722 
-3.59896 -5.64961 10.9636 -3.72211 -5.63919 11.2155 -3.54467 -5.7787 11.1722 
-3.59896 -5.64961 10.9636 -3.91148 -5.3931 11.0557 -3.89377 -5.49366 11.2573 
-3.91148 -5.3931 11.0557 -4.2345 -5.08692 11.1635 -4.1132 -5.29099 11.3287 
-4.2345 -5.08692 11.1635 -4.28223 -5.11848 11.3847 -4.1132 -5.29099 11.3287 
-4.2345 -5.08692 11.1635 -4.53339 -4.74297 11.2589 -4.36982 -5.0229 11.4158 
-4.53339 -4.74297 11.2589 -4.45169 -4.92935 11.4462 -4.36982 -5.0229 11.4158 
-4.53339 -4.74297 11.2589 -4.80534 -4.37894 11.3809 -4.78186 -4.50389 11.5842 
-4.80534 -4.37894 11.3809 -4.90338 -4.32076 11.6439 -4.78186 -4.50389 11.5842 
-4.80534 -4.37894 11.3809 -5.07544 -3.88937 11.444 -5.02033 -4.12932 11.7019 
-5.07544 -3.88937 11.444 -5.19879 -3.69919 11.6006 -5.16218 -3.8705 11.7909 
-5.19879 -3.69919 11.6006 -5.26374 -3.65935 11.8588 -5.16218 -3.8705 11.7909 
-5.19879 -3.69919 11.6006 -5.39215 -3.27245 11.7714 -5.31943 -3.53308 11.8999 
-5.39215 -3.27245 11.7714 -5.36234 -3.42924 11.9336 -5.31943 -3.53308 11.8999 
-5.39215 -3.27245 11.7714 -5.55156 -2.7533 11.9041 -5.53616 -2.92593 12.0984 
-5.55156 -2.7533 11.9041 -5.59078 -2.7167 12.1651 -5.53616 -2.92593 12.0984 
-5.55156 -2.7533 11.9041 -5.63836 -2.26464 11.9594 -5.63985 -2.4966 12.2338 
-5.63836 -2.26464 11.9594 -5.69607 -2.00404 12.1702 -5.68882 -2.2075 12.33 
-5.69607 -2.00404 12.1702 -5.71507 -1.98121 12.4041 -5.68882 -2.2075 12.33 
-5.69607 -2.00404 12.1702 -5.72945 -1.52434 12.3145 -5.72706 -1.83458 12.4517 
-5.72945 -1.52434 12.3145 -5.7329 -1.7333 12.4846 -5.72706 -1.83458 12.4517 
-5.73885 -1.48489 12.5654 -5.7329 -1.7333 12.4846 -5.72945 -1.52434 12.3145 
-5.72706 -1.83458 12.4517 -5.71507 -1.98121 12.4041 -5.69607 -2.00404 12.1702 
-5.68882 -2.2075 12.33 -5.63985 -2.4966 12.2338 -5.63836 -2.26464 11.9594 
-5.63985 -2.4966 12.2338 -5.59078 -2.7167 12.1651 -5.55156 -2.7533 11.9041 
-5.53616 -2.92593 12.0984 -5.44816 -3.19992 12.0081 -5.39215 -3.27245 11.7714 
-5.44816 -3.19992 12.0081 -5.36234 -3.42924 11.9336 -5.39215 -3.27245 11.7714 
-5.31943 -3.53308 11.8999 -5.26374 -3.65935 11.8588 -5.19879 -3.69919 11.6006 
-5.16218 -3.8705 11.7909 -5.02033 -4.12932 11.7019 -5.07544 -3.88937 11.444 
-5.02033 -4.12932 11.7019 -4.90338 -4.32076 11.6439 -4.80534 -4.37894 11.3809 
-4.78186 -4.50389 11.5842 -4.60656 -4.73947 11.5049 -4.53339 -4.74297 11.2589 
-4.60656 -4.73947 11.5049 -4.45169 -4.92935 11.4462 -4.53339 -4.74297 11.2589 
-4.36982 -5.0229 11.4158 -4.28223 -5.11848 11.3847 -4.2345 -5.08692 11.1635 
-4.1132 -5.29099 11.3287 -3.89377 -5.49366 11.2573 -3.91148 -5.3931 11.0557 
-3.89377 -5.49366 11.2573 -3.72211 -5.63919 11.2155 -3.59896 -5.64961 10.9636 
-3.54467 -5.7787 11.1722 -3.29739 -5.95258 11.1143 -3.30492 -5.86383 10.903 
-3.29739 -5.95258 11.1143 -3.09266 -6.08252 11.0715 -2.95415 -6.0878 10.8433 
-2.97498 -6.15223 11.0489 -2.86942 -6.21163 11.0296 -2.95415 -6.0878 10.8433 
-2.64734 -6.32743 10.9919 -2.37379 -6.45309 10.9451 -2.47481 -6.33555 10.7674 
-2.37379 -6.45309 10.9451 -2.16595 -6.5392 10.9231 -2.0323 -6.50893 10.6943 
-1.94819 -6.6206 10.9008 -1.67371 -6.70558 10.8691 -1.67204 -6.65368 10.727 
-1.63286 -6.71727 10.8653 -1.42213 -6.77262 10.8473 -1.26367 -6.70073 10.5593 
-1.27701 -6.80601 10.8364 -1.1676 -6.8287 10.8291 -1.26367 -6.70073 10.5593 
-0.913282 -6.87336 10.8146 -0.614585 -6.91186 10.801 -0.73477 -6.8158 10.5885 
-0.614585 -6.91186 10.801 -0.391633 -6.93013 10.7961 -0.376066 -6.84878 10.581 
-0.183939 -6.94005 10.7929 -0.130635 -6.94144 10.7924 0.0095616 -6.89252 10.6517 
-0.130635 -6.94144 10.7924 0.130635 -6.94144 10.7924 0.0095616 -6.89252 10.6517 
0.183939 -6.94005 10.7929 0.391633 -6.93013 10.7961 0.524763 -6.84082 10.5849 
0.616074 -6.91219 10.8023 0.912935 -6.87288 10.8129 1.0207 -6.77473 10.6033 
0.912935 -6.87288 10.8129 1.1676 -6.8287 10.8291 1.0207 -6.77473 10.6033 
1.27701 -6.80601 10.8364 1.42213 -6.77262 10.8473 1.43536 -6.68681 10.6339 
1.63286 -6.71727 10.8653 1.67371 -6.70558 10.8691 1.80932 -6.61407 10.7425 
1.67371 -6.70558 10.8691 1.94818 -6.62033 10.8999 1.80932 -6.61407 10.7425 
1.94818 -6.62033 10.8999 2.16595 -6.5392 10.9231 2.26117 -6.42286 10.7264 
2.64564 -6.299 10.9009 2.86942 -6.21163 11.0296 3.00873 -6.0523 10.8422 
2.97498 -6.15223 11.0489 3.09266 -6.08252 11.0715 3.00873 -6.0523 10.8422 
3.29739 -5.95252 11.1142 3.54466 -5.77838 11.1711 3.43682 -5.77476 10.9366 
3.54466 -5.77838 11.1711 3.72211 -5.63919 11.2155 3.80983 -5.48374 11.0264 
4.11224 -5.26253 11.2365 4.28223 -5.11848 11.3847 4.38943 -4.91847 11.2133 
4.36982 -5.0229 11.4158 4.45169 -4.92935 11.4462 4.38943 -4.91847 11.2133 
4.60602 -4.74106 11.5075 4.78239 -4.50362 11.5861 4.7052 -4.51976 11.3339 
4.78239 -4.50362 11.5861 4.90338 -4.32076 11.6439 4.89932 -4.23416 11.4303 
5.02031 -4.13258 11.7119 5.16218 -3.87058 11.7911 5.09707 -3.90129 11.5417 
5.16218 -3.87058 11.7911 5.26374 -3.65935 11.8588 5.323 -3.44679 11.7117 
5.31943 -3.53308 11.8999 5.36234 -3.42924 11.9336 5.323 -3.44679 11.7117 
5.44816 -3.19992 12.0081 5.53648 -2.92214 12.0913 5.51399 -2.88689 11.8701 
5.53648 -2.92214 12.0913 5.59078 -2.7167 12.1651 5.611 -2.51429 11.9919 
5.63985 -2.49866 12.24 5.68882 -2.20743 12.3297 5.69873 -2.00833 12.1766 
5.68882 -2.20743 12.3297 5.71507 -1.98121 12.4041 5.69873 -2.00833 12.1766 
5.72706 -1.83458 12.4517 5.7329 -1.7333 12.4846 5.72748 -1.5083 12.3123 
5.7329 -1.7333 12.4846 5.73885 -1.48489 12.5654 5.72748 -1.5083 12.3123 
5.73885 -1.48489 12.5654 5.7329 -1.23647 12.6461 5.71585 -1.00645 12.5005 
5.72706 -1.13519 12.679 5.71507 -0.988568 12.7266 5.71585 -1.00645 12.5005 
5.68882 -0.761914 12.7997 5.63985 -0.471519 12.8918 5.63851 -0.498364 12.5336 
5.63985 -0.471519 12.8918 5.59078 -0.253077 12.9656 5.55156 -0.0700548 12.776 
5.53616 -0.0445672 13.0345 5.44816 0.230148 13.1226 5.39137 0.430272 12.9746 
5.44816 0.230148 13.1226 5.36234 0.459468 13.1971 5.39137 0.430272 12.9746 
5.31943 0.563307 13.2309 5.26374 0.689573 13.2719 5.19075 0.890955 13.0879 
5.16218 0.900343 13.341 5.02033 1.16218 13.4207 5.02678 1.1972 13.1965 
5.02033 1.16218 13.4207 4.90338 1.35098 13.4868 4.80122 1.55782 13.3124 
4.78189 1.5331 13.5495 4.60656 1.77145 13.6204 4.60449 1.82588 13.4007 
4.60656 1.77145 13.6204 4.45169 1.95957 13.6845 4.35095 2.1283 13.5098 
4.36982 2.05312 13.7149 4.28223 2.1487 13.746 4.35095 2.1283 13.5098 
4.1132 2.32121 13.802 3.89323 2.52733 13.8644 4.01327 2.48105 13.5692 
3.89323 2.52733 13.8644 3.72211 2.66942 13.9152 3.59896 2.8259 13.7175 
3.54467 2.80778 13.9621 3.29739 2.98244 14.0175 3.30492 3.03489 13.7943 
3.29739 2.98244 14.0175 3.09266 3.11274 14.0592 2.95415 3.25112 13.8777 
2.97498 3.18245 14.0819 2.86942 3.24185 14.1012 2.95415 3.25112 13.8777 
2.64734 3.35765 14.1388 2.37379 3.48681 14.1748 2.47481 3.49619 13.9619 
2.37379 3.48681 14.1748 2.16595 3.56942 14.2076 2.0323 3.67943 14.0047 
1.94819 3.64841 14.2374 1.67371 3.7358 14.2617 1.67204 3.7773 14.1163 
1.63286 3.74749 14.2655 1.42213 3.80284 14.2835 1.26621 3.89983 14.0779 
1.27701 3.83624 14.2943 1.1676 3.85892 14.3017 1.26621 3.89983 14.0779 
0.913282 3.90358 14.3162 0.614585 3.94271 14.3278 0.73477 3.98987 14.0995 
0.614585 3.94271 14.3278 0.391633 3.96036 14.3346 0.376066 4.02098 14.1128 
0.183939 3.97028 14.3379 0.130635 3.97167 14.3383 -0.0095616 4.0148 14.1957 
0.130635 3.97167 14.3383 -0.130635 3.97167 14.3383 -0.0095616 4.0148 14.1957 
-0.183939 3.97028 14.3379 -0.391633 3.96036 14.3346 -0.524763 4.01224 14.1113 
-0.616074 3.94221 14.3291 -0.912935 3.90417 14.3146 -1.0207 3.94798 14.0873 
-0.912935 3.90417 14.3146 -1.1676 3.85892 14.3017 -1.0207 3.94798 14.0873 
-1.27701 3.83624 14.2943 -1.42213 3.80284 14.2835 -1.43536 3.85884 14.0604 
-1.63286 3.74749 14.2655 -1.67371 3.7358 14.2617 -1.80932 3.73613 14.1055 
-1.67371 3.7358 14.2617 -1.94818 3.64868 14.2365 -1.80932 3.73613 14.1055 
-1.94818 3.64868 14.2365 -2.16595 3.56942 14.2076 -2.26117 3.59095 13.9801 
-2.64564 3.38818 14.0484 -2.86942 3.24185 14.1012 -3.00873 3.22306 13.856 
-2.97498 3.18245 14.0819 -3.09266 3.11274 14.0592 -3.00873 3.22306 13.856 
-3.29739 2.98249 14.0173 -3.54466 2.80812 13.9611 -3.43682 2.94307 13.7692 
-3.54466 2.80812 13.9611 -3.72211 2.66942 13.9152 -3.80983 2.65483 13.6708 
-4.11224 2.35237 13.7107 -4.28223 2.1487 13.746 -4.38943 2.08765 13.4897 
-4.36982 2.05312 13.7149 -4.45169 1.95957 13.6845 -4.38943 2.08765 13.4897 
-4.60602 1.7712 13.6235 -4.78239 1.5329 13.5475 -4.7052 1.6942 13.353 
-4.78239 1.5329 13.5475 -4.90338 1.35098 13.4868 -4.89932 1.40651 13.263 
-5.02031 1.15881 13.4311 -5.16218 0.900257 13.3413 -5.09707 1.07169 13.1576 
-5.16218 0.900257 13.3413 -5.26374 0.689573 13.2719 -5.323 0.604113 13.0279 
-5.31943 0.563307 13.2309 -5.36234 0.459468 13.1971 -5.323 0.604113 13.0279 
-5.44816 0.230148 13.1226 -5.53648 -0.0434951 13.0267 -5.51399 0.0580021 12.827 
-5.53648 -0.0434951 13.0267 -5.59078 -0.253077 12.9656 -5.611 -0.315029 12.7065 
-5.63985 -0.473508 12.8981 -5.68882 -0.761802 12.7994 -5.6604 -0.623939 12.5151 
-5.68882 -0.761802 12.7994 -5.71507 -0.988568 12.7266 -5.71325 -1.02861 12.4611 
-5.72706 -1.13519 12.679 -5.7329 -1.23647 12.6461 -5.71325 -1.02861 12.4611 
-5.7329 -1.23647 12.6461 -5.73885 -1.48489 12.5654 -5.72945 -1.52434 12.3145 
-5.55156 -2.7533 11.9041 -5.39215 -3.27245 11.7714 -5.39614 -3.01286 11.5427 
-2.95415 -6.0878 10.8433 -2.47481 -6.33555 10.7674 -2.57177 -6.13335 10.5052 
-2.0323 -6.50893 10.6943 -1.67204 -6.65368 10.727 -1.761 -6.524 10.5177 
-0.376066 -6.84878 10.581 0.0095616 -6.89252 10.6517 0.0592456 -6.75471 10.3649 
1.43536 -6.68681 10.6339 1.80932 -6.61407 10.7425 1.79859 -6.47416 10.4533 
2.26117 -6.42286 10.7264 2.64564 -6.299 10.9009 2.5337 -6.17938 10.5372 
3.80983 -5.48374 11.0264 4.11224 -5.26253 11.2365 4.08347 -5.14027 10.9519 
5.611 -2.51429 11.9919 5.69873 -2.00833 12.1766 5.62125 -2.08578 11.8388 
5.55156 -0.0700548 12.776 5.39137 0.430272 12.9746 5.39382 0.360525 12.6403 
2.95415 3.25112 13.8777 2.47481 3.49619 13.9619 2.60327 3.45947 13.7623 
2.0323 3.67943 14.0047 1.67204 3.7773 14.1163 1.69887 3.82417 13.7862 
0.376066 4.02098 14.1128 -0.0095616 4.0148 14.1957 -0.0597739 4.07074 13.8915 
-1.43536 3.85884 14.0604 -1.80932 3.73613 14.1055 -1.79859 3.79294 13.7893 
-2.26117 3.59095 13.9801 -2.64564 3.38818 14.0484 -2.53366 3.50519 13.6839 
-3.80983 2.65483 13.6708 -4.11224 2.35237 13.7107 -4.08347 2.42074 13.4086 
-5.72945 -1.52434 12.3145 -5.69607 -2.00404 12.1702 -5.66108 -1.69906 11.9449 
-5.63836 -2.26464 11.9594 -5.55156 -2.7533 11.9041 -5.5022 -2.64681 11.6416 
-5.39614 -3.01286 11.5427 -5.39215 -3.27245 11.7714 -5.21549 -3.44246 11.3715 
-5.39215 -3.27245 11.7714 -5.19879 -3.69919 11.6006 -5.21549 -3.44246 11.3715 
-5.07544 -3.88937 11.444 -4.80534 -4.37894 11.3809 -4.78018 -4.23122 11.1215 
-4.80534 -4.37894 11.3809 -4.53339 -4.74297 11.2589 -4.50807 -4.6078 11.0137 
-4.53339 -4.74297 11.2589 -4.2345 -5.08692 11.1635 -4.2932 -4.83582 10.9056 
-3.97776 -5.15051 10.7932 -3.91148 -5.3931 11.0557 -3.60586 -5.49739 10.7203 
-3.91148 -5.3931 11.0557 -3.59896 -5.64961 10.9636 -3.60586 -5.49739 10.7203 
-3.59896 -5.64961 10.9636 -3.30492 -5.86383 10.903 -3.19685 -5.79049 10.6324 
-3.30492 -5.86383 10.903 -2.95415 -6.0878 10.8433 -3.19685 -5.79049 10.6324 
-2.57177 -6.13335 10.5052 -2.47481 -6.33555 10.7674 -2.10758 -6.33121 10.4365 
-2.47481 -6.33555 10.7674 -2.0323 -6.50893 10.6943 -2.10758 -6.33121 10.4365 
-1.26367 -6.70073 10.5593 -0.73477 -6.8158 10.5885 -0.965678 -6.6362 10.3338 
-0.73477 -6.8158 10.5885 -0.376066 -6.84878 10.581 -0.496743 -6.69466 10.3148 
0.524763 -6.84082 10.5849 1.0207 -6.77473 10.6033 0.992613 -6.63978 10.3482 
1.0207 -6.77473 10.6033 1.43536 -6.68681 10.6339 1.33269 -6.56486 10.3604 
1.79859 -6.47416 10.4533 2.26117 -6.42286 10.7264 2.06918 -6.33511 10.419 
2.5337 -6.17938 10.5372 3.00873 -6.0523 10.8422 2.81916 -5.99472 10.5332 
3.00873 -6.0523 10.8422 3.43682 -5.77476 10.9366 3.19179 -5.78111 10.613 
3.43682 -5.77476 10.9366 3.80983 -5.48374 11.0264 3.65338 -5.46019 10.7317 
4.08347 -5.14027 10.9519 4.38943 -4.91847 11.2133 4.43373 -4.68838 10.9647 
4.38943 -4.91847 11.2133 4.7052 -4.51976 11.3339 4.43373 -4.68838 10.9647 
4.7052 -4.51976 11.3339 4.89932 -4.23416 11.4303 4.77187 -4.23204 11.1074 
4.89932 -4.23416 11.4303 5.09707 -3.90129 11.5417 5.06171 -3.77108 11.2789 
5.09707 -3.90129 11.5417 5.323 -3.44679 11.7117 5.06171 -3.77108 11.2789 
5.42106 -3.04342 11.6493 5.51399 -2.88689 11.8701 5.54094 -2.49774 11.6933 
5.51399 -2.88689 11.8701 5.611 -2.51429 11.9919 5.54094 -2.49774 11.6933 
5.62125 -2.08578 11.8388 5.69873 -2.00833 12.1766 5.669 -1.53965 11.9872 
5.69873 -2.00833 12.1766 5.72748 -1.5083 12.3123 5.669 -1.53965 11.9872 
5.72748 -1.5083 12.3123 5.71585 -1.00645 12.5005 5.66301 -0.957984 12.1892 
5.63851 -0.498364 12.5336 5.55156 -0.0700548 12.776 5.5022 -0.00188168 12.501 
5.39382 0.360525 12.6403 5.39137 0.430272 12.9746 5.18476 0.874671 12.7805 
5.39137 0.430272 12.9746 5.19075 0.890955 13.0879 5.18476 0.874671 12.7805 
5.19075 0.890955 13.0879 5.02678 1.1972 13.1965 4.91073 1.38039 12.9464 
5.02678 1.1972 13.1965 4.80122 1.55782 13.3124 4.91073 1.38039 12.9464 
4.80122 1.55782 13.3124 4.60449 1.82588 13.4007 4.48359 1.9842 13.1396 
4.60449 1.82588 13.4007 4.35095 2.1283 13.5098 4.48359 1.9842 13.1396 
4.01327 2.48105 13.5692 3.59896 2.8259 13.7175 3.60663 2.84518 13.4311 
3.59896 2.8259 13.7175 3.30492 3.03489 13.7943 3.19685 3.1346 13.5323 
3.30492 3.03489 13.7943 2.95415 3.25112 13.8777 3.19685 3.1346 13.5323 
2.60327 3.45947 13.7623 2.47481 3.49619 13.9619 2.11749 3.68339 13.6879 
2.47481 3.49619 13.9619 2.0323 3.67943 14.0047 2.11749 3.68339 13.6879 
1.69887 3.82417 13.7862 1.26621 3.89983 14.0779 1.28171 3.93294 13.7761 
1.26621 3.89983 14.0779 0.73477 3.98987 14.0995 0.92186 4.00431 13.741 
0.73477 3.98987 14.0995 0.376066 4.02098 14.1128 0.476249 4.05489 13.8049 
-0.524763 4.01224 14.1113 -1.0207 3.94798 14.0873 -1.14315 3.9643 13.7997 
-1.0207 3.94798 14.0873 -1.43536 3.85884 14.0604 -1.14315 3.9643 13.7997 
-1.79859 3.79294 13.7893 -2.26117 3.59095 13.9801 -2.06918 3.70065 13.6798 
-2.53366 3.50519 13.6839 -3.00873 3.22306 13.856 -2.81956 3.35788 13.5726 
-3.00873 3.22306 13.856 -3.43682 2.94307 13.7692 -3.19179 3.1384 13.5111 
-3.43682 2.94307 13.7692 -3.80983 2.65483 13.6708 -3.65338 2.80902 13.4185 
-4.08347 2.42074 13.4086 -4.38943 2.08765 13.4897 -4.43373 2.04767 13.1533 
-4.38943 2.08765 13.4897 -4.7052 1.6942 13.353 -4.43373 2.04767 13.1533 
-4.7052 1.6942 13.353 -4.89932 1.40651 13.263 -4.77187 1.59458 13.0006 
-4.89932 1.40651 13.263 -5.09707 1.07169 13.1576 -5.06171 1.12087 12.8684 
-5.09707 1.07169 13.1576 -5.323 0.604113 13.0279 -5.06171 1.12087 12.8684 
-5.42106 0.31446 12.7403 -5.51399 0.0580021 12.827 -5.54094 -0.152894 12.4552 
-5.51399 0.0580021 12.827 -5.611 -0.315029 12.7065 -5.54094 -0.152894 12.4552 
-5.6604 -0.623939 12.5151 -5.71325 -1.02861 12.4611 -5.6682 -1.09645 12.1277 
-5.71325 -1.02861 12.4611 -5.72945 -1.52434 12.3145 -5.6682 -1.09645 12.1277 
-5.66108 -1.69906 11.9449 -5.63836 -2.26464 11.9594 -5.57585 -2.16416 11.7178 
-1.761 -6.524 10.5177 -1.26367 -6.70073 10.5593 -1.52391 -6.46701 10.3063 
3.65338 -5.46019 10.7317 4.08347 -5.14027 10.9519 4.02247 -5.01898 10.7151 
5.26584 -3.31543 11.4049 5.42106 -3.04342 11.6493 5.3658 -2.82455 11.3748 
5.42106 -3.04342 11.6493 5.54094 -2.49774 11.6933 5.3658 -2.82455 11.3748 
5.66301 -0.957984 12.1892 5.63851 -0.498364 12.5336 5.57585 -0.437156 12.2789 
4.24536 2.25462 13.2281 4.01327 2.48105 13.5692 3.92118 2.56518 13.2335 
4.01327 2.48105 13.5692 3.60663 2.84518 13.4311 3.92118 2.56518 13.2335 
2.91765 3.30391 13.5504 2.60327 3.45947 13.7623 2.47054 3.53154 13.5488 
2.60327 3.45947 13.7623 2.11749 3.68339 13.6879 2.47054 3.53154 13.5488 
-3.65338 2.80902 13.4185 -4.08347 2.42074 13.4086 -4.02247 2.46182 13.1458 
-5.26584 0.678162 12.7025 -5.42106 0.31446 12.7403 -5.36571 0.295286 12.3831 
-5.42106 0.31446 12.7403 -5.54094 -0.152894 12.4552 -5.36571 0.295286 12.3831 
-5.54094 -0.152894 12.4552 -5.6604 -0.623939 12.5151 -5.59542 -0.569326 12.2363 
-5.6682 -1.09645 12.1277 -5.66108 -1.69906 11.9449 -5.56749 -1.3471 11.7538 
-5.66108 -1.69906 11.9449 -5.57585 -2.16416 11.7178 -5.51477 -1.92495 11.5486 
-5.57585 -2.16416 11.7178 -5.5022 -2.64681 11.6416 -5.42634 -2.42985 11.4086 
-5.5022 -2.64681 11.6416 -5.39614 -3.01286 11.5427 -5.27375 -2.91357 11.2257 
-5.39614 -3.01286 11.5427 -5.21549 -3.44246 11.3715 -5.27375 -2.91357 11.2257 
-4.93505 -3.84699 11.0959 -4.78018 -4.23122 11.1215 -4.6977 -4.07131 10.8627 
-4.78018 -4.23122 11.1215 -4.50807 -4.6078 11.0137 -4.47663 -4.387 10.7726 
-4.50807 -4.6078 11.0137 -4.2932 -4.83582 10.9056 -4.2432 -4.66317 10.6763 
-4.2932 -4.83582 10.9056 -3.97776 -5.15051 10.7932 -3.89782 -5.0249 10.567 
-3.97776 -5.15051 10.7932 -3.60586 -5.49739 10.7203 -3.51982 -5.33735 10.4573 
-3.60586 -5.49739 10.7203 -3.19685 -5.79049 10.6324 -3.21275 -5.56234 10.3908 
-3.19685 -5.79049 10.6324 -2.91765 -5.93811 10.5475 -2.89944 -5.75494 10.3216 
-2.91765 -5.93811 10.5475 -2.57177 -6.13335 10.5052 -2.56329 -5.93809 10.2687 
-2.57177 -6.13335 10.5052 -2.10758 -6.33121 10.4365 -2.20258 -6.10686 10.2205 
-2.10758 -6.33121 10.4365 -1.52391 -6.46701 10.3063 -1.76158 -6.26901 10.1719 
-1.52391 -6.46701 10.3063 -0.965678 -6.6362 10.3338 -1.25499 -6.3979 10.1181 
-0.965678 -6.6362 10.3338 -0.496743 -6.69466 10.3148 -0.765239 -6.4792 10.0863 
-0.496743 -6.69466 10.3148 0.0592456 -6.75471 10.3649 -0.271007 -6.53217 10.0833 
0.255641 -6.56783 10.1202 0.666966 -6.6815 10.3286 0.741674 -6.47812 10.0806 
0.666966 -6.6815 10.3286 0.992613 -6.63978 10.3482 0.741674 -6.47812 10.0806 
0.992613 -6.63978 10.3482 1.33269 -6.56486 10.3604 1.13234 -6.42176 10.1115 
1.33269 -6.56486 10.3604 1.79859 -6.47416 10.4533 1.49568 -6.33484 10.1332 
1.79859 -6.47416 10.4533 2.06918 -6.33511 10.419 1.86439 -6.22681 10.1749 
2.06918 -6.33511 10.419 2.5337 -6.17938 10.5372 2.21218 -6.09362 10.2115 
2.5337 -6.17938 10.5372 2.81916 -5.99472 10.5332 2.66905 -5.89795 10.2956 
2.81916 -5.99472 10.5332 3.19179 -5.78111 10.613 3.10845 -5.63371 10.3694 
3.19179 -5.78111 10.613 3.65338 -5.46019 10.7317 3.41509 -5.41983 10.4371 
4.02247 -5.01898 10.7151 4.43373 -4.68838 10.9647 4.21921 -4.68426 10.663 
4.43373 -4.68838 10.9647 4.77187 -4.23204 11.1074 4.68719 -4.09296 10.8616 
4.77187 -4.23204 11.1074 5.06171 -3.77108 11.2789 4.94485 -3.67366 10.9995 
5.06171 -3.77108 11.2789 5.26584 -3.31543 11.4049 5.15428 -3.23828 11.1393 
5.3658 -2.82455 11.3748 5.54094 -2.49774 11.6933 5.47536 -2.2342 11.4748 
5.54094 -2.49774 11.6933 5.62125 -2.08578 11.8388 5.47536 -2.2342 11.4748 
5.62125 -2.08578 11.8388 5.669 -1.53965 11.9872 5.55672 -1.6023 11.6717 
5.669 -1.53965 11.9872 5.66301 -0.957984 12.1892 5.56749 -1.11932 11.8278 
5.66301 -0.957984 12.1892 5.57585 -0.437156 12.2789 5.49933 -0.39938 12.0617 
5.57585 -0.437156 12.2789 5.5022 -0.00188168 12.501 5.37565 0.170433 12.2558 
5.5022 -0.00188168 12.501 5.39382 0.360525 12.6403 5.37565 0.170433 12.2558 
5.39382 0.360525 12.6403 5.18476 0.874671 12.7805 5.20475 0.651148 12.4096 
5.18476 0.874671 12.7805 4.91073 1.38039 12.9464 4.97942 1.12455 12.5252 
4.91073 1.38039 12.9464 4.70807 1.68559 13.0435 4.69475 1.6153 12.7163 
4.70807 1.68559 13.0435 4.48359 1.9842 13.1396 4.47663 1.9167 12.8208 
4.48359 1.9842 13.1396 4.24536 2.25462 13.2281 4.2432 2.19675 12.9052 
4.24536 2.25462 13.2281 3.92118 2.56518 13.2335 3.90678 2.54836 13.0417 
3.92118 2.56518 13.2335 3.60663 2.84518 13.4311 3.51675 2.87478 13.134 
3.60663 2.84518 13.4311 3.19685 3.1346 13.5323 3.21275 3.09205 13.2027 
3.19685 3.1346 13.5323 2.91765 3.30391 13.5504 2.89944 3.28852 13.26 
2.91765 3.30391 13.5504 2.47054 3.53154 13.5488 2.46353 3.52037 13.3539 
2.47054 3.53154 13.5488 2.11749 3.68339 13.6879 1.98539 3.71579 13.4072 
2.11749 3.68339 13.6879 1.69887 3.82417 13.7862 1.62528 3.83155 13.443 
1.69887 3.82417 13.7862 1.28171 3.93294 13.7761 1.24258 3.92983 13.4714 
0.92186 4.00431 13.741 0.476249 4.05489 13.8049 0.487217 4.04309 13.5055 
0.476249 4.05489 13.8049 -0.0597739 4.07074 13.8915 -0.0166685 4.06435 13.5221 
-0.383217 4.05929 13.6648 -0.666966 4.03398 13.8103 -0.741509 4.01535 13.4903 
-0.666966 4.03398 13.8103 -1.14315 3.9643 13.7997 -0.741509 4.01535 13.4903 
-1.14315 3.9643 13.7997 -1.79859 3.79294 13.7893 -1.35152 3.90704 13.4574 
-1.79859 3.79294 13.7893 -2.06918 3.70065 13.6798 -1.86439 3.75652 13.4186 
-2.06918 3.70065 13.6798 -2.53366 3.50519 13.6839 -2.21218 3.6272 13.37 
-2.53366 3.50519 13.6839 -2.81956 3.35788 13.5726 -2.67419 3.41704 13.3237 
-2.81956 3.35788 13.5726 -3.19179 3.1384 13.5111 -3.10845 3.16234 13.2274 
-3.19179 3.1384 13.5111 -3.65338 2.80902 13.4185 -3.41509 2.94954 13.1564 
-4.02247 2.46182 13.1458 -4.43373 2.04767 13.1533 -4.21921 2.22163 12.9069 
-4.43373 2.04767 13.1533 -4.77187 1.59458 13.0006 -4.68719 1.62654 12.72 
-4.77187 1.59458 13.0006 -5.06171 1.12087 12.8684 -4.94485 1.20626 12.5851 
-5.06171 1.12087 12.8684 -5.26584 0.678162 12.7025 -5.15428 0.771862 12.4423 
-5.36571 0.295286 12.3831 -5.54094 -0.152894 12.4552 -5.38993 -0.0316005 12.0857 
-5.54094 -0.152894 12.4552 -5.59542 -0.569326 12.2363 -5.50133 -0.381567 12.0833 
-5.59542 -0.569326 12.2363 -5.6682 -1.09645 12.1277 -5.55723 -0.870223 11.9103 
-5.05303 -3.47241 11.0733 -4.93505 -3.84699 11.0959 -4.8282 -3.70546 10.8512 
3.7228 -5.18077 10.5182 4.02247 -5.01898 10.7151 3.93489 -4.85271 10.4784 
1.24258 3.92983 13.4714 0.92186 4.00431 13.741 0.874436 3.9746 13.3466 
-0.0166685 4.06435 13.5221 -0.383217 4.05929 13.6648 -0.374458 4.02896 13.3642 
-3.7228 2.70844 13.0816 -4.02247 2.46182 13.1458 -3.93489 2.46642 12.8565 
-5.56749 -1.3471 11.7538 -5.51477 -1.92495 11.5486 -5.44241 -1.6454 11.4512 
-5.51477 -1.92495 11.5486 -5.42634 -2.42985 11.4086 -5.29998 -2.32701 11.1825 
-5.42634 -2.42985 11.4086 -5.27375 -2.91357 11.2257 -5.16799 -2.7773 11.0311 
-5.27375 -2.91357 11.2257 -5.05303 -3.47241 11.0733 -4.9373 -3.23832 10.8256 
-4.8282 -3.70546 10.8512 -4.6977 -4.07131 10.8627 -4.50461 -4.10792 10.6404 
-4.6977 -4.07131 10.8627 -4.47663 -4.387 10.7726 -4.50461 -4.10792 10.6404 
-4.47663 -4.387 10.7726 -4.2432 -4.66317 10.6763 -4.1181 -4.45212 10.4132 
-4.2432 -4.66317 10.6763 -3.89782 -5.0249 10.567 -3.81451 -4.87367 10.3767 
-3.89782 -5.0249 10.567 -3.51982 -5.33735 10.4573 -3.443 -5.15087 10.2485 
-3.51982 -5.33735 10.4573 -3.21275 -5.56234 10.3908 -3.12842 -5.3842 10.1806 
-3.21275 -5.56234 10.3908 -2.89944 -5.75494 10.3216 -2.82808 -5.57231 10.119 
-2.89944 -5.75494 10.3216 -2.56329 -5.93809 10.2687 -2.41733 -5.79784 10.0554 
-2.56329 -5.93809 10.2687 -2.20258 -6.10686 10.2205 -2.41733 -5.79784 10.0554 
-2.20258 -6.10686 10.2205 -1.76158 -6.26901 10.1719 -1.95466 -5.97871 9.98369 
-1.76158 -6.26901 10.1719 -1.25499 -6.3979 10.1181 -1.47158 -6.13171 9.93423 
-1.25499 -6.3979 10.1181 -0.765239 -6.4792 10.0863 -0.65408 -6.30037 9.89299 
-0.765239 -6.4792 10.0863 -0.271007 -6.53217 10.0833 -0.65408 -6.30037 9.89299 
-0.271007 -6.53217 10.0833 0.255641 -6.56783 10.1202 -0.0152766 -6.32701 9.87419 
0.374458 -6.41525 9.9707 0.741674 -6.47812 10.0806 0.87182 -6.2691 9.9018 
0.741674 -6.47812 10.0806 1.13234 -6.42176 10.1115 0.87182 -6.2691 9.9018 
1.13234 -6.42176 10.1115 1.49568 -6.33484 10.1332 1.46677 -6.13115 9.9324 
1.49568 -6.33484 10.1332 1.86439 -6.22681 10.1749 1.81973 -6.01696 9.96119 
1.86439 -6.22681 10.1749 2.21218 -6.09362 10.2115 2.15676 -5.8918 10.0023 
2.21218 -6.09362 10.2115 2.66905 -5.89795 10.2956 2.69039 -5.67373 10.1085 
2.66905 -5.89795 10.2956 3.10845 -5.63371 10.3694 2.69039 -5.67373 10.1085 
3.10845 -5.63371 10.3694 3.41509 -5.41983 10.4371 3.24751 -5.33404 10.229 
3.41509 -5.41983 10.4371 3.7228 -5.18077 10.5182 3.6285 -5.04662 10.3311 
3.93489 -4.85271 10.4784 4.21921 -4.68426 10.663 4.21193 -4.42038 10.4865 
4.21921 -4.68426 10.663 4.47556 -4.38837 10.7722 4.21193 -4.42038 10.4865 
4.47556 -4.38837 10.7722 4.68719 -4.09296 10.8616 4.56596 -3.9582 10.6393 
4.68719 -4.09296 10.8616 4.94485 -3.67366 10.9995 4.8277 -3.55434 10.7862 
4.94485 -3.67366 10.9995 5.15428 -3.23828 11.1393 5.05203 -3.13405 10.9525 
5.15428 -3.23828 11.1393 5.3658 -2.82455 11.3748 5.25979 -2.62989 11.1462 
5.3658 -2.82455 11.3748 5.47536 -2.2342 11.4748 5.25979 -2.62989 11.1462 
5.47536 -2.2342 11.4748 5.55672 -1.6023 11.6717 5.39317 -1.85299 11.3306 
5.55672 -1.6023 11.6717 5.56749 -1.11932 11.8278 5.44863 -1.17292 11.5694 
5.52129 -0.780338 11.8714 5.49933 -0.39938 12.0617 5.34313 -0.355788 11.762 
5.49933 -0.39938 12.0617 5.37565 0.170433 12.2558 5.25966 0.173366 11.9913 
5.37565 0.170433 12.2558 5.20475 0.651148 12.4096 5.08314 0.684373 12.1603 
5.20475 0.651148 12.4096 4.97942 1.12455 12.5252 4.91269 1.11539 12.3519 
4.97942 1.12455 12.5252 4.69475 1.6153 12.7163 4.57199 1.63304 12.4465 
4.69475 1.6153 12.7163 4.47663 1.9167 12.8208 4.37179 1.92032 12.5619 
4.47663 1.9167 12.8208 4.2432 2.19675 12.9052 4.05388 2.29138 12.671 
4.2432 2.19675 12.9052 3.90678 2.54836 13.0417 4.05388 2.29138 12.671 
3.90678 2.54836 13.0417 3.51675 2.87478 13.134 3.63933 2.70071 12.8483 
3.51675 2.87478 13.134 3.21275 3.09205 13.2027 3.24517 3.0086 12.9543 
3.21275 3.09205 13.2027 2.89944 3.28852 13.26 2.73472 3.32103 13.0272 
2.89944 3.28852 13.26 2.46353 3.52037 13.3539 2.73472 3.32103 13.0272 
2.46353 3.52037 13.3539 1.98539 3.71579 13.4072 2.18132 3.59041 13.1374 
1.98539 3.71579 13.4072 1.62528 3.83155 13.443 1.69422 3.73689 13.0707 
1.62528 3.83155 13.443 1.24258 3.92983 13.4714 1.239 3.88744 13.2339 
0.874436 3.9746 13.3466 0.487217 4.04309 13.5055 0.465991 3.97875 13.161 
0.487217 4.04309 13.5055 -0.0166685 4.06435 13.5221 0.00725762 4.02294 13.278 
-0.374458 4.02896 13.3642 -0.741509 4.01535 13.4903 -0.737467 3.93863 13.1149 
-0.741509 4.01535 13.4903 -1.35152 3.90704 13.4574 -1.07132 3.89414 13.1312 
-1.35152 3.90704 13.4574 -1.86439 3.75652 13.4186 -1.84129 3.70598 13.1251 
-1.86439 3.75652 13.4186 -2.21218 3.6272 13.37 -2.27906 3.54363 13.0929 
-2.21218 3.6272 13.37 -2.67419 3.41704 13.3237 -2.27906 3.54363 13.0929 
-2.67419 3.41704 13.3237 -3.10845 3.16234 13.2274 -2.82993 3.27077 13.0336 
-3.10845 3.16234 13.2274 -3.41509 2.94954 13.1564 -3.24751 3.0024 12.9377 
-3.41509 2.94954 13.1564 -3.7228 2.70844 13.0816 -3.6285 2.7099 12.8513 
-3.93489 2.46642 12.8565 -4.21921 2.22163 12.9069 -4.21786 2.10598 12.6095 
-4.21921 2.22163 12.9069 -4.47556 1.91807 12.8213 -4.21786 2.10598 12.6095 
-4.47556 1.91807 12.8213 -4.68719 1.62654 12.72 -4.56596 1.64816 12.461 
-4.68719 1.62654 12.72 -4.94485 1.20626 12.5851 -4.8277 1.23506 12.3424 
-4.94485 1.20626 12.5851 -5.15428 0.771862 12.4423 -5.05203 0.797323 12.2299 
-5.15428 0.771862 12.4423 -5.36571 0.295286 12.3831 -5.18983 0.455866 12.1339 
-5.50133 -0.381567 12.0833 -5.55723 -0.870223 11.9103 -5.39619 -0.56364 11.7363 
-5.55723 -0.870223 11.9103 -5.56749 -1.3471 11.7538 -5.43741 -1.13137 11.5622 
-5.43741 -1.13137 11.5622 -5.44241 -1.6454 11.4512 -5.33513 -1.36676 11.3371 
-4.9373 -3.23832 10.8256 -4.8282 -3.70546 10.8512 -4.60924 -3.71662 10.5979 
-4.8282 -3.70546 10.8512 -4.50461 -4.10792 10.6404 -4.60924 -3.71662 10.5979 
-4.1181 -4.45212 10.4132 -3.81451 -4.87367 10.3767 -3.819 -4.65826 10.2676 
-0.0152766 -6.32701 9.87419 0.374458 -6.41525 9.9707 0.307554 -6.18165 9.77213 
2.69039 -5.67373 10.1085 3.24751 -5.33404 10.229 3.17243 -5.20611 10.0968 
3.24751 -5.33404 10.229 3.6285 -5.04662 10.3311 3.6715 -4.82111 10.2278 
3.6285 -5.04662 10.3311 3.93489 -4.85271 10.4784 3.6715 -4.82111 10.2278 
4.8277 -3.55434 10.7862 5.05203 -3.13405 10.9525 4.99515 -2.93949 10.8391 
5.05203 -3.13405 10.9525 5.25979 -2.62989 11.1462 4.99515 -2.93949 10.8391 
5.39317 -1.85299 11.3306 5.44863 -1.17292 11.5694 5.33491 -1.21123 11.3816 
5.44863 -1.17292 11.5694 5.52129 -0.780338 11.8714 5.31717 -0.709783 11.5448 
5.08314 0.684373 12.1603 4.91269 1.11539 12.3519 4.80485 1.11439 12.1475 
4.05388 2.29138 12.671 3.63933 2.70071 12.8483 3.50499 2.72059 12.6652 
3.63933 2.70071 12.8483 3.24517 3.0086 12.9543 3.50499 2.72059 12.6652 
3.24517 3.0086 12.9543 2.73472 3.32103 13.0272 2.66599 3.28579 12.8406 
2.73472 3.32103 13.0272 2.18132 3.59041 13.1374 2.13891 3.5392 12.9317 
1.69422 3.73689 13.0707 1.239 3.88744 13.2339 1.2284 3.82557 13.0167 
1.239 3.88744 13.2339 0.874436 3.9746 13.3466 0.853674 3.89995 13.0488 
0.465991 3.97875 13.161 0.00725762 4.02294 13.278 -0.131787 3.97105 13.0819 
0.00725762 4.02294 13.278 -0.374458 4.02896 13.3642 -0.131787 3.97105 13.0819 
-2.27906 3.54363 13.0929 -2.82993 3.27077 13.0336 -2.63919 3.2996 12.8432 
-2.82993 3.27077 13.0336 -3.24751 3.0024 12.9377 -3.17243 2.97664 12.7555 
-3.24751 3.0024 12.9377 -3.6285 2.7099 12.8513 -3.67099 2.58975 12.6365 
-3.6285 2.7099 12.8513 -3.93489 2.46642 12.8565 -3.67099 2.58975 12.6365 
-4.8277 1.23506 12.3424 -5.05203 0.797323 12.2299 -4.99576 0.706525 12.0247 
-5.05203 0.797323 12.2299 -5.18983 0.455866 12.1339 -4.99576 0.706525 12.0247 
-5.18983 0.455866 12.1339 -5.38993 -0.0316005 12.0857 -5.20623 0.032533 11.7952 
-5.33943 -1.91238 11.2473 -5.29998 -2.32701 11.1825 -5.13334 -2.29276 10.9671 
-5.29998 -2.32701 11.1825 -5.16799 -2.7773 11.0311 -5.13334 -2.29276 10.9671 
-4.9373 -3.23832 10.8256 -4.60924 -3.71662 10.5979 -4.67812 -3.35265 10.5809 
-3.819 -4.65826 10.2676 -3.81451 -4.87367 10.3767 -3.48748 -4.80835 10.1001 
-3.81451 -4.87367 10.3767 -3.443 -5.15087 10.2485 -3.48748 -4.80835 10.1001 
-3.443 -5.15087 10.2485 -3.12842 -5.3842 10.1806 -3.12747 -5.08659 10.0104 
-3.12842 -5.3842 10.1806 -2.82808 -5.57231 10.119 -2.65066 -5.44775 9.94475 
-2.82808 -5.57231 10.119 -2.41733 -5.79784 10.0554 -2.65066 -5.44775 9.94475 
-2.41733 -5.79784 10.0554 -1.95466 -5.97871 9.98369 -2.09084 -5.70827 9.8564 
-1.95466 -5.97871 9.98369 -1.47158 -6.13171 9.93423 -1.65287 -5.81556 9.77355 
-1.47158 -6.13171 9.93423 -1.09599 -6.22218 9.91148 -1.05872 -5.97015 9.72179 
-1.09599 -6.22218 9.91148 -0.65408 -6.30037 9.89299 -1.05872 -5.97015 9.72179 
0.307554 -6.18165 9.77213 0.87182 -6.2691 9.9018 0.679264 -6.09782 9.75102 
0.87182 -6.2691 9.9018 1.46677 -6.13115 9.9324 1.21707 -6.00019 9.77747 
1.46677 -6.13115 9.9324 1.81973 -6.01696 9.96119 1.68 -5.7966 9.77178 
1.81973 -6.01696 9.96119 2.15676 -5.8918 10.0023 2.05691 -5.67459 9.82434 
2.15676 -5.8918 10.0023 2.69039 -5.67373 10.1085 2.64631 -5.52426 9.98548 
3.6715 -4.82111 10.2278 4.21193 -4.42038 10.4865 4.02812 -4.36294 10.3062 
4.21193 -4.42038 10.4865 4.56596 -3.9582 10.6393 4.32381 -4.00105 10.4238 
4.56596 -3.9582 10.6393 4.8277 -3.55434 10.7862 4.668 -3.46955 10.5908 
5.34313 -0.355788 11.762 5.25966 0.173366 11.9913 5.13333 0.108097 11.7472 
5.25966 0.173366 11.9913 5.08314 0.684373 12.1603 4.98912 0.588346 11.915 
4.80485 1.11439 12.1475 4.57199 1.63304 12.4465 4.51539 1.4477 12.1211 
4.57199 1.63304 12.4465 4.37179 1.92032 12.5619 4.24773 1.89901 12.3248 
4.37179 1.92032 12.5619 4.05388 2.29138 12.671 4.24773 1.89901 12.3248 
-1.42942 3.81103 13.0904 -1.84129 3.70598 13.1251 -1.68338 3.64462 12.8403 
-1.84129 3.70598 13.1251 -2.27906 3.54363 13.0929 -2.10714 3.52317 12.8686 
-3.67099 2.58975 12.6365 -4.21786 2.10598 12.6095 -4.02812 2.1714 12.4294 
-4.21786 2.10598 12.6095 -4.56596 1.64816 12.461 -4.32381 1.8095 12.3118 
-4.56596 1.64816 12.461 -4.8277 1.23506 12.3424 -4.66791 1.28124 12.1341 
-5.20623 0.032533 11.7952 -5.39619 -0.56364 11.7363 -5.2129 -0.476664 11.5133 
-5.39619 -0.56364 11.7363 -5.43741 -1.13137 11.5622 -5.28765 -0.866823 11.4428 
-5.33513 -1.36676 11.3371 -5.33943 -1.91238 11.2473 -5.12728 -1.83239 11.0037 
-5.33943 -1.91238 11.2473 -5.13334 -2.29276 10.9671 -5.12728 -1.83239 11.0037 
-5.13334 -2.29276 10.9671 -4.91814 -2.83929 10.7465 -4.95511 -2.35757 10.7789 
-4.67812 -3.35265 10.5809 -4.60924 -3.71662 10.5979 -4.45173 -3.52095 10.4161 
-4.60924 -3.71662 10.5979 -4.32579 -4.07179 10.447 -4.21943 -3.87076 10.3038 
-4.32579 -4.07179 10.447 -4.1181 -4.45212 10.4132 -3.83207 -4.31979 10.1471 
-4.1181 -4.45212 10.4132 -3.819 -4.65826 10.2676 -3.83207 -4.31979 10.1471 
-3.12747 -5.08659 10.0104 -2.65066 -5.44775 9.94475 -2.58278 -5.26737 9.82706 
-2.65066 -5.44775 9.94475 -2.09084 -5.70827 9.8564 -2.05318 -5.52646 9.74947 
-1.05872 -5.97015 9.72179 -0.336037 -6.13541 9.73986 -0.395144 -5.92581 9.62359 
-0.336037 -6.13541 9.73986 0.307554 -6.18165 9.77213 0.213184 -5.92812 9.61782 
0.307554 -6.18165 9.77213 0.679264 -6.09782 9.75102 0.582276 -5.90227 9.62807 
0.679264 -6.09782 9.75102 1.21707 -6.00019 9.77747 1.10366 -5.83674 9.65995 
2.05691 -5.67459 9.82434 2.64631 -5.52426 9.98548 2.26719 -5.43613 9.78177 
2.64631 -5.52426 9.98548 3.17243 -5.20611 10.0968 2.80739 -5.20955 9.90329 
3.17243 -5.20611 10.0968 3.6715 -4.82111 10.2278 3.25413 -4.90799 10.0066 
3.6715 -4.82111 10.2278 4.02812 -4.36294 10.3062 3.66912 -4.47834 10.092 
4.02812 -4.36294 10.3062 4.32381 -4.00105 10.4238 4.06865 -4.02643 10.2323 
4.32381 -4.00105 10.4238 4.668 -3.46955 10.5908 4.33438 -3.67763 10.3522 
4.668 -3.46955 10.5908 4.99515 -2.93949 10.8391 4.76231 -2.88704 10.6073 
4.99515 -2.93949 10.8391 5.14065 -2.28474 10.9692 4.92685 -2.50166 10.7485 
5.18386 -1.67067 11.0873 5.33491 -1.21123 11.3816 5.15535 -1.2413 11.1588 
5.33491 -1.21123 11.3816 5.31717 -0.709783 11.5448 5.17529 -0.72805 11.3589 
5.31717 -0.709783 11.5448 5.34313 -0.355788 11.762 5.12728 -0.285838 11.5062 
5.34313 -0.355788 11.762 5.13333 0.108097 11.7472 5.12728 -0.285838 11.5062 
5.13333 0.108097 11.7472 4.98912 0.588346 11.915 4.95373 0.269392 11.6302 
4.98912 0.588346 11.915 4.80485 1.11439 12.1475 4.71228 0.933899 11.8555 
4.51539 1.4477 12.1211 4.24773 1.89901 12.3248 4.16511 1.82525 12.1357 
4.24773 1.89901 12.3248 3.8706 2.33931 12.4839 3.84082 2.2082 12.2655 
3.8706 2.33931 12.4839 3.50499 2.72059 12.6652 3.49061 2.55357 12.3783 
3.50499 2.72059 12.6652 3.08412 3.03017 12.766 3.09251 2.90234 12.5385 
3.08412 3.03017 12.766 2.66599 3.28579 12.8406 2.64292 3.20096 12.6529 
2.66599 3.28579 12.8406 2.13891 3.5392 12.9317 2.16706 3.39502 12.6536 
2.13891 3.5392 12.9317 1.69422 3.73689 13.0707 1.85278 3.55467 12.7592 
1.69422 3.73689 13.0707 1.2284 3.82557 13.0167 1.39989 3.66882 12.7445 
1.2284 3.82557 13.0167 0.853674 3.89995 13.0488 0.934268 3.76954 12.7757 
0.853674 3.89995 13.0488 0.465991 3.97875 13.161 0.370993 3.84306 12.8039 
0.465991 3.97875 13.161 -0.131787 3.97105 13.0819 0.370993 3.84306 12.8039 
-0.131787 3.97105 13.0819 -0.737467 3.93863 13.1149 -0.589889 3.84667 12.8546 
-0.737467 3.93863 13.1149 -1.07132 3.89414 13.1312 -1.03828 3.75567 12.775 
-1.07132 3.89414 13.1312 -1.42942 3.81103 13.0904 -1.03828 3.75567 12.775 
-1.68338 3.64462 12.8403 -2.10714 3.52317 12.8686 -1.94916 3.47915 12.6743 
-2.10714 3.52317 12.8686 -2.63919 3.2996 12.8432 -2.38905 3.28643 12.61 
-2.63919 3.2996 12.8432 -3.17243 2.97664 12.7555 -2.84954 3.02897 12.5306 
-3.17243 2.97664 12.7555 -3.67099 2.58975 12.6365 -3.24193 2.75277 12.4392 
-3.67099 2.58975 12.6365 -4.02812 2.1714 12.4294 -3.68237 2.38043 12.3238 
-4.02812 2.1714 12.4294 -4.32381 1.8095 12.3118 -4.06554 1.9513 12.1796 
-4.32381 1.8095 12.3118 -4.66791 1.28124 12.1341 -4.33518 1.59631 12.0716 
-4.66791 1.28124 12.1341 -4.99576 0.706525 12.0247 -4.76057 0.806 11.8081 
-4.99576 0.706525 12.0247 -5.20623 0.032533 11.7952 -4.92327 0.406884 11.689 
-5.2129 -0.476664 11.5133 -5.28765 -0.866823 11.4428 -5.13292 -0.715458 11.3156 
-5.28765 -0.866823 11.4428 -5.33513 -1.36676 11.3371 -5.15729 -1.2495 11.1579 
-5.15729 -1.2495 11.1579 -5.12728 -1.83239 11.0037 -4.97301 -1.75628 10.8705 
-4.95511 -2.35757 10.7789 -4.91814 -2.83929 10.7465 -4.60522 -2.94404 10.4808 
-4.91814 -2.83929 10.7465 -4.67812 -3.35265 10.5809 -4.60522 -2.94404 10.4808 
-3.83207 -4.31979 10.1471 -3.48748 -4.80835 10.1001 -3.34424 -4.57096 9.9451 
-3.48748 -4.80835 10.1001 -3.12747 -5.08659 10.0104 -3.00259 -4.84544 9.86009 
-2.05318 -5.52646 9.74947 -1.65287 -5.81556 9.77355 -1.48689 -5.60885 9.63457 
-1.65287 -5.81556 9.77355 -1.05872 -5.97015 9.72179 -1.48689 -5.60885 9.63457 
1.10366 -5.83674 9.65995 1.68 -5.7966 9.77178 1.72745 -5.51576 9.65113 
1.68 -5.7966 9.77178 2.05691 -5.67459 9.82434 1.72745 -5.51576 9.65113 
2.26719 -5.43613 9.78177 2.80739 -5.20955 9.90329 2.69234 -5.04282 9.7914 
2.80739 -5.20955 9.90329 3.25413 -4.90799 10.0066 3.13292 -4.74331 9.88974 
4.92685 -2.50166 10.7485 5.14065 -2.28474 10.9692 4.93297 -1.88455 10.8125 
5.15535 -1.2413 11.1588 5.17529 -0.72805 11.3589 5.01856 -0.789332 11.1736 
5.17529 -0.72805 11.3589 5.12728 -0.285838 11.5062 4.96386 -0.267363 11.3456 
4.95373 0.269392 11.6302 4.71228 0.933899 11.8555 4.60736 0.857703 11.6948 
4.71228 0.933899 11.8555 4.51539 1.4477 12.1211 4.37101 1.35304 11.8772 
3.49061 2.55357 12.3783 3.09251 2.90234 12.5385 2.9229 2.88446 12.3749 
3.09251 2.90234 12.5385 2.64292 3.20096 12.6529 2.9229 2.88446 12.3749 
2.16706 3.39502 12.6536 1.85278 3.55467 12.7592 1.73037 3.4672 12.5476 
-0.197985 3.84172 12.79 -0.589889 3.84667 12.8546 -0.459311 3.7414 12.6407 
-1.03828 3.75567 12.775 -1.68338 3.64462 12.8403 -1.45244 3.56336 12.5876 
-5.04495 -0.054791 11.5366 -5.2129 -0.476664 11.5133 -4.97154 -0.273382 11.3504 
-4.97301 -1.75628 10.8705 -4.95511 -2.35757 10.7789 -4.78404 -2.27197 10.6477 
-4.60522 -2.94404 10.4808 -4.45173 -3.52095 10.4161 -4.31963 -3.34049 10.3058 
-4.45173 -3.52095 10.4161 -4.21943 -3.87076 10.3038 -4.01281 -3.80197 10.1585 
-4.21943 -3.87076 10.3038 -3.83207 -4.31979 10.1471 -4.01281 -3.80197 10.1585 
-3.00259 -4.84544 9.86009 -2.58278 -5.26737 9.82706 -2.48983 -5.09272 9.73594 
-2.58278 -5.26737 9.82706 -2.05318 -5.52646 9.74947 -1.9832 -5.33286 9.65754 
-0.920531 -5.72072 9.58305 -0.395144 -5.92581 9.62359 -0.225675 -5.72371 9.52914 
-0.395144 -5.92581 9.62359 0.213184 -5.92812 9.61782 -0.225675 -5.72371 9.52914 
0.213184 -5.92812 9.61782 0.582276 -5.90227 9.62807 0.449023 -5.70607 9.53627 
0.582276 -5.90227 9.62807 1.10366 -5.83674 9.65995 1.06616 -5.61614 9.563 
1.10366 -5.83674 9.65995 1.72745 -5.51576 9.65113 1.06616 -5.61614 9.563 
1.72745 -5.51576 9.65113 2.26719 -5.43613 9.78177 2.1832 -5.24504 9.68607 
3.13292 -4.74331 9.88974 3.66912 -4.47834 10.092 3.55128 -4.30255 9.98869 
3.66912 -4.47834 10.092 4.06865 -4.02643 10.2323 3.92561 -3.90012 10.1229 
4.06865 -4.02643 10.2323 4.33438 -3.67763 10.3522 4.09687 -3.48669 10.1783 
4.33438 -3.67763 10.3522 4.56483 -3.27525 10.4728 4.41342 -3.17597 10.3582 
4.56483 -3.27525 10.4728 4.76231 -2.88704 10.6073 4.60217 -2.7847 10.4855 
4.76231 -2.88704 10.6073 4.92685 -2.50166 10.7485 4.74612 -2.39443 10.6093 
5.18386 -1.67067 11.0873 5.15535 -1.2413 11.1588 4.95914 -1.32324 10.9603 
4.96386 -0.267363 11.3456 4.95373 0.269392 11.6302 4.78136 0.280474 11.4751 
4.37101 1.35304 11.8772 4.16511 1.82525 12.1357 4.07 1.70379 11.9359 
4.16511 1.82525 12.1357 3.84082 2.2082 12.2655 3.68758 2.17076 12.0923 
3.84082 2.2082 12.2655 3.49061 2.55357 12.3783 3.68758 2.17076 12.0923 
1.39989 3.66882 12.7445 0.934268 3.76954 12.7757 1.10489 3.60635 12.5554 
0.934268 3.76954 12.7757 0.370993 3.84306 12.8039 0.679877 3.68548 12.5878 
0.370993 3.84306 12.8039 -0.197985 3.84172 12.79 0.151378 3.72943 12.6022 
-0.459311 3.7414 12.6407 -1.03828 3.75567 12.775 -0.89736 3.65223 12.577 
-1.45244 3.56336 12.5876 -1.94916 3.47915 12.6743 -1.78871 3.41092 12.4953 
-1.94916 3.47915 12.6743 -2.38905 3.28643 12.61 -2.28373 3.1927 12.4153 
-2.38905 3.28643 12.61 -2.84954 3.02897 12.5306 -2.77096 2.92726 12.3414 
-2.84954 3.02897 12.5306 -3.24193 2.75277 12.4392 -3.1115 2.68959 12.2638 
-3.24193 2.75277 12.4392 -3.68237 2.38043 12.3238 -3.54424 2.32318 12.1463 
-3.68237 2.38043 12.3238 -4.06554 1.9513 12.1796 -3.91122 1.91707 12.0102 
-4.06554 1.9513 12.1796 -4.33518 1.59631 12.0716 -4.23537 1.48315 11.872 
-4.33518 1.59631 12.0716 -4.56221 1.20169 11.9294 -4.23537 1.48315 11.872 
-4.56221 1.20169 11.9294 -4.76057 0.806 11.8081 -4.51186 0.982432 11.7068 
-4.76057 0.806 11.8081 -4.92327 0.406884 11.689 -4.77761 0.375632 11.5265 
-4.92327 0.406884 11.689 -5.04495 -0.054791 11.5366 -4.77761 0.375632 11.5265 
-4.97154 -0.273382 11.3504 -5.13292 -0.715458 11.3156 -4.95914 -0.672255 11.1719 
-5.13292 -0.715458 11.3156 -5.15729 -1.2495 11.1579 -5.01353 -1.22827 11.0276 
-5.01353 -1.22827 11.0276 -4.97301 -1.75628 10.8705 -4.77147 -1.37791 10.8077 
-4.97301 -1.75628 10.8705 -4.78404 -2.27197 10.6477 -4.66667 -2.02004 10.6013 
-4.78404 -2.27197 10.6477 -4.60522 -2.94404 10.4808 -4.45889 -2.64663 10.4005 
-4.60522 -2.94404 10.4808 -4.31963 -3.34049 10.3058 -4.25495 -3.05409 10.2651 
-4.31963 -3.34049 10.3058 -4.01281 -3.80197 10.1585 -3.93969 -3.56681 10.1002 
-4.01281 -3.80197 10.1585 -3.635 -4.22252 10.0183 -3.51404 -4.04437 9.93761 
-3.635 -4.22252 10.0183 -3.34424 -4.57096 9.9451 -3.11932 -4.41939 9.81977 
-3.34424 -4.57096 9.9451 -3.00259 -4.84544 9.86009 -3.11932 -4.41939 9.81977 
-3.00259 -4.84544 9.86009 -2.48983 -5.09272 9.73594 -2.67893 -4.74298 9.71885 
-2.48983 -5.09272 9.73594 -1.9832 -5.33286 9.65754 -2.19386 -5.00193 9.62595 
-1.9832 -5.33286 9.65754 -1.48689 -5.60885 9.63457 -1.70931 -5.2127 9.56176 
-1.48689 -5.60885 9.63457 -0.920531 -5.72072 9.58305 -1.18718 -5.38663 9.51195 
-0.920531 -5.72072 9.58305 -0.225675 -5.72371 9.52914 -0.467051 -5.51508 9.47226 
-0.225675 -5.72371 9.52914 0.449023 -5.70607 9.53627 0.327826 -5.50487 9.4664 
0.449023 -5.70607 9.53627 1.06616 -5.61614 9.563 0.930312 -5.43388 9.49268 
1.06616 -5.61614 9.563 1.72745 -5.51576 9.65113 1.46023 -5.30724 9.53681 
1.72745 -5.51576 9.65113 2.1832 -5.24504 9.68607 1.88831 -5.1448 9.58356 
2.1832 -5.24504 9.68607 2.69234 -5.04282 9.7914 2.39922 -4.89798 9.66141 
2.69234 -5.04282 9.7914 3.13292 -4.74331 9.88974 2.8437 -4.62709 9.75408 
3.13292 -4.74331 9.88974 3.55128 -4.30255 9.98869 3.3084 -4.26465 9.87255 
3.55128 -4.30255 9.98869 3.92561 -3.90012 10.1229 3.76225 -3.77864 10.0278 
4.09687 -3.48669 10.1783 4.41342 -3.17597 10.3582 4.33266 -2.92481 10.3093 
4.41342 -3.17597 10.3582 4.60217 -2.7847 10.4855 4.33266 -2.92481 10.3093 
4.60217 -2.7847 10.4855 4.74612 -2.39443 10.6093 4.57835 -2.30349 10.5082 
4.74612 -2.39443 10.6093 4.93297 -1.88455 10.8125 4.69774 -1.87122 10.6508 
4.93297 -1.88455 10.8125 4.95914 -1.32324 10.9603 4.76296 -1.36918 10.8051 
4.95914 -1.32324 10.9603 5.01856 -0.789332 11.1736 4.79129 -0.780347 11.0034 
5.01856 -0.789332 11.1736 4.96386 -0.267363 11.3456 4.72598 -0.196172 11.1919 
4.96386 -0.267363 11.3456 4.78136 0.280474 11.4751 4.72598 -0.196172 11.1919 
4.78136 0.280474 11.4751 4.60736 0.857703 11.6948 4.46128 0.726198 11.4977 
4.60736 0.857703 11.6948 4.37101 1.35304 11.8772 4.25994 1.14866 11.6374 
4.37101 1.35304 11.8772 4.07 1.70379 11.9359 3.99076 1.56789 11.7657 
4.07 1.70379 11.9359 3.68758 2.17076 12.0923 3.65003 1.9861 11.8985 
3.29173 2.43336 12.0926 2.9229 2.88446 12.3749 2.87934 2.69528 12.1384 
2.9229 2.88446 12.3749 2.35317 3.18987 12.4448 2.49878 2.94379 12.2235 
2.35317 3.18987 12.4448 1.73037 3.4672 12.5476 1.97 3.18958 12.2876 
1.73037 3.4672 12.5476 1.10489 3.60635 12.5554 1.32872 3.41077 12.3533 
1.10489 3.60635 12.5554 0.679877 3.68548 12.5878 0.560501 3.56415 12.4094 
0.679877 3.68548 12.5878 0.151378 3.72943 12.6022 0.560501 3.56415 12.4094 
0.151378 3.72943 12.6022 -0.459311 3.7414 12.6407 -0.100402 3.60212 12.4295 
-0.459311 3.7414 12.6407 -0.89736 3.65223 12.577 -0.636799 3.56276 12.4186 
-0.89736 3.65223 12.577 -1.45244 3.56336 12.5876 -1.17228 3.45857 12.3774 
-1.45244 3.56336 12.5876 -1.78871 3.41092 12.4953 -1.68797 3.30502 12.3296 
-1.78871 3.41092 12.4953 -2.28373 3.1927 12.4153 -2.19756 3.09225 12.26 
-2.28373 3.1927 12.4153 -2.77096 2.92726 12.3414 -2.66673 2.82469 12.1729 
-2.77096 2.92726 12.3414 -3.1115 2.68959 12.2638 -3.0917 2.5271 12.0779 
-3.1115 2.68959 12.2638 -3.54424 2.32318 12.1463 -3.0917 2.5271 12.0779 
-3.54424 2.32318 12.1463 -3.91122 1.91707 12.0102 -3.76359 1.86334 11.8624 
-3.91122 1.91707 12.0102 -4.23537 1.48315 11.872 -4.03966 1.49715 11.7457 
-4.23537 1.48315 11.872 -4.51186 0.982432 11.7068 -4.25578 1.12732 11.6203 
-4.51186 0.982432 11.7068 -4.77761 0.375632 11.5265 -4.46846 0.659025 11.4626 
-4.77761 0.375632 11.5265 -4.97154 -0.273382 11.3504 -4.67792 0.108528 11.3026 
-4.97154 -0.273382 11.3504 -4.95914 -0.672255 11.1719 -4.75437 -0.435193 11.1109 
-4.95914 -0.672255 11.1719 -5.01353 -1.22827 11.0276 -4.78814 -0.859447 10.9766 
2.49878 2.94379 12.2235 2.35317 3.18987 12.4448 1.97 3.18958 12.2876 
-4.50898 -1.71111 10.586 -4.54139 -1.51841 10.6486 -4.77147 -1.37791 10.8077 
-4.42262 -2.07491 10.4679 -4.46581 -1.90871 10.5218 -4.66667 -2.02004 10.6013 
-4.21424 -2.64048 10.2838 -4.28334 -2.47787 10.3368 -4.45889 -2.64663 10.4005 
-4.45889 -2.64663 10.4005 -4.25495 -3.05409 10.2651 -4.10297 -2.87155 10.2091 
-3.92442 -3.17688 10.1094 -4.02108 -3.01811 10.1613 -4.25495 -3.05409 10.2651 
-3.2969 -3.95281 9.85696 -3.42057 -3.8272 9.8984 -3.51404 -4.04437 9.93761 
-3.51404 -4.04437 9.93761 -3.11932 -4.41939 9.81977 -3.11341 -4.12517 9.80152 
-2.82483 -4.35974 9.72571 -2.97315 -4.24314 9.76326 -3.11932 -4.41939 9.81977 
-3.11932 -4.41939 9.81977 -2.67893 -4.74298 9.71885 -2.62038 -4.50328 9.67897 
-2.67893 -4.74298 9.71885 -2.19386 -5.00193 9.62595 -2.29204 -4.70039 9.61469 
-1.9479 -4.872 9.55895 -2.10898 -4.79569 9.58372 -2.19386 -5.00193 9.62595 
-2.19386 -5.00193 9.62595 -1.70931 -5.2127 9.56176 -1.71488 -4.96835 9.52764 
-1.35843 -5.0905 9.48851 -1.53512 -5.03275 9.50669 -1.70931 -5.2127 9.56176 
-0.7343 -5.22833 9.44314 -0.932659 -5.19329 9.45453 -1.18718 -5.38663 9.51195 
0.286778 -5.27316 9.42708 0.104348 -5.28335 9.42527 0.327826 -5.50487 9.4664 
0.919586 -5.19598 9.45358 0.727414 -5.22924 9.44285 0.930312 -5.43388 9.49268 
1.89577 -4.89316 9.55134 1.73012 -4.96205 9.52967 1.88831 -5.1448 9.58356 
1.88831 -5.1448 9.58356 2.39922 -4.89798 9.66141 2.12608 -4.78745 9.58629 
2.45485 -4.6082 9.64504 2.29204 -4.70039 9.61469 2.39922 -4.89798 9.66141 
2.39922 -4.89798 9.66141 2.8437 -4.62709 9.75408 2.6673 -4.47093 9.68914 
2.97052 -4.24539 9.76253 2.81127 -4.3684 9.72256 2.8437 -4.62709 9.75408 
3.25865 -3.99131 9.84489 3.12888 -4.111 9.80619 3.3084 -4.26465 9.87255 
3.66974 -3.538 9.99228 3.47251 -3.769 9.91607 3.76225 -3.77864 10.0278 
3.76225 -3.77864 10.0278 4.09687 -3.48669 10.1783 3.81919 -3.33758 10.0577 
4.01637 -3.02673 10.1585 3.91673 -3.19 10.1054 4.09687 -3.48669 10.1783 
4.40742 -2.12658 10.4511 4.35323 -2.29085 10.3976 4.57835 -2.30349 10.5082 
4.57835 -2.30349 10.5082 4.69774 -1.87122 10.6508 4.47048 -1.88846 10.528 
4.54012 -1.53411 10.6438 4.50827 -1.71438 10.5849 4.69774 -1.87122 10.6508 
4.76296 -1.36918 10.8051 4.79129 -0.780347 11.0034 4.58408 -0.924759 10.8415 
4.56651 -0.555433 10.9606 4.57933 -0.726328 10.9059 4.79129 -0.780347 11.0034 
4.79129 -0.780347 11.0034 4.72598 -0.196172 11.1919 4.53998 -0.315709 11.0396 
4.47099 0.0395278 11.1547 4.50827 -0.135142 11.098 4.72598 -0.196172 11.1919 
4.72598 -0.196172 11.1919 4.58419 0.358382 11.3717 4.40675 0.277236 11.2319 
4.28596 0.622168 11.3441 4.35323 0.441334 11.2853 4.58419 0.358382 11.3717 
4.12941 0.969243 11.4568 4.20457 0.812159 11.4058 4.46128 0.726198 11.4977 
3.81648 1.48678 11.6236 3.91673 1.34048 11.5775 3.99076 1.56789 11.7657 
3.42976 1.96826 11.7814 3.62588 1.73378 11.7013 3.65003 1.9861 11.8985 
3.65003 1.9861 11.8985 3.29173 2.43336 12.0926 3.26084 2.14362 11.8398 
2.66726 2.62153 11.9936 2.81127 2.51888 11.9604 2.87934 2.69528 12.1384 
2.87934 2.69528 12.1384 2.49878 2.94379 12.2235 2.45438 2.75778 12.0379 
2.12602 2.93787 12.0963 2.29204 2.85087 12.0682 2.49878 2.94379 12.2235 
1.53848 3.18217 12.1759 1.73012 3.11253 12.1533 1.97 3.18958 12.2876 
1.16394 3.29195 12.2111 1.33693 3.24543 12.1964 1.32872 3.41077 12.3533 
0.544466 3.40414 12.2477 0.727414 3.37972 12.2401 0.560501 3.56415 12.4094 
-0.0940894 3.43424 12.2578 0.104348 3.43383 12.2577 -0.100402 3.60212 12.4295 
-1.10939 3.30324 12.2136 -0.932659 3.34378 12.2284 -1.17228 3.45857 12.3774 
-1.68797 3.30502 12.3296 -2.19756 3.09225 12.26 -1.94931 3.02463 12.1262 
-2.19756 3.09225 12.26 -2.66673 2.82469 12.1729 -2.47036 2.74774 12.0347 
-2.62072 2.65403 12.0048 -2.47036 2.74774 12.0347 -2.66673 2.82469 12.1729 
-2.66673 2.82469 12.1729 -3.0917 2.5271 12.0779 -2.82471 2.50993 11.9577 
-3.11304 2.27562 11.8811 -2.97315 2.39362 11.9197 -3.0917 2.5271 12.0779 
-3.0917 2.5271 12.0779 -3.49094 2.15974 11.9573 -3.30557 2.09715 11.8234 
-3.78843 1.53024 11.6389 -3.68391 1.66983 11.6845 -3.76359 1.86334 11.8624 
-4.10539 1.01451 11.4711 -4.02108 1.16859 11.5216 -4.25578 1.12732 11.6203 
-4.25578 1.12732 11.6203 -4.46846 0.659025 11.4626 -4.21571 0.791791 11.3998 
-4.34919 0.453509 11.2892 -4.28334 0.628356 11.3461 -4.46846 0.659025 11.4626 
-4.46846 0.659025 11.4626 -4.67792 0.108528 11.3026 -4.4259 0.225607 11.2171 
-4.56348 -0.501306 10.9793 -4.51822 -0.214125 11.0696 -4.75437 -0.435193 11.1109 
-4.75437 -0.435193 11.1109 -4.78814 -0.859447 10.9766 -4.58065 -0.744781 10.9 
-5.73885 -2.94526 17.0599 -5.72706 -3.29495 16.9463 -5.7329 -1.7333 12.4846 
-5.72706 -3.29495 16.9463 -5.72706 -1.83458 12.4517 -5.7329 -1.7333 12.4846 
-5.69173 -3.64321 16.8331 -5.68882 -2.2075 12.33 -5.71507 -1.98121 12.4041 
-5.71507 -1.98121 12.4041 -5.72706 -3.29495 16.9463 -5.69173 -3.64321 16.8331 
-5.69173 -3.64321 16.8331 -5.63302 -3.9886 16.7209 -5.63985 -2.4966 12.2338 
-5.63985 -2.4966 12.2338 -5.68882 -2.2075 12.33 -5.69173 -3.64321 16.8331 
-5.63302 -3.9886 16.7209 -5.55116 -4.3297 16.6101 -5.59078 -2.7167 12.1651 
-5.55116 -4.3297 16.6101 -5.53616 -2.92593 12.0984 -5.59078 -2.7167 12.1651 
-5.55116 -4.3297 16.6101 -5.44816 -3.19992 12.0081 -5.53616 -2.92593 12.0984 
-5.44816 -3.19992 12.0081 -5.55116 -4.3297 16.6101 -5.44649 -4.66511 16.5011 
-5.44649 -4.66511 16.5011 -5.31943 -4.99345 16.3944 -5.36234 -3.42924 11.9336 
-5.31943 -4.99345 16.3944 -5.31943 -3.53308 11.8999 -5.36234 -3.42924 11.9336 
-5.17052 -5.31338 16.2905 -5.16218 -3.8705 11.7909 -5.26374 -3.65935 11.8588 
-5.26374 -3.65935 11.8588 -5.31943 -4.99345 16.3944 -5.17052 -5.31338 16.2905 
-5.17052 -5.31338 16.2905 -5.00036 -5.62358 16.1897 -5.02033 -4.12932 11.7019 
-5.02033 -4.12932 11.7019 -5.16218 -3.8705 11.7909 -5.17052 -5.31338 16.2905 
-5.00036 -5.62358 16.1897 -4.80966 -5.92277 16.0925 -4.90338 -4.32076 11.6439 
-4.80966 -5.92277 16.0925 -4.78186 -4.50389 11.5842 -4.90338 -4.32076 11.6439 
-4.80966 -5.92277 16.0925 -4.60656 -4.73947 11.5049 -4.78186 -4.50389 11.5842 
-4.60656 -4.73947 11.5049 -4.80966 -5.92277 16.0925 -4.59919 -6.20973 15.9992 
-4.59919 -6.20973 15.9992 -4.36982 -6.48327 15.9104 -4.45169 -4.92935 11.4462 
-4.36982 -6.48327 15.9104 -4.36982 -5.0229 11.4158 -4.45169 -4.92935 11.4462 
-4.1225 -6.74227 15.8262 -4.1132 -5.29099 11.3287 -4.28223 -5.11848 11.3847 
-4.28223 -5.11848 11.3847 -4.36982 -6.48327 15.9104 -4.1225 -6.74227 15.8262 
-4.1225 -6.74227 15.8262 -3.85823 -6.98567 15.7471 -3.89377 -5.49366 11.2573 
-3.89377 -5.49366 11.2573 -4.1132 -5.29099 11.3287 -4.1225 -6.74227 15.8262 
-3.57811 -7.21247 15.6734 -3.54467 -5.7787 11.1722 -3.72211 -5.63919 11.2155 
-3.72211 -5.63919 11.2155 -3.85823 -6.98567 15.7471 -3.57811 -7.21247 15.6734 
-3.28329 -7.42173 15.6054 -3.29739 -5.95258 11.1143 -3.54467 -5.7787 11.1722 
-3.54467 -5.7787 11.1722 -3.57811 -7.21247 15.6734 -3.28329 -7.42173 15.6054 
-3.28329 -7.42173 15.6054 -2.97498 -7.6126 15.5434 -3.09266 -6.08252 11.0715 
-2.97498 -7.6126 15.5434 -2.97498 -6.15223 11.0489 -3.09266 -6.08252 11.0715 
-2.65444 -7.78429 15.4876 -2.64734 -6.32743 10.9919 -2.86942 -6.21163 11.0296 
-2.86942 -6.21163 11.0296 -2.97498 -7.6126 15.5434 -2.65444 -7.78429 15.4876 
-2.65444 -7.78429 15.4876 -2.32299 -7.93609 15.4383 -2.37379 -6.45309 10.9451 
-2.37379 -6.45309 10.9451 -2.64734 -6.32743 10.9919 -2.65444 -7.78429 15.4876 
-1.982 -8.06739 15.3956 -1.94819 -6.6206 10.9008 -2.16595 -6.5392 10.9231 
-2.16595 -6.5392 10.9231 -2.32299 -7.93609 15.4383 -1.982 -8.06739 15.3956 
-1.63286 -8.17764 15.3598 -1.67371 -6.70558 10.8691 -1.94819 -6.6206 10.9008 
-1.94819 -6.6206 10.9008 -1.982 -8.06739 15.3956 -1.63286 -8.17764 15.3598 
-1.63286 -8.17764 15.3598 -1.63286 -6.71727 10.8653 -1.67371 -6.70558 10.8691 
-1.63286 -8.17764 15.3598 -1.27701 -8.26638 15.331 -1.42213 -6.77262 10.8473 
-1.27701 -8.26638 15.331 -1.27701 -6.80601 10.8364 -1.42213 -6.77262 10.8473 
-0.915919 -8.33327 15.3093 -0.913282 -6.87336 10.8146 -1.1676 -6.8287 10.8291 
-1.1676 -6.8287 10.8291 -1.27701 -8.26638 15.331 -0.915919 -8.33327 15.3093 
-0.915919 -8.33327 15.3093 -0.551061 -8.37801 15.2947 -0.614585 -6.91186 10.801 
-0.614585 -6.91186 10.801 -0.913282 -6.87336 10.8146 -0.915919 -8.33327 15.3093 
-0.183939 -8.40042 15.2874 -0.183939 -6.94005 10.7929 -0.391633 -6.93013 10.7961 
-0.391633 -6.93013 10.7961 -0.551061 -8.37801 15.2947 -0.183939 -8.40042 15.2874 
0.183939 -8.40042 15.2874 0.130635 -6.94144 10.7924 -0.130635 -6.94144 10.7924 
-0.130635 -6.94144 10.7924 -0.183939 -8.40042 15.2874 0.183939 -8.40042 15.2874 
0.183939 -8.40042 15.2874 0.183939 -6.94005 10.7929 0.130635 -6.94144 10.7924 
0.183939 -8.40042 15.2874 0.551061 -8.37801 15.2947 0.391633 -6.93013 10.7961 
0.551061 -8.37801 15.2947 0.616074 -6.91219 10.8023 0.391633 -6.93013 10.7961 
0.551061 -8.37801 15.2947 0.912935 -6.87288 10.8129 0.616074 -6.91219 10.8023 
0.912935 -6.87288 10.8129 0.551061 -8.37801 15.2947 0.915919 -8.33327 15.3093 
0.915919 -8.33327 15.3093 1.27701 -8.26638 15.331 1.1676 -6.8287 10.8291 
1.27701 -8.26638 15.331 1.27701 -6.80601 10.8364 1.1676 -6.8287 10.8291 
1.63286 -8.17764 15.3598 1.63286 -6.71727 10.8653 1.42213 -6.77262 10.8473 
1.42213 -6.77262 10.8473 1.27701 -8.26638 15.331 1.63286 -8.17764 15.3598 
1.63286 -8.17764 15.3598 1.982 -8.06739 15.3956 1.94818 -6.62033 10.8999 
1.94818 -6.62033 10.8999 1.67371 -6.70558 10.8691 1.63286 -8.17764 15.3598 
1.982 -8.06739 15.3956 2.32299 -7.93609 15.4383 2.16595 -6.5392 10.9231 
2.32299 -7.93609 15.4383 2.37433 -6.45897 10.9639 2.16595 -6.5392 10.9231 
2.32299 -7.93609 15.4383 2.64564 -6.299 10.9009 2.37433 -6.45897 10.9639 
2.64564 -6.299 10.9009 2.32299 -7.93609 15.4383 2.65444 -7.78429 15.4876 
2.65444 -7.78429 15.4876 2.97498 -7.6126 15.5434 2.86942 -6.21163 11.0296 
2.97498 -7.6126 15.5434 2.97498 -6.15223 11.0489 2.86942 -6.21163 11.0296 
3.28329 -7.42173 15.6054 3.29739 -5.95252 11.1142 3.09266 -6.08252 11.0715 
3.09266 -6.08252 11.0715 2.97498 -7.6126 15.5434 3.28329 -7.42173 15.6054 
3.28329 -7.42173 15.6054 3.57811 -7.21247 15.6734 3.54466 -5.77838 11.1711 
3.54466 -5.77838 11.1711 3.29739 -5.95252 11.1142 3.28329 -7.42173 15.6054 
3.57811 -7.21247 15.6734 3.85823 -6.98567 15.7471 3.72211 -5.63919 11.2155 
3.85823 -6.98567 15.7471 3.89332 -5.49791 11.269 3.72211 -5.63919 11.2155 
4.1225 -6.74227 15.8262 4.11224 -5.26253 11.2365 3.89332 -5.49791 11.269 
3.89332 -5.49791 11.269 3.85823 -6.98567 15.7471 4.1225 -6.74227 15.8262 
4.1225 -6.74227 15.8262 4.36982 -6.48327 15.9104 4.28223 -5.11848 11.3847 
4.36982 -6.48327 15.9104 4.36982 -5.0229 11.4158 4.28223 -5.11848 11.3847 
4.59919 -6.20973 15.9992 4.60602 -4.74106 11.5075 4.45169 -4.92935 11.4462 
4.45169 -4.92935 11.4462 4.36982 -6.48327 15.9104 4.59919 -6.20973 15.9992 
4.59919 -6.20973 15.9992 4.80966 -5.92277 16.0925 4.78239 -4.50362 11.5861 
4.78239 -4.50362 11.5861 4.60602 -4.74106 11.5075 4.59919 -6.20973 15.9992 
5.00036 -5.62358 16.1897 5.02031 -4.13258 11.7119 4.90338 -4.32076 11.6439 
4.90338 -4.32076 11.6439 4.80966 -5.92277 16.0925 5.00036 -5.62358 16.1897 
5.17052 -5.31338 16.2905 5.16218 -3.87058 11.7911 5.02031 -4.13258 11.7119 
5.02031 -4.13258 11.7119 5.00036 -5.62358 16.1897 5.17052 -5.31338 16.2905 
5.17052 -5.31338 16.2905 5.31943 -4.99345 16.3944 5.26374 -3.65935 11.8588 
5.31943 -4.99345 16.3944 5.31943 -3.53308 11.8999 5.26374 -3.65935 11.8588 
5.44649 -4.66511 16.5011 5.44816 -3.19992 12.0081 5.36234 -3.42924 11.9336 
5.36234 -3.42924 11.9336 5.31943 -4.99345 16.3944 5.44649 -4.66511 16.5011 
5.44649 -4.66511 16.5011 5.55116 -4.3297 16.6101 5.53648 -2.92214 12.0913 
5.53648 -2.92214 12.0913 5.44816 -3.19992 12.0081 5.44649 -4.66511 16.5011 
5.63302 -3.9886 16.7209 5.63985 -2.49866 12.24 5.59078 -2.7167 12.1651 
5.59078 -2.7167 12.1651 5.55116 -4.3297 16.6101 5.63302 -3.9886 16.7209 
5.69173 -3.64321 16.8331 5.68882 -2.20743 12.3297 5.63985 -2.49866 12.24 
5.63985 -2.49866 12.24 5.63302 -3.9886 16.7209 5.69173 -3.64321 16.8331 
5.69173 -3.64321 16.8331 5.72706 -3.29495 16.9463 5.71507 -1.98121 12.4041 
5.72706 -3.29495 16.9463 5.72706 -1.83458 12.4517 5.71507 -1.98121 12.4041 
5.73885 -2.94526 17.0599 5.73885 -1.48489 12.5654 5.7329 -1.7333 12.4846 
5.7329 -1.7333 12.4846 5.72706 -3.29495 16.9463 5.73885 -2.94526 17.0599 
5.73885 -2.94526 17.0599 5.72706 -2.59557 17.1735 5.7329 -1.23647 12.6461 
5.72706 -2.59557 17.1735 5.72706 -1.13519 12.679 5.7329 -1.23647 12.6461 
5.69173 -2.24731 17.2867 5.68882 -0.761914 12.7997 5.71507 -0.988568 12.7266 
5.71507 -0.988568 12.7266 5.72706 -2.59557 17.1735 5.69173 -2.24731 17.2867 
5.69173 -2.24731 17.2867 5.63302 -1.90192 17.3989 5.63985 -0.471519 12.8918 
5.63985 -0.471519 12.8918 5.68882 -0.761914 12.7997 5.69173 -2.24731 17.2867 
5.63302 -1.90192 17.3989 5.55116 -1.56082 17.5098 5.59078 -0.253077 12.9656 
5.55116 -1.56082 17.5098 5.53616 -0.0445672 13.0345 5.59078 -0.253077 12.9656 
5.55116 -1.56082 17.5098 5.44816 0.230148 13.1226 5.53616 -0.0445672 13.0345 
5.44816 0.230148 13.1226 5.55116 -1.56082 17.5098 5.44649 -1.22541 17.6187 
5.44649 -1.22541 17.6187 5.31943 -0.897064 17.7254 5.36234 0.459468 13.1971 
5.31943 -0.897064 17.7254 5.31943 0.563307 13.2309 5.36234 0.459468 13.1971 
5.17052 -0.577135 17.8294 5.16218 0.900343 13.341 5.26374 0.689573 13.2719 
5.26374 0.689573 13.2719 5.31943 -0.897064 17.7254 5.17052 -0.577135 17.8294 
5.17052 -0.577135 17.8294 5.00036 -0.266938 17.9302 5.02033 1.16218 13.4207 
5.02033 1.16218 13.4207 5.16218 0.900343 13.341 5.17052 -0.577135 17.8294 
5.00036 -0.266938 17.9302 4.80966 0.0322531 18.0274 4.90338 1.35098 13.4868 
4.80966 0.0322531 18.0274 4.78189 1.5331 13.5495 4.90338 1.35098 13.4868 
4.80966 0.0322531 18.0274 4.60656 1.77145 13.6204 4.78189 1.5331 13.5495 
4.60656 1.77145 13.6204 4.80966 0.0322531 18.0274 4.59919 0.319209 18.1206 
4.59919 0.319209 18.1206 4.36982 0.592751 18.2095 4.45169 1.95957 13.6845 
4.36982 0.592751 18.2095 4.36982 2.05312 13.7149 4.45169 1.95957 13.6845 
4.1225 0.851754 18.2936 4.1132 2.32121 13.802 4.28223 2.1487 13.746 
4.28223 2.1487 13.746 4.36982 0.592751 18.2095 4.1225 0.851754 18.2936 
4.1225 0.851754 18.2936 3.85823 1.09515 18.3727 3.89323 2.52733 13.8644 
3.89323 2.52733 13.8644 4.1132 2.32121 13.802 4.1225 0.851754 18.2936 
3.57811 1.32195 18.4464 3.54467 2.80778 13.9621 3.72211 2.66942 13.9152 
3.72211 2.66942 13.9152 3.85823 1.09515 18.3727 3.57811 1.32195 18.4464 
3.28329 1.53121 18.5144 3.29739 2.98244 14.0175 3.54467 2.80778 13.9621 
3.54467 2.80778 13.9621 3.57811 1.32195 18.4464 3.28329 1.53121 18.5144 
3.28329 1.53121 18.5144 2.97498 1.72208 18.5764 3.09266 3.11274 14.0592 
2.97498 1.72208 18.5764 2.97498 3.18245 14.0819 3.09266 3.11274 14.0592 
2.65444 1.89377 18.6322 2.64734 3.35765 14.1388 2.86942 3.24185 14.1012 
2.86942 3.24185 14.1012 2.97498 1.72208 18.5764 2.65444 1.89377 18.6322 
2.65444 1.89377 18.6322 2.32299 2.04558 18.6815 2.37379 3.48681 14.1748 
2.37379 3.48681 14.1748 2.64734 3.35765 14.1388 2.65444 1.89377 18.6322 
1.982 2.17687 18.7242 1.94819 3.64841 14.2374 2.16595 3.56942 14.2076 
2.16595 3.56942 14.2076 2.32299 2.04558 18.6815 1.982 2.17687 18.7242 
1.63286 2.28712 18.76 1.67371 3.7358 14.2617 1.94819 3.64841 14.2374 
1.94819 3.64841 14.2374 1.982 2.17687 18.7242 1.63286 2.28712 18.76 
1.63286 2.28712 18.76 1.63286 3.74749 14.2655 1.67371 3.7358 14.2617 
1.63286 2.28712 18.76 1.27701 2.37587 18.7889 1.42213 3.80284 14.2835 
1.27701 2.37587 18.7889 1.27701 3.83624 14.2943 1.42213 3.80284 14.2835 
0.915919 2.44275 18.8106 0.913282 3.90358 14.3162 1.1676 3.85892 14.3017 
1.1676 3.85892 14.3017 1.27701 2.37587 18.7889 0.915919 2.44275 18.8106 
0.915919 2.44275 18.8106 0.551061 2.48749 18.8251 0.614585 3.94271 14.3278 
0.614585 3.94271 14.3278 0.913282 3.90358 14.3162 0.915919 2.44275 18.8106 
0.183939 2.5099 18.8324 0.183939 3.97028 14.3379 0.391633 3.96036 14.3346 
0.391633 3.96036 14.3346 0.551061 2.48749 18.8251 0.183939 2.5099 18.8324 
0.183939 2.5099 18.8324 -0.183939 2.5099 18.8324 -0.130635 3.97167 14.3383 
-0.130635 3.97167 14.3383 0.130635 3.97167 14.3383 0.183939 2.5099 18.8324 
-0.183939 2.5099 18.8324 -0.183939 3.97028 14.3379 -0.130635 3.97167 14.3383 
-0.183939 2.5099 18.8324 -0.551061 2.48749 18.8251 -0.391633 3.96036 14.3346 
-0.551061 2.48749 18.8251 -0.616074 3.94221 14.3291 -0.391633 3.96036 14.3346 
-0.551061 2.48749 18.8251 -0.912935 3.90417 14.3146 -0.616074 3.94221 14.3291 
-0.912935 3.90417 14.3146 -0.551061 2.48749 18.8251 -0.915919 2.44275 18.8106 
-0.915919 2.44275 18.8106 -1.27701 2.37587 18.7889 -1.1676 3.85892 14.3017 
-1.27701 2.37587 18.7889 -1.27701 3.83624 14.2943 -1.1676 3.85892 14.3017 
-1.63286 2.28712 18.76 -1.63286 3.74749 14.2655 -1.42213 3.80284 14.2835 
-1.42213 3.80284 14.2835 -1.27701 2.37587 18.7889 -1.63286 2.28712 18.76 
-1.63286 2.28712 18.76 -1.982 2.17687 18.7242 -1.94818 3.64868 14.2365 
-1.94818 3.64868 14.2365 -1.67371 3.7358 14.2617 -1.63286 2.28712 18.76 
-1.982 2.17687 18.7242 -2.32299 2.04558 18.6815 -2.16595 3.56942 14.2076 
-2.32299 2.04558 18.6815 -2.37433 3.48055 14.1934 -2.16595 3.56942 14.2076 
-2.32299 2.04558 18.6815 -2.64564 3.38818 14.0484 -2.37433 3.48055 14.1934 
-2.64564 3.38818 14.0484 -2.32299 2.04558 18.6815 -2.65444 1.89377 18.6322 
-2.65444 1.89377 18.6322 -2.97498 1.72208 18.5764 -2.86942 3.24185 14.1012 
-2.97498 1.72208 18.5764 -2.97498 3.18245 14.0819 -2.86942 3.24185 14.1012 
-3.28329 1.53121 18.5144 -3.29739 2.98249 14.0173 -3.09266 3.11274 14.0592 
-3.09266 3.11274 14.0592 -2.97498 1.72208 18.5764 -3.28329 1.53121 18.5144 
-3.28329 1.53121 18.5144 -3.57811 1.32195 18.4464 -3.54466 2.80812 13.9611 
-3.54466 2.80812 13.9611 -3.29739 2.98249 14.0173 -3.28329 1.53121 18.5144 
-3.57811 1.32195 18.4464 -3.85823 1.09515 18.3727 -3.72211 2.66942 13.9152 
-3.85823 1.09515 18.3727 -3.89332 2.52369 13.8754 -3.72211 2.66942 13.9152 
-4.1225 0.851754 18.2936 -4.11224 2.35237 13.7107 -3.89332 2.52369 13.8754 
-3.89332 2.52369 13.8754 -3.85823 1.09515 18.3727 -4.1225 0.851754 18.2936 
-4.1225 0.851754 18.2936 -4.36982 0.592751 18.2095 -4.28223 2.1487 13.746 
-4.36982 0.592751 18.2095 -4.36982 2.05312 13.7149 -4.28223 2.1487 13.746 
-4.59919 0.319209 18.1206 -4.60602 1.7712 13.6235 -4.45169 1.95957 13.6845 
-4.45169 1.95957 13.6845 -4.36982 0.592751 18.2095 -4.59919 0.319209 18.1206 
-4.59919 0.319209 18.1206 -4.80966 0.0322531 18.0274 -4.78239 1.5329 13.5475 
-4.78239 1.5329 13.5475 -4.60602 1.7712 13.6235 -4.59919 0.319209 18.1206 
-5.00036 -0.266938 17.9302 -5.02031 1.15881 13.4311 -4.90338 1.35098 13.4868 
-4.90338 1.35098 13.4868 -4.80966 0.0322531 18.0274 -5.00036 -0.266938 17.9302 
-5.17052 -0.577135 17.8294 -5.16218 0.900257 13.3413 -5.02031 1.15881 13.4311 
-5.02031 1.15881 13.4311 -5.00036 -0.266938 17.9302 -5.17052 -0.577135 17.8294 
-5.17052 -0.577135 17.8294 -5.31943 -0.897064 17.7254 -5.26374 0.689573 13.2719 
-5.31943 -0.897064 17.7254 -5.31943 0.563307 13.2309 -5.26374 0.689573 13.2719 
-5.44649 -1.22541 17.6187 -5.44816 0.230148 13.1226 -5.36234 0.459468 13.1971 
-5.36234 0.459468 13.1971 -5.31943 -0.897064 17.7254 -5.44649 -1.22541 17.6187 
-5.44649 -1.22541 17.6187 -5.55116 -1.56082 17.5098 -5.53648 -0.0434951 13.0267 
-5.53648 -0.0434951 13.0267 -5.44816 0.230148 13.1226 -5.44649 -1.22541 17.6187 
-5.63302 -1.90192 17.3989 -5.63985 -0.473508 12.8981 -5.59078 -0.253077 12.9656 
-5.59078 -0.253077 12.9656 -5.55116 -1.56082 17.5098 -5.63302 -1.90192 17.3989 
-5.69173 -2.24731 17.2867 -5.68882 -0.761802 12.7994 -5.63985 -0.473508 12.8981 
-5.63985 -0.473508 12.8981 -5.63302 -1.90192 17.3989 -5.69173 -2.24731 17.2867 
-5.69173 -2.24731 17.2867 -5.72706 -2.59557 17.1735 -5.71507 -0.988568 12.7266 
-5.72706 -2.59557 17.1735 -5.72706 -1.13519 12.679 -5.71507 -0.988568 12.7266 
-5.73885 -2.94526 17.0599 -5.73885 -1.48489 12.5654 -5.7329 -1.23647 12.6461 
-5.7329 -1.23647 12.6461 -5.72706 -2.59557 17.1735 -5.73885 -2.94526 17.0599 
-5.7329 -1.23647 12.6461 -5.72706 -1.13519 12.679 -5.72706 -2.59557 17.1735 
-5.71507 -0.988568 12.7266 -5.68882 -0.761802 12.7994 -5.69173 -2.24731 17.2867 
-5.59078 -0.253077 12.9656 -5.53648 -0.0434951 13.0267 -5.55116 -1.56082 17.5098 
-5.36234 0.459468 13.1971 -5.31943 0.563307 13.2309 -5.31943 -0.897064 17.7254 
-5.26374 0.689573 13.2719 -5.16218 0.900257 13.3413 -5.17052 -0.577135 17.8294 
-4.90338 1.35098 13.4868 -4.78239 1.5329 13.5475 -4.80966 0.0322531 18.0274 
-4.45169 1.95957 13.6845 -4.36982 2.05312 13.7149 -4.36982 0.592751 18.2095 
-4.28223 2.1487 13.746 -4.11224 2.35237 13.7107 -4.1225 0.851754 18.2936 
-3.72211 2.66942 13.9152 -3.54466 2.80812 13.9611 -3.57811 1.32195 18.4464 
-3.09266 3.11274 14.0592 -2.97498 3.18245 14.0819 -2.97498 1.72208 18.5764 
-2.86942 3.24185 14.1012 -2.64564 3.38818 14.0484 -2.65444 1.89377 18.6322 
-2.16595 3.56942 14.2076 -1.94818 3.64868 14.2365 -1.982 2.17687 18.7242 
-1.67371 3.7358 14.2617 -1.63286 3.74749 14.2655 -1.63286 2.28712 18.76 
-1.42213 3.80284 14.2835 -1.27701 3.83624 14.2943 -1.27701 2.37587 18.7889 
-1.1676 3.85892 14.3017 -0.912935 3.90417 14.3146 -0.915919 2.44275 18.8106 
-0.391633 3.96036 14.3346 -0.183939 3.97028 14.3379 -0.183939 2.5099 18.8324 
0.130635 3.97167 14.3383 0.183939 3.97028 14.3379 0.183939 2.5099 18.8324 
0.391633 3.96036 14.3346 0.614585 3.94271 14.3278 0.551061 2.48749 18.8251 
1.1676 3.85892 14.3017 1.27701 3.83624 14.2943 1.27701 2.37587 18.7889 
1.42213 3.80284 14.2835 1.63286 3.74749 14.2655 1.63286 2.28712 18.76 
2.16595 3.56942 14.2076 2.37379 3.48681 14.1748 2.32299 2.04558 18.6815 
2.86942 3.24185 14.1012 2.97498 3.18245 14.0819 2.97498 1.72208 18.5764 
3.09266 3.11274 14.0592 3.29739 2.98244 14.0175 3.28329 1.53121 18.5144 
3.72211 2.66942 13.9152 3.89323 2.52733 13.8644 3.85823 1.09515 18.3727 
4.28223 2.1487 13.746 4.36982 2.05312 13.7149 4.36982 0.592751 18.2095 
4.45169 1.95957 13.6845 4.60656 1.77145 13.6204 4.59919 0.319209 18.1206 
4.90338 1.35098 13.4868 5.02033 1.16218 13.4207 5.00036 -0.266938 17.9302 
5.26374 0.689573 13.2719 5.31943 0.563307 13.2309 5.31943 -0.897064 17.7254 
5.36234 0.459468 13.1971 5.44816 0.230148 13.1226 5.44649 -1.22541 17.6187 
5.59078 -0.253077 12.9656 5.63985 -0.471519 12.8918 5.63302 -1.90192 17.3989 
5.71507 -0.988568 12.7266 5.72706 -1.13519 12.679 5.72706 -2.59557 17.1735 
5.7329 -1.23647 12.6461 5.73885 -1.48489 12.5654 5.73885 -2.94526 17.0599 
5.7329 -1.7333 12.4846 5.72706 -1.83458 12.4517 5.72706 -3.29495 16.9463 
5.71507 -1.98121 12.4041 5.68882 -2.20743 12.3297 5.69173 -3.64321 16.8331 
5.59078 -2.7167 12.1651 5.53648 -2.92214 12.0913 5.55116 -4.3297 16.6101 
5.36234 -3.42924 11.9336 5.31943 -3.53308 11.8999 5.31943 -4.99345 16.3944 
5.26374 -3.65935 11.8588 5.16218 -3.87058 11.7911 5.17052 -5.31338 16.2905 
4.90338 -4.32076 11.6439 4.78239 -4.50362 11.5861 4.80966 -5.92277 16.0925 
4.45169 -4.92935 11.4462 4.36982 -5.0229 11.4158 4.36982 -6.48327 15.9104 
4.28223 -5.11848 11.3847 4.11224 -5.26253 11.2365 4.1225 -6.74227 15.8262 
3.72211 -5.63919 11.2155 3.54466 -5.77838 11.1711 3.57811 -7.21247 15.6734 
3.09266 -6.08252 11.0715 2.97498 -6.15223 11.0489 2.97498 -7.6126 15.5434 
2.86942 -6.21163 11.0296 2.64564 -6.299 10.9009 2.65444 -7.78429 15.4876 
2.16595 -6.5392 10.9231 1.94818 -6.62033 10.8999 1.982 -8.06739 15.3956 
1.67371 -6.70558 10.8691 1.63286 -6.71727 10.8653 1.63286 -8.17764 15.3598 
1.42213 -6.77262 10.8473 1.27701 -6.80601 10.8364 1.27701 -8.26638 15.331 
1.1676 -6.8287 10.8291 0.912935 -6.87288 10.8129 0.915919 -8.33327 15.3093 
0.391633 -6.93013 10.7961 0.183939 -6.94005 10.7929 0.183939 -8.40042 15.2874 
-0.130635 -6.94144 10.7924 -0.183939 -6.94005 10.7929 -0.183939 -8.40042 15.2874 
-0.391633 -6.93013 10.7961 -0.614585 -6.91186 10.801 -0.551061 -8.37801 15.2947 
-1.1676 -6.8287 10.8291 -1.27701 -6.80601 10.8364 -1.27701 -8.26638 15.331 
-1.42213 -6.77262 10.8473 -1.63286 -6.71727 10.8653 -1.63286 -8.17764 15.3598 
-2.16595 -6.5392 10.9231 -2.37379 -6.45309 10.9451 -2.32299 -7.93609 15.4383 
-2.86942 -6.21163 11.0296 -2.97498 -6.15223 11.0489 -2.97498 -7.6126 15.5434 
-3.09266 -6.08252 11.0715 -3.29739 -5.95258 11.1143 -3.28329 -7.42173 15.6054 
-3.72211 -5.63919 11.2155 -3.89377 -5.49366 11.2573 -3.85823 -6.98567 15.7471 
-4.28223 -5.11848 11.3847 -4.36982 -5.0229 11.4158 -4.36982 -6.48327 15.9104 
-4.45169 -4.92935 11.4462 -4.60656 -4.73947 11.5049 -4.59919 -6.20973 15.9992 
-4.90338 -4.32076 11.6439 -5.02033 -4.12932 11.7019 -5.00036 -5.62358 16.1897 
-5.26374 -3.65935 11.8588 -5.31943 -3.53308 11.8999 -5.31943 -4.99345 16.3944 
-5.36234 -3.42924 11.9336 -5.44816 -3.19992 12.0081 -5.44649 -4.66511 16.5011 
-5.59078 -2.7167 12.1651 -5.63985 -2.4966 12.2338 -5.63302 -3.9886 16.7209 
-5.71507 -1.98121 12.4041 -5.72706 -1.83458 12.4517 -5.72706 -3.29495 16.9463 
-5.7329 -1.7333 12.4846 -5.73885 -1.48489 12.5654 -5.73885 -2.94526 17.0599 
1.27701 2.37587 18.7889 5.72706 -3.29495 16.9463 5.69173 -3.64321 16.8331 
5.69173 -3.64321 16.8331 5.63302 -3.9886 16.7209 1.27701 2.37587 18.7889 
5.63302 -3.9886 16.7209 5.55116 -4.3297 16.6101 1.27701 2.37587 18.7889 
5.55116 -4.3297 16.6101 5.44649 -4.66511 16.5011 1.27701 2.37587 18.7889 
5.44649 -4.66511 16.5011 5.31943 -4.99345 16.3944 1.27701 2.37587 18.7889 
5.31943 -4.99345 16.3944 5.17052 -5.31338 16.2905 1.27701 2.37587 18.7889 
5.17052 -5.31338 16.2905 5.00036 -5.62358 16.1897 1.27701 2.37587 18.7889 
5.00036 -5.62358 16.1897 4.80966 -5.92277 16.0925 1.27701 2.37587 18.7889 
4.80966 -5.92277 16.0925 4.59919 -6.20973 15.9992 1.27701 2.37587 18.7889 
4.59919 -6.20973 15.9992 4.36982 -6.48327 15.9104 1.27701 2.37587 18.7889 
4.36982 -6.48327 15.9104 4.1225 -6.74227 15.8262 1.27701 2.37587 18.7889 
4.1225 -6.74227 15.8262 3.85823 -6.98567 15.7471 1.27701 2.37587 18.7889 
3.85823 -6.98567 15.7471 3.57811 -7.21247 15.6734 1.27701 2.37587 18.7889 
3.57811 -7.21247 15.6734 3.28329 -7.42173 15.6054 1.27701 2.37587 18.7889 
3.28329 -7.42173 15.6054 2.97498 -7.6126 15.5434 1.27701 2.37587 18.7889 
2.97498 -7.6126 15.5434 2.65444 -7.78429 15.4876 1.27701 2.37587 18.7889 
2.65444 -7.78429 15.4876 2.32299 -7.93609 15.4383 1.27701 2.37587 18.7889 
2.32299 -7.93609 15.4383 1.982 -8.06739 15.3956 1.27701 2.37587 18.7889 
1.982 -8.06739 15.3956 1.63286 -8.17764 15.3598 1.27701 2.37587 18.7889 
1.63286 -8.17764 15.3598 1.27701 -8.26638 15.331 1.27701 2.37587 18.7889 
1.27701 -8.26638 15.331 0.915919 -8.33327 15.3093 1.27701 2.37587 18.7889 
0.915919 -8.33327 15.3093 0.551061 -8.37801 15.2947 1.27701 2.37587 18.7889 
0.551061 -8.37801 15.2947 0.183939 -8.40042 15.2874 1.27701 2.37587 18.7889 
0.183939 -8.40042 15.2874 -0.183939 -8.40042 15.2874 1.27701 2.37587 18.7889 
-0.183939 -8.40042 15.2874 -0.551061 -8.37801 15.2947 1.27701 2.37587 18.7889 
-0.551061 -8.37801 15.2947 -0.915919 -8.33327 15.3093 1.27701 2.37587 18.7889 
-0.915919 -8.33327 15.3093 -1.27701 -8.26638 15.331 1.27701 2.37587 18.7889 
-1.27701 -8.26638 15.331 -1.63286 -8.17764 15.3598 1.27701 2.37587 18.7889 
-1.63286 -8.17764 15.3598 -1.982 -8.06739 15.3956 1.27701 2.37587 18.7889 
-1.982 -8.06739 15.3956 -2.32299 -7.93609 15.4383 1.27701 2.37587 18.7889 
-2.32299 -7.93609 15.4383 -2.65444 -7.78429 15.4876 1.27701 2.37587 18.7889 
-2.65444 -7.78429 15.4876 -2.97498 -7.6126 15.5434 1.27701 2.37587 18.7889 
-2.97498 -7.6126 15.5434 -3.28329 -7.42173 15.6054 1.27701 2.37587 18.7889 
-3.28329 -7.42173 15.6054 -3.57811 -7.21247 15.6734 1.27701 2.37587 18.7889 
-3.57811 -7.21247 15.6734 -3.85823 -6.98567 15.7471 1.27701 2.37587 18.7889 
-3.85823 -6.98567 15.7471 -4.1225 -6.74227 15.8262 1.27701 2.37587 18.7889 
-4.1225 -6.74227 15.8262 -4.36982 -6.48327 15.9104 1.27701 2.37587 18.7889 
-4.36982 -6.48327 15.9104 -4.59919 -6.20973 15.9992 1.27701 2.37587 18.7889 
-4.59919 -6.20973 15.9992 -4.80966 -5.92277 16.0925 1.27701 2.37587 18.7889 
-4.80966 -5.92277 16.0925 -5.00036 -5.62358 16.1897 1.27701 2.37587 18.7889 
-5.00036 -5.62358 16.1897 -5.17052 -5.31338 16.2905 1.27701 2.37587 18.7889 
-5.17052 -5.31338 16.2905 -5.31943 -4.99345 16.3944 1.27701 2.37587 18.7889 
-5.31943 -4.99345 16.3944 -5.44649 -4.66511 16.5011 1.27701 2.37587 18.7889 
-5.44649 -4.66511 16.5011 -5.55116 -4.3297 16.6101 1.27701 2.37587 18.7889 
-5.55116 -4.3297 16.6101 -5.63302 -3.9886 16.7209 1.27701 2.37587 18.7889 
-5.63302 -3.9886 16.7209 -5.69173 -3.64321 16.8331 1.27701 2.37587 18.7889 
-5.69173 -3.64321 16.8331 -5.72706 -3.29495 16.9463 1.27701 2.37587 18.7889 
-5.72706 -3.29495 16.9463 -5.73885 -2.94526 17.0599 1.27701 2.37587 18.7889 
-5.73885 -2.94526 17.0599 -5.72706 -2.59557 17.1735 1.27701 2.37587 18.7889 
-5.72706 -2.59557 17.1735 -5.69173 -2.24731 17.2867 1.27701 2.37587 18.7889 
-5.69173 -2.24731 17.2867 -5.63302 -1.90192 17.3989 1.27701 2.37587 18.7889 
-5.63302 -1.90192 17.3989 -5.55116 -1.56082 17.5098 1.27701 2.37587 18.7889 
-5.55116 -1.56082 17.5098 -5.44649 -1.22541 17.6187 1.27701 2.37587 18.7889 
-5.44649 -1.22541 17.6187 -5.31943 -0.897064 17.7254 1.27701 2.37587 18.7889 
-5.31943 -0.897064 17.7254 -5.17052 -0.577135 17.8294 1.27701 2.37587 18.7889 
-5.17052 -0.577135 17.8294 -5.00036 -0.266938 17.9302 1.27701 2.37587 18.7889 
-5.00036 -0.266938 17.9302 -4.80966 0.0322531 18.0274 1.27701 2.37587 18.7889 
-4.80966 0.0322531 18.0274 -4.59919 0.319209 18.1206 1.27701 2.37587 18.7889 
-4.59919 0.319209 18.1206 -4.36982 0.592751 18.2095 1.27701 2.37587 18.7889 
-4.36982 0.592751 18.2095 -4.1225 0.851754 18.2936 1.27701 2.37587 18.7889 
-4.1225 0.851754 18.2936 -3.85823 1.09515 18.3727 1.27701 2.37587 18.7889 
-3.85823 1.09515 18.3727 -3.57811 1.32195 18.4464 1.27701 2.37587 18.7889 
-3.57811 1.32195 18.4464 -3.28329 1.53121 18.5144 1.27701 2.37587 18.7889 
-3.28329 1.53121 18.5144 -2.97498 1.72208 18.5764 1.27701 2.37587 18.7889 
-2.97498 1.72208 18.5764 -2.65444 1.89377 18.6322 1.27701 2.37587 18.7889 
-2.65444 1.89377 18.6322 -2.32299 2.04558 18.6815 1.27701 2.37587 18.7889 
-2.32299 2.04558 18.6815 -1.982 2.17687 18.7242 1.27701 2.37587 18.7889 
-1.982 2.17687 18.7242 -1.63286 2.28712 18.76 1.27701 2.37587 18.7889 
-1.63286 2.28712 18.76 -1.27701 2.37587 18.7889 1.27701 2.37587 18.7889 
-1.27701 2.37587 18.7889 -0.915919 2.44275 18.8106 1.27701 2.37587 18.7889 
-0.915919 2.44275 18.8106 -0.551061 2.48749 18.8251 1.27701 2.37587 18.7889 
-0.551061 2.48749 18.8251 -0.183939 2.5099 18.8324 1.27701 2.37587 18.7889 
-0.183939 2.5099 18.8324 0.183939 2.5099 18.8324 1.27701 2.37587 18.7889 
0.183939 2.5099 18.8324 0.551061 2.48749 18.8251 1.27701 2.37587 18.7889 
0.551061 2.48749 18.8251 0.915919 2.44275 18.8106 1.27701 2.37587 18.7889 
1.63286 2.28712 18.76 1.982 2.17687 18.7242 1.27701 2.37587 18.7889 
1.982 2.17687 18.7242 2.32299 2.04558 18.6815 1.27701 2.37587 18.7889 
2.32299 2.04558 18.6815 2.65444 1.89377 18.6322 1.27701 2.37587 18.7889 
2.65444 1.89377 18.6322 2.97498 1.72208 18.5764 1.27701 2.37587 18.7889 
2.97498 1.72208 18.5764 3.28329 1.53121 18.5144 1.27701 2.37587 18.7889 
3.28329 1.53121 18.5144 3.57811 1.32195 18.4464 1.27701 2.37587 18.7889 
3.57811 1.32195 18.4464 3.85823 1.09515 18.3727 1.27701 2.37587 18.7889 
3.85823 1.09515 18.3727 4.1225 0.851754 18.2936 1.27701 2.37587 18.7889 
4.1225 0.851754 18.2936 4.36982 0.592751 18.2095 1.27701 2.37587 18.7889 
4.36982 0.592751 18.2095 4.59919 0.319209 18.1206 1.27701 2.37587 18.7889 
4.59919 0.319209 18.1206 4.80966 0.0322531 18.0274 1.27701 2.37587 18.7889 
4.80966 0.0322531 18.0274 5.00036 -0.266938 17.9302 1.27701 2.37587 18.7889 
5.00036 -0.266938 17.9302 5.17052 -0.577135 17.8294 1.27701 2.37587 18.7889 
5.17052 -0.577135 17.8294 5.31943 -0.897064 17.7254 1.27701 2.37587 18.7889 
5.31943 -0.897064 17.7254 5.44649 -1.22541 17.6187 1.27701 2.37587 18.7889 
5.44649 -1.22541 17.6187 5.55116 -1.56082 17.5098 1.27701 2.37587 18.7889 
5.55116 -1.56082 17.5098 5.63302 -1.90192 17.3989 1.27701 2.37587 18.7889 
5.63302 -1.90192 17.3989 5.69173 -2.24731 17.2867 1.27701 2.37587 18.7889 
5.69173 -2.24731 17.2867 5.72706 -2.59557 17.1735 1.27701 2.37587 18.7889 
5.72706 -2.59557 17.1735 5.73885 -2.94526 17.0599 1.27701 2.37587 18.7889 
5.73885 -2.94526 17.0599 5.72706 -3.29495 16.9463 1.27701 2.37587 18.7889 

POLYGONS 5744 22976
3 0 1 2 
3 3 4 5 
3 6 7 8 
3 9 10 11 
3 12 13 14 
3 15 16 17 
3 18 19 20 
3 21 22 23 
3 24 25 26 
3 27 28 29 
3 30 31 32 
3 33 34 35 
3 36 37 38 
3 39 40 41 
3 42 43 44 
3 45 46 47 
3 48 49 50 
3 51 52 53 
3 54 55 56 
3 57 58 59 
3 60 61 62 
3 63 64 65 
3 66 67 68 
3 69 70 71 
3 72 73 74 
3 75 76 77 
3 78 79 80 
3 81 82 83 
3 84 85 86 
3 87 88 89 
3 90 91 92 
3 93 94 95 
3 96 97 98 
3 99 100 101 
3 102 103 104 
3 105 106 107 
3 108 109 110 
3 111 112 113 
3 114 115 116 
3 117 118 119 
3 120 121 122 
3 123 124 125 
3 126 127 128 
3 129 130 131 
3 132 133 134 
3 135 136 137 
3 138 139 140 
3 141 142 143 
3 144 145 146 
3 147 148 149 
3 150 151 152 
3 153 154 155 
3 156 157 158 
3 159 160 161 
3 162 163 164 
3 165 166 167 
3 168 169 170 
3 171 172 173 
3 174 175 176 
3 177 178 179 
3 180 181 182 
3 183 184 185 
3 186 187 188 
3 189 190 191 
3 192 193 194 
3 195 196 197 
3 198 199 200 
3 201 202 203 
3 204 205 206 
3 207 208 209 
3 210 211 212 
3 213 214 215 
3 216 217 218 
3 219 220 221 
3 222 223 224 
3 225 226 227 
3 228 229 230 
3 231 232 233 
3 234 235 236 
3 237 238 239 
3 240 241 242 
3 243 244 245 
3 246 247 248 
3 249 250 251 
3 252 253 254 
3 255 256 257 
3 258 259 260 
3 261 262 263 
3 264 265 266 
3 267 268 269 
3 270 271 272 
3 273 274 275 
3 276 277 278 
3 279 280 281 
3 282 283 284 
3 285 286 287 
3 288 289 290 
3 291 292 293 
3 294 295 296 
3 297 298 299 
3 300 301 302 
3 303 304 305 
3 306 307 308 
3 309 310 311 
3 312 313 314 
3 315 316 317 
3 318 319 320 
3 321 322 323 
3 324 325 326 
3 327 328 329 
3 330 331 332 
3 333 334 335 
3 336 337 338 
3 339 340 341 
3 342 343 344 
3 345 346 347 
3 348 349 350 
3 351 352 353 
3 354 355 356 
3 357 358 359 
3 360 361 362 
3 363 364 365 
3 366 367 368 
3 369 370 371 
3 372 373 374 
3 375 376 377 
3 378 379 380 
3 381 382 383 
3 384 385 386 
3 387 388 389 
3 390 391 392 
3 393 394 395 
3 396 397 398 
3 399 400 401 
3 402 403 404 
3 405 406 407 
3 408 409 410 
3 411 412 413 
3 414 415 416 
3 417 418 419 
3 420 421 422 
3 423 424 425 
3 426 427 428 
3 429 430 431 
3 432 433 434 
3 435 436 437 
3 438 439 440 
3 441 442 443 
3 444 445 446 
3 447 448 449 
3 450 451 452 
3 453 454 455 
3 456 457 458 
3 459 460 461 
3 462 463 464 
3 465 466 467 
3 468 469 470 
3 471 472 473 
3 474 475 476 
3 477 478 479 
3 480 481 482 
3 483 484 485 
3 486 487 488 
3 489 490 491 
3 492 493 494 
3 495 496 497 
3 498 499 500 
3 501 502 503 
3 504 505 506 
3 507 508 509 
3 510 511 512 
3 513 514 515 
3 516 517 518 
3 519 520 521 
3 522 523 524 
3 525 526 527 
3 528 529 530 
3 531 532 533 
3 534 535 536 
3 537 538 539 
3 540 541 542 
3 543 544 545 
3 546 547 548 
3 549 550 551 
3 552 553 554 
3 555 556 557 
3 558 559 560 
3 561 562 563 
3 564 565 566 
3 567 568 569 
3 570 571 572 
3 573 574 575 
3 576 577 578 
3 579 580 581 
3 582 583 584 
3 585 586 587 
3 588 589 590 
3 591 592 593 
3 594 595 596 
3 597 598 599 
3 600 601 602 
3 603 604 605 
3 606 607 608 
3 609 610 611 
3 612 613 614 
3 615 616 617 
3 618 619 620 
3 621 622 623 
3 624 625 626 
3 627 628 629 
3 630 631 632 
3 633 634 635 
3 636 637 638 
3 639 640 641 
3 642 643 644 
3 645 646 647 
3 648 649 650 
3 651 652 653 
3 654 655 656 
3 657 658 659 
3 660 661 662 
3 663 664 665 
3 666 667 668 
3 669 670 671 
3 672 673 674 
3 675 676 677 
3 678 679 680 
3 681 682 683 
3 684 685 686 
3 687 688 689 
3 690 691 692 
3 693 694 695 
3 696 697 698 
3 699 700 701 
3 702 703 704 
3 705 706 707 
3 708 709 710 
3 711 712 713 
3 714 715 716 
3 717 718 719 
3 720 721 722 
3 723 724 725 
3 726 727 728 
3 729 730 731 
3 732 733 734 
3 735 736 737 
3 738 739 740 
3 741 742 743 
3 744 745 746 
3 747 748 749 
3 750 751 752 
3 753 754 755 
3 756 757 758 
3 759 760 761 
3 762 763 764 
3 765 766 767 
3 768 769 770 
3 771 772 773 
3 774 775 776 
3 777 778 779 
3 780 781 782 
3 783 784 785 
3 786 787 788 
3 789 790 791 
3 792 793 794 
3 795 796 797 
3 798 799 800 
3 801 802 803 
3 804 805 806 
3 807 808 809 
3 810 811 812 
3 813 814 815 
3 816 817 818 
3 819 820 821 
3 822 823 824 
3 825 826 827 
3 828 829 830 
3 831 832 833 
3 834 835 836 
3 837 838 839 
3 840 841 842 
3 843 844 845 
3 846 847 848 
3 849 850 851 
3 852 853 854 
3 855 856 857 
3 858 859 860 
3 861 862 863 
3 864 865 866 
3 867 868 869 
3 870 871 872 
3 873 874 875 
3 876 877 878 
3 879 880 881 
3 882 883 884 
3 885 886 887 
3 888 889 890 
3 891 892 893 
3 894 895 896 
3 897 898 899 
3 900 901 902 
3 903 904 905 
3 906 907 908 
3 909 910 911 
3 912 913 914 
3 915 916 917 
3 918 919 920 
3 921 922 923 
3 924 925 926 
3 927 928 929 
3 930 931 932 
3 933 934 935 
3 936 937 938 
3 939 940 941 
3 942 943 944 
3 945 946 947 
3 948 949 950 
3 951 952 953 
3 954 955 956 
3 957 958 959 
3 960 961 962 
3 963 964 965 
3 966 967 968 
3 969 970 971 
3 972 973 974 
3 975 976 977 
3 978 979 980 
3 981 982 983 
3 984 985 986 
3 987 988 989 
3 990 991 992 
3 993 994 995 
3 996 997 998 
3 999 1000 1001 
3 1002 1003 1004 
3 1005 1006 1007 
3 1008 1009 1010 
3 1011 1012 1013 
3 1014 1015 1016 
3 1017 1018 1019 
3 1020 1021 1022 
3 1023 1024 1025 
3 1026 1027 1028 
3 1029 1030 1031 
3 1032 1033 1034 
3 1035 1036 1037 
3 1038 1039 1040 
3 1041 1042 1043 
3 1044 1045 1046 
3 1047 1048 1049 
3 1050 1051 1052 
3 1053 1054 1055 
3 1056 1057 1058 
3 1059 1060 1061 
3 1062 1063 1064 
3 1065 1066 1067 
3 1068 1069 1070 
3 1071 1072 1073 
3 1074 1075 1076 
3 1077 1078 1079 
3 1080 1081 1082 
3 1083 1084 1085 
3 1086 1087 1088 
3 1089 1090 1091 
3 1092 1093 1094 
3 1095 1096 1097 
3 1098 1099 1100 
3 1101 1102 1103 
3 1104 1105 1106 
3 1107 1108 1109 
3 1110 1111 1112 
3 1113 1114 1115 
3 1116 1117 1118 
3 1119 1120 1121 
3 1122 1123 1124 
3 1125 1126 1127 
3 1128 1129 1130 
3 1131 1132 1133 
3 1134 1135 1136 
3 1137 1138 1139 
3 1140 1141 1142 
3 1143 1144 1145 
3 1146 1147 1148 
3 1149 1150 1151 
3 1152 1153 1154 
3 1155 1156 1157 
3 1158 1159 1160 
3 1161 1162 1163 
3 1164 1165 1166 
3 1167 1168 1169 
3 1170 1171 1172 
3 1173 1174 1175 
3 1176 1177 1178 
3 1179 1180 1181 
3 1182 1183 1184 
3 1185 1186 1187 
3 1188 1189 1190 
3 1191 1192 1193 
3 1194 1195 1196 
3 1197 1198 1199 
3 1200 1201 1202 
3 1203 1204 1205 
3 1206 1207 1208 
3 1209 1210 1211 
3 1212 1213 1214 
3 1215 1216 1217 
3 1218 1219 1220 
3 1221 1222 1223 
3 1224 1225 1226 
3 1227 1228 1229 
3 1230 1231 1232 
3 1233 1234 1235 
3 1236 1237 1238 
3 1239 1240 1241 
3 1242 1243 1244 
3 1245 1246 1247 
3 1248 1249 1250 
3 1251 1252 1253 
3 1254 1255 1256 
3 1257 1258 1259 
3 1260 1261 1262 
3 1263 1264 1265 
3 1266 1267 1268 
3 1269 1270 1271 
3 1272 1273 1274 
3 1275 1276 1277 
3 1278 1279 1280 
3 1281 1282 1283 
3 1284 1285 1286 
3 1287 1288 1289 
3 1290 1291 1292 
3 1293 1294 1295 
3 1296 1297 1298 
3 1299 1300 1301 
3 1302 1303 1304 
3 1305 1306 1307 
3 1308 1309 1310 
3 1311 1312 1313 
3 1314 1315 1316 
3 1317 1318 1319 
3 1320 1321 1322 
3 1323 1324 1325 
3 1326 1327 1328 
3 1329 1330 1331 
3 1332 1333 1334 
3 1335 1336 1337 
3 1338 1339 1340 
3 1341 1342 1343 
3 1344 1345 1346 
3 1347 1348 1349 
3 1350 1351 1352 
3 1353 1354 1355 
3 1356 1357 1358 
3 1359 1360 1361 
3 1362 1363 1364 
3 1365 1366 1367 
3 1368 1369 1370 
3 1371 1372 1373 
3 1374 1375 1376 
3 1377 1378 1379 
3 1380 1381 1382 
3 1383 1384 1385 
3 1386 1387 1388 
3 1389 1390 1391 
3 1392 1393 1394 
3 1395 1396 1397 
3 1398 1399 1400 
3 1401 1402 1403 
3 1404 1405 1406 
3 1407 1408 1409 
3 1410 1411 1412 
3 1413 1414 1415 
3 1416 1417 1418 
3 1419 1420 1421 
3 1422 1423 1424 
3 1425 1426 1427 
3 1428 1429 1430 
3 1431 1432 1433 
3 1434 1435 1436 
3 1437 1438 1439 
3 1440 1441 1442 
3 1443 1444 1445 
3 1446 1447 1448 
3 1449 1450 1451 
3 1452 1453 1454 
3 1455 1456 1457 
3 1458 1459 1460 
3 1461 1462 1463 
3 1464 1465 1466 
3 1467 1468 1469 
3 1470 1471 1472 
3 1473 1474 1475 
3 1476 1477 1478 
3 1479 1480 1481 
3 1482 1483 1484 
3 1485 1486 1487 
3 1488 1489 1490 
3 1491 1492 1493 
3 1494 1495 1496 
3 1497 1498 1499 
3 1500 1501 1502 
3 1503 1504 1505 
3 1506 1507 1508 
3 1509 1510 1511 
3 1512 1513 1514 
3 1515 1516 1517 
3 1518 1519 1520 
3 1521 1522 1523 
3 1524 1525 1526 
3 1527 1528 1529 
3 1530 1531 1532 
3 1533 1534 1535 
3 1536 1537 1538 
3 1539 1540 1541 
3 1542 1543 1544 
3 1545 1546 1547 
3 1548 1549 1550 
3 1551 1552 1553 
3 1554 1555 1556 
3 1557 1558 1559 
3 1560 1561 1562 
3 1563 1564 1565 
3 1566 1567 1568 
3 1569 1570 1571 
3 1572 1573 1574 
3 1575 1576 1577 
3 1578 1579 1580 
3 1581 1582 1583 
3 1584 1585 1586 
3 1587 1588 1589 
3 1590 1591 1592 
3 1593 1594 1595 
3 1596 1597 1598 
3 1599 1600 1601 
3 1602 1603 1604 
3 1605 1606 1607 
3 1608 1609 1610 
3 1611 1612 1613 
3 1614 1615 1616 
3 1617 1618 1619 
3 1620 1621 1622 
3 1623 1624 1625 
3 1626 1627 1628 
3 1629 1630 1631 
3 1632 1633 1634 
3 1635 1636 1637 
3 1638 1639 1640 
3 1641 1642 1643 
3 1644 1645 1646 
3 1647 1648 1649 
3 1650 1651 1652 
3 1653 1654 1655 
3 1656 1657 1658 
3 1659 1660 1661 
3 1662 1663 1664 
3 1665 1666 1667 
3 1668 1669 1670 
3 1671 1672 1673 
3 1674 1675 1676 
3 1677 1678 1679 
3 1680 1681 1682 
3 1683 1684 1685 
3 1686 1687 1688 
3 1689 1690 1691 
3 1692 1693 1694 
3 1695 1696 1697 
3 1698 1699 1700 
3 1701 1702 1703 
3 1704 1705 1706 
3 1707 1708 1709 
3 1710 1711 1712 
3 1713 1714 1715 
3 1716 1717 1718 
3 1719 1720 1721 
3 1722 1723 1724 
3 1725 1726 1727 
3 1728 1729 1730 
3 1731 1732 1733 
3 1734 1735 1736 
3 1737 1738 1739 
3 1740 1741 1742 
3 1743 1744 1745 
3 1746 1747 1748 
3 1749 1750 1751 
3 1752 1753 1754 
3 1755 1756 1757 
3 1758 1759 1760 
3 1761 1762 1763 
3 1764 1765 1766 
3 1767 1768 1769 
3 1770 1771 1772 
3 1773 1774 1775 
3 1776 1777 1778 
3 1779 1780 1781 
3 1782 1783 1784 
3 1785 1786 1787 
3 1788 1789 1790 
3 1791 1792 1793 
3 1794 1795 1796 
3 1797 1798 1799 
3 1800 1801 1802 
3 1803 1804 1805 
3 1806 1807 1808 
3 1809 1810 1811 
3 1812 1813 1814 
3 1815 1816 1817 
3 1818 1819 1820 
3 1821 1822 1823 
3 1824 1825 1826 
3 1827 1828 1829 
3 1830 1831 1832 
3 1833 1834 1835 
3 1836 1837 1838 
3 1839 1840 1841 
3 1842 1843 1844 
3 1845 1846 1847 
3 1848 1849 1850 
3 1851 1852 1853 
3 1854 1855 1856 
3 1857 1858 1859 
3 1860 1861 1862 
3 1863 1864 1865 
3 1866 1867 1868 
3 1869 1870 1871 
3 1872 1873 1874 
3 1875 1876 1877 
3 1878 1879 1880 
3 1881 1882 1883 
3 1884 1885 1886 
3 1887 1888 1889 
3 1890 1891 1892 
3 1893 1894 1895 
3 1896 1897 1898 
3 1899 1900 1901 
3 1902 1903 1904 
3 1905 1906 1907 
3 1908 1909 1910 
3 1911 1912 1913 
3 1914 1915 1916 
3 1917 1918 1919 
3 1920 1921 1922 
3 1923 1924 1925 
3 1926 1927 1928 
3 1929 1930 1931 
3 1932 1933 1934 
3 1935 1936 1937 
3 1938 1939 1940 
3 1941 1942 1943 
3 1944 1945 1946 
3 1947 1948 1949 
3 1950 1951 1952 
3 1953 1954 1955 
3 1956 1957 1958 
3 1959 1960 1961 
3 1962 1963 1964 
3 1965 1966 1967 
3 1968 1969 1970 
3 1971 1972 1973 
3 1974 1975 1976 
3 1977 1978 1979 
3 1980 1981 1982 
3 1983 1984 1985 
3 1986 1987 1988 
3 1989 1990 1991 
3 1992 1993 1994 
3 1995 1996 1997 
3 1998 1999 2000 
3 2001 2002 2003 
3 2004 2005 2006 
3 2007 2008 2009 
3 2010 2011 2012 
3 2013 2014 2015 
3 2016 2017 2018 
3 2019 2020 2021 
3 2022 2023 2024 
3 2025 2026 2027 
3 2028 2029 2030 
3 2031 2032 2033 
3 2034 2035 2036 
3 2037 2038 2039 
3 2040 2041 2042 
3 2043 2044 2045 
3 2046 2047 2048 
3 2049 2050 2051 
3 2052 2053 2054 
3 2055 2056 2057 
3 2058 2059 2060 
3 2061 2062 2063 
3 2064 2065 2066 
3 2067 2068 2069 
3 2070 2071 2072 
3 2073 2074 2075 
3 2076 2077 2078 
3 2079 2080 2081 
3 2082 2083 2084 
3 2085 2086 2087 
3 2088 2089 2090 
3 2091 2092 2093 
3 2094 2095 2096 
3 2097 2098 2099 
3 2100 2101 2102 
3 2103 2104 2105 
3 2106 2107 2108 
3 2109 2110 2111 
3 2112 2113 2114 
3 2115 2116 2117 
3 2118 2119 2120 
3 2121 2122 2123 
3 2124 2125 2126 
3 2127 2128 2129 
3 2130 2131 2132 
3 2133 2134 2135 
3 2136 2137 2138 
3 2139 2140 2141 
3 2142 2143 2144 
3 2145 2146 2147 
3 2148 2149 2150 
3 2151 2152 2153 
3 2154 2155 2156 
3 2157 2158 2159 
3 2160 2161 2162 
3 2163 2164 2165 
3 2166 2167 2168 
3 2169 2170 2171 
3 2172 2173 2174 
3 2175 2176 2177 
3 2178 2179 2180 
3 2181 2182 2183 
3 2184 2185 2186 
3 2187 2188 2189 
3 2190 2191 2192 
3 2193 2194 2195 
3 2196 2197 2198 
3 2199 2200 2201 
3 2202 2203 2204 
3 2205 2206 2207 
3 2208 2209 2210 
3 2211 2212 2213 
3 2214 2215 2216 
3 2217 2218 2219 
3 2220 2221 2222 
3 2223 2224 2225 
3 2226 2227 2228 
3 2229 2230 2231 
3 2232 2233 2234 
3 2235 2236 2237 
3 2238 2239 2240 
3 2241 2242 2243 
3 2244 2245 2246 
3 2247 2248 2249 
3 2250 2251 2252 
3 2253 2254 2255 
3 2256 2257 2258 
3 2259 2260 2261 
3 2262 2263 2264 
3 2265 2266 2267 
3 2268 2269 2270 
3 2271 2272 2273 
3 2274 2275 2276 
3 2277 2278 2279 
3 2280 2281 2282 
3 2283 2284 2285 
3 2286 2287 2288 
3 2289 2290 2291 
3 2292 2293 2294 
3 2295 2296 2297 
3 2298 2299 2300 
3 2301 2302 2303 
3 2304 2305 2306 
3 2307 2308 2309 
3 2310 2311 2312 
3 2313 2314 2315 
3 2316 2317 2318 
3 2319 2320 2321 
3 2322 2323 2324 
3 2325 2326 2327 
3 2328 2329 2330 
3 2331 2332 2333 
3 2334 2335 2336 
3 2337 2338 2339 
3 2340 2341 2342 
3 2343 2344 2345 
3 2346 2347 2348 
3 2349 2350 2351 
3 2352 2353 2354 
3 2355 2356 2357 
3 2358 2359 2360 
3 2361 2362 2363 
3 2364 2365 2366 
3 2367 2368 2369 
3 2370 2371 2372 
3 2373 2374 2375 
3 2376 2377 2378 
3 2379 2380 2381 
3 2382 2383 2384 
3 2385 2386 2387 
3 2388 2389 2390 
3 2391 2392 2393 
3 2394 2395 2396 
3 2397 2398 2399 
3 2400 2401 2402 
3 2403 2404 2405 
3 2406 2407 2408 
3 2409 2410 2411 
3 2412 2413 2414 
3 2415 2416 2417 
3 2418 2419 2420 
3 2421 2422 2423 
3 2424 2425 2426 
3 2427 2428 2429 
3 2430 2431 2432 
3 2433 2434 2435 
3 2436 2437 2438 
3 2439 2440 2441 
3 2442 2443 2444 
3 2445 2446 2447 
3 2448 2449 2450 
3 2451 2452 2453 
3 2454 2455 2456 
3 2457 2458 2459 
3 2460 2461 2462 
3 2463 2464 2465 
3 2466 2467 2468 
3 2469 2470 2471 
3 2472 2473 2474 
3 2475 2476 2477 
3 2478 2479 2480 
3 2481 2482 2483 
3 2484 2485 2486 
3 2487 2488 2489 
3 2490 2491 2492 
3 2493 2494 2495 
3 2496 2497 2498 
3 2499 2500 2501 
3 2502 2503 2504 
3 2505 2506 2507 
3 2508 2509 2510 
3 2511 2512 2513 
3 2514 2515 2516 
3 2517 2518 2519 
3 2520 2521 2522 
3 2523 2524 2525 
3 2526 2527 2528 
3 2529 2530 2531 
3 2532 2533 2534 
3 2535 2536 2537 
3 2538 2539 2540 
3 2541 2542 2543 
3 2544 2545 2546 
3 2547 2548 2549 
3 2550 2551 2552 
3 2553 2554 2555 
3 2556 2557 2558 
3 2559 2560 2561 
3 2562 2563 2564 
3 2565 2566 2567 
3 2568 2569 2570 
3 2571 2572 2573 
3 2574 2575 2576 
3 2577 2578 2579 
3 2580 2581 2582 
3 2583 2584 2585 
3 2586 2587 2588 
3 2589 2590 2591 
3 2592 2593 2594 
3 2595 2596 2597 
3 2598 2599 2600 
3 2601 2602 2603 
3 2604 2605 2606 
3 2607 2608 2609 
3 2610 2611 2612 
3 2613 2614 2615 
3 2616 2617 2618 
3 2619 2620 2621 
3 2622 2623 2624 
3 2625 2626 2627 
3 2628 2629 2630 
3 2631 2632 2633 
3 2634 2635 2636 
3 2637 2638 2639 
3 2640 2641 2642 
3 2643 2644 2645 
3 2646 2647 2648 
3 2649 2650 2651 
3 2652 2653 2654 
3 2655 2656 2657 
3 2658 2659 2660 
3 2661 2662 2663 
3 2664 2665 2666 
3 2667 2668 2669 
3 2670 2671 2672 
3 2673 2674 2675 
3 2676 2677 2678 
3 2679 2680 2681 
3 2682 2683 2684 
3 2685 2686 2687 
3 2688 2689 2690 
3 2691 2692 2693 
3 2694 2695 2696 
3 2697 2698 2699 
3 2700 2701 2702 
3 2703 2704 2705 
3 2706 2707 2708 
3 2709 2710 2711 
3 2712 2713 2714 
3 2715 2716 2717 
3 2718 2719 2720 
3 2721 2722 2723 
3 2724 2725 2726 
3 2727 2728 2729 
3 2730 2731 2732 
3 2733 2734 2735 
3 2736 2737 2738 
3 2739 2740 2741 
3 2742 2743 2744 
3 2745 2746 2747 
3 2748 2749 2750 
3 2751 2752 2753 
3 2754 2755 2756 
3 2757 2758 2759 
3 2760 2761 2762 
3 2763 2764 2765 
3 2766 2767 2768 
3 2769 2770 2771 
3 2772 2773 2774 
3 2775 2776 2777 
3 2778 2779 2780 
3 2781 2782 2783 
3 2784 2785 2786 
3 2787 2788 2789 
3 2790 2791 2792 
3 2793 2794 2795 
3 2796 2797 2798 
3 2799 2800 2801 
3 2802 2803 2804 
3 2805 2806 2807 
3 2808 2809 2810 
3 2811 2812 2813 
3 2814 2815 2816 
3 2817 2818 2819 
3 2820 2821 2822 
3 2823 2824 2825 
3 2826 2827 2828 
3 2829 2830 2831 
3 2832 2833 2834 
3 2835 2836 2837 
3 2838 2839 2840 
3 2841 2842 2843 
3 2844 2845 2846 
3 2847 2848 2849 
3 2850 2851 2852 
3 2853 2854 2855 
3 2856 2857 2858 
3 2859 2860 2861 
3 2862 2863 2864 
3 2865 2866 2867 
3 2868 2869 2870 
3 2871 2872 2873 
3 2874 2875 2876 
3 2877 2878 2879 
3 2880 2881 2882 
3 2883 2884 2885 
3 2886 2887 2888 
3 2889 2890 2891 
3 2892 2893 2894 
3 2895 2896 2897 
3 2898 2899 2900 
3 2901 2902 2903 
3 2904 2905 2906 
3 2907 2908 2909 
3 2910 2911 2912 
3 2913 2914 2915 
3 2916 2917 2918 
3 2919 2920 2921 
3 2922 2923 2924 
3 2925 2926 2927 
3 2928 2929 2930 
3 2931 2932 2933 
3 2934 2935 2936 
3 2937 2938 2939 
3 2940 2941 2942 
3 2943 2944 2945 
3 2946 2947 2948 
3 2949 2950 2951 
3 2952 2953 2954 
3 2955 2956 2957 
3 2958 2959 2960 
3 2961 2962 2963 
3 2964 2965 2966 
3 2967 2968 2969 
3 2970 2971 2972 
3 2973 2974 2975 
3 2976 2977 2978 
3 2979 2980 2981 
3 2982 2983 2984 
3 2985 2986 2987 
3 2988 2989 2990 
3 2991 2992 2993 
3 2994 2995 2996 
3 2997 2998 2999 
3 3000 3001 3002 
3 3003 3004 3005 
3 3006 3007 3008 
3 3009 3010 3011 
3 3012 3013 3014 
3 3015 3016 3017 
3 3018 3019 3020 
3 3021 3022 3023 
3 3024 3025 3026 
3 3027 3028 3029 
3 3030 3031 3032 
3 3033 3034 3035 
3 3036 3037 3038 
3 3039 3040 3041 
3 3042 3043 3044 
3 3045 3046 3047 
3 3048 3049 3050 
3 3051 3052 3053 
3 3054 3055 3056 
3 3057 3058 3059 
3 3060 3061 3062 
3 3063 3064 3065 
3 3066 3067 3068 
3 3069 3070 3071 
3 3072 3073 3074 
3 3075 3076 3077 
3 3078 3079 3080 
3 3081 3082 3083 
3 3084 3085 3086 
3 3087 3088 3089 
3 3090 3091 3092 
3 3093 3094 3095 
3 3096 3097 3098 
3 3099 3100 3101 
3 3102 3103 3104 
3 3105 3106 3107 
3 3108 3109 3110 
3 3111 3112 3113 
3 3114 3115 3116 
3 3117 3118 3119 
3 3120 3121 3122 
3 3123 3124 3125 
3 3126 3127 3128 
3 3129 3130 3131 
3 3132 3133 3134 
3 3135 3136 3137 
3 3138 3139 3140 
3 3141 3142 3143 
3 3144 3145 3146 
3 3147 3148 3149 
3 3150 3151 3152 
3 3153 3154 3155 
3 3156 3157 3158 
3 3159 3160 3161 
3 3162 3163 3164 
3 3165 3166 3167 
3 3168 3169 3170 
3 3171 3172 3173 
3 3174 3175 3176 
3 3177 3178 3179 
3 3180 3181 3182 
3 3183 3184 3185 
3 3186 3187 3188 
3 3189 3190 3191 
3 3192 3193 3194 
3 3195 3196 3197 
3 3198 3199 3200 
3 3201 3202 3203 
3 3204 3205 3206 
3 3207 3208 3209 
3 3210 3211 3212 
3 3213 3214 3215 
3 3216 3217 3218 
3 3219 3220 3221 
3 3222 3223 3224 
3 3225 3226 3227 
3 3228 3229 3230 
3 3231 3232 3233 
3 3234 3235 3236 
3 3237 3238 3239 
3 3240 3241 3242 
3 3243 3244 3245 
3 3246 3247 3248 
3 3249 3250 3251 
3 3252 3253 3254 
3 3255 3256 3257 
3 3258 3259 3260 
3 3261 3262 3263 
3 3264 3265 3266 
3 3267 3268 3269 
3 3270 3271 3272 
3 3273 3274 3275 
3 3276 3277 3278 
3 3279 3280 3281 
3 3282 3283 3284 
3 3285 3286 3287 
3 3288 3289 3290 
3 3291 3292 3293 
3 3294 3295 3296 
3 3297 3298 3299 
3 3300 3301 3302 
3 3303 3304 3305 
3 3306 3307 3308 
3 3309 3310 3311 
3 3312 3313 3314 
3 3315 3316 3317 
3 3318 3319 3320 
3 3321 3322 3323 
3 3324 3325 3326 
3 3327 3328 3329 
3 3330 3331 3332 
3 3333 3334 3335 
3 3336 3337 3338 
3 3339 3340 3341 
3 3342 3343 3344 
3 3345 3346 3347 
3 3348 3349 3350 
3 3351 3352 3353 
3 3354 3355 3356 
3 3357 3358 3359 
3 3360 3361 3362 
3 3363 3364 3365 
3 3366 3367 3368 
3 3369 3370 3371 
3 3372 3373 3374 
3 3375 3376 3377 
3 3378 3379 3380 
3 3381 3382 3383 
3 3384 3385 3386 
3 3387 3388 3389 
3 3390 3391 3392 
3 3393 3394 3395 
3 3396 3397 3398 
3 3399 3400 3401 
3 3402 3403 3404 
3 3405 3406 3407 
3 3408 3409 3410 
3 3411 3412 3413 
3 3414 3415 3416 
3 3417 3418 3419 
3 3420 3421 3422 
3 3423 3424 3425 
3 3426 3427 3428 
3 3429 3430 3431 
3 3432 3433 3434 
3 3435 3436 3437 
3 3438 3439 3440 
3 3441 3442 3443 
3 3444 3445 3446 
3 3447 3448 3449 
3 3450 3451 3452 
3 3453 3454 3455 
3 3456 3457 3458 
3 3459 3460 3461 
3 3462 3463 3464 
3 3465 3466 3467 
3 3468 3469 3470 
3 3471 3472 3473 
3 3474 3475 3476 
3 3477 3478 3479 
3 3480 3481 3482 
3 3483 3484 3485 
3 3486 3487 3488 
3 3489 3490 3491 
3 3492 3493 3494 
3 3495 3496 3497 
3 3498 3499 3500 
3 3501 3502 3503 
3 3504 3505 3506 
3 3507 3508 3509 
3 3510 3511 3512 
3 3513 3514 3515 
3 3516 3517 3518 
3 3519 3520 3521 
3 3522 3523 3524 
3 3525 3526 3527 
3 3528 3529 3530 
3 3531 3532 3533 
3 3534 3535 3536 
3 3537 3538 3539 
3 3540 3541 3542 
3 3543 3544 3545 
3 3546 3547 3548 
3 3549 3550 3551 
3 3552 3553 3554 
3 3555 3556 3557 
3 3558 3559 3560 
3 3561 3562 3563 
3 3564 3565 3566 
3 3567 3568 3569 
3 3570 3571 3572 
3 3573 3574 3575 
3 3576 3577 3578 
3 3579 3580 3581 
3 3582 3583 3584 
3 3585 3586 3587 
3 3588 3589 3590 
3 3591 3592 3593 
3 3594 3595 3596 
3 3597 3598 3599 
3 3600 3601 3602 
3 3603 3604 3605 
3 3606 3607 3608 
3 3609 3610 3611 
3 3612 3613 3614 
3 3615 3616 3617 
3 3618 3619 3620 
3 3621 3622 3623 
3 3624 3625 3626 
3 3627 3628 3629 
3 3630 3631 3632 
3 3633 3634 3635 
3 3636 3637 3638 
3 3639 3640 3641 
3 3642 3643 3644 
3 3645 3646 3647 
3 3648 3649 3650 
3 3651 3652 3653 
3 3654 3655 3656 
3 3657 3658 3659 
3 3660 3661 3662 
3 3663 3664 3665 
3 3666 3667 3668 
3 3669 3670 3671 
3 3672 3673 3674 
3 3675 3676 3677 
3 3678 3679 3680 
3 3681 3682 3683 
3 3684 3685 3686 
3 3687 3688 3689 
3 3690 3691 3692 
3 3693 3694 3695 
3 3696 3697 3698 
3 3699 3700 3701 
3 3702 3703 3704 
3 3705 3706 3707 
3 3708 3709 3710 
3 3711 3712 3713 
3 3714 3715 3716 
3 3717 3718 3719 
3 3720 3721 3722 
3 3723 3724 3725 
3 3726 3727 3728 
3 3729 3730 3731 
3 3732 3733 3734 
3 3735 3736 3737 
3 3738 3739 3740 
3 3741 3742 3743 
3 3744 3745 3746 
3 3747 3748 3749 
3 3750 3751 3752 
3 3753 3754 3755 
3 3756 3757 3758 
3 3759 3760 3761 
3 3762 3763 3764 
3 3765 3766 3767 
3 3768 3769 3770 
3 3771 3772 3773 
3 3774 3775 3776 
3 3777 3778 3779 
3 3780 3781 3782 
3 3783 3784 3785 
3 3786 3787 3788 
3 3789 3790 3791 
3 3792 3793 3794 
3 3795 3796 3797 
3 3798 3799 3800 
3 3801 3802 3803 
3 3804 3805 3806 
3 3807 3808 3809 
3 3810 3811 3812 
3 3813 3814 3815 
3 3816 3817 3818 
3 3819 3820 3821 
3 3822 3823 3824 
3 3825 3826 3827 
3 3828 3829 3830 
3 3831 3832 3833 
3 3834 3835 3836 
3 3837 3838 3839 
3 3840 3841 3842 
3 3843 3844 3845 
3 3846 3847 3848 
3 3849 3850 3851 
3 3852 3853 3854 
3 3855 3856 3857 
3 3858 3859 3860 
3 3861 3862 3863 
3 3864 3865 3866 
3 3867 3868 3869 
3 3870 3871 3872 
3 3873 3874 3875 
3 3876 3877 3878 
3 3879 3880 3881 
3 3882 3883 3884 
3 3885 3886 3887 
3 3888 3889 3890 
3 3891 3892 3893 
3 3894 3895 3896 
3 3897 3898 3899 
3 3900 3901 3902 
3 3903 3904 3905 
3 3906 3907 3908 
3 3909 3910 3911 
3 3912 3913 3914 
3 3915 3916 3917 
3 3918 3919 3920 
3 3921 3922 3923 
3 3924 3925 3926 
3 3927 3928 3929 
3 3930 3931 3932 
3 3933 3934 3935 
3 3936 3937 3938 
3 3939 3940 3941 
3 3942 3943 3944 
3 3945 3946 3947 
3 3948 3949 3950 
3 3951 3952 3953 
3 3954 3955 3956 
3 3957 3958 3959 
3 3960 3961 3962 
3 3963 3964 3965 
3 3966 3967 3968 
3 3969 3970 3971 
3 3972 3973 3974 
3 3975 3976 3977 
3 3978 3979 3980 
3 3981 3982 3983 
3 3984 3985 3986 
3 3987 3988 3989 
3 3990 3991 3992 
3 3993 3994 3995 
3 3996 3997 3998 
3 3999 4000 4001 
3 4002 4003 4004 
3 4005 4006 4007 
3 4008 4009 4010 
3 4011 4012 4013 
3 4014 4015 4016 
3 4017 4018 4019 
3 4020 4021 4022 
3 4023 4024 4025 
3 4026 4027 4028 
3 4029 4030 4031 
3 4032 4033 4034 
3 4035 4036 4037 
3 4038 4039 4040 
3 4041 4042 4043 
3 4044 4045 4046 
3 4047 4048 4049 
3 4050 4051 4052 
3 4053 4054 4055 
3 4056 4057 4058 
3 4059 4060 4061 
3 4062 4063 4064 
3 4065 4066 4067 
3 4068 4069 4070 
3 4071 4072 4073 
3 4074 4075 4076 
3 4077 4078 4079 
3 4080 4081 4082 
3 4083 4084 4085 
3 4086 4087 4088 
3 4089 4090 4091 
3 4092 4093 4094 
3 4095 4096 4097 
3 4098 4099 4100 
3 4101 4102 4103 
3 4104 4105 4106 
3 4107 4108 4109 
3 4110 4111 4112 
3 4113 4114 4115 
3 4116 4117 4118 
3 4119 4120 4121 
3 4122 4123 4124 
3 4125 4126 4127 
3 4128 4129 4130 
3 4131 4132 4133 
3 4134 4135 4136 
3 4137 4138 4139 
3 4140 4141 4142 
3 4143 4144 4145 
3 4146 4147 4148 
3 4149 4150 4151 
3 4152 4153 4154 
3 4155 4156 4157 
3 4158 4159 4160 
3 4161 4162 4163 
3 4164 4165 4166 
3 4167 4168 4169 
3 4170 4171 4172 
3 4173 4174 4175 
3 4176 4177 4178 
3 4179 4180 4181 
3 4182 4183 4184 
3 4185 4186 4187 
3 4188 4189 4190 
3 4191 4192 4193 
3 4194 4195 4196 
3 4197 4198 4199 
3 4200 4201 4202 
3 4203 4204 4205 
3 4206 4207 4208 
3 4209 4210 4211 
3 4212 4213 4214 
3 4215 4216 4217 
3 4218 4219 4220 
3 4221 4222 4223 
3 4224 4225 4226 
3 4227 4228 4229 
3 4230 4231 4232 
3 4233 4234 4235 
3 4236 4237 4238 
3 4239 4240 4241 
3 4242 4243 4244 
3 4245 4246 4247 
3 4248 4249 4250 
3 4251 4252 4253 
3 4254 4255 4256 
3 4257 4258 4259 
3 4260 4261 4262 
3 4263 4264 4265 
3 4266 4267 4268 
3 4269 4270 4271 
3 4272 4273 4274 
3 4275 4276 4277 
3 4278 4279 4280 
3 4281 4282 4283 
3 4284 4285 4286 
3 4287 4288 4289 
3 4290 4291 4292 
3 4293 4294 4295 
3 4296 4297 4298 
3 4299 4300 4301 
3 4302 4303 4304 
3 4305 4306 4307 
3 4308 4309 4310 
3 4311 4312 4313 
3 4314 4315 4316 
3 4317 4318 4319 
3 4320 4321 4322 
3 4323 4324 4325 
3 4326 4327 4328 
3 4329 4330 4331 
3 4332 4333 4334 
3 4335 4336 4337 
3 4338 4339 4340 
3 4341 4342 4343 
3 4344 4345 4346 
3 4347 4348 4349 
3 4350 4351 4352 
3 4353 4354 4355 
3 4356 4357 4358 
3 4359 4360 4361 
3 4362 4363 4364 
3 4365 4366 4367 
3 4368 4369 4370 
3 4371 4372 4373 
3 4374 4375 4376 
3 4377 4378 4379 
3 4380 4381 4382 
3 4383 4384 4385 
3 4386 4387 4388 
3 4389 4390 4391 
3 4392 4393 4394 
3 4395 4396 4397 
3 4398 4399 4400 
3 4401 4402 4403 
3 4404 4405 4406 
3 4407 4408 4409 
3 4410 4411 4412 
3 4413 4414 4415 
3 4416 4417 4418 
3 4419 4420 4421 
3 4422 4423 4424 
3 4425 4426 4427 
3 4428 4429 4430 
3 4431 4432 4433 
3 4434 4435 4436 
3 4437 4438 4439 
3 4440 4441 4442 
3 4443 4444 4445 
3 4446 4447 4448 
3 4449 4450 4451 
3 4452 4453 4454 
3 4455 4456 4457 
3 4458 4459 4460 
3 4461 4462 4463 
3 4464 4465 4466 
3 4467 4468 4469 
3 4470 4471 4472 
3 4473 4474 4475 
3 4476 4477 4478 
3 4479 4480 4481 
3 4482 4483 4484 
3 4485 4486 4487 
3 4488 4489 4490 
3 4491 4492 4493 
3 4494 4495 4496 
3 4497 4498 4499 
3 4500 4501 4502 
3 4503 4504 4505 
3 4506 4507 4508 
3 4509 4510 4511 
3 4512 4513 4514 
3 4515 4516 4517 
3 4518 4519 4520 
3 4521 4522 4523 
3 4524 4525 4526 
3 4527 4528 4529 
3 4530 4531 4532 
3 4533 4534 4535 
3 4536 4537 4538 
3 4539 4540 4541 
3 4542 4543 4544 
3 4545 4546 4547 
3 4548 4549 4550 
3 4551 4552 4553 
3 4554 4555 4556 
3 4557 4558 4559 
3 4560 4561 4562 
3 4563 4564 4565 
3 4566 4567 4568 
3 4569 4570 4571 
3 4572 4573 4574 
3 4575 4576 4577 
3 4578 4579 4580 
3 4581 4582 4583 
3 4584 4585 4586 
3 4587 4588 4589 
3 4590 4591 4592 
3 4593 4594 4595 
3 4596 4597 4598 
3 4599 4600 4601 
3 4602 4603 4604 
3 4605 4606 4607 
3 4608 4609 4610 
3 4611 4612 4613 
3 4614 4615 4616 
3 4617 4618 4619 
3 4620 4621 4622 
3 4623 4624 4625 
3 4626 4627 4628 
3 4629 4630 4631 
3 4632 4633 4634 
3 4635 4636 4637 
3 4638 4639 4640 
3 4641 4642 4643 
3 4644 4645 4646 
3 4647 4648 4649 
3 4650 4651 4652 
3 4653 4654 4655 
3 4656 4657 4658 
3 4659 4660 4661 
3 4662 4663 4664 
3 4665 4666 4667 
3 4668 4669 4670 
3 4671 4672 4673 
3 4674 4675 4676 
3 4677 4678 4679 
3 4680 4681 4682 
3 4683 4684 4685 
3 4686 4687 4688 
3 4689 4690 4691 
3 4692 4693 4694 
3 4695 4696 4697 
3 4698 4699 4700 
3 4701 4702 4703 
3 4704 4705 4706 
3 4707 4708 4709 
3 4710 4711 4712 
3 4713 4714 4715 
3 4716 4717 4718 
3 4719 4720 4721 
3 4722 4723 4724 
3 4725 4726 4727 
3 4728 4729 4730 
3 4731 4732 4733 
3 4734 4735 4736 
3 4737 4738 4739 
3 4740 4741 4742 
3 4743 4744 4745 
3 4746 4747 4748 
3 4749 4750 4751 
3 4752 4753 4754 
3 4755 4756 4757 
3 4758 4759 4760 
3 4761 4762 4763 
3 4764 4765 4766 
3 4767 4768 4769 
3 4770 4771 4772 
3 4773 4774 4775 
3 4776 4777 4778 
3 4779 4780 4781 
3 4782 4783 4784 
3 4785 4786 4787 
3 4788 4789 4790 
3 4791 4792 4793 
3 4794 4795 4796 
3 4797 4798 4799 
3 4800 4801 4802 
3 4803 4804 4805 
3 4806 4807 4808 
3 4809 4810 4811 
3 4812 4813 4814 
3 4815 4816 4817 
3 4818 4819 4820 
3 4821 4822 4823 
3 4824 4825 4826 
3 4827 4828 4829 
3 4830 4831 4832 
3 4833 4834 4835 
3 4836 4837 4838 
3 4839 4840 4841 
3 4842 4843 4844 
3 4845 4846 4847 
3 4848 4849 4850 
3 4851 4852 4853 
3 4854 4855 4856 
3 4857 4858 4859 
3 4860 4861 4862 
3 4863 4864 4865 
3 4866 4867 4868 
3 4869 4870 4871 
3 4872 4873 4874 
3 4875 4876 4877 
3 4878 4879 4880 
3 4881 4882 4883 
3 4884 4885 4886 
3 4887 4888 4889 
3 4890 4891 4892 
3 4893 4894 4895 
3 4896 4897 4898 
3 4899 4900 4901 
3 4902 4903 4904 
3 4905 4906 4907 
3 4908 4909 4910 
3 4911 4912 4913 
3 4914 4915 4916 
3 4917 4918 4919 
3 4920 4921 4922 
3 4923 4924 4925 
3 4926 4927 4928 
3 4929 4930 4931 
3 4932 4933 4934 
3 4935 4936 4937 
3 4938 4939 4940 
3 4941 4942 4943 
3 4944 4945 4946 
3 4947 4948 4949 
3 4950 4951 4952 
3 4953 4954 4955 
3 4956 4957 4958 
3 4959 4960 4961 
3 4962 4963 4964 
3 4965 4966 4967 
3 4968 4969 4970 
3 4971 4972 4973 
3 4974 4975 4976 
3 4977 4978 4979 
3 4980 4981 4982 
3 4983 4984 4985 
3 4986 4987 4988 
3 4989 4990 4991 
3 4992 4993 4994 
3 4995 4996 4997 
3 4998 4999 5000 
3 5001 5002 5003 
3 5004 5005 5006 
3 5007 5008 5009 
3 5010 5011 5012 
3 5013 5014 5015 
3 5016 5017 5018 
3 5019 5020 5021 
3 5022 5023 5024 
3 5025 5026 5027 
3 5028 5029 5030 
3 5031 5032 5033 
3 5034 5035 5036 
3 5037 5038 5039 
3 5040 5041 5042 
3 5043 5044 5045 
3 5046 5047 5048 
3 5049 5050 5051 
3 5052 5053 5054 
3 5055 5056 5057 
3 5058 5059 5060 
3 5061 5062 5063 
3 5064 5065 5066 
3 5067 5068 5069 
3 5070 5071 5072 
3 5073 5074 5075 
3 5076 5077 5078 
3 5079 5080 5081 
3 5082 5083 5084 
3 5085 5086 5087 
3 5088 5089 5090 
3 5091 5092 5093 
3 5094 5095 5096 
3 5097 5098 5099 
3 5100 5101 5102 
3 5103 5104 5105 
3 5106 5107 5108 
3 5109 5110 5111 
3 5112 5113 5114 
3 5115 5116 5117 
3 5118 5119 5120 
3 5121 5122 5123 
3 5124 5125 5126 
3 5127 5128 5129 
3 5130 5131 5132 
3 5133 5134 5135 
3 5136 5137 5138 
3 5139 5140 5141 
3 5142 5143 5144 
3 5145 5146 5147 
3 5148 5149 5150 
3 5151 5152 5153 
3 5154 5155 5156 
3 5157 5158 5159 
3 5160 5161 5162 
3 5163 5164 5165 
3 5166 5167 5168 
3 5169 5170 5171 
3 5172 5173 5174 
3 5175 5176 5177 
3 5178 5179 5180 
3 5181 5182 5183 
3 5184 5185 5186 
3 5187 5188 5189 
3 5190 5191 5192 
3 5193 5194 5195 
3 5196 5197 5198 
3 5199 5200 5201 
3 5202 5203 5204 
3 5205 5206 5207 
3 5208 5209 5210 
3 5211 5212 5213 
3 5214 5215 5216 
3 5217 5218 5219 
3 5220 5221 5222 
3 5223 5224 5225 
3 5226 5227 5228 
3 5229 5230 5231 
3 5232 5233 5234 
3 5235 5236 5237 
3 5238 5239 5240 
3 5241 5242 5243 
3 5244 5245 5246 
3 5247 5248 5249 
3 5250 5251 5252 
3 5253 5254 5255 
3 5256 5257 5258 
3 5259 5260 5261 
3 5262 5263 5264 
3 5265 5266 5267 
3 5268 5269 5270 
3 5271 5272 5273 
3 5274 5275 5276 
3 5277 5278 5279 
3 5280 5281 5282 
3 5283 5284 5285 
3 5286 5287 5288 
3 5289 5290 5291 
3 5292 5293 5294 
3 5295 5296 5297 
3 5298 5299 5300 
3 5301 5302 5303 
3 5304 5305 5306 
3 5307 5308 5309 
3 5310 5311 5312 
3 5313 5314 5315 
3 5316 5317 5318 
3 5319 5320 5321 
3 5322 5323 5324 
3 5325 5326 5327 
3 5328 5329 5330 
3 5331 5332 5333 
3 5334 5335 5336 
3 5337 5338 5339 
3 5340 5341 5342 
3 5343 5344 5345 
3 5346 5347 5348 
3 5349 5350 5351 
3 5352 5353 5354 
3 5355 5356 5357 
3 5358 5359 5360 
3 5361 5362 5363 
3 5364 5365 5366 
3 5367 5368 5369 
3 5370 5371 5372 
3 5373 5374 5375 
3 5376 5377 5378 
3 5379 5380 5381 
3 5382 5383 5384 
3 5385 5386 5387 
3 5388 5389 5390 
3 5391 5392 5393 
3 5394 5395 5396 
3 5397 5398 5399 
3 5400 5401 5402 
3 5403 5404 5405 
3 5406 5407 5408 
3 5409 5410 5411 
3 5412 5413 5414 
3 5415 5416 5417 
3 5418 5419 5420 
3 5421 5422 5423 
3 5424 5425 5426 
3 5427 5428 5429 
3 5430 5431 5432 
3 5433 5434 5435 
3 5436 5437 5438 
3 5439 5440 5441 
3 5442 5443 5444 
3 5445 5446 5447 
3 5448 5449 5450 
3 5451 5452 5453 
3 5454 5455 5456 
3 5457 5458 5459 
3 5460 5461 5462 
3 5463 5464 5465 
3 5466 5467 5468 
3 5469 5470 5471 
3 5472 5473 5474 
3 5475 5476 5477 
3 5478 5479 5480 
3 5481 5482 5483 
3 5484 5485 5486 
3 5487 5488 5489 
3 5490 5491 5492 
3 5493 5494 5495 
3 5496 5497 5498 
3 5499 5500 5501 
3 5502 5503 5504 
3 5505 5506 5507 
3 5508 5509 5510 
3 5511 5512 5513 
3 5514 5515 5516 
3 5517 5518 5519 
3 5520 5521 5522 
3 5523 5524 5525 
3 5526 5527 5528 
3 5529 5530 5531 
3 5532 5533 5534 
3 5535 5536 5537 
3 5538 5539 5540 
3 5541 5542 5543 
3 5544 5545 5546 
3 5547 5548 5549 
3 5550 5551 5552 
3 5553 5554 5555 
3 5556 5557 5558 
3 5559 5560 5561 
3 5562 5563 5564 
3 5565 5566 5567 
3 5568 5569 5570 
3 5571 5572 5573 
3 5574 5575 5576 
3 5577 5578 5579 
3 5580 5581 5582 
3 5583 5584 5585 
3 5586 5587 5588 
3 5589 5590 5591 
3 5592 5593 5594 
3 5595 5596 5597 
3 5598 5599 5600 
3 5601 5602 5603 
3 5604 5605 5606 
3 5607 5608 5609 
3 5610 5611 5612 
3 5613 5614 5615 
3 5616 5617 5618 
3 5619 5620 5621 
3 5622 5623 5624 
3 5625 5626 5627 
3 5628 5629 5630 
3 5631 5632 5633 
3 5634 5635 5636 
3 5637 5638 5639 
3 5640 5641 5642 
3 5643 5644 5645 
3 5646 5647 5648 
3 5649 5650 5651 
3 5652 5653 5654 
3 5655 5656 5657 
3 5658 5659 5660 
3 5661 5662 5663 
3 5664 5665 5666 
3 5667 5668 5669 
3 5670 5671 5672 
3 5673 5674 5675 
3 5676 5677 5678 
3 5679 5680 5681 
3 5682 5683 5684 
3 5685 5686 5687 
3 5688 5689 5690 
3 5691 5692 5693 
3 5694 5695 5696 
3 5697 5698 5699 
3 5700 5701 5702 
3 5703 5704 5705 
3 5706 5707 5708 
3 5709 5710 5711 
3 5712 5713 5714 
3 5715 5716 5717 
3 5718 5719 5720 
3 5721 5722 5723 
3 5724 5725 5726 
3 5727 5728 5729 
3 5730 5731 5732 
3 5733 5734 5735 
3 5736 5737 5738 
3 5739 5740 5741 
3 5742 5743 5744 
3 5745 5746 5747 
3 5748 5749 5750 
3 5751 5752 5753 
3 5754 5755 5756 
3 5757 5758 5759 
3 5760 5761 5762 
3 5763 5764 5765 
3 5766 5767 5768 
3 5769 5770 5771 
3 5772 5773 5774 
3 5775 5776 5777 
3 5778 5779 5780 
3 5781 5782 5783 
3 5784 5785 5786 
3 5787 5788 5789 
3 5790 5791 5792 
3 5793 5794 5795 
3 5796 5797 5798 
3 5799 5800 5801 
3 5802 5803 5804 
3 5805 5806 5807 
3 5808 5809 5810 
3 5811 5812 5813 
3 5814 5815 5816 
3 5817 5818 5819 
3 5820 5821 5822 
3 5823 5824 5825 
3 5826 5827 5828 
3 5829 5830 5831 
3 5832 5833 5834 
3 5835 5836 5837 
3 5838 5839 5840 
3 5841 5842 5843 
3 5844 5845 5846 
3 5847 5848 5849 
3 5850 5851 5852 
3 5853 5854 5855 
3 5856 5857 5858 
3 5859 5860 5861 
3 5862 5863 5864 
3 5865 5866 5867 
3 5868 5869 5870 
3 5871 5872 5873 
3 5874 5875 5876 
3 5877 5878 5879 
3 5880 5881 5882 
3 5883 5884 5885 
3 5886 5887 5888 
3 5889 5890 5891 
3 5892 5893 5894 
3 5895 5896 5897 
3 5898 5899 5900 
3 5901 5902 5903 
3 5904 5905 5906 
3 5907 5908 5909 
3 5910 5911 5912 
3 5913 5914 5915 
3 5916 5917 5918 
3 5919 5920 5921 
3 5922 5923 5924 
3 5925 5926 5927 
3 5928 5929 5930 
3 5931 5932 5933 
3 5934 5935 5936 
3 5937 5938 5939 
3 5940 5941 5942 
3 5943 5944 5945 
3 5946 5947 5948 
3 5949 5950 5951 
3 5952 5953 5954 
3 5955 5956 5957 
3 5958 5959 5960 
3 5961 5962 5963 
3 5964 5965 5966 
3 5967 5968 5969 
3 5970 5971 5972 
3 5973 5974 5975 
3 5976 5977 5978 
3 5979 5980 5981 
3 5982 5983 5984 
3 5985 5986 5987 
3 5988 5989 5990 
3 5991 5992 5993 
3 5994 5995 5996 
3 5997 5998 5999 
3 6000 6001 6002 
3 6003 6004 6005 
3 6006 6007 6008 
3 6009 6010 6011 
3 6012 6013 6014 
3 6015 6016 6017 
3 6018 6019 6020 
3 6021 6022 6023 
3 6024 6025 6026 
3 6027 6028 6029 
3 6030 6031 6032 
3 6033 6034 6035 
3 6036 6037 6038 
3 6039 6040 6041 
3 6042 6043 6044 
3 6045 6046 6047 
3 6048 6049 6050 
3 6051 6052 6053 
3 6054 6055 6056 
3 6057 6058 6059 
3 6060 6061 6062 
3 6063 6064 6065 
3 6066 6067 6068 
3 6069 6070 6071 
3 6072 6073 6074 
3 6075 6076 6077 
3 6078 6079 6080 
3 6081 6082 6083 
3 6084 6085 6086 
3 6087 6088 6089 
3 6090 6091 6092 
3 6093 6094 6095 
3 6096 6097 6098 
3 6099 6100 6101 
3 6102 6103 6104 
3 6105 6106 6107 
3 6108 6109 6110 
3 6111 6112 6113 
3 6114 6115 6116 
3 6117 6118 6119 
3 6120 6121 6122 
3 6123 6124 6125 
3 6126 6127 6128 
3 6129 6130 6131 
3 6132 6133 6134 
3 6135 6136 6137 
3 6138 6139 6140 
3 6141 6142 6143 
3 6144 6145 6146 
3 6147 6148 6149 
3 6150 6151 6152 
3 6153 6154 6155 
3 6156 6157 6158 
3 6159 6160 6161 
3 6162 6163 6164 
3 6165 6166 6167 
3 6168 6169 6170 
3 6171 6172 6173 
3 6174 6175 6176 
3 6177 6178 6179 
3 6180 6181 6182 
3 6183 6184 6185 
3 6186 6187 6188 
3 6189 6190 6191 
3 6192 6193 6194 
3 6195 6196 6197 
3 6198 6199 6200 
3 6201 6202 6203 
3 6204 6205 6206 
3 6207 6208 6209 
3 6210 6211 6212 
3 6213 6214 6215 
3 6216 6217 6218 
3 6219 6220 6221 
3 6222 6223 6224 
3 6225 6226 6227 
3 6228 6229 6230 
3 6231 6232 6233 
3 6234 6235 6236 
3 6237 6238 6239 
3 6240 6241 6242 
3 6243 6244 6245 
3 6246 6247 6248 
3 6249 6250 6251 
3 6252 6253 6254 
3 6255 6256 6257 
3 6258 6259 6260 
3 6261 6262 6263 
3 6264 6265 6266 
3 6267 6268 6269 
3 6270 6271 6272 
3 6273 6274 6275 
3 6276 6277 6278 
3 6279 6280 6281 
3 6282 6283 6284 
3 6285 6286 6287 
3 6288 6289 6290 
3 6291 6292 6293 
3 6294 6295 6296 
3 6297 6298 6299 
3 6300 6301 6302 
3 6303 6304 6305 
3 6306 6307 6308 
3 6309 6310 6311 
3 6312 6313 6314 
3 6315 6316 6317 
3 6318 6319 6320 
3 6321 6322 6323 
3 6324 6325 6326 
3 6327 6328 6329 
3 6330 6331 6332 
3 6333 6334 6335 
3 6336 6337 6338 
3 6339 6340 6341 
3 6342 6343 6344 
3 6345 6346 6347 
3 6348 6349 6350 
3 6351 6352 6353 
3 6354 6355 6356 
3 6357 6358 6359 
3 6360 6361 6362 
3 6363 6364 6365 
3 6366 6367 6368 
3 6369 6370 6371 
3 6372 6373 6374 
3 6375 6376 6377 
3 6378 6379 6380 
3 6381 6382 6383 
3 6384 6385 6386 
3 6387 6388 6389 
3 6390 6391 6392 
3 6393 6394 6395 
3 6396 6397 6398 
3 6399 6400 6401 
3 6402 6403 6404 
3 6405 6406 6407 
3 6408 6409 6410 
3 6411 6412 6413 
3 6414 6415 6416 
3 6417 6418 6419 
3 6420 6421 6422 
3 6423 6424 6425 
3 6426 6427 6428 
3 6429 6430 6431 
3 6432 6433 6434 
3 6435 6436 6437 
3 6438 6439 6440 
3 6441 6442 6443 
3 6444 6445 6446 
3 6447 6448 6449 
3 6450 6451 6452 
3 6453 6454 6455 
3 6456 6457 6458 
3 6459 6460 6461 
3 6462 6463 6464 
3 6465 6466 6467 
3 6468 6469 6470 
3 6471 6472 6473 
3 6474 6475 6476 
3 6477 6478 6479 
3 6480 6481 6482 
3 6483 6484 6485 
3 6486 6487 6488 
3 6489 6490 6491 
3 6492 6493 6494 
3 6495 6496 6497 
3 6498 6499 6500 
3 6501 6502 6503 
3 6504 6505 6506 
3 6507 6508 6509 
3 6510 6511 6512 
3 6513 6514 6515 
3 6516 6517 6518 
3 6519 6520 6521 
3 6522 6523 6524 
3 6525 6526 6527 
3 6528 6529 6530 
3 6531 6532 6533 
3 6534 6535 6536 
3 6537 6538 6539 
3 6540 6541 6542 
3 6543 6544 6545 
3 6546 6547 6548 
3 6549 6550 6551 
3 6552 6553 6554 
3 6555 6556 6557 
3 6558 6559 6560 
3 6561 6562 6563 
3 6564 6565 6566 
3 6567 6568 6569 
3 6570 6571 6572 
3 6573 6574 6575 
3 6576 6577 6578 
3 6579 6580 6581 
3 6582 6583 6584 
3 6585 6586 6587 
3 6588 6589 6590 
3 6591 6592 6593 
3 6594 6595 6596 
3 6597 6598 6599 
3 6600 6601 6602 
3 6603 6604 6605 
3 6606 6607 6608 
3 6609 6610 6611 
3 6612 6613 6614 
3 6615 6616 6617 
3 6618 6619 6620 
3 6621 6622 6623 
3 6624 6625 6626 
3 6627 6628 6629 
3 6630 6631 6632 
3 6633 6634 6635 
3 6636 6637 6638 
3 6639 6640 6641 
3 6642 6643 6644 
3 6645 6646 6647 
3 6648 6649 6650 
3 6651 6652 6653 
3 6654 6655 6656 
3 6657 6658 6659 
3 6660 6661 6662 
3 6663 6664 6665 
3 6666 6667 6668 
3 6669 6670 6671 
3 6672 6673 6674 
3 6675 6676 6677 
3 6678 6679 6680 
3 6681 6682 6683 
3 6684 6685 6686 
3 6687 6688 6689 
3 6690 6691 6692 
3 6693 6694 6695 
3 6696 6697 6698 
3 6699 6700 6701 
3 6702 6703 6704 
3 6705 6706 6707 
3 6708 6709 6710 
3 6711 6712 6713 
3 6714 6715 6716 
3 6717 6718 6719 
3 6720 6721 6722 
3 6723 6724 6725 
3 6726 6727 6728 
3 6729 6730 6731 
3 6732 6733 6734 
3 6735 6736 6737 
3 6738 6739 6740 
3 6741 6742 6743 
3 6744 6745 6746 
3 6747 6748 6749 
3 6750 6751 6752 
3 6753 6754 6755 
3 6756 6757 6758 
3 6759 6760 6761 
3 6762 6763 6764 
3 6765 6766 6767 
3 6768 6769 6770 
3 6771 6772 6773 
3 6774 6775 6776 
3 6777 6778 6779 
3 6780 6781 6782 
3 6783 6784 6785 
3 6786 6787 6788 
3 6789 6790 6791 
3 6792 6793 6794 
3 6795 6796 6797 
3 6798 6799 6800 
3 6801 6802 6803 
3 6804 6805 6806 
3 6807 6808 6809 
3 6810 6811 6812 
3 6813 6814 6815 
3 6816 6817 6818 
3 6819 6820 6821 
3 6822 6823 6824 
3 6825 6826 6827 
3 6828 6829 6830 
3 6831 6832 6833 
3 6834 6835 6836 
3 6837 6838 6839 
3 6840 6841 6842 
3 6843 6844 6845 
3 6846 6847 6848 
3 6849 6850 6851 
3 6852 6853 6854 
3 6855 6856 6857 
3 6858 6859 6860 
3 6861 6862 6863 
3 6864 6865 6866 
3 6867 6868 6869 
3 6870 6871 6872 
3 6873 6874 6875 
3 6876 6877 6878 
3 6879 6880 6881 
3 6882 6883 6884 
3 6885 6886 6887 
3 6888 6889 6890 
3 6891 6892 6893 
3 6894 6895 6896 
3 6897 6898 6899 
3 6900 6901 6902 
3 6903 6904 6905 
3 6906 6907 6908 
3 6909 6910 6911 
3 6912 6913 6914 
3 6915 6916 6917 
3 6918 6919 6920 
3 6921 6922 6923 
3 6924 6925 6926 
3 6927 6928 6929 
3 6930 6931 6932 
3 6933 6934 6935 
3 6936 6937 6938 
3 6939 6940 6941 
3 6942 6943 6944 
3 6945 6946 6947 
3 6948 6949 6950 
3 6951 6952 6953 
3 6954 6955 6956 
3 6957 6958 6959 
3 6960 6961 6962 
3 6963 6964 6965 
3 6966 6967 6968 
3 6969 6970 6971 
3 6972 6973 6974 
3 6975 6976 6977 
3 6978 6979 6980 
3 6981 6982 6983 
3 6984 6985 6986 
3 6987 6988 6989 
3 6990 6991 6992 
3 6993 6994 6995 
3 6996 6997 6998 
3 6999 7000 7001 
3 7002 7003 7004 
3 7005 7006 7007 
3 7008 7009 7010 
3 7011 7012 7013 
3 7014 7015 7016 
3 7017 7018 7019 
3 7020 7021 7022 
3 7023 7024 7025 
3 7026 7027 7028 
3 7029 7030 7031 
3 7032 7033 7034 
3 7035 7036 7037 
3 7038 7039 7040 
3 7041 7042 7043 
3 7044 7045 7046 
3 7047 7048 7049 
3 7050 7051 7052 
3 7053 7054 7055 
3 7056 7057 7058 
3 7059 7060 7061 
3 7062 7063 7064 
3 7065 7066 7067 
3 7068 7069 7070 
3 7071 7072 7073 
3 7074 7075 7076 
3 7077 7078 7079 
3 7080 7081 7082 
3 7083 7084 7085 
3 7086 7087 7088 
3 7089 7090 7091 
3 7092 7093 7094 
3 7095 7096 7097 
3 7098 7099 7100 
3 7101 7102 7103 
3 7104 7105 7106 
3 7107 7108 7109 
3 7110 7111 7112 
3 7113 7114 7115 
3 7116 7117 7118 
3 7119 7120 7121 
3 7122 7123 7124 
3 7125 7126 7127 
3 7128 7129 7130 
3 7131 7132 7133 
3 7134 7135 7136 
3 7137 7138 7139 
3 7140 7141 7142 
3 7143 7144 7145 
3 7146 7147 7148 
3 7149 7150 7151 
3 7152 7153 7154 
3 7155 7156 7157 
3 7158 7159 7160 
3 7161 7162 7163 
3 7164 7165 7166 
3 7167 7168 7169 
3 7170 7171 7172 
3 7173 7174 7175 
3 7176 7177 7178 
3 7179 7180 7181 
3 7182 7183 7184 
3 7185 7186 7187 
3 7188 7189 7190 
3 7191 7192 7193 
3 7194 7195 7196 
3 7197 7198 7199 
3 7200 7201 7202 
3 7203 7204 7205 
3 7206 7207 7208 
3 7209 7210 7211 
3 7212 7213 7214 
3 7215 7216 7217 
3 7218 7219 7220 
3 7221 7222 7223 
3 7224 7225 7226 
3 7227 7228 7229 
3 7230 7231 7232 
3 7233 7234 7235 
3 7236 7237 7238 
3 7239 7240 7241 
3 7242 7243 7244 
3 7245 7246 7247 
3 7248 7249 7250 
3 7251 7252 7253 
3 7254 7255 7256 
3 7257 7258 7259 
3 7260 7261 7262 
3 7263 7264 7265 
3 7266 7267 7268 
3 7269 7270 7271 
3 7272 7273 7274 
3 7275 7276 7277 
3 7278 7279 7280 
3 7281 7282 7283 
3 7284 7285 7286 
3 7287 7288 7289 
3 7290 7291 7292 
3 7293 7294 7295 
3 7296 7297 7298 
3 7299 7300 7301 
3 7302 7303 7304 
3 7305 7306 7307 
3 7308 7309 7310 
3 7311 7312 7313 
3 7314 7315 7316 
3 7317 7318 7319 
3 7320 7321 7322 
3 7323 7324 7325 
3 7326 7327 7328 
3 7329 7330 7331 
3 7332 7333 7334 
3 7335 7336 7337 
3 7338 7339 7340 
3 7341 7342 7343 
3 7344 7345 7346 
3 7347 7348 7349 
3 7350 7351 7352 
3 7353 7354 7355 
3 7356 7357 7358 
3 7359 7360 7361 
3 7362 7363 7364 
3 7365 7366 7367 
3 7368 7369 7370 
3 7371 7372 7373 
3 7374 7375 7376 
3 7377 7378 7379 
3 7380 7381 7382 
3 7383 7384 7385 
3 7386 7387 7388 
3 7389 7390 7391 
3 7392 7393 7394 
3 7395 7396 7397 
3 7398 7399 7400 
3 7401 7402 7403 
3 7404 7405 7406 
3 7407 7408 7409 
3 7410 7411 7412 
3 7413 7414 7415 
3 7416 7417 7418 
3 7419 7420 7421 
3 7422 7423 7424 
3 7425 7426 7427 
3 7428 7429 7430 
3 7431 7432 7433 
3 7434 7435 7436 
3 7437 7438 7439 
3 7440 7441 7442 
3 7443 7444 7445 
3 7446 7447 7448 
3 7449 7450 7451 
3 7452 7453 7454 
3 7455 7456 7457 
3 7458 7459 7460 
3 7461 7462 7463 
3 7464 7465 7466 
3 7467 7468 7469 
3 7470 7471 7472 
3 7473 7474 7475 
3 7476 7477 7478 
3 7479 7480 7481 
3 7482 7483 7484 
3 7485 7486 7487 
3 7488 7489 7490 
3 7491 7492 7493 
3 7494 7495 7496 
3 7497 7498 7499 
3 7500 7501 7502 
3 7503 7504 7505 
3 7506 7507 7508 
3 7509 7510 7511 
3 7512 7513 7514 
3 7515 7516 7517 
3 7518 7519 7520 
3 7521 7522 7523 
3 7524 7525 7526 
3 7527 7528 7529 
3 7530 7531 7532 
3 7533 7534 7535 
3 7536 7537 7538 
3 7539 7540 7541 
3 7542 7543 7544 
3 7545 7546 7547 
3 7548 7549 7550 
3 7551 7552 7553 
3 7554 7555 7556 
3 7557 7558 7559 
3 7560 7561 7562 
3 7563 7564 7565 
3 7566 7567 7568 
3 7569 7570 7571 
3 7572 7573 7574 
3 7575 7576 7577 
3 7578 7579 7580 
3 7581 7582 7583 
3 7584 7585 7586 
3 7587 7588 7589 
3 7590 7591 7592 
3 7593 7594 7595 
3 7596 7597 7598 
3 7599 7600 7601 
3 7602 7603 7604 
3 7605 7606 7607 
3 7608 7609 7610 
3 7611 7612 7613 
3 7614 7615 7616 
3 7617 7618 7619 
3 7620 7621 7622 
3 7623 7624 7625 
3 7626 7627 7628 
3 7629 7630 7631 
3 7632 7633 7634 
3 7635 7636 7637 
3 7638 7639 7640 
3 7641 7642 7643 
3 7644 7645 7646 
3 7647 7648 7649 
3 7650 7651 7652 
3 7653 7654 7655 
3 7656 7657 7658 
3 7659 7660 7661 
3 7662 7663 7664 
3 7665 7666 7667 
3 7668 7669 7670 
3 7671 7672 7673 
3 7674 7675 7676 
3 7677 7678 7679 
3 7680 7681 7682 
3 7683 7684 7685 
3 7686 7687 7688 
3 7689 7690 7691 
3 7692 7693 7694 
3 7695 7696 7697 
3 7698 7699 7700 
3 7701 7702 7703 
3 7704 7705 7706 
3 7707 7708 7709 
3 7710 7711 7712 
3 7713 7714 7715 
3 7716 7717 7718 
3 7719 7720 7721 
3 7722 7723 7724 
3 7725 7726 7727 
3 7728 7729 7730 
3 7731 7732 7733 
3 7734 7735 7736 
3 7737 7738 7739 
3 7740 7741 7742 
3 7743 7744 7745 
3 7746 7747 7748 
3 7749 7750 7751 
3 7752 7753 7754 
3 7755 7756 7757 
3 7758 7759 7760 
3 7761 7762 7763 
3 7764 7765 7766 
3 7767 7768 7769 
3 7770 7771 7772 
3 7773 7774 7775 
3 7776 7777 7778 
3 7779 7780 7781 
3 7782 7783 7784 
3 7785 7786 7787 
3 7788 7789 7790 
3 7791 7792 7793 
3 7794 7795 7796 
3 7797 7798 7799 
3 7800 7801 7802 
3 7803 7804 7805 
3 7806 7807 7808 
3 7809 7810 7811 
3 7812 7813 7814 
3 7815 7816 7817 
3 7818 7819 7820 
3 7821 7822 7823 
3 7824 7825 7826 
3 7827 7828 7829 
3 7830 7831 7832 
3 7833 7834 7835 
3 7836 7837 7838 
3 7839 7840 7841 
3 7842 7843 7844 
3 7845 7846 7847 
3 7848 7849 7850 
3 7851 7852 7853 
3 7854 7855 7856 
3 7857 7858 7859 
3 7860 7861 7862 
3 7863 7864 7865 
3 7866 7867 7868 
3 7869 7870 7871 
3 7872 7873 7874 
3 7875 7876 7877 
3 7878 7879 7880 
3 7881 7882 7883 
3 7884 7885 7886 
3 7887 7888 7889 
3 7890 7891 7892 
3 7893 7894 7895 
3 7896 7897 7898 
3 7899 7900 7901 
3 7902 7903 7904 
3 7905 7906 7907 
3 7908 7909 7910 
3 7911 7912 7913 
3 7914 7915 7916 
3 7917 7918 7919 
3 7920 7921 7922 
3 7923 7924 7925 
3 7926 7927 7928 
3 7929 7930 7931 
3 7932 7933 7934 
3 7935 7936 7937 
3 7938 7939 7940 
3 7941 7942 7943 
3 7944 7945 7946 
3 7947 7948 7949 
3 7950 7951 7952 
3 7953 7954 7955 
3 7956 7957 7958 
3 7959 7960 7961 
3 7962 7963 7964 
3 7965 7966 7967 
3 7968 7969 7970 
3 7971 7972 7973 
3 7974 7975 7976 
3 7977 7978 7979 
3 7980 7981 7982 
3 7983 7984 7985 
3 7986 7987 7988 
3 7989 7990 7991 
3 7992 7993 7994 
3 7995 7996 7997 
3 7998 7999 8000 
3 8001 8002 8003 
3 8004 8005 8006 
3 8007 8008 8009 
3 8010 8011 8012 
3 8013 8014 8015 
3 8016 8017 8018 
3 8019 8020 8021 
3 8022 8023 8024 
3 8025 8026 8027 
3 8028 8029 8030 
3 8031 8032 8033 
3 8034 8035 8036 
3 8037 8038 8039 
3 8040 8041 8042 
3 8043 8044 8045 
3 8046 8047 8048 
3 8049 8050 8051 
3 8052 8053 8054 
3 8055 8056 8057 
3 8058 8059 8060 
3 8061 8062 8063 
3 8064 8065 8066 
3 8067 8068 8069 
3 8070 8071 8072 
3 8073 8074 8075 
3 8076 8077 8078 
3 8079 8080 8081 
3 8082 8083 8084 
3 8085 8086 8087 
3 8088 8089 8090 
3 8091 8092 8093 
3 8094 8095 8096 
3 8097 8098 8099 
3 8100 8101 8102 
3 8103 8104 8105 
3 8106 8107 8108 
3 8109 8110 8111 
3 8112 8113 8114 
3 8115 8116 8117 
3 8118 8119 8120 
3 8121 8122 8123 
3 8124 8125 8126 
3 8127 8128 8129 
3 8130 8131 8132 
3 8133 8134 8135 
3 8136 8137 8138 
3 8139 8140 8141 
3 8142 8143 8144 
3 8145 8146 8147 
3 8148 8149 8150 
3 8151 8152 8153 
3 8154 8155 8156 
3 8157 8158 8159 
3 8160 8161 8162 
3 8163 8164 8165 
3 8166 8167 8168 
3 8169 8170 8171 
3 8172 8173 8174 
3 8175 8176 8177 
3 8178 8179 8180 
3 8181 8182 8183 
3 8184 8185 8186 
3 8187 8188 8189 
3 8190 8191 8192 
3 8193 8194 8195 
3 8196 8197 8198 
3 8199 8200 8201 
3 8202 8203 8204 
3 8205 8206 8207 
3 8208 8209 8210 
3 8211 8212 8213 
3 8214 8215 8216 
3 8217 8218 8219 
3 8220 8221 8222 
3 8223 8224 8225 
3 8226 8227 8228 
3 8229 8230 8231 
3 8232 8233 8234 
3 8235 8236 8237 
3 8238 8239 8240 
3 8241 8242 8243 
3 8244 8245 8246 
3 8247 8248 8249 
3 8250 8251 8252 
3 8253 8254 8255 
3 8256 8257 8258 
3 8259 8260 8261 
3 8262 8263 8264 
3 8265 8266 8267 
3 8268 8269 8270 
3 8271 8272 8273 
3 8274 8275 8276 
3 8277 8278 8279 
3 8280 8281 8282 
3 8283 8284 8285 
3 8286 8287 8288 
3 8289 8290 8291 
3 8292 8293 8294 
3 8295 8296 8297 
3 8298 8299 8300 
3 8301 8302 8303 
3 8304 8305 8306 
3 8307 8308 8309 
3 8310 8311 8312 
3 8313 8314 8315 
3 8316 8317 8318 
3 8319 8320 8321 
3 8322 8323 8324 
3 8325 8326 8327 
3 8328 8329 8330 
3 8331 8332 8333 
3 8334 8335 8336 
3 8337 8338 8339 
3 8340 8341 8342 
3 8343 8344 8345 
3 8346 8347 8348 
3 8349 8350 8351 
3 8352 8353 8354 
3 8355 8356 8357 
3 8358 8359 8360 
3 8361 8362 8363 
3 8364 8365 8366 
3 8367 8368 8369 
3 8370 8371 8372 
3 8373 8374 8375 
3 8376 8377 8378 
3 8379 8380 8381 
3 8382 8383 8384 
3 8385 8386 8387 
3 8388 8389 8390 
3 8391 8392 8393 
3 8394 8395 8396 
3 8397 8398 8399 
3 8400 8401 8402 
3 8403 8404 8405 
3 8406 8407 8408 
3 8409 8410 8411 
3 8412 8413 8414 
3 8415 8416 8417 
3 8418 8419 8420 
3 8421 8422 8423 
3 8424 8425 8426 
3 8427 8428 8429 
3 8430 8431 8432 
3 8433 8434 8435 
3 8436 8437 8438 
3 8439 8440 8441 
3 8442 8443 8444 
3 8445 8446 8447 
3 8448 8449 8450 
3 8451 8452 8453 
3 8454 8455 8456 
3 8457 8458 8459 
3 8460 8461 8462 
3 8463 8464 8465 
3 8466 8467 8468 
3 8469 8470 8471 
3 8472 8473 8474 
3 8475 8476 8477 
3 8478 8479 8480 
3 8481 8482 8483 
3 8484 8485 8486 
3 8487 8488 8489 
3 8490 8491 8492 
3 8493 8494 8495 
3 8496 8497 8498 
3 8499 8500 8501 
3 8502 8503 8504 
3 8505 8506 8507 
3 8508 8509 8510 
3 8511 8512 8513 
3 8514 8515 8516 
3 8517 8518 8519 
3 8520 8521 8522 
3 8523 8524 8525 
3 8526 8527 8528 
3 8529 8530 8531 
3 8532 8533 8534 
3 8535 8536 8537 
3 8538 8539 8540 
3 8541 8542 8543 
3 8544 8545 8546 
3 8547 8548 8549 
3 8550 8551 8552 
3 8553 8554 8555 
3 8556 8557 8558 
3 8559 8560 8561 
3 8562 8563 8564 
3 8565 8566 8567 
3 8568 8569 8570 
3 8571 8572 8573 
3 8574 8575 8576 
3 8577 8578 8579 
3 8580 8581 8582 
3 8583 8584 8585 
3 8586 8587 8588 
3 8589 8590 8591 
3 8592 8593 8594 
3 8595 8596 8597 
3 8598 8599 8600 
3 8601 8602 8603 
3 8604 8605 8606 
3 8607 8608 8609 
3 8610 8611 8612 
3 8613 8614 8615 
3 8616 8617 8618 
3 8619 8620 8621 
3 8622 8623 8624 
3 8625 8626 8627 
3 8628 8629 8630 
3 8631 8632 8633 
3 8634 8635 8636 
3 8637 8638 8639 
3 8640 8641 8642 
3 8643 8644 8645 
3 8646 8647 8648 
3 8649 8650 8651 
3 8652 8653 8654 
3 8655 8656 8657 
3 8658 8659 8660 
3 8661 8662 8663 
3 8664 8665 8666 
3 8667 8668 8669 
3 8670 8671 8672 
3 8673 8674 8675 
3 8676 8677 8678 
3 8679 8680 8681 
3 8682 8683 8684 
3 8685 8686 8687 
3 8688 8689 8690 
3 8691 8692 8693 
3 8694 8695 8696 
3 8697 8698 8699 
3 8700 8701 8702 
3 8703 8704 8705 
3 8706 8707 8708 
3 8709 8710 8711 
3 8712 8713 8714 
3 8715 8716 8717 
3 8718 8719 8720 
3 8721 8722 8723 
3 8724 8725 8726 
3 8727 8728 8729 
3 8730 8731 8732 
3 8733 8734 8735 
3 8736 8737 8738 
3 8739 8740 8741 
3 8742 8743 8744 
3 8745 8746 8747 
3 8748 8749 8750 
3 8751 8752 8753 
3 8754 8755 8756 
3 8757 8758 8759 
3 8760 8761 8762 
3 8763 8764 8765 
3 8766 8767 8768 
3 8769 8770 8771 
3 8772 8773 8774 
3 8775 8776 8777 
3 8778 8779 8780 
3 8781 8782 8783 
3 8784 8785 8786 
3 8787 8788 8789 
3 8790 8791 8792 
3 8793 8794 8795 
3 8796 8797 8798 
3 8799 8800 8801 
3 8802 8803 8804 
3 8805 8806 8807 
3 8808 8809 8810 
3 8811 8812 8813 
3 8814 8815 8816 
3 8817 8818 8819 
3 8820 8821 8822 
3 8823 8824 8825 
3 8826 8827 8828 
3 8829 8830 8831 
3 8832 8833 8834 
3 8835 8836 8837 
3 8838 8839 8840 
3 8841 8842 8843 
3 8844 8845 8846 
3 8847 8848 8849 
3 8850 8851 8852 
3 8853 8854 8855 
3 8856 8857 8858 
3 8859 8860 8861 
3 8862 8863 8864 
3 8865 8866 8867 
3 8868 8869 8870 
3 8871 8872 8873 
3 8874 8875 8876 
3 8877 8878 8879 
3 8880 8881 8882 
3 8883 8884 8885 
3 8886 8887 8888 
3 8889 8890 8891 
3 8892 8893 8894 
3 8895 8896 8897 
3 8898 8899 8900 
3 8901 8902 8903 
3 8904 8905 8906 
3 8907 8908 8909 
3 8910 8911 8912 
3 8913 8914 8915 
3 8916 8917 8918 
3 8919 8920 8921 
3 8922 8923 8924 
3 8925 8926 8927 
3 8928 8929 8930 
3 8931 8932 8933 
3 8934 8935 8936 
3 8937 8938 8939 
3 8940 8941 8942 
3 8943 8944 8945 
3 8946 8947 8948 
3 8949 8950 8951 
3 8952 8953 8954 
3 8955 8956 8957 
3 8958 8959 8960 
3 8961 8962 8963 
3 8964 8965 8966 
3 8967 8968 8969 
3 8970 8971 8972 
3 8973 8974 8975 
3 8976 8977 8978 
3 8979 8980 8981 
3 8982 8983 8984 
3 8985 8986 8987 
3 8988 8989 8990 
3 8991 8992 8993 
3 8994 8995 8996 
3 8997 8998 8999 
3 9000 9001 9002 
3 9003 9004 9005 
3 9006 9007 9008 
3 9009 9010 9011 
3 9012 9013 9014 
3 9015 9016 9017 
3 9018 9019 9020 
3 9021 9022 9023 
3 9024 9025 9026 
3 9027 9028 9029 
3 9030 9031 9032 
3 9033 9034 9035 
3 9036 9037 9038 
3 9039 9040 9041 
3 9042 9043 9044 
3 9045 9046 9047 
3 9048 9049 9050 
3 9051 9052 9053 
3 9054 9055 9056 
3 9057 9058 9059 
3 9060 9061 9062 
3 9063 9064 9065 
3 9066 9067 9068 
3 9069 9070 9071 
3 9072 9073 9074 
3 9075 9076 9077 
3 9078 9079 9080 
3 9081 9082 9083 
3 9084 9085 9086 
3 9087 9088 9089 
3 9090 9091 9092 
3 9093 9094 9095 
3 9096 9097 9098 
3 9099 9100 9101 
3 9102 9103 9104 
3 9105 9106 9107 
3 9108 9109 9110 
3 9111 9112 9113 
3 9114 9115 9116 
3 9117 9118 9119 
3 9120 9121 9122 
3 9123 9124 9125 
3 9126 9127 9128 
3 9129 9130 9131 
3 9132 9133 9134 
3 9135 9136 9137 
3 9138 9139 9140 
3 9141 9142 9143 
3 9144 9145 9146 
3 9147 9148 9149 
3 9150 9151 9152 
3 9153 9154 9155 
3 9156 9157 9158 
3 9159 9160 9161 
3 9162 9163 9164 
3 9165 9166 9167 
3 9168 9169 9170 
3 9171 9172 9173 
3 9174 9175 9176 
3 9177 9178 9179 
3 9180 9181 9182 
3 9183 9184 9185 
3 9186 9187 9188 
3 9189 9190 9191 
3 9192 9193 9194 
3 9195 9196 9197 
3 9198 9199 9200 
3 9201 9202 9203 
3 9204 9205 9206 
3 9207 9208 9209 
3 9210 9211 9212 
3 9213 9214 9215 
3 9216 9217 9218 
3 9219 9220 9221 
3 9222 9223 9224 
3 9225 9226 9227 
3 9228 9229 9230 
3 9231 9232 9233 
3 9234 9235 9236 
3 9237 9238 9239 
3 9240 9241 9242 
3 9243 9244 9245 
3 9246 9247 9248 
3 9249 9250 9251 
3 9252 9253 9254 
3 9255 9256 9257 
3 9258 9259 9260 
3 9261 9262 9263 
3 9264 9265 9266 
3 9267 9268 9269 
3 9270 9271 9272 
3 9273 9274 9275 
3 9276 9277 9278 
3 9279 9280 9281 
3 9282 9283 9284 
3 9285 9286 9287 
3 9288 9289 9290 
3 9291 9292 9293 
3 9294 9295 9296 
3 9297 9298 9299 
3 9300 9301 9302 
3 9303 9304 9305 
3 9306 9307 9308 
3 9309 9310 9311 
3 9312 9313 9314 
3 9315 9316 9317 
3 9318 9319 9320 
3 9321 9322 9323 
3 9324 9325 9326 
3 9327 9328 9329 
3 9330 9331 9332 
3 9333 9334 9335 
3 9336 9337 9338 
3 9339 9340 9341 
3 9342 9343 9344 
3 9345 9346 9347 
3 9348 9349 9350 
3 9351 9352 9353 
3 9354 9355 9356 
3 9357 9358 9359 
3 9360 9361 9362 
3 9363 9364 9365 
3 9366 9367 9368 
3 9369 9370 9371 
3 9372 9373 9374 
3 9375 9376 9377 
3 9378 9379 9380 
3 9381 9382 9383 
3 9384 9385 9386 
3 9387 9388 9389 
3 9390 9391 9392 
3 9393 9394 9395 
3 9396 9397 9398 
3 9399 9400 9401 
3 9402 9403 9404 
3 9405 9406 9407 
3 9408 9409 9410 
3 9411 9412 9413 
3 9414 9415 9416 
3 9417 9418 9419 
3 9420 9421 9422 
3 9423 9424 9425 
3 9426 9427 9428 
3 9429 9430 9431 
3 9432 9433 9434 
3 9435 9436 9437 
3 9438 9439 9440 
3 9441 9442 9443 
3 9444 9445 9446 
3 9447 9448 9449 
3 9450 9451 9452 
3 9453 9454 9455 
3 9456 9457 9458 
3 9459 9460 9461 
3 9462 9463 9464 
3 9465 9466 9467 
3 9468 9469 9470 
3 9471 9472 9473 
3 9474 9475 9476 
3 9477 9478 9479 
3 9480 9481 9482 
3 9483 9484 9485 
3 9486 9487 9488 
3 9489 9490 9491 
3 9492 9493 9494 
3 9495 9496 9497 
3 9498 9499 9500 
3 9501 9502 9503 
3 9504 9505 9506 
3 9507 9508 9509 
3 9510 9511 9512 
3 9513 9514 9515 
3 9516 9517 9518 
3 9519 9520 9521 
3 9522 9523 9524 
3 9525 9526 9527 
3 9528 9529 9530 
3 9531 9532 9533 
3 9534 9535 9536 
3 9537 9538 9539 
3 9540 9541 9542 
3 9543 9544 9545 
3 9546 9547 9548 
3 9549 9550 9551 
3 9552 9553 9554 
3 9555 9556 9557 
3 9558 9559 9560 
3 9561 9562 9563 
3 9564 9565 9566 
3 9567 9568 9569 
3 9570 9571 9572 
3 9573 9574 9575 
3 9576 9577 9578 
3 9579 9580 9581 
3 9582 9583 9584 
3 9585 9586 9587 
3 9588 9589 9590 
3 9591 9592 9593 
3 9594 9595 9596 
3 9597 9598 9599 
3 9600 9601 9602 
3 9603 9604 9605 
3 9606 9607 9608 
3 9609 9610 9611 
3 9612 9613 9614 
3 9615 9616 9617 
3 9618 9619 9620 
3 9621 9622 9623 
3 9624 9625 9626 
3 9627 9628 9629 
3 9630 9631 9632 
3 9633 9634 9635 
3 9636 9637 9638 
3 9639 9640 9641 
3 9642 9643 9644 
3 9645 9646 9647 
3 9648 9649 9650 
3 9651 9652 9653 
3 9654 9655 9656 
3 9657 9658 9659 
3 9660 9661 9662 
3 9663 9664 9665 
3 9666 9667 9668 
3 9669 9670 9671 
3 9672 9673 9674 
3 9675 9676 9677 
3 9678 9679 9680 
3 9681 9682 9683 
3 9684 9685 9686 
3 9687 9688 9689 
3 9690 9691 9692 
3 9693 9694 9695 
3 9696 9697 9698 
3 9699 9700 9701 
3 9702 9703 9704 
3 9705 9706 9707 
3 9708 9709 9710 
3 9711 9712 9713 
3 9714 9715 9716 
3 9717 9718 9719 
3 9720 9721 9722 
3 9723 9724 9725 
3 9726 9727 9728 
3 9729 9730 9731 
3 9732 9733 9734 
3 9735 9736 9737 
3 9738 9739 9740 
3 9741 9742 9743 
3 9744 9745 9746 
3 9747 9748 9749 
3 9750 9751 9752 
3 9753 9754 9755 
3 9756 9757 9758 
3 9759 9760 9761 
3 9762 9763 9764 
3 9765 9766 9767 
3 9768 9769 9770 
3 9771 9772 9773 
3 9774 9775 9776 
3 9777 9778 9779 
3 9780 9781 9782 
3 9783 9784 9785 
3 9786 9787 9788 
3 9789 9790 9791 
3 9792 9793 9794 
3 9795 9796 9797 
3 9798 9799 9800 
3 9801 9802 9803 
3 9804 9805 9806 
3 9807 9808 9809 
3 9810 9811 9812 
3 9813 9814 9815 
3 9816 9817 9818 
3 9819 9820 9821 
3 9822 9823 9824 
3 9825 9826 9827 
3 9828 9829 9830 
3 9831 9832 9833 
3 9834 9835 9836 
3 9837 9838 9839 
3 9840 9841 9842 
3 9843 9844 9845 
3 9846 9847 9848 
3 9849 9850 9851 
3 9852 9853 9854 
3 9855 9856 9857 
3 9858 9859 9860 
3 9861 9862 9863 
3 9864 9865 9866 
3 9867 9868 9869 
3 9870 9871 9872 
3 9873 9874 9875 
3 9876 9877 9878 
3 9879 9880 9881 
3 9882 9883 9884 
3 9885 9886 9887 
3 9888 9889 9890 
3 9891 9892 9893 
3 9894 9895 9896 
3 9897 9898 9899 
3 9900 9901 9902 
3 9903 9904 9905 
3 9906 9907 9908 
3 9909 9910 9911 
3 9912 9913 9914 
3 9915 9916 9917 
3 9918 9919 9920 
3 9921 9922 9923 
3 9924 9925 9926 
3 9927 9928 9929 
3 9930 9931 9932 
3 9933 9934 9935 
3 9936 9937 9938 
3 9939 9940 9941 
3 9942 9943 9944 
3 9945 9946 9947 
3 9948 9949 9950 
3 9951 9952 9953 
3 9954 9955 9956 
3 9957 9958 9959 
3 9960 9961 9962 
3 9963 9964 9965 
3 9966 9967 9968 
3 9969 9970 9971 
3 9972 9973 9974 
3 9975 9976 9977 
3 9978 9979 9980 
3 9981 9982 9983 
3 9984 9985 9986 
3 9987 9988 9989 
3 9990 9991 9992 
3 9993 9994 9995 
3 9996 9997 9998 
3 9999 10000 10001 
3 10002 10003 10004 
3 10005 10006 10007 
3 10008 10009 10010 
3 10011 10012 10013 
3 10014 10015 10016 
3 10017 10018 10019 
3 10020 10021 10022 
3 10023 10024 10025 
3 10026 10027 10028 
3 10029 10030 10031 
3 10032 10033 10034 
3 10035 10036 10037 
3 10038 10039 10040 
3 10041 10042 10043 
3 10044 10045 10046 
3 10047 10048 10049 
3 10050 10051 10052 
3 10053 10054 10055 
3 10056 10057 10058 
3 10059 10060 10061 
3 10062 10063 10064 
3 10065 10066 10067 
3 10068 10069 10070 
3 10071 10072 10073 
3 10074 10075 10076 
3 10077 10078 10079 
3 10080 10081 10082 
3 10083 10084 10085 
3 10086 10087 10088 
3 10089 10090 10091 
3 10092 10093 10094 
3 10095 10096 10097 
3 10098 10099 10100 
3 10101 10102 10103 
3 10104 10105 10106 
3 10107 10108 10109 
3 10110 10111 10112 
3 10113 10114 10115 
3 10116 10117 10118 
3 10119 10120 10121 
3 10122 10123 10124 
3 10125 10126 10127 
3 10128 10129 10130 
3 10131 10132 10133 
3 10134 10135 10136 
3 10137 10138 10139 
3 10140 10141 10142 
3 10143 10144 10145 
3 10146 10147 10148 
3 10149 10150 10151 
3 10152 10153 10154 
3 10155 10156 10157 
3 10158 10159 10160 
3 10161 10162 10163 
3 10164 10165 10166 
3 10167 10168 10169 
3 10170 10171 10172 
3 10173 10174 10175 
3 10176 10177 10178 
3 10179 10180 10181 
3 10182 10183 10184 
3 10185 10186 10187 
3 10188 10189 10190 
3 10191 10192 10193 
3 10194 10195 10196 
3 10197 10198 10199 
3 10200 10201 10202 
3 10203 10204 10205 
3 10206 10207 10208 
3 10209 10210 10211 
3 10212 10213 10214 
3 10215 10216 10217 
3 10218 10219 10220 
3 10221 10222 10223 
3 10224 10225 10226 
3 10227 10228 10229 
3 10230 10231 10232 
3 10233 10234 10235 
3 10236 10237 10238 
3 10239 10240 10241 
3 10242 10243 10244 
3 10245 10246 10247 
3 10248 10249 10250 
3 10251 10252 10253 
3 10254 10255 10256 
3 10257 10258 10259 
3 10260 10261 10262 
3 10263 10264 10265 
3 10266 10267 10268 
3 10269 10270 10271 
3 10272 10273 10274 
3 10275 10276 10277 
3 10278 10279 10280 
3 10281 10282 10283 
3 10284 10285 10286 
3 10287 10288 10289 
3 10290 10291 10292 
3 10293 10294 10295 
3 10296 10297 10298 
3 10299 10300 10301 
3 10302 10303 10304 
3 10305 10306 10307 
3 10308 10309 10310 
3 10311 10312 10313 
3 10314 10315 10316 
3 10317 10318 10319 
3 10320 10321 10322 
3 10323 10324 10325 
3 10326 10327 10328 
3 10329 10330 10331 
3 10332 10333 10334 
3 10335 10336 10337 
3 10338 10339 10340 
3 10341 10342 10343 
3 10344 10345 10346 
3 10347 10348 10349 
3 10350 10351 10352 
3 10353 10354 10355 
3 10356 10357 10358 
3 10359 10360 10361 
3 10362 10363 10364 
3 10365 10366 10367 
3 10368 10369 10370 
3 10371 10372 10373 
3 10374 10375 10376 
3 10377 10378 10379 
3 10380 10381 10382 
3 10383 10384 10385 
3 10386 10387 10388 
3 10389 10390 10391 
3 10392 10393 10394 
3 10395 10396 10397 
3 10398 10399 10400 
3 10401 10402 10403 
3 10404 10405 10406 
3 10407 10408 10409 
3 10410 10411 10412 
3 10413 10414 10415 
3 10416 10417 10418 
3 10419 10420 10421 
3 10422 10423 10424 
3 10425 10426 10427 
3 10428 10429 10430 
3 10431 10432 10433 
3 10434 10435 10436 
3 10437 10438 10439 
3 10440 10441 10442 
3 10443 10444 10445 
3 10446 10447 10448 
3 10449 10450 10451 
3 10452 10453 10454 
3 10455 10456 10457 
3 10458 10459 10460 
3 10461 10462 10463 
3 10464 10465 10466 
3 10467 10468 10469 
3 10470 10471 10472 
3 10473 10474 10475 
3 10476 10477 10478 
3 10479 10480 10481 
3 10482 10483 10484 
3 10485 10486 10487 
3 10488 10489 10490 
3 10491 10492 10493 
3 10494 10495 10496 
3 10497 10498 10499 
3 10500 10501 10502 
3 10503 10504 10505 
3 10506 10507 10508 
3 10509 10510 10511 
3 10512 10513 10514 
3 10515 10516 10517 
3 10518 10519 10520 
3 10521 10522 10523 
3 10524 10525 10526 
3 10527 10528 10529 
3 10530 10531 10532 
3 10533 10534 10535 
3 10536 10537 10538 
3 10539 10540 10541 
3 10542 10543 10544 
3 10545 10546 10547 
3 10548 10549 10550 
3 10551 10552 10553 
3 10554 10555 10556 
3 10557 10558 10559 
3 10560 10561 10562 
3 10563 10564 10565 
3 10566 10567 10568 
3 10569 10570 10571 
3 10572 10573 10574 
3 10575 10576 10577 
3 10578 10579 10580 
3 10581 10582 10583 
3 10584 10585 10586 
3 10587 10588 10589 
3 10590 10591 10592 
3 10593 10594 10595 
3 10596 10597 10598 
3 10599 10600 10601 
3 10602 10603 10604 
3 10605 10606 10607 
3 10608 10609 10610 
3 10611 10612 10613 
3 10614 10615 10616 
3 10617 10618 10619 
3 10620 10621 10622 
3 10623 10624 10625 
3 10626 10627 10628 
3 10629 10630 10631 
3 10632 10633 10634 
3 10635 10636 10637 
3 10638 10639 10640 
3 10641 10642 10643 
3 10644 10645 10646 
3 10647 10648 10649 
3 10650 10651 10652 
3 10653 10654 10655 
3 10656 10657 10658 
3 10659 10660 10661 
3 10662 10663 10664 
3 10665 10666 10667 
3 10668 10669 10670 
3 10671 10672 10673 
3 10674 10675 10676 
3 10677 10678 10679 
3 10680 10681 10682 
3 10683 10684 10685 
3 10686 10687 10688 
3 10689 10690 10691 
3 10692 10693 10694 
3 10695 10696 10697 
3 10698 10699 10700 
3 10701 10702 10703 
3 10704 10705 10706 
3 10707 10708 10709 
3 10710 10711 10712 
3 10713 10714 10715 
3 10716 10717 10718 
3 10719 10720 10721 
3 10722 10723 10724 
3 10725 10726 10727 
3 10728 10729 10730 
3 10731 10732 10733 
3 10734 10735 10736 
3 10737 10738 10739 
3 10740 10741 10742 
3 10743 10744 10745 
3 10746 10747 10748 
3 10749 10750 10751 
3 10752 10753 10754 
3 10755 10756 10757 
3 10758 10759 10760 
3 10761 10762 10763 
3 10764 10765 10766 
3 10767 10768 10769 
3 10770 10771 10772 
3 10773 10774 10775 
3 10776 10777 10778 
3 10779 10780 10781 
3 10782 10783 10784 
3 10785 10786 10787 
3 10788 10789 10790 
3 10791 10792 10793 
3 10794 10795 10796 
3 10797 10798 10799 
3 10800 10801 10802 
3 10803 10804 10805 
3 10806 10807 10808 
3 10809 10810 10811 
3 10812 10813 10814 
3 10815 10816 10817 
3 10818 10819 10820 
3 10821 10822 10823 
3 10824 10825 10826 
3 10827 10828 10829 
3 10830 10831 10832 
3 10833 10834 10835 
3 10836 10837 10838 
3 10839 10840 10841 
3 10842 10843 10844 
3 10845 10846 10847 
3 10848 10849 10850 
3 10851 10852 10853 
3 10854 10855 10856 
3 10857 10858 10859 
3 10860 10861 10862 
3 10863 10864 10865 
3 10866 10867 10868 
3 10869 10870 10871 
3 10872 10873 10874 
3 10875 10876 10877 
3 10878 10879 10880 
3 10881 10882 10883 
3 10884 10885 10886 
3 10887 10888 10889 
3 10890 10891 10892 
3 10893 10894 10895 
3 10896 10897 10898 
3 10899 10900 10901 
3 10902 10903 10904 
3 10905 10906 10907 
3 10908 10909 10910 
3 10911 10912 10913 
3 10914 10915 10916 
3 10917 10918 10919 
3 10920 10921 10922 
3 10923 10924 10925 
3 10926 10927 10928 
3 10929 10930 10931 
3 10932 10933 10934 
3 10935 10936 10937 
3 10938 10939 10940 
3 10941 10942 10943 
3 10944 10945 10946 
3 10947 10948 10949 
3 10950 10951 10952 
3 10953 10954 10955 
3 10956 10957 10958 
3 10959 10960 10961 
3 10962 10963 10964 
3 10965 10966 10967 
3 10968 10969 10970 
3 10971 10972 10973 
3 10974 10975 10976 
3 10977 10978 10979 
3 10980 10981 10982 
3 10983 10984 10985 
3 10986 10987 10988 
3 10989 10990 10991 
3 10992 10993 10994 
3 10995 10996 10997 
3 10998 10999 11000 
3 11001 11002 11003 
3 11004 11005 11006 
3 11007 11008 11009 
3 11010 11011 11012 
3 11013 11014 11015 
3 11016 11017 11018 
3 11019 11020 11021 
3 11022 11023 11024 
3 11025 11026 11027 
3 11028 11029 11030 
3 11031 11032 11033 
3 11034 11035 11036 
3 11037 11038 11039 
3 11040 11041 11042 
3 11043 11044 11045 
3 11046 11047 11048 
3 11049 11050 11051 
3 11052 11053 11054 
3 11055 11056 11057 
3 11058 11059 11060 
3 11061 11062 11063 
3 11064 11065 11066 
3 11067 11068 11069 
3 11070 11071 11072 
3 11073 11074 11075 
3 11076 11077 11078 
3 11079 11080 11081 
3 11082 11083 11084 
3 11085 11086 11087 
3 11088 11089 11090 
3 11091 11092 11093 
3 11094 11095 11096 
3 11097 11098 11099 
3 11100 11101 11102 
3 11103 11104 11105 
3 11106 11107 11108 
3 11109 11110 11111 
3 11112 11113 11114 
3 11115 11116 11117 
3 11118 11119 11120 
3 11121 11122 11123 
3 11124 11125 11126 
3 11127 11128 11129 
3 11130 11131 11132 
3 11133 11134 11135 
3 11136 11137 11138 
3 11139 11140 11141 
3 11142 11143 11144 
3 11145 11146 11147 
3 11148 11149 11150 
3 11151 11152 11153 
3 11154 11155 11156 
3 11157 11158 11159 
3 11160 11161 11162 
3 11163 11164 11165 
3 11166 11167 11168 
3 11169 11170 11171 
3 11172 11173 11174 
3 11175 11176 11177 
3 11178 11179 11180 
3 11181 11182 11183 
3 11184 11185 11186 
3 11187 11188 11189 
3 11190 11191 11192 
3 11193 11194 11195 
3 11196 11197 11198 
3 11199 11200 11201 
3 11202 11203 11204 
3 11205 11206 11207 
3 11208 11209 11210 
3 11211 11212 11213 
3 11214 11215 11216 
3 11217 11218 11219 
3 11220 11221 11222 
3 11223 11224 11225 
3 11226 11227 11228 
3 11229 11230 11231 
3 11232 11233 11234 
3 11235 11236 11237 
3 11238 11239 11240 
3 11241 11242 11243 
3 11244 11245 11246 
3 11247 11248 11249 
3 11250 11251 11252 
3 11253 11254 11255 
3 11256 11257 11258 
3 11259 11260 11261 
3 11262 11263 11264 
3 11265 11266 11267 
3 11268 11269 11270 
3 11271 11272 11273 
3 11274 11275 11276 
3 11277 11278 11279 
3 11280 11281 11282 
3 11283 11284 11285 
3 11286 11287 11288 
3 11289 11290 11291 
3 11292 11293 11294 
3 11295 11296 11297 
3 11298 11299 11300 
3 11301 11302 11303 
3 11304 11305 11306 
3 11307 11308 11309 
3 11310 11311 11312 
3 11313 11314 11315 
3 11316 11317 11318 
3 11319 11320 11321 
3 11322 11323 11324 
3 11325 11326 11327 
3 11328 11329 11330 
3 11331 11332 11333 
3 11334 11335 11336 
3 11337 11338 11339 
3 11340 11341 11342 
3 11343 11344 11345 
3 11346 11347 11348 
3 11349 11350 11351 
3 11352 11353 11354 
3 11355 11356 11357 
3 11358 11359 11360 
3 11361 11362 11363 
3 11364 11365 11366 
3 11367 11368 11369 
3 11370 11371 11372 
3 11373 11374 11375 
3 11376 11377 11378 
3 11379 11380 11381 
3 11382 11383 11384 
3 11385 11386 11387 
3 11388 11389 11390 
3 11391 11392 11393 
3 11394 11395 11396 
3 11397 11398 11399 
3 11400 11401 11402 
3 11403 11404 11405 
3 11406 11407 11408 
3 11409 11410 11411 
3 11412 11413 11414 
3 11415 11416 11417 
3 11418 11419 11420 
3 11421 11422 11423 
3 11424 11425 11426 
3 11427 11428 11429 
3 11430 11431 11432 
3 11433 11434 11435 
3 11436 11437 11438 
3 11439 11440 11441 
3 11442 11443 11444 
3 11445 11446 11447 
3 11448 11449 11450 
3 11451 11452 11453 
3 11454 11455 11456 
3 11457 11458 11459 
3 11460 11461 11462 
3 11463 11464 11465 
3 11466 11467 11468 
3 11469 11470 11471 
3 11472 11473 11474 
3 11475 11476 11477 
3 11478 11479 11480 
3 11481 11482 11483 
3 11484 11485 11486 
3 11487 11488 11489 
3 11490 11491 11492 
3 11493 11494 11495 
3 11496 11497 11498 
3 11499 11500 11501 
3 11502 11503 11504 
3 11505 11506 11507 
3 11508 11509 11510 
3 11511 11512 11513 
3 11514 11515 11516 
3 11517 11518 11519 
3 11520 11521 11522 
3 11523 11524 11525 
3 11526 11527 11528 
3 11529 11530 11531 
3 11532 11533 11534 
3 11535 11536 11537 
3 11538 11539 11540 
3 11541 11542 11543 
3 11544 11545 11546 
3 11547 11548 11549 
3 11550 11551 11552 
3 11553 11554 11555 
3 11556 11557 11558 
3 11559 11560 11561 
3 11562 11563 11564 
3 11565 11566 11567 
3 11568 11569 11570 
3 11571 11572 11573 
3 11574 11575 11576 
3 11577 11578 11579 
3 11580 11581 11582 
3 11583 11584 11585 
3 11586 11587 11588 
3 11589 11590 11591 
3 11592 11593 11594 
3 11595 11596 11597 
3 11598 11599 11600 
3 11601 11602 11603 
3 11604 11605 11606 
3 11607 11608 11609 
3 11610 11611 11612 
3 11613 11614 11615 
3 11616 11617 11618 
3 11619 11620 11621 
3 11622 11623 11624 
3 11625 11626 11627 
3 11628 11629 11630 
3 11631 11632 11633 
3 11634 11635 11636 
3 11637 11638 11639 
3 11640 11641 11642 
3 11643 11644 11645 
3 11646 11647 11648 
3 11649 11650 11651 
3 11652 11653 11654 
3 11655 11656 11657 
3 11658 11659 11660 
3 11661 11662 11663 
3 11664 11665 11666 
3 11667 11668 11669 
3 11670 11671 11672 
3 11673 11674 11675 
3 11676 11677 11678 
3 11679 11680 11681 
3 11682 11683 11684 
3 11685 11686 11687 
3 11688 11689 11690 
3 11691 11692 11693 
3 11694 11695 11696 
3 11697 11698 11699 
3 11700 11701 11702 
3 11703 11704 11705 
3 11706 11707 11708 
3 11709 11710 11711 
3 11712 11713 11714 
3 11715 11716 11717 
3 11718 11719 11720 
3 11721 11722 11723 
3 11724 11725 11726 
3 11727 11728 11729 
3 11730 11731 11732 
3 11733 11734 11735 
3 11736 11737 11738 
3 11739 11740 11741 
3 11742 11743 11744 
3 11745 11746 11747 
3 11748 11749 11750 
3 11751 11752 11753 
3 11754 11755 11756 
3 11757 11758 11759 
3 11760 11761 11762 
3 11763 11764 11765 
3 11766 11767 11768 
3 11769 11770 11771 
3 11772 11773 11774 
3 11775 11776 11777 
3 11778 11779 11780 
3 11781 11782 11783 
3 11784 11785 11786 
3 11787 11788 11789 
3 11790 11791 11792 
3 11793 11794 11795 
3 11796 11797 11798 
3 11799 11800 11801 
3 11802 11803 11804 
3 11805 11806 11807 
3 11808 11809 11810 
3 11811 11812 11813 
3 11814 11815 11816 
3 11817 11818 11819 
3 11820 11821 11822 
3 11823 11824 11825 
3 11826 11827 11828 
3 11829 11830 11831 
3 11832 11833 11834 
3 11835 11836 11837 
3 11838 11839 11840 
3 11841 11842 11843 
3 11844 11845 11846 
3 11847 11848 11849 
3 11850 11851 11852 
3 11853 11854 11855 
3 11856 11857 11858 
3 11859 11860 11861 
3 11862 11863 11864 
3 11865 11866 11867 
3 11868 11869 11870 
3 11871 11872 11873 
3 11874 11875 11876 
3 11877 11878 11879 
3 11880 11881 11882 
3 11883 11884 11885 
3 11886 11887 11888 
3 11889 11890 11891 
3 11892 11893 11894 
3 11895 11896 11897 
3 11898 11899 11900 
3 11901 11902 11903 
3 11904 11905 11906 
3 11907 11908 11909 
3 11910 11911 11912 
3 11913 11914 11915 
3 11916 11917 11918 
3 11919 11920 11921 
3 11922 11923 11924 
3 11925 11926 11927 
3 11928 11929 11930 
3 11931 11932 11933 
3 11934 11935 11936 
3 11937 11938 11939 
3 11940 11941 11942 
3 11943 11944 11945 
3 11946 11947 11948 
3 11949 11950 11951 
3 11952 11953 11954 
3 11955 11956 11957 
3 11958 11959 11960 
3 11961 11962 11963 
3 11964 11965 11966 
3 11967 11968 11969 
3 11970 11971 11972 
3 11973 11974 11975 
3 11976 11977 11978 
3 11979 11980 11981 
3 11982 11983 11984 
3 11985 11986 11987 
3 11988 11989 11990 
3 11991 11992 11993 
3 11994 11995 11996 
3 11997 11998 11999 
3 12000 12001 12002 
3 12003 12004 12005 
3 12006 12007 12008 
3 12009 12010 12011 
3 12012 12013 12014 
3 12015 12016 12017 
3 12018 12019 12020 
3 12021 12022 12023 
3 12024 12025 12026 
3 12027 12028 12029 
3 12030 12031 12032 
3 12033 12034 12035 
3 12036 12037 12038 
3 12039 12040 12041 
3 12042 12043 12044 
3 12045 12046 12047 
3 12048 12049 12050 
3 12051 12052 12053 
3 12054 12055 12056 
3 12057 12058 12059 
3 12060 12061 12062 
3 12063 12064 12065 
3 12066 12067 12068 
3 12069 12070 12071 
3 12072 12073 12074 
3 12075 12076 12077 
3 12078 12079 12080 
3 12081 12082 12083 
3 12084 12085 12086 
3 12087 12088 12089 
3 12090 12091 12092 
3 12093 12094 12095 
3 12096 12097 12098 
3 12099 12100 12101 
3 12102 12103 12104 
3 12105 12106 12107 
3 12108 12109 12110 
3 12111 12112 12113 
3 12114 12115 12116 
3 12117 12118 12119 
3 12120 12121 12122 
3 12123 12124 12125 
3 12126 12127 12128 
3 12129 12130 12131 
3 12132 12133 12134 
3 12135 12136 12137 
3 12138 12139 12140 
3 12141 12142 12143 
3 12144 12145 12146 
3 12147 12148 12149 
3 12150 12151 12152 
3 12153 12154 12155 
3 12156 12157 12158 
3 12159 12160 12161 
3 12162 12163 12164 
3 12165 12166 12167 
3 12168 12169 12170 
3 12171 12172 12173 
3 12174 12175 12176 
3 12177 12178 12179 
3 12180 12181 12182 
3 12183 12184 12185 
3 12186 12187 12188 
3 12189 12190 12191 
3 12192 12193 12194 
3 12195 12196 12197 
3 12198 12199 12200 
3 12201 12202 12203 
3 12204 12205 12206 
3 12207 12208 12209 
3 12210 12211 12212 
3 12213 12214 12215 
3 12216 12217 12218 
3 12219 12220 12221 
3 12222 12223 12224 
3 12225 12226 12227 
3 12228 12229 12230 
3 12231 12232 12233 
3 12234 12235 12236 
3 12237 12238 12239 
3 12240 12241 12242 
3 12243 12244 12245 
3 12246 12247 12248 
3 12249 12250 12251 
3 12252 12253 12254 
3 12255 12256 12257 
3 12258 12259 12260 
3 12261 12262 12263 
3 12264 12265 12266 
3 12267 12268 12269 
3 12270 12271 12272 
3 12273 12274 12275 
3 12276 12277 12278 
3 12279 12280 12281 
3 12282 12283 12284 
3 12285 12286 12287 
3 12288 12289 12290 
3 12291 12292 12293 
3 12294 12295 12296 
3 12297 12298 12299 
3 12300 12301 12302 
3 12303 12304 12305 
3 12306 12307 12308 
3 12309 12310 12311 
3 12312 12313 12314 
3 12315 12316 12317 
3 12318 12319 12320 
3 12321 12322 12323 
3 12324 12325 12326 
3 12327 12328 12329 
3 12330 12331 12332 
3 12333 12334 12335 
3 12336 12337 12338 
3 12339 12340 12341 
3 12342 12343 12344 
3 12345 12346 12347 
3 12348 12349 12350 
3 12351 12352 12353 
3 12354 12355 12356 
3 12357 12358 12359 
3 12360 12361 12362 
3 12363 12364 12365 
3 12366 12367 12368 
3 12369 12370 12371 
3 12372 12373 12374 
3 12375 12376 12377 
3 12378 12379 12380 
3 12381 12382 12383 
3 12384 12385 12386 
3 12387 12388 12389 
3 12390 12391 12392 
3 12393 12394 12395 
3 12396 12397 12398 
3 12399 12400 12401 
3 12402 12403 12404 
3 12405 12406 12407 
3 12408 12409 12410 
3 12411 12412 12413 
3 12414 12415 12416 
3 12417 12418 12419 
3 12420 12421 12422 
3 12423 12424 12425 
3 12426 12427 12428 
3 12429 12430 12431 
3 12432 12433 12434 
3 12435 12436 12437 
3 12438 12439 12440 
3 12441 12442 12443 
3 12444 12445 12446 
3 12447 12448 12449 
3 12450 12451 12452 
3 12453 12454 12455 
3 12456 12457 12458 
3 12459 12460 12461 
3 12462 12463 12464 
3 12465 12466 12467 
3 12468 12469 12470 
3 12471 12472 12473 
3 12474 12475 12476 
3 12477 12478 12479 
3 12480 12481 12482 
3 12483 12484 12485 
3 12486 12487 12488 
3 12489 12490 12491 
3 12492 12493 12494 
3 12495 12496 12497 
3 12498 12499 12500 
3 12501 12502 12503 
3 12504 12505 12506 
3 12507 12508 12509 
3 12510 12511 12512 
3 12513 12514 12515 
3 12516 12517 12518 
3 12519 12520 12521 
3 12522 12523 12524 
3 12525 12526 12527 
3 12528 12529 12530 
3 12531 12532 12533 
3 12534 12535 12536 
3 12537 12538 12539 
3 12540 12541 12542 
3 12543 12544 12545 
3 12546 12547 12548 
3 12549 12550 12551 
3 12552 12553 12554 
3 12555 12556 12557 
3 12558 12559 12560 
3 12561 12562 12563 
3 12564 12565 12566 
3 12567 12568 12569 
3 12570 12571 12572 
3 12573 12574 12575 
3 12576 12577 12578 
3 12579 12580 12581 
3 12582 12583 12584 
3 12585 12586 12587 
3 12588 12589 12590 
3 12591 12592 12593 
3 12594 12595 12596 
3 12597 12598 12599 
3 12600 12601 12602 
3 12603 12604 12605 
3 12606 12607 12608 
3 12609 12610 12611 
3 12612 12613 12614 
3 12615 12616 12617 
3 12618 12619 12620 
3 12621 12622 12623 
3 12624 12625 12626 
3 12627 12628 12629 
3 12630 12631 12632 
3 12633 12634 12635 
3 12636 12637 12638 
3 12639 12640 12641 
3 12642 12643 12644 
3 12645 12646 12647 
3 12648 12649 12650 
3 12651 12652 12653 
3 12654 12655 12656 
3 12657 12658 12659 
3 12660 12661 12662 
3 12663 12664 12665 
3 12666 12667 12668 
3 12669 12670 12671 
3 12672 12673 12674 
3 12675 12676 12677 
3 12678 12679 12680 
3 12681 12682 12683 
3 12684 12685 12686 
3 12687 12688 12689 
3 12690 12691 12692 
3 12693 12694 12695 
3 12696 12697 12698 
3 12699 12700 12701 
3 12702 12703 12704 
3 12705 12706 12707 
3 12708 12709 12710 
3 12711 12712 12713 
3 12714 12715 12716 
3 12717 12718 12719 
3 12720 12721 12722 
3 12723 12724 12725 
3 12726 12727 12728 
3 12729 12730 12731 
3 12732 12733 12734 
3 12735 12736 12737 
3 12738 12739 12740 
3 12741 12742 12743 
3 12744 12745 12746 
3 12747 12748 12749 
3 12750 12751 12752 
3 12753 12754 12755 
3 12756 12757 12758 
3 12759 12760 12761 
3 12762 12763 12764 
3 12765 12766 12767 
3 12768 12769 12770 
3 12771 12772 12773 
3 12774 12775 12776 
3 12777 12778 12779 
3 12780 12781 12782 
3 12783 12784 12785 
3 12786 12787 12788 
3 12789 12790 12791 
3 12792 12793 12794 
3 12795 12796 12797 
3 12798 12799 12800 
3 12801 12802 12803 
3 12804 12805 12806 
3 12807 12808 12809 
3 12810 12811 12812 
3 12813 12814 12815 
3 12816 12817 12818 
3 12819 12820 12821 
3 12822 12823 12824 
3 12825 12826 12827 
3 12828 12829 12830 
3 12831 12832 12833 
3 12834 12835 12836 
3 12837 12838 12839 
3 12840 12841 12842 
3 12843 12844 12845 
3 12846 12847 12848 
3 12849 12850 12851 
3 12852 12853 12854 
3 12855 12856 12857 
3 12858 12859 12860 
3 12861 12862 12863 
3 12864 12865 12866 
3 12867 12868 12869 
3 12870 12871 12872 
3 12873 12874 12875 
3 12876 12877 12878 
3 12879 12880 12881 
3 12882 12883 12884 
3 12885 12886 12887 
3 12888 12889 12890 
3 12891 12892 12893 
3 12894 12895 12896 
3 12897 12898 12899 
3 12900 12901 12902 
3 12903 12904 12905 
3 12906 12907 12908 
3 12909 12910 12911 
3 12912 12913 12914 
3 12915 12916 12917 
3 12918 12919 12920 
3 12921 12922 12923 
3 12924 12925 12926 
3 12927 12928 12929 
3 12930 12931 12932 
3 12933 12934 12935 
3 12936 12937 12938 
3 12939 12940 12941 
3 12942 12943 12944 
3 12945 12946 12947 
3 12948 12949 12950 
3 12951 12952 12953 
3 12954 12955 12956 
3 12957 12958 12959 
3 12960 12961 12962 
3 12963 12964 12965 
3 12966 12967 12968 
3 12969 12970 12971 
3 12972 12973 12974 
3 12975 12976 12977 
3 12978 12979 12980 
3 12981 12982 12983 
3 12984 12985 12986 
3 12987 12988 12989 
3 12990 12991 12992 
3 12993 12994 12995 
3 12996 12997 12998 
3 12999 13000 13001 
3 13002 13003 13004 
3 13005 13006 13007 
3 13008 13009 13010 
3 13011 13012 13013 
3 13014 13015 13016 
3 13017 13018 13019 
3 13020 13021 13022 
3 13023 13024 13025 
3 13026 13027 13028 
3 13029 13030 13031 
3 13032 13033 13034 
3 13035 13036 13037 
3 13038 13039 13040 
3 13041 13042 13043 
3 13044 13045 13046 
3 13047 13048 13049 
3 13050 13051 13052 
3 13053 13054 13055 
3 13056 13057 13058 
3 13059 13060 13061 
3 13062 13063 13064 
3 13065 13066 13067 
3 13068 13069 13070 
3 13071 13072 13073 
3 13074 13075 13076 
3 13077 13078 13079 
3 13080 13081 13082 
3 13083 13084 13085 
3 13086 13087 13088 
3 13089 13090 13091 
3 13092 13093 13094 
3 13095 13096 13097 
3 13098 13099 13100 
3 13101 13102 13103 
3 13104 13105 13106 
3 13107 13108 13109 
3 13110 13111 13112 
3 13113 13114 13115 
3 13116 13117 13118 
3 13119 13120 13121 
3 13122 13123 13124 
3 13125 13126 13127 
3 13128 13129 13130 
3 13131 13132 13133 
3 13134 13135 13136 
3 13137 13138 13139 
3 13140 13141 13142 
3 13143 13144 13145 
3 13146 13147 13148 
3 13149 13150 13151 
3 13152 13153 13154 
3 13155 13156 13157 
3 13158 13159 13160 
3 13161 13162 13163 
3 13164 13165 13166 
3 13167 13168 13169 
3 13170 13171 13172 
3 13173 13174 13175 
3 13176 13177 13178 
3 13179 13180 13181 
3 13182 13183 13184 
3 13185 13186 13187 
3 13188 13189 13190 
3 13191 13192 13193 
3 13194 13195 13196 
3 13197 13198 13199 
3 13200 13201 13202 
3 13203 13204 13205 
3 13206 13207 13208 
3 13209 13210 13211 
3 13212 13213 13214 
3 13215 13216 13217 
3 13218 13219 13220 
3 13221 13222 13223 
3 13224 13225 13226 
3 13227 13228 13229 
3 13230 13231 13232 
3 13233 13234 13235 
3 13236 13237 13238 
3 13239 13240 13241 
3 13242 13243 13244 
3 13245 13246 13247 
3 13248 13249 13250 
3 13251 13252 13253 
3 13254 13255 13256 
3 13257 13258 13259 
3 13260 13261 13262 
3 13263 13264 13265 
3 13266 13267 13268 
3 13269 13270 13271 
3 13272 13273 13274 
3 13275 13276 13277 
3 13278 13279 13280 
3 13281 13282 13283 
3 13284 13285 13286 
3 13287 13288 13289 
3 13290 13291 13292 
3 13293 13294 13295 
3 13296 13297 13298 
3 13299 13300 13301 
3 13302 13303 13304 
3 13305 13306 13307 
3 13308 13309 13310 
3 13311 13312 13313 
3 13314 13315 13316 
3 13317 13318 13319 
3 13320 13321 13322 
3 13323 13324 13325 
3 13326 13327 13328 
3 13329 13330 13331 
3 13332 13333 13334 
3 13335 13336 13337 
3 13338 13339 13340 
3 13341 13342 13343 
3 13344 13345 13346 
3 13347 13348 13349 
3 13350 13351 13352 
3 13353 13354 13355 
3 13356 13357 13358 
3 13359 13360 13361 
3 13362 13363 13364 
3 13365 13366 13367 
3 13368 13369 13370 
3 13371 13372 13373 
3 13374 13375 13376 
3 13377 13378 13379 
3 13380 13381 13382 
3 13383 13384 13385 
3 13386 13387 13388 
3 13389 13390 13391 
3 13392 13393 13394 
3 13395 13396 13397 
3 13398 13399 13400 
3 13401 13402 13403 
3 13404 13405 13406 
3 13407 13408 13409 
3 13410 13411 13412 
3 13413 13414 13415 
3 13416 13417 13418 
3 13419 13420 13421 
3 13422 13423 13424 
3 13425 13426 13427 
3 13428 13429 13430 
3 13431 13432 13433 
3 13434 13435 13436 
3 13437 13438 13439 
3 13440 13441 13442 
3 13443 13444 13445 
3 13446 13447 13448 
3 13449 13450 13451 
3 13452 13453 13454 
3 13455 13456 13457 
3 13458 13459 13460 
3 13461 13462 13463 
3 13464 13465 13466 
3 13467 13468 13469 
3 13470 13471 13472 
3 13473 13474 13475 
3 13476 13477 13478 
3 13479 13480 13481 
3 13482 13483 13484 
3 13485 13486 13487 
3 13488 13489 13490 
3 13491 13492 13493 
3 13494 13495 13496 
3 13497 13498 13499 
3 13500 13501 13502 
3 13503 13504 13505 
3 13506 13507 13508 
3 13509 13510 13511 
3 13512 13513 13514 
3 13515 13516 13517 
3 13518 13519 13520 
3 13521 13522 13523 
3 13524 13525 13526 
3 13527 13528 13529 
3 13530 13531 13532 
3 13533 13534 13535 
3 13536 13537 13538 
3 13539 13540 13541 
3 13542 13543 13544 
3 13545 13546 13547 
3 13548 13549 13550 
3 13551 13552 13553 
3 13554 13555 13556 
3 13557 13558 13559 
3 13560 13561 13562 
3 13563 13564 13565 
3 13566 13567 13568 
3 13569 13570 13571 
3 13572 13573 13574 
3 13575 13576 13577 
3 13578 13579 13580 
3 13581 13582 13583 
3 13584 13585 13586 
3 13587 13588 13589 
3 13590 13591 13592 
3 13593 13594 13595 
3 13596 13597 13598 
3 13599 13600 13601 
3 13602 13603 13604 
3 13605 13606 13607 
3 13608 13609 13610 
3 13611 13612 13613 
3 13614 13615 13616 
3 13617 13618 13619 
3 13620 13621 13622 
3 13623 13624 13625 
3 13626 13627 13628 
3 13629 13630 13631 
3 13632 13633 13634 
3 13635 13636 13637 
3 13638 13639 13640 
3 13641 13642 13643 
3 13644 13645 13646 
3 13647 13648 13649 
3 13650 13651 13652 
3 13653 13654 13655 
3 13656 13657 13658 
3 13659 13660 13661 
3 13662 13663 13664 
3 13665 13666 13667 
3 13668 13669 13670 
3 13671 13672 13673 
3 13674 13675 13676 
3 13677 13678 13679 
3 13680 13681 13682 
3 13683 13684 13685 
3 13686 13687 13688 
3 13689 13690 13691 
3 13692 13693 13694 
3 13695 13696 13697 
3 13698 13699 13700 
3 13701 13702 13703 
3 13704 13705 13706 
3 13707 13708 13709 
3 13710 13711 13712 
3 13713 13714 13715 
3 13716 13717 13718 
3 13719 13720 13721 
3 13722 13723 13724 
3 13725 13726 13727 
3 13728 13729 13730 
3 13731 13732 13733 
3 13734 13735 13736 
3 13737 13738 13739 
3 13740 13741 13742 
3 13743 13744 13745 
3 13746 13747 13748 
3 13749 13750 13751 
3 13752 13753 13754 
3 13755 13756 13757 
3 13758 13759 13760 
3 13761 13762 13763 
3 13764 13765 13766 
3 13767 13768 13769 
3 13770 13771 13772 
3 13773 13774 13775 
3 13776 13777 13778 
3 13779 13780 13781 
3 13782 13783 13784 
3 13785 13786 13787 
3 13788 13789 13790 
3 13791 13792 13793 
3 13794 13795 13796 
3 13797 13798 13799 
3 13800 13801 13802 
3 13803 13804 13805 
3 13806 13807 13808 
3 13809 13810 13811 
3 13812 13813 13814 
3 13815 13816 13817 
3 13818 13819 13820 
3 13821 13822 13823 
3 13824 13825 13826 
3 13827 13828 13829 
3 13830 13831 13832 
3 13833 13834 13835 
3 13836 13837 13838 
3 13839 13840 13841 
3 13842 13843 13844 
3 13845 13846 13847 
3 13848 13849 13850 
3 13851 13852 13853 
3 13854 13855 13856 
3 13857 13858 13859 
3 13860 13861 13862 
3 13863 13864 13865 
3 13866 13867 13868 
3 13869 13870 13871 
3 13872 13873 13874 
3 13875 13876 13877 
3 13878 13879 13880 
3 13881 13882 13883 
3 13884 13885 13886 
3 13887 13888 13889 
3 13890 13891 13892 
3 13893 13894 13895 
3 13896 13897 13898 
3 13899 13900 13901 
3 13902 13903 13904 
3 13905 13906 13907 
3 13908 13909 13910 
3 13911 13912 13913 
3 13914 13915 13916 
3 13917 13918 13919 
3 13920 13921 13922 
3 13923 13924 13925 
3 13926 13927 13928 
3 13929 13930 13931 
3 13932 13933 13934 
3 13935 13936 13937 
3 13938 13939 13940 
3 13941 13942 13943 
3 13944 13945 13946 
3 13947 13948 13949 
3 13950 13951 13952 
3 13953 13954 13955 
3 13956 13957 13958 
3 13959 13960 13961 
3 13962 13963 13964 
3 13965 13966 13967 
3 13968 13969 13970 
3 13971 13972 13973 
3 13974 13975 13976 
3 13977 13978 13979 
3 13980 13981 13982 
3 13983 13984 13985 
3 13986 13987 13988 
3 13989 13990 13991 
3 13992 13993 13994 
3 13995 13996 13997 
3 13998 13999 14000 
3 14001 14002 14003 
3 14004 14005 14006 
3 14007 14008 14009 
3 14010 14011 14012 
3 14013 14014 14015 
3 14016 14017 14018 
3 14019 14020 14021 
3 14022 14023 14024 
3 14025 14026 14027 
3 14028 14029 14030 
3 14031 14032 14033 
3 14034 14035 14036 
3 14037 14038 14039 
3 14040 14041 14042 
3 14043 14044 14045 
3 14046 14047 14048 
3 14049 14050 14051 
3 14052 14053 14054 
3 14055 14056 14057 
3 14058 14059 14060 
3 14061 14062 14063 
3 14064 14065 14066 
3 14067 14068 14069 
3 14070 14071 14072 
3 14073 14074 14075 
3 14076 14077 14078 
3 14079 14080 14081 
3 14082 14083 14084 
3 14085 14086 14087 
3 14088 14089 14090 
3 14091 14092 14093 
3 14094 14095 14096 
3 14097 14098 14099 
3 14100 14101 14102 
3 14103 14104 14105 
3 14106 14107 14108 
3 14109 14110 14111 
3 14112 14113 14114 
3 14115 14116 14117 
3 14118 14119 14120 
3 14121 14122 14123 
3 14124 14125 14126 
3 14127 14128 14129 
3 14130 14131 14132 
3 14133 14134 14135 
3 14136 14137 14138 
3 14139 14140 14141 
3 14142 14143 14144 
3 14145 14146 14147 
3 14148 14149 14150 
3 14151 14152 14153 
3 14154 14155 14156 
3 14157 14158 14159 
3 14160 14161 14162 
3 14163 14164 14165 
3 14166 14167 14168 
3 14169 14170 14171 
3 14172 14173 14174 
3 14175 14176 14177 
3 14178 14179 14180 
3 14181 14182 14183 
3 14184 14185 14186 
3 14187 14188 14189 
3 14190 14191 14192 
3 14193 14194 14195 
3 14196 14197 14198 
3 14199 14200 14201 
3 14202 14203 14204 
3 14205 14206 14207 
3 14208 14209 14210 
3 14211 14212 14213 
3 14214 14215 14216 
3 14217 14218 14219 
3 14220 14221 14222 
3 14223 14224 14225 
3 14226 14227 14228 
3 14229 14230 14231 
3 14232 14233 14234 
3 14235 14236 14237 
3 14238 14239 14240 
3 14241 14242 14243 
3 14244 14245 14246 
3 14247 14248 14249 
3 14250 14251 14252 
3 14253 14254 14255 
3 14256 14257 14258 
3 14259 14260 14261 
3 14262 14263 14264 
3 14265 14266 14267 
3 14268 14269 14270 
3 14271 14272 14273 
3 14274 14275 14276 
3 14277 14278 14279 
3 14280 14281 14282 
3 14283 14284 14285 
3 14286 14287 14288 
3 14289 14290 14291 
3 14292 14293 14294 
3 14295 14296 14297 
3 14298 14299 14300 
3 14301 14302 14303 
3 14304 14305 14306 
3 14307 14308 14309 
3 14310 14311 14312 
3 14313 14314 14315 
3 14316 14317 14318 
3 14319 14320 14321 
3 14322 14323 14324 
3 14325 14326 14327 
3 14328 14329 14330 
3 14331 14332 14333 
3 14334 14335 14336 
3 14337 14338 14339 
3 14340 14341 14342 
3 14343 14344 14345 
3 14346 14347 14348 
3 14349 14350 14351 
3 14352 14353 14354 
3 14355 14356 14357 
3 14358 14359 14360 
3 14361 14362 14363 
3 14364 14365 14366 
3 14367 14368 14369 
3 14370 14371 14372 
3 14373 14374 14375 
3 14376 14377 14378 
3 14379 14380 14381 
3 14382 14383 14384 
3 14385 14386 14387 
3 14388 14389 14390 
3 14391 14392 14393 
3 14394 14395 14396 
3 14397 14398 14399 
3 14400 14401 14402 
3 14403 14404 14405 
3 14406 14407 14408 
3 14409 14410 14411 
3 14412 14413 14414 
3 14415 14416 14417 
3 14418 14419 14420 
3 14421 14422 14423 
3 14424 14425 14426 
3 14427 14428 14429 
3 14430 14431 14432 
3 14433 14434 14435 
3 14436 14437 14438 
3 14439 14440 14441 
3 14442 14443 14444 
3 14445 14446 14447 
3 14448 14449 14450 
3 14451 14452 14453 
3 14454 14455 14456 
3 14457 14458 14459 
3 14460 14461 14462 
3 14463 14464 14465 
3 14466 14467 14468 
3 14469 14470 14471 
3 14472 14473 14474 
3 14475 14476 14477 
3 14478 14479 14480 
3 14481 14482 14483 
3 14484 14485 14486 
3 14487 14488 14489 
3 14490 14491 14492 
3 14493 14494 14495 
3 14496 14497 14498 
3 14499 14500 14501 
3 14502 14503 14504 
3 14505 14506 14507 
3 14508 14509 14510 
3 14511 14512 14513 
3 14514 14515 14516 
3 14517 14518 14519 
3 14520 14521 14522 
3 14523 14524 14525 
3 14526 14527 14528 
3 14529 14530 14531 
3 14532 14533 14534 
3 14535 14536 14537 
3 14538 14539 14540 
3 14541 14542 14543 
3 14544 14545 14546 
3 14547 14548 14549 
3 14550 14551 14552 
3 14553 14554 14555 
3 14556 14557 14558 
3 14559 14560 14561 
3 14562 14563 14564 
3 14565 14566 14567 
3 14568 14569 14570 
3 14571 14572 14573 
3 14574 14575 14576 
3 14577 14578 14579 
3 14580 14581 14582 
3 14583 14584 14585 
3 14586 14587 14588 
3 14589 14590 14591 
3 14592 14593 14594 
3 14595 14596 14597 
3 14598 14599 14600 
3 14601 14602 14603 
3 14604 14605 14606 
3 14607 14608 14609 
3 14610 14611 14612 
3 14613 14614 14615 
3 14616 14617 14618 
3 14619 14620 14621 
3 14622 14623 14624 
3 14625 14626 14627 
3 14628 14629 14630 
3 14631 14632 14633 
3 14634 14635 14636 
3 14637 14638 14639 
3 14640 14641 14642 
3 14643 14644 14645 
3 14646 14647 14648 
3 14649 14650 14651 
3 14652 14653 14654 
3 14655 14656 14657 
3 14658 14659 14660 
3 14661 14662 14663 
3 14664 14665 14666 
3 14667 14668 14669 
3 14670 14671 14672 
3 14673 14674 14675 
3 14676 14677 14678 
3 14679 14680 14681 
3 14682 14683 14684 
3 14685 14686 14687 
3 14688 14689 14690 
3 14691 14692 14693 
3 14694 14695 14696 
3 14697 14698 14699 
3 14700 14701 14702 
3 14703 14704 14705 
3 14706 14707 14708 
3 14709 14710 14711 
3 14712 14713 14714 
3 14715 14716 14717 
3 14718 14719 14720 
3 14721 14722 14723 
3 14724 14725 14726 
3 14727 14728 14729 
3 14730 14731 14732 
3 14733 14734 14735 
3 14736 14737 14738 
3 14739 14740 14741 
3 14742 14743 14744 
3 14745 14746 14747 
3 14748 14749 14750 
3 14751 14752 14753 
3 14754 14755 14756 
3 14757 14758 14759 
3 14760 14761 14762 
3 14763 14764 14765 
3 14766 14767 14768 
3 14769 14770 14771 
3 14772 14773 14774 
3 14775 14776 14777 
3 14778 14779 14780 
3 14781 14782 14783 
3 14784 14785 14786 
3 14787 14788 14789 
3 14790 14791 14792 
3 14793 14794 14795 
3 14796 14797 14798 
3 14799 14800 14801 
3 14802 14803 14804 
3 14805 14806 14807 
3 14808 14809 14810 
3 14811 14812 14813 
3 14814 14815 14816 
3 14817 14818 14819 
3 14820 14821 14822 
3 14823 14824 14825 
3 14826 14827 14828 
3 14829 14830 14831 
3 14832 14833 14834 
3 14835 14836 14837 
3 14838 14839 14840 
3 14841 14842 14843 
3 14844 14845 14846 
3 14847 14848 14849 
3 14850 14851 14852 
3 14853 14854 14855 
3 14856 14857 14858 
3 14859 14860 14861 
3 14862 14863 14864 
3 14865 14866 14867 
3 14868 14869 14870 
3 14871 14872 14873 
3 14874 14875 14876 
3 14877 14878 14879 
3 14880 14881 14882 
3 14883 14884 14885 
3 14886 14887 14888 
3 14889 14890 14891 
3 14892 14893 14894 
3 14895 14896 14897 
3 14898 14899 14900 
3 14901 14902 14903 
3 14904 14905 14906 
3 14907 14908 14909 
3 14910 14911 14912 
3 14913 14914 14915 
3 14916 14917 14918 
3 14919 14920 14921 
3 14922 14923 14924 
3 14925 14926 14927 
3 14928 14929 14930 
3 14931 14932 14933 
3 14934 14935 14936 
3 14937 14938 14939 
3 14940 14941 14942 
3 14943 14944 14945 
3 14946 14947 14948 
3 14949 14950 14951 
3 14952 14953 14954 
3 14955 14956 14957 
3 14958 14959 14960 
3 14961 14962 14963 
3 14964 14965 14966 
3 14967 14968 14969 
3 14970 14971 14972 
3 14973 14974 14975 
3 14976 14977 14978 
3 14979 14980 14981 
3 14982 14983 14984 
3 14985 14986 14987 
3 14988 14989 14990 
3 14991 14992 14993 
3 14994 14995 14996 
3 14997 14998 14999 
3 15000 15001 15002 
3 15003 15004 15005 
3 15006 15007 15008 
3 15009 15010 15011 
3 15012 15013 15014 
3 15015 15016 15017 
3 15018 15019 15020 
3 15021 15022 15023 
3 15024 15025 15026 
3 15027 15028 15029 
3 15030 15031 15032 
3 15033 15034 15035 
3 15036 15037 15038 
3 15039 15040 15041 
3 15042 15043 15044 
3 15045 15046 15047 
3 15048 15049 15050 
3 15051 15052 15053 
3 15054 15055 15056 
3 15057 15058 15059 
3 15060 15061 15062 
3 15063 15064 15065 
3 15066 15067 15068 
3 15069 15070 15071 
3 15072 15073 15074 
3 15075 15076 15077 
3 15078 15079 15080 
3 15081 15082 15083 
3 15084 15085 15086 
3 15087 15088 15089 
3 15090 15091 15092 
3 15093 15094 15095 
3 15096 15097 15098 
3 15099 15100 15101 
3 15102 15103 15104 
3 15105 15106 15107 
3 15108 15109 15110 
3 15111 15112 15113 
3 15114 15115 15116 
3 15117 15118 15119 
3 15120 15121 15122 
3 15123 15124 15125 
3 15126 15127 15128 
3 15129 15130 15131 
3 15132 15133 15134 
3 15135 15136 15137 
3 15138 15139 15140 
3 15141 15142 15143 
3 15144 15145 15146 
3 15147 15148 15149 
3 15150 15151 15152 
3 15153 15154 15155 
3 15156 15157 15158 
3 15159 15160 15161 
3 15162 15163 15164 
3 15165 15166 15167 
3 15168 15169 15170 
3 15171 15172 15173 
3 15174 15175 15176 
3 15177 15178 15179 
3 15180 15181 15182 
3 15183 15184 15185 
3 15186 15187 15188 
3 15189 15190 15191 
3 15192 15193 15194 
3 15195 15196 15197 
3 15198 15199 15200 
3 15201 15202 15203 
3 15204 15205 15206 
3 15207 15208 15209 
3 15210 15211 15212 
3 15213 15214 15215 
3 15216 15217 15218 
3 15219 15220 15221 
3 15222 15223 15224 
3 15225 15226 15227 
3 15228 15229 15230 
3 15231 15232 15233 
3 15234 15235 15236 
3 15237 15238 15239 
3 15240 15241 15242 
3 15243 15244 15245 
3 15246 15247 15248 
3 15249 15250 15251 
3 15252 15253 15254 
3 15255 15256 15257 
3 15258 15259 15260 
3 15261 15262 15263 
3 15264 15265 15266 
3 15267 15268 15269 
3 15270 15271 15272 
3 15273 15274 15275 
3 15276 15277 15278 
3 15279 15280 15281 
3 15282 15283 15284 
3 15285 15286 15287 
3 15288 15289 15290 
3 15291 15292 15293 
3 15294 15295 15296 
3 15297 15298 15299 
3 15300 15301 15302 
3 15303 15304 15305 
3 15306 15307 15308 
3 15309 15310 15311 
3 15312 15313 15314 
3 15315 15316 15317 
3 15318 15319 15320 
3 15321 15322 15323 
3 15324 15325 15326 
3 15327 15328 15329 
3 15330 15331 15332 
3 15333 15334 15335 
3 15336 15337 15338 
3 15339 15340 15341 
3 15342 15343 15344 
3 15345 15346 15347 
3 15348 15349 15350 
3 15351 15352 15353 
3 15354 15355 15356 
3 15357 15358 15359 
3 15360 15361 15362 
3 15363 15364 15365 
3 15366 15367 15368 
3 15369 15370 15371 
3 15372 15373 15374 
3 15375 15376 15377 
3 15378 15379 15380 
3 15381 15382 15383 
3 15384 15385 15386 
3 15387 15388 15389 
3 15390 15391 15392 
3 15393 15394 15395 
3 15396 15397 15398 
3 15399 15400 15401 
3 15402 15403 15404 
3 15405 15406 15407 
3 15408 15409 15410 
3 15411 15412 15413 
3 15414 15415 15416 
3 15417 15418 15419 
3 15420 15421 15422 
3 15423 15424 15425 
3 15426 15427 15428 
3 15429 15430 15431 
3 15432 15433 15434 
3 15435 15436 15437 
3 15438 15439 15440 
3 15441 15442 15443 
3 15444 15445 15446 
3 15447 15448 15449 
3 15450 15451 15452 
3 15453 15454 15455 
3 15456 15457 15458 
3 15459 15460 15461 
3 15462 15463 15464 
3 15465 15466 15467 
3 15468 15469 15470 
3 15471 15472 15473 
3 15474 15475 15476 
3 15477 15478 15479 
3 15480 15481 15482 
3 15483 15484 15485 
3 15486 15487 15488 
3 15489 15490 15491 
3 15492 15493 15494 
3 15495 15496 15497 
3 15498 15499 15500 
3 15501 15502 15503 
3 15504 15505 15506 
3 15507 15508 15509 
3 15510 15511 15512 
3 15513 15514 15515 
3 15516 15517 15518 
3 15519 15520 15521 
3 15522 15523 15524 
3 15525 15526 15527 
3 15528 15529 15530 
3 15531 15532 15533 
3 15534 15535 15536 
3 15537 15538 15539 
3 15540 15541 15542 
3 15543 15544 15545 
3 15546 15547 15548 
3 15549 15550 15551 
3 15552 15553 15554 
3 15555 15556 15557 
3 15558 15559 15560 
3 15561 15562 15563 
3 15564 15565 15566 
3 15567 15568 15569 
3 15570 15571 15572 
3 15573 15574 15575 
3 15576 15577 15578 
3 15579 15580 15581 
3 15582 15583 15584 
3 15585 15586 15587 
3 15588 15589 15590 
3 15591 15592 15593 
3 15594 15595 15596 
3 15597 15598 15599 
3 15600 15601 15602 
3 15603 15604 15605 
3 15606 15607 15608 
3 15609 15610 15611 
3 15612 15613 15614 
3 15615 15616 15617 
3 15618 15619 15620 
3 15621 15622 15623 
3 15624 15625 15626 
3 15627 15628 15629 
3 15630 15631 15632 
3 15633 15634 15635 
3 15636 15637 15638 
3 15639 15640 15641 
3 15642 15643 15644 
3 15645 15646 15647 
3 15648 15649 15650 
3 15651 15652 15653 
3 15654 15655 15656 
3 15657 15658 15659 
3 15660 15661 15662 
3 15663 15664 15665 
3 15666 15667 15668 
3 15669 15670 15671 
3 15672 15673 15674 
3 15675 15676 15677 
3 15678 15679 15680 
3 15681 15682 15683 
3 15684 15685 15686 
3 15687 15688 15689 
3 15690 15691 15692 
3 15693 15694 15695 
3 15696 15697 15698 
3 15699 15700 15701 
3 15702 15703 15704 
3 15705 15706 15707 
3 15708 15709 15710 
3 15711 15712 15713 
3 15714 15715 15716 
3 15717 15718 15719 
3 15720 15721 15722 
3 15723 15724 15725 
3 15726 15727 15728 
3 15729 15730 15731 
3 15732 15733 15734 
3 15735 15736 15737 
3 15738 15739 15740 
3 15741 15742 15743 
3 15744 15745 15746 
3 15747 15748 15749 
3 15750 15751 15752 
3 15753 15754 15755 
3 15756 15757 15758 
3 15759 15760 15761 
3 15762 15763 15764 
3 15765 15766 15767 
3 15768 15769 15770 
3 15771 15772 15773 
3 15774 15775 15776 
3 15777 15778 15779 
3 15780 15781 15782 
3 15783 15784 15785 
3 15786 15787 15788 
3 15789 15790 15791 
3 15792 15793 15794 
3 15795 15796 15797 
3 15798 15799 15800 
3 15801 15802 15803 
3 15804 15805 15806 
3 15807 15808 15809 
3 15810 15811 15812 
3 15813 15814 15815 
3 15816 15817 15818 
3 15819 15820 15821 
3 15822 15823 15824 
3 15825 15826 15827 
3 15828 15829 15830 
3 15831 15832 15833 
3 15834 15835 15836 
3 15837 15838 15839 
3 15840 15841 15842 
3 15843 15844 15845 
3 15846 15847 15848 
3 15849 15850 15851 
3 15852 15853 15854 
3 15855 15856 15857 
3 15858 15859 15860 
3 15861 15862 15863 
3 15864 15865 15866 
3 15867 15868 15869 
3 15870 15871 15872 
3 15873 15874 15875 
3 15876 15877 15878 
3 15879 15880 15881 
3 15882 15883 15884 
3 15885 15886 15887 
3 15888 15889 15890 
3 15891 15892 15893 
3 15894 15895 15896 
3 15897 15898 15899 
3 15900 15901 15902 
3 15903 15904 15905 
3 15906 15907 15908 
3 15909 15910 15911 
3 15912 15913 15914 
3 15915 15916 15917 
3 15918 15919 15920 
3 15921 15922 15923 
3 15924 15925 15926 
3 15927 15928 15929 
3 15930 15931 15932 
3 15933 15934 15935 
3 15936 15937 15938 
3 15939 15940 15941 
3 15942 15943 15944 
3 15945 15946 15947 
3 15948 15949 15950 
3 15951 15952 15953 
3 15954 15955 15956 
3 15957 15958 15959 
3 15960 15961 15962 
3 15963 15964 15965 
3 15966 15967 15968 
3 15969 15970 15971 
3 15972 15973 15974 
3 15975 15976 15977 
3 15978 15979 15980 
3 15981 15982 15983 
3 15984 15985 15986 
3 15987 15988 15989 
3 15990 15991 15992 
3 15993 15994 15995 
3 15996 15997 15998 
3 15999 16000 16001 
3 16002 16003 16004 
3 16005 16006 16007 
3 16008 16009 16010 
3 16011 16012 16013 
3 16014 16015 16016 
3 16017 16018 16019 
3 16020 16021 16022 
3 16023 16024 16025 
3 16026 16027 16028 
3 16029 16030 16031 
3 16032 16033 16034 
3 16035 16036 16037 
3 16038 16039 16040 
3 16041 16042 16043 
3 16044 16045 16046 
3 16047 16048 16049 
3 16050 16051 16052 
3 16053 16054 16055 
3 16056 16057 16058 
3 16059 16060 16061 
3 16062 16063 16064 
3 16065 16066 16067 
3 16068 16069 16070 
3 16071 16072 16073 
3 16074 16075 16076 
3 16077 16078 16079 
3 16080 16081 16082 
3 16083 16084 16085 
3 16086 16087 16088 
3 16089 16090 16091 
3 16092 16093 16094 
3 16095 16096 16097 
3 16098 16099 16100 
3 16101 16102 16103 
3 16104 16105 16106 
3 16107 16108 16109 
3 16110 16111 16112 
3 16113 16114 16115 
3 16116 16117 16118 
3 16119 16120 16121 
3 16122 16123 16124 
3 16125 16126 16127 
3 16128 16129 16130 
3 16131 16132 16133 
3 16134 16135 16136 
3 16137 16138 16139 
3 16140 16141 16142 
3 16143 16144 16145 
3 16146 16147 16148 
3 16149 16150 16151 
3 16152 16153 16154 
3 16155 16156 16157 
3 16158 16159 16160 
3 16161 16162 16163 
3 16164 16165 16166 
3 16167 16168 16169 
3 16170 16171 16172 
3 16173 16174 16175 
3 16176 16177 16178 
3 16179 16180 16181 
3 16182 16183 16184 
3 16185 16186 16187 
3 16188 16189 16190 
3 16191 16192 16193 
3 16194 16195 16196 
3 16197 16198 16199 
3 16200 16201 16202 
3 16203 16204 16205 
3 16206 16207 16208 
3 16209 16210 16211 
3 16212 16213 16214 
3 16215 16216 16217 
3 16218 16219 16220 
3 16221 16222 16223 
3 16224 16225 16226 
3 16227 16228 16229 
3 16230 16231 16232 
3 16233 16234 16235 
3 16236 16237 16238 
3 16239 16240 16241 
3 16242 16243 16244 
3 16245 16246 16247 
3 16248 16249 16250 
3 16251 16252 16253 
3 16254 16255 16256 
3 16257 16258 16259 
3 16260 16261 16262 
3 16263 16264 16265 
3 16266 16267 16268 
3 16269 16270 16271 
3 16272 16273 16274 
3 16275 16276 16277 
3 16278 16279 16280 
3 16281 16282 16283 
3 16284 16285 16286 
3 16287 16288 16289 
3 16290 16291 16292 
3 16293 16294 16295 
3 16296 16297 16298 
3 16299 16300 16301 
3 16302 16303 16304 
3 16305 16306 16307 
3 16308 16309 16310 
3 16311 16312 16313 
3 16314 16315 16316 
3 16317 16318 16319 
3 16320 16321 16322 
3 16323 16324 16325 
3 16326 16327 16328 
3 16329 16330 16331 
3 16332 16333 16334 
3 16335 16336 16337 
3 16338 16339 16340 
3 16341 16342 16343 
3 16344 16345 16346 
3 16347 16348 16349 
3 16350 16351 16352 
3 16353 16354 16355 
3 16356 16357 16358 
3 16359 16360 16361 
3 16362 16363 16364 
3 16365 16366 16367 
3 16368 16369 16370 
3 16371 16372 16373 
3 16374 16375 16376 
3 16377 16378 16379 
3 16380 16381 16382 
3 16383 16384 16385 
3 16386 16387 16388 
3 16389 16390 16391 
3 16392 16393 16394 
3 16395 16396 16397 
3 16398 16399 16400 
3 16401 16402 16403 
3 16404 16405 16406 
3 16407 16408 16409 
3 16410 16411 16412 
3 16413 16414 16415 
3 16416 16417 16418 
3 16419 16420 16421 
3 16422 16423 16424 
3 16425 16426 16427 
3 16428 16429 16430 
3 16431 16432 16433 
3 16434 16435 16436 
3 16437 16438 16439 
3 16440 16441 16442 
3 16443 16444 16445 
3 16446 16447 16448 
3 16449 16450 16451 
3 16452 16453 16454 
3 16455 16456 16457 
3 16458 16459 16460 
3 16461 16462 16463 
3 16464 16465 16466 
3 16467 16468 16469 
3 16470 16471 16472 
3 16473 16474 16475 
3 16476 16477 16478 
3 16479 16480 16481 
3 16482 16483 16484 
3 16485 16486 16487 
3 16488 16489 16490 
3 16491 16492 16493 
3 16494 16495 16496 
3 16497 16498 16499 
3 16500 16501 16502 
3 16503 16504 16505 
3 16506 16507 16508 
3 16509 16510 16511 
3 16512 16513 16514 
3 16515 16516 16517 
3 16518 16519 16520 
3 16521 16522 16523 
3 16524 16525 16526 
3 16527 16528 16529 
3 16530 16531 16532 
3 16533 16534 16535 
3 16536 16537 16538 
3 16539 16540 16541 
3 16542 16543 16544 
3 16545 16546 16547 
3 16548 16549 16550 
3 16551 16552 16553 
3 16554 16555 16556 
3 16557 16558 16559 
3 16560 16561 16562 
3 16563 16564 16565 
3 16566 16567 16568 
3 16569 16570 16571 
3 16572 16573 16574 
3 16575 16576 16577 
3 16578 16579 16580 
3 16581 16582 16583 
3 16584 16585 16586 
3 16587 16588 16589 
3 16590 16591 16592 
3 16593 16594 16595 
3 16596 16597 16598 
3 16599 16600 16601 
3 16602 16603 16604 
3 16605 16606 16607 
3 16608 16609 16610 
3 16611 16612 16613 
3 16614 16615 16616 
3 16617 16618 16619 
3 16620 16621 16622 
3 16623 16624 16625 
3 16626 16627 16628 
3 16629 16630 16631 
3 16632 16633 16634 
3 16635 16636 16637 
3 16638 16639 16640 
3 16641 16642 16643 
3 16644 16645 16646 
3 16647 16648 16649 
3 16650 16651 16652 
3 16653 16654 16655 
3 16656 16657 16658 
3 16659 16660 16661 
3 16662 16663 16664 
3 16665 16666 16667 
3 16668 16669 16670 
3 16671 16672 16673 
3 16674 16675 16676 
3 16677 16678 16679 
3 16680 16681 16682 
3 16683 16684 16685 
3 16686 16687 16688 
3 16689 16690 16691 
3 16692 16693 16694 
3 16695 16696 16697 
3 16698 16699 16700 
3 16701 16702 16703 
3 16704 16705 16706 
3 16707 16708 16709 
3 16710 16711 16712 
3 16713 16714 16715 
3 16716 16717 16718 
3 16719 16720 16721 
3 16722 16723 16724 
3 16725 16726 16727 
3 16728 16729 16730 
3 16731 16732 16733 
3 16734 16735 16736 
3 16737 16738 16739 
3 16740 16741 16742 
3 16743 16744 16745 
3 16746 16747 16748 
3 16749 16750 16751 
3 16752 16753 16754 
3 16755 16756 16757 
3 16758 16759 16760 
3 16761 16762 16763 
3 16764 16765 16766 
3 16767 16768 16769 
3 16770 16771 16772 
3 16773 16774 16775 
3 16776 16777 16778 
3 16779 16780 16781 
3 16782 16783 16784 
3 16785 16786 16787 
3 16788 16789 16790 
3 16791 16792 16793 
3 16794 16795 16796 
3 16797 16798 16799 
3 16800 16801 16802 
3 16803 16804 16805 
3 16806 16807 16808 
3 16809 16810 16811 
3 16812 16813 16814 
3 16815 16816 16817 
3 16818 16819 16820 
3 16821 16822 16823 
3 16824 16825 16826 
3 16827 16828 16829 
3 16830 16831 16832 
3 16833 16834 16835 
3 16836 16837 16838 
3 16839 16840 16841 
3 16842 16843 16844 
3 16845 16846 16847 
3 16848 16849 16850 
3 16851 16852 16853 
3 16854 16855 16856 
3 16857 16858 16859 
3 16860 16861 16862 
3 16863 16864 16865 
3 16866 16867 16868 
3 16869 16870 16871 
3 16872 16873 16874 
3 16875 16876 16877 
3 16878 16879 16880 
3 16881 16882 16883 
3 16884 16885 16886 
3 16887 16888 16889 
3 16890 16891 16892 
3 16893 16894 16895 
3 16896 16897 16898 
3 16899 16900 16901 
3 16902 16903 16904 
3 16905 16906 16907 
3 16908 16909 16910 
3 16911 16912 16913 
3 16914 16915 16916 
3 16917 16918 16919 
3 16920 16921 16922 
3 16923 16924 16925 
3 16926 16927 16928 
3 16929 16930 16931 
3 16932 16933 16934 
3 16935 16936 16937 
3 16938 16939 16940 
3 16941 16942 16943 
3 16944 16945 16946 
3 16947 16948 16949 
3 16950 16951 16952 
3 16953 16954 16955 
3 16956 16957 16958 
3 16959 16960 16961 
3 16962 16963 16964 
3 16965 16966 16967 
3 16968 16969 16970 
3 16971 16972 16973 
3 16974 16975 16976 
3 16977 16978 16979 
3 16980 16981 16982 
3 16983 16984 16985 
3 16986 16987 16988 
3 16989 16990 16991 
3 16992 16993 16994 
3 16995 16996 16997 
3 16998 16999 17000 
3 17001 17002 17003 
3 17004 17005 17006 
3 17007 17008 17009 
3 17010 17011 17012 
3 17013 17014 17015 
3 17016 17017 17018 
3 17019 17020 17021 
3 17022 17023 17024 
3 17025 17026 17027 
3 17028 17029 17030 
3 17031 17032 17033 
3 17034 17035 17036 
3 17037 17038 17039 
3 17040 17041 17042 
3 17043 17044 17045 
3 17046 17047 17048 
3 17049 17050 17051 
3 17052 17053 17054 
3 17055 17056 17057 
3 17058 17059 17060 
3 17061 17062 17063 
3 17064 17065 17066 
3 17067 17068 17069 
3 17070 17071 17072 
3 17073 17074 17075 
3 17076 17077 17078 
3 17079 17080 17081 
3 17082 17083 17084 
3 17085 17086 17087 
3 17088 17089 17090 
3 17091 17092 17093 
3 17094 17095 17096 
3 17097 17098 17099 
3 17100 17101 17102 
3 17103 17104 17105 
3 17106 17107 17108 
3 17109 17110 17111 
3 17112 17113 17114 
3 17115 17116 17117 
3 17118 17119 17120 
3 17121 17122 17123 
3 17124 17125 17126 
3 17127 17128 17129 
3 17130 17131 17132 
3 17133 17134 17135 
3 17136 17137 17138 
3 17139 17140 17141 
3 17142 17143 17144 
3 17145 17146 17147 
3 17148 17149 17150 
3 17151 17152 17153 
3 17154 17155 17156 
3 17157 17158 17159 
3 17160 17161 17162 
3 17163 17164 17165 
3 17166 17167 17168 
3 17169 17170 17171 
3 17172 17173 17174 
3 17175 17176 17177 
3 17178 17179 17180 
3 17181 17182 17183 
3 17184 17185 17186 
3 17187 17188 17189 
3 17190 17191 17192 
3 17193 17194 17195 
3 17196 17197 17198 
3 17199 17200 17201 
3 17202 17203 17204 
3 17205 17206 17207 
3 17208 17209 17210 
3 17211 17212 17213 
3 17214 17215 17216 
3 17217 17218 17219 
3 17220 17221 17222 
3 17223 17224 17225 
3 17226 17227 17228 
3 17229 17230 17231 

CELL_DATA 5744
FIELD FieldData 5
normal_stress_average 1 5744 double
0 0 0 0 0 0 0 0 0 
0 0 0 0 0 0 0 0 0 
0 0 0 0 0 0 0 0 0 
0 0 0 0 0 0 0 0 0 
0 0 0 0 0 0 0 0 0 
0 0 0 0 0 0 0 0 0 
0 0 0 0 0 0 0 0 0 
0 0 0 0 0 0 0 0 0 
0 0 0 0 0 0 0 0 0 
0 0 0 0 0 0 0 0 0 
0 0 0 0 0 0 0 0 0 
0 0 0 0 0 0 0 0 0 
0 0 0 0 0 0 0 0 0 
0 0 0 0 0 0 0 0 0 
0 0 0 0 0 0 0 0 0 
0 0 0 0 0 0 0 0 0 
0 0 0 0 0 0 0 0 0 
0 0 0 0 0 0 0 0 0 
0 0 0 0 0 0 0 0 0 
0 0 0 0 0 0 0 0 0 
0 0 0 0 0 0 0 0 0 
0 0 0 0 0 0 0 0 0 
0 0 0 0 0 0 0 0 0 
0 0 0 0 0 0 0 0 0 
0 0 0 0 0 0 0 0 0 
0 0 0 0 0 0 0 0 0 
0 0 0 0 0 0 0 0 0 
0 0 0 0 0 0 0 0 0 
0 0 0 0 0 0 0 0 -0 
-0 -0 -0 -0 -0 -0 -0 -0 -0 
-0 -0 -0 -0 -0 -0 -0 -0 -0 
-0 -0 -0 -0 -0 -0 -0 -0 -0 
-0 -0 -0 -0 -0 -0 -0 -0 -0 
-0 -0 -0 -0 -0 -0 -0 -0 -0 
-0 -0 -0 -0 -0 -0 -0 -0 -0 
-0 -0 -0 -0 -0 -0 -0 -0 -0 
-0 -0 -0 -0 0 0 0 0 0 
0 0 0 0 0 0 0 0 0 
0 0 0 0 0 0 0 0 0 
0 0 0 0 0 0 0 0 0 
0 0 0 0 0 0 0 0 0 
0 0 0 0 0 0 0 0 0 
0 0 0 0 0 0 0 0 0 
0 0 0 0 0 0 0 0 0 
0 0 0 0 0 0 0 0 0 
0 0 0 0 0 0 0 0 0 
0 0 0 0 0 0 0 0 0 
0 0 0 0 0 0 0 0 0 
0 0 0 0 0 0 0 0 0 
0 0 0 0 0 0 0 0 0 
0 0 0 0 0 0 0 0 0 
0 0 0 0 0 0 0 0 0 
0 0 0 0 0 0 0 0 0 
0 0 0 0 0 0 0 0 0 
0 0 0 0 0 0 0 -0 -0 
-0 -0 -0 -0 -0 -0 -0 -0 -0 
-0 -0 -0 -0 -0 -0 -0 -0 -0 
-0 -0 -0 -0 -0 -0 -0 -0 -0 
-0 -0 -0 -0 -0 -0 -0 -0 0 
0 0 0 0 0 0 0 0 0 
0 0 0 0 -0 -0 -0 0 0 
0 0 0 0 0 0 0 0 0 
0 0 0 0 0 0 0 0 0 
0 0 0 0 0 0 0 0 0 
0 0 0 0 0 0 0 0 0 
0 0 0 -0 -0 -0 -0 -0 -0 
-0 -0 -0 -0 -0 -0 -0 0 0 
0 0 0 0 0 0 0 0 0 
0 0 0 0 0 0 0 0 0 
0 0 0 0 0 0 0 0 0 
0 0 0 0 0 0 0 0 0 
0 0 0 0 0 0 -0 -0 -0 
-0 -0 -0 -0 -0 -0 -0 -0 -0 
-0 -0 0 0 0 0 0 0 0 
0 0 -0 0 0 0 0 0 0 
0 0 0 0 0 0 0 0 0 
0 0 0 0 0 0 0 0 0 
0 0 0 0 0 0 0 0 0 
0 0 0 0 0 0 0 0 0 
0 0 0 0 0 0 -0 -0 -0 
-0 -0 -0 -0 -0 -0 -0 -0 -0 
-0 -0 -0 0 0 0 0 0 0 
0 0 0 0 0 0 0 0 0 
0 0 0 0 0 0 0 0 0 
-0 -0 -0 -0 -0 0 0 0 0 
0 0 0 0 0 0 0 0 0 
0 0 0 0 0 0 0 0 0 
0 0 0 0 0 0 0 0 0 
0 0 -0 -0 -0 -0 -0 -0 -0 
-0 -0 -0 0 0 0 0 0 0 
0 0 0 0 0 0 0 0 0 
0 0 0 0 0 0 -0 -0 -0 
-0 -0 -0 -0 0 0 0 0 0 
0 0 0 0 0 0 0 0 0 
0 0 0 0 0 0 0 0 0 
0 0 0 0 0 0 0 0 0 
0 0 0 0 0 0 0 0 -0 
-0 -0 -0 -0 -0 -0 -0 -0 -0 
-0 0 0 0 0 0 0 0 -0 
-0 -0 0 0 0 0 0 0 0 
0 0 0 0 0 0 0 0 0 
0 0 0 0 0 0 0 0 0 
0 0 0 0 0 0 0 0 0 
0 0 0 0 0 0 0 0 0 
0 -0 -0 -0 -0 -0 -0 -0 -0 
-0 -0 0 0 0 0 0 0 0 
-0 -0 -0 -0 -0 -0 -0 -0 -0 
-0 0 0 0 0 0 0 0 0 
0 0 0 0 0 0 0 0 0 
0 0 0 0 0 0 0 0 0 
0 0 0 0 0 0 0 0 0 
0 0 0 0 0 0 0 0 0 
0 0 0 0 -0 0 0 0 0 
0 0 -0 -0 -0 -0 -0 -0 -0 
-0 -0 -0 -0 0 0 0 0 0 
0 0 0 0 0 0 0 0 0 
0 0 0 0 0 0 0 0 0 
0 0 0 0 0 0 0 0 0 
0 0 0 0 0 0 0 0 0 
0 -0 -0 -0 0 0 0 0 0 
0 0 0 0 0 0 0 0 0 
0 0 -0 -0 -0 -0 -0 -0 -0 
-0 0 0 0 0 0 0 0 0 
0 0 0 0 0 0 0 0 0 
0 0 0 0 0 0 0 0 0 
0 0 0 -0 -0 -0 -0 0 0 
0 0 0 0 0 0 0 0 0 
0 0 0 0 0 0 0 0 0 
0 0 0 -0 -0 -0 -0 -0 -0 
-0 -0 -0 -0 -0 -0 -0 -0 0 
0 0 0 0 0 0 0 0 0 
0 0 0 0 0 0 0 0 0 
0 0 0 0 0 0 0 0 0 
0 0 0 0 0 0 0 0 0 
0 0 0 0 0 0 -0 -0 0 
0 0 0 0 0 0 0 0 0 
0 0 0 -0 -0 -0 -0 -0 -0 
-0 -0 -0 -0 -0 -0 -0 -0 -0 
-0 -0 -0 0 0 0 0 0 0 
0 0 0 0 0 0 0 0 0 
0 0 0 0 0 0 0 0 0 
0 0 0 0 0 0 0 0 0 
0 0 0 0 0 0 0 0 0 
-0 -0 -0 -0 -0 -0 -0 -0 -0 
-0 -0 -0 -0 0 0 0 0 0 
0 0 0 0 0 0 0 0 0 
0 0 0 0 0 0 0 0 0 
0 0 0 0 0 0 0 0 0 
0 0 0 0 -0 0 0 0 0 
0 0 0 -0 -0 -0 -0 -0 -0 
-0 -0 -0 -0 -0 -0 -0 -0 -0 
-0 -0 -0 -0 -0 -0 -0 -0 -0 
0 0 0 0 0 0 0 0 0 
0 0 0 0 0 0 0 0 0 
0 0 0 0 0 0 0 0 0 
0 0 0 0 0 0 0 0 0 
0 0 0 0 0 0 0 0 0 
0 0 0 0 0 0 0 0 0 
0 0 0 0 0 0 0 0 0 
0 0 0 0 0 0 0 0 0 
0 0 0 0 0 0 0 0 0 
0 0 0 0 0 0 0 0 0 
0 0 0 0 0 0 0 -0 -0 
-0 -0 -0 -0 -0 -0 -0 -0 -0 
-0 -0 -0 -0 -0 -0 0 0 0 
0 0 0 0 0 0 0 0 0 
0 0 0 0 0 0 0 0 0 
0 0 0 0 0 -0 -0 -0 -0 
-0 0 0 0 0 0 0 0 0 
-0 -0 0 0 0 0 0 0 0 
0 0 -0 -0 0 0 0 0 0 
0 0 0 0 0 0 0 -0 -0 
-0 -0 -0 0 0 0 0 0 0 
0 0 0 0 0 0 0 -0 -0 
-0 -0 0 0 0 0 0 0 0 
0 0 -0 0 0 0 0 0 0 
0 0 0 0 0 0 0 0 0 
-0 -0 -0 2679358.0291 11934462.47 0 0 0 0 
0 0 0 0 0 0 0 0 0 
0 0 0 0 -0 -0 31294587.979 0 0 
0 0 0 0 0 0 -0 -0 -0 
-0 -0 -0 9071949.535 6077991.9463 4291733.9383 0 0 0 
0 0 0 0 0 0 0 0 0 
0 0 -0 -0 -0 -0 -0 0 0 
0 0 0 0 0 0 0 0 0 
0 0 0 0 0 0 -0 -0 -0 
-0 0 0 0 0 0 0 0 0 
0 0 0 0 0 0 0 0 0 
0 0 -0 -0 -0 -0 0 0 0 
0 0 0 0 0 0 0 0 0 
0 0 0 0 0 0 0 0 -0 
-0 -0 -0 0 0 0 0 0 0 
0 0 0 0 0 0 0 0 0 
0 0 -0 -0 -0 -0 -0 -0 0 
0 0 0 0 0 0 0 0 0 
0 0 0 0 0 0 0 0 0 
0 0 0 -0 -0 -0 0 0 0 
0 0 0 0 0 0 0 0 0 
0 0 0 0 0 -0 -0 -0 -0 
-0 -0 -0 -0 -0 0 0 0 0 
0 0 0 0 0 0 0 0 0 
0 0 0 0 0 0 0 0 0 
0 -0 -0 -0 -0 0 0 0 0 
0 0 0 0 0 0 0 0 0 
0 0 0 0 0 0 0 0 0 
0 0 0 -0 -0 -0 -0 -0 -0 
-0 -0 -0 0 0 0 0 0 0 
0 0 0 0 0 0 0 0 0 
0 0 0 0 0 0 -0 -0 -0 
-0 -0 -0 -0 -0 -0 -0 -0 0 
0 0 0 0 0 0 0 0 0 
0 0 0 0 0 0 0 0 0 
0 0 0 0 0 0 0 0 0 
0 0 -0 0 0 0 0 0 0 
0 0 0 0 0 0 0 0 0 
0 0 0 0 0 0 0 0 0 
0 0 0 0 -0 -0 -0 -0 -0 
-0 -0 -0 -0 -0 0 0 0 0 
0 0 0 0 0 0 0 0 0 
0 0 0 0 0 0 0 0 0 
0 0 -0 -0 -0 -0 -0 -0 -0 
-0 -0 0 0 0 0 0 0 0 
0 0 0 0 0 0 0 0 0 
0 0 0 0 0 0 0 0 0 
0 0 0 0 0 0 0 -0 -0 
-0 -0 -0 -0 0 0 0 0 0 
0 0 0 0 0 0 0 0 0 
0 0 0 0 0 0 0 0 0 
0 0 0 0 0 0 0 0 0 
0 -0 -0 -0 -0 -0 -0 0 0 
0 0 0 0 0 0 0 0 0 
0 0 0 0 0 0 0 0 0 
0 0 0 0 0 0 0 0 0 
0 0 0 0 0 0 0 0 0 
0 -0 -0 -0 -0 -0 -0 -0 -0 
-0 -0 0 0 0 0 0 0 0 
0 0 0 0 0 0 0 0 0 
0 0 0 0 0 0 0 0 -0 
-0 -0 -0 -0 0 0 0 0 0 
0 0 0 0 0 0 0 0 0 
0 0 0 0 0 0 0 0 0 
0 0 0 0 0 0 0 0 0 
0 0 0 0 0 0 -0 -0 -0 
-0 -0 -0 -0 0 0 0 0 0 
0 0 0 0 0 0 0 0 0 
0 0 0 0 0 0 0 0 0 
0 0 0 0 0 0 0 0 0 
0 0 0 0 0 0 0 0 0 
0 0 0 0 0 0 0 0 0 
0 0 0 -0 -0 -0 -0 -0 -0 
-0 -0 -0 -0 -0 -0 0 0 0 
0 0 0 0 0 0 0 0 0 
0 0 0 0 0 0 0 0 0 
0 0 0 0 0 0 0 0 0 
0 0 0 -0 -0 -0 -0 -0 -0 
-0 -0 -0 -0 -0 0 0 0 0 
0 0 0 0 0 0 0 0 0 
0 0 0 0 0 0 0 0 0 
0 0 0 0 0 0 0 0 0 
0 0 0 0 0 0 0 0 0 
0 -0 -0 -0 -0 0 0 0 0 
0 0 0 0 0 0 0 0 0 
0 0 0 0 0 0 0 0 0 
0 0 0 0 0 0 0 0 0 
0 0 0 -0 -0 -0 -0 -0 -0 
-0 0 0 0 0 0 0 0 0 
0 0 0 0 0 0 0 0 0 
0 0 0 0 0 0 0 0 0 
0 0 0 0 0 -0 -0 -0 -0 
-0 -0 -0 -0 -0 -0 -0 0 0 
0 0 0 0 0 0 0 0 0 
0 0 0 0 0 0 0 0 0 
0 0 0 0 0 0 0 0 0 
0 0 0 0 0 0 0 0 0 
0 0 0 -0 -0 -0 -0 -0 -0 
0 0 0 0 0 0 0 0 0 
0 0 0 0 0 0 0 0 0 
0 0 0 0 0 0 0 0 0 
0 0 0 0 0 0 0 0 -0 
-0 -0 -0 -0 -0 -0 0 0 0 
0 0 0 0 0 0 0 0 0 
0 0 0 0 0 0 0 0 0 
0 0 0 0 0 0 0 0 0 
0 -0 -0 -0 -0 -0 -0 -0 -0 
0 0 0 0 0 0 0 0 0 
0 0 0 0 0 0 0 0 0 
0 0 0 0 0 0 0 0 0 
0 0 -0 -0 -0 -0 -0 -0 -0 
-0 -0 -0 0 0 0 0 0 0 
0 0 0 0 0 0 0 0 0 
0 0 0 0 0 0 0 0 0 
0 0 0 0 0 0 0 -0 0 
0 0 0 0 0 0 0 0 0 
0 0 0 0 0 0 0 0 0 
0 0 0 0 0 0 0 0 0 
0 0 0 -0 -0 -0 -0 -0 -0 
-0 -0 -0 -0 -0 -0 0 0 0 
0 0 0 0 0 0 0 0 0 
0 0 0 0 0 -0 -0 -0 -0 
-0 -0 -0 0 0 0 0 0 0 
0 0 0 0 0 0 0 0 0 
0 0 0 0 0 0 0 0 0 
0 0 0 0 0 0 -0 -0 -0 
-0 0 0 0 0 0 0 0 0 
0 0 0 0 0 0 0 0 0 
0 0 0 0 0 0 0 0 0 
0 -0 -0 -0 -0 -0 -0 -0 -0 
-0 -0 -0 0 0 0 0 0 0 
0 0 0 0 0 0 0 0 0 
0 0 -0 -0 0 0 0 0 0 
0 0 0 0 0 0 0 0 0 
0 0 0 0 0 0 0 0 -0 
-0 -0 -0 -0 -0 -0 -0 -0 0 
0 0 0 0 0 0 0 0 0 
0 0 0 0 0 0 -0 -0 -0 
-0 -0 0 0 0 0 0 0 0 
0 0 0 0 0 0 0 0 0 
0 0 0 0 0 0 0 -0 -0 
-0 -0 -0 -0 0 0 0 0 0 
0 0 0 0 0 0 0 -0 -0 
-0 -0 -0 0 0 0 0 0 0 
0 0 0 0 0 0 0 0 -0 
-0 -0 -0 -0 -0 0 0 0 0 
0 0 0 0 0 0 0 0 0 
0 327386.11903 3060437.2289 3658774.3923 2330266.7293 2561046.7962 -0 -0 0 
0 0 0 0 0 0 0 -0 0 
0 0 0 0 0 0 0 0 0 
0 0 0 0 0 0 0 0 353390.91597 
3755436.0819 20907119.446 10444352.665 10525725.286 -0 -0 -0 -0 0 
0 0 0 0 0 0 0 0 12163823.558 
-0 0 0 0 0 0 0 -0 -0 
-0 0 0 0 0 0 0 0 0 
0 0 0 0 0 0 -0 -0 -0 
-0 -0 0 0 0 0 0 0 0 
0 0 0 -0 -0 -0 -0 0 0 
0 0 0 0 0 -0 0 0 0 
0 0 0 0 0 -0 -0 -0 -0 
0 0 0 0 0 0 0 0 0 
0 0 0 0 0 -0 -0 -0 -0 
-0 -0 0 0 0 0 0 0 0 
0 0 0 0 0 0 0 0 0 
0 0 0 0 0 0 0 0 0 
0 0 0 0 0 0 0 0 0 
0 0 0 0 0 0 0 0 0 
0 0 0 0 0 0 0 0 0 
0 0 0 0 0 0 0 0 0 
0 0 -0 -0 -0 -0 -0 -0 -0 
-0 -0 -0 -0 -0 -0 -0 -0 -0 
-0 -0 -0 -0 -0 -0 -0 -0 -0 
0 0 0 0 0 0 0 0 0 
0 0 0 0 0 0 0 0 0 
0 0 0 0 0 0 0 0 0 
-0 -0 0 0 0 0 0 0 0 
0 0 0 0 0 0 0 0 0 
0 0 0 0 0 0 0 0 0 
0 0 0 0 0 0 0 0 0 
0 0 0 0 0 0 0 0 0 
0 0 0 0 0 0 0 0 0 
0 0 0 0 0 0 0 0 0 
0 0 0 0 0 0 0 0 0 
0 0 0 0 0 0 0 0 0 
0 0 0 431196.4179 0 1567654.8441 2670724.0038 1865915.4604 1038914.6267 
947720.43244 5837466.3899 4845897.9432 1538994.9452 10084833.625 6512240.5136 2786387.7705 2774957.8889 5572715.9969 
418451.68779 0 1288077.047 1462699.4471 8029202.6213 615825.81587 1753845.5992 1434627.3349 3230590.5777 
800212.91011 1260460.2398 1297739.9361 6014385.9958 2242633.5202 97162.469013 2784104.3437 0 0 
567915.66214 0 0 0 0 0 0 0 0 
-0 -0 -0 -0 -0 -0 -0 -0 -0 
-0 -0 -0 -0 -0 -0 -0 -0 -0 
-0 -0 -0 -0 -0 -0 -0 -0 0 
0 0 0 0 0 0 0 0 0 
0 0 0 0 0 0 0 0 0 
0 0 0 0 0 0 0 0 0 
0 0 0 0 0 0 0 0 0 
0 0 0 0 0 0 0 0 0 
0 0 0 0 0 0 0 0 0 
0 0 0 0 0 0 0 0 0 
0 0 0 0 0 0 0 0 0 
0 0 0 0 0 0 0 0 0 
0 0 0 0 0 0 0 0 0 
0 0 0 0 0 0 0 0 0 
0 0 0 0 0 0 0 0 0 
0 0 0 0 0 0 0 0 0 
0 0 0 0 0 0 0 0 0 
0 0 0 0 0 0 0 0 0 
0 0 0 0 0 0 0 0 0 
0 0 0 0 0 0 0 0 0 
0 0 0 0 0 0 0 0 0 
0 0 0 0 0 0 0 0 0 
0 0 0 0 0 0 0 0 0 
0 0 0 0 0 0 0 0 0 
0 0 0 0 0 0 0 0 0 
0 0 0 0 0 0 0 0 0 
0 0 0 0 0 0 0 0 0 
0 0 0 0 0 0 0 0 0 
0 0 0 0 0 0 -0 0 0 
0 0 0 0 0 0 0 0 0 
0 -0 0 14640379.231 265503.26714 0 -0 0 0 
0 8531233.7458 18056330.81 0 -0 -0 -0 -0 -0 
0 0 0 0 0 0 0 69847489.669 22603646.573 
31809594.829 55028340.745 0 8525545.3863 0 3228932.7836 0 0 0 
0 0 0 15117290.737 22643283.448 3516995.9094 172407333.63 40149957.751 13952743.895 
63403730.949 129067572.79 167611436.34 72581976.684 32161807.135 38807210.215 9986399.8849 38976872.207 38783161.427 
30911517.771 16267607.667 13435014.344 62859605.796 51876827.209 15632625.457 0 0 0 
0 0 0 0 0 0 0 0 0 
0 0 0 0 0 0 0 -0 -0 
-0 -0 -0 -0 -0 -0 -0 -0 -0 
-0 -0 -0 -0 0 1586145.2331 23058367.797 48664394.987 0 
0 -0 -0 0 22032105.072 22988371.34 0 -0 0 
13743127.947 25768594.524 3508757.5104 0 0 0 0 -0 0 
0 118991.76393 71250.241213 0 0 0 0 0 0 
0 0 0 0 0 0 0 0 0 
0 0 0 0 0 0 0 0 0 
0 0 0 0 0 0 0 0 0 
0 0 0 0 0 0 0 0 0 
0 0 0 0 0 0 0 0 0 
0 0 0 0 0 0 0 0 0 
0 0 0 0 0 0 0 0 0 
0 0 0 0 0 0 0 0 0 
0 0 0 0 0 0 0 0 0 
0 0 0 0 0 0 0 0 0 
0 0 0 0 0 0 0 0 0 
0 0 0 0 0 0 0 0 0 
0 0 0 0 0 0 0 0 0 
0 0 0 0 0 0 0 0 0 
0 0 0 0 0 0 0 0 0 
0 0 0 0 0 0 0 0 0 
0 0 0 0 0 0 0 0 0 
0 0 0 0 0 0 0 0 0 
0 0 0 0 0 0 0 0 0 
0 0 0 0 0 0 0 0 0 
0 0 0 0 0 0 0 0 0 
0 0 0 0 0 0 0 0 0 
0 0 0 0 0 0 0 0 0 
0 0 0 0 0 0 0 0 0 
0 0 0 0 0 0 0 0 0 
0 0 0 0 0 0 0 0 0 
0 0 0 0 0 0 0 0 0 
0 0 0 0 0 0 0 0 0 
0 0 0 0 0 0 0 0 0 
0 0 0 0 0 0 0 0 0 
0 0 0 0 0 0 0 0 0 
0 0 0 0 0 0 0 0 0 
0 0 0 0 0 0 0 0 0 
0 0 0 0 0 0 0 0 0 
0 0 0 0 0 0 0 0 0 
0 0 0 0 0 0 0 0 0 
0 0 0 0 0 0 0 0 0 
0 0 0 0 0 0 0 0 0 
0 0 0 0 0 0 0 0 0 
0 0 0 0 0 0 0 0 0 
0 0 0 0 0 0 0 0 0 
0 0 0 0 0 0 0 0 0 
0 0 0 0 0 0 0 0 0 
0 0 0 0 0 0 0 0 0 
0 0 0 0 0 0 0 0 0 
0 0 0 0 0 0 0 0 0 
0 0 0 0 0 0 0 0 0 
0 0 0 0 0 0 0 0 0 
0 0 0 0 0 0 0 0 0 
0 0 0 0 0 0 0 0 0 
0 0 0 0 0 0 0 0 0 
0 0 0 0 0 0 0 0 0 
0 0 0 0 0 0 0 0 0 
0 0 0 0 0 0 0 0 0 
0 0 0 0 0 0 0 0 0 
0 0 0 0 0 0 0 0 0 
0 0 0 0 0 0 0 0 0 
0 0 0 0 0 0 0 0 0 
0 0 0 0 0 0 0 0 0 
0 0 0 0 0 0 0 0 0 
0 0 0 0 0 0 0 0 0 
0 0 0 0 0 0 0 0 0 
0 0 0 0 0 0 0 0 0 
0 0 0 0 0 0 0 0 0 
0 0 0 0 0 0 0 0 0 
0 0 0 0 0 0 0 0 0 
0 0 0 0 0 0 0 0 0 
0 0 0 0 0 0 0 0 0 
0 0 0 0 0 0 0 0 0 
0 0 0 0 0 0 0 0 0 
0 0 0 0 0 0 0 0 0 
0 0 0 0 0 0 0 0 0 
0 0 0 0 0 0 0 0 0 
0 0 0 0 0 0 0 0 0 
0 0 0 0 0 0 0 0 0 
0 0 0 0 0 0 0 0 0 
0 0 0 0 0 0 0 0 0 
0 0 0 0 0 0 0 0 0 
0 0 0 0 0 0 0 0 0 
0 0 0 0 0 0 0 0 0 
0 0 0 0 0 0 0 0 0 
0 0 0 0 0 0 0 0 0 
0 0 0 0 0 0 0 0 0 
0 0 0 0 0 0 0 0 0 
0 0 0 0 0 0 0 0 0 
0 0 0 0 0 0 0 0 0 
0 0 0 0 0 0 0 0 0 
0 0 0 0 0 0 0 0 0 
0 0 0 0 0 0 0 0 0 
0 0 0 0 0 0 0 0 0 
0 0 0 0 0 0 0 0 0 
0 0 0 0 0 0 0 0 0 
0 0 0 0 0 0 0 0 0 
0 0 0 0 0 0 0 0 0 
0 0 0 0 0 0 0 0 0 
0 0 0 0 0 0 0 0 0 
0 0 0 0 0 0 0 0 0 
0 0 0 0 0 0 0 0 0 
0 -0 -0 -0 -0 -0 -0 -0 -0 
-0 -0 0 0 0 0 0 0 0 
0 0 0 0 0 0 0 0 0 
0 0 0 0 0 0 0 0 0 
0 0 0 0 0 0 0 0 0 
0 0 -0 0 0 0 0 0 0 
0 0 0 0 0 0 0 0 0 
0 0 0 0 0 0 0 0 0 
0 0 0 0 0 0 0 0 0 
0 0 0 0 0 0 0 -0 -0 
-0 -0 -0 -0 -0 -0 -0 -0 -0 
-0 -0 -0 -0 -0 -0 -0 -0 -0 
-0 -0 -0 -0 -0 -0 -0 -0 -0 
-0 -0 0 0 0 0 0 0 0 
0 0 0 0 0 0 0 0 0 
0 0 0 0 0 0 0 0 0 
0 0 0 0 0 0 0 0 0 
0 0 0 0 0 0 0 0 0 
0 0 0 0 0 0 0 0 0 
0 0 0 0 0 0 0 0 0 
0 0 0 0 0 0 0 0 0 
0 0 0 0 0 0 0 0 0 
0 0 0 0 0 0 0 0 0 
0 0 0 0 0 0 0 0 0 
0 0 0 0 0 0 0 0 0 
0 0 0 0 0 0 0 0 0 
0 0 0 0 0 0 0 0 0 
0 0 -0 -0 -0 -0 -0 -0 -0 
-0 -0 -0 -0 -0 -0 -0 -0 -0 
-0 -0 -0 -0 -0 -0 -0 0 0 
0 0 0 0 0 0 0 0 0 
0 0 0 0 0 0 0 0 0 
0 0 0 0 0 0 0 0 0 
0 0 0 0 -0 -0 -0 0 0 
0 0 0 0 0 0 0 0 0 
0 0 0 0 0 0 0 0 0 
0 0 0 0 0 0 0 0 0 
0 0 0 0 0 0 0 0 0 
0 0 -0 -0 -0 -0 -0 -0 -0 
-0 -0 0 0 0 0 0 0 0 
0 0 0 0 0 0 0 0 0 
0 0 0 0 0 0 -0 -0 -0 
0 0 0 0 0 0 0 0 0 
0 0 0 0 0 0 0 0 0 
0 0 0 0 0 0 0 0 0 
0 0 0 0 0 0 0 0 0 
0 0 0 0 0 0 0 0 0 
0 0 0 0 0 0 0 0 0 
0 0 0 0 0 0 0 0 0 
0 0 0 0 0 0 0 0 0 
0 0 0 0 0 0 0 0 0 
0 0 0 0 0 0 0 0 0 
0 0 0 0 0 0 0 0 0 
0 0 0 0 0 0 0 0 0 
0 0 0 0 0 0 0 0 0 
0 0 0 0 0 0 0 0 0 
0 0 0 0 0 0 0 0 0 
0 0 0 0 0 0 0 0 0 
0 0 0 0 0 0 0 0 0 
0 0 0 0 0 0 0 0 0 
0 0 0 0 0 0 0 0 0 
0 0 0 0 0 0 0 0 0 
0 0 0 0 0 0 0 0 0 
0 0 0 0 0 0 0 0 0 
0 0 0 0 0 0 0 0 0 
0 0 0 0 0 0 0 0 0 
0 0 0 0 0 0 0 0 0 
0 0 0 0 0 0 0 0 0 
0 0 0 0 0 0 0 0 0 
0 0 0 0 0 0 0 0 0 
0 0 0 0 0 0 0 0 0 
0 0 0 0 0 0 0 0 0 
0 0 0 0 0 0 0 0 0 
0 0 0 0 0 0 0 0 0 
0 0 0 0 0 0 0 0 0 
0 0 0 0 0 0 0 0 0 
0 0 0 0 0 0 0 0 0 
0 0 0 0 0 0 0 0 0 
0 0 0 0 0 0 0 0 0 
0 0 0 0 0 0 0 0 0 
0 0 0 0 0 0 0 0 0 
0 0 0 0 0 0 0 0 0 
0 0 0 0 0 0 0 0 0 
0 0 0 0 0 0 0 0 0 
0 0 0 0 0 0 0 0 0 
0 0 0 0 0 0 0 0 0 
0 0 0 0 0 0 0 0 0 
0 0 0 0 0 0 0 0 0 
0 0 0 0 0 0 0 0 0 
0 0 0 0 0 0 0 0 0 
0 0 0 0 0 0 0 0 0 
0 0 0 0 0 0 0 0 0 
0 0 0 0 0 0 0 0 0 
0 0 0 0 0 0 0 0 0 
0 0 0 0 0 0 0 0 0 
0 0 0 0 0 0 0 0 0 
0 0 0 0 0 0 0 0 0 
0 0 0 0 0 0 0 0 0 
0 0 0 0 0 0 0 0 0 
0 0 0 0 0 0 0 0 0 
0 0 0 0 0 0 0 0 0 
0 0 0 -0 -0 -0 -0 -0 -0 
-0 -0 -0 -0 -0 -0 -0 -0 -0 
-0 -0 -0 -0 -0 -0 -0 -0 -0 
-0 -0 -0 -0 -0 -0 -0 -0 -0 
-0 -0 -0 -0 -0 -0 -0 -0 -0 
-0 -0 -0 -0 -0 -0 -0 -0 0 
0 0 0 0 0 0 0 0 0 
0 0 0 0 0 0 0 0 0 
0 0 0 0 0 0 0 0 0 
0 0 0 0 0 0 0 0 0 
0 0 0 0 0 0 0 0 0 
0 0 0 0 0 0 0 0 0 
0 0 0 0 0 0 0 0 0 
0 0 -0 -0 -0 -0 -0 -0 -0 
-0 -0 -0 -0 -0 -0 -0 -0 -0 
0 0 0 0 0 0 0 0 0 
0 0 0 0 0 0 0 0 0 
0 0 0 0 0 0 0 0 0 
0 0 0 0 0 0 0 0 0 
0 0 0 0 0 0 0 0 0 
0 0 0 0 0 0 0 0 0 
0 0 0 0 0 0 0 0 0 
0 0 0 0 0 0 0 0 0 
0 0 0 0 0 0 0 0 0 
0 0 0 0 0 0 0 0 0 
0 0 0 0 0 0 0 0 0 
0 0 0 0 0 0 0 0 0 
0 0 0 0 0 0 0 0 0 
0 0 0 0 0 0 0 0 0 
0 0 
shear_stress_average 1 5744 double
0 0 0 0 0 0 0 0 0 
0 0 0 0 0 0 0 0 0 
0 0 0 0 0 0 0 0 0 
0 0 0 0 0 0 0 0 0 
0 0 0 0 0 0 0 0 0 
0 0 0 0 0 0 0 0 0 
0 0 0 0 0 0 0 0 0 
0 0 0 0 0 0 0 0 0 
0 0 0 0 0 0 0 0 0 
0 0 0 0 0 0 0 0 0 
0 0 0 0 0 0 0 0 0 
0 0 0 0 0 0 0 0 0 
0 0 0 0 0 0 0 0 0 
0 0 0 0 0 0 0 0 0 
0 0 0 0 0 0 0 0 0 
0 0 0 0 0 0 0 0 0 
0 0 0 0 0 0 0 0 0 
0 0 0 0 0 0 0 0 0 
0 0 0 0 0 0 0 0 0 
0 0 0 0 0 0 0 0 0 
0 0 0 0 0 0 0 0 0 
0 0 0 0 0 0 0 0 0 
0 0 0 0 0 0 0 0 0 
0 0 0 0 0 0 0 0 0 
0 0 0 0 0 0 0 0 0 
0 0 0 0 0 0 0 0 0 
0 0 0 0 0 0 0 0 0 
0 0 0 0 0 0 0 0 0 
0 0 0 0 0 0 0 0 0 
0 0 0 0 0 0 0 0 0 
0 0 0 0 0 0 0 0 0 
0 0 0 0 0 0 0 0 0 
0 0 0 0 0 0 0 0 0 
0 0 0 0 0 0 0 0 0 
0 0 0 0 0 0 0 0 0 
0 0 0 0 0 0 0 0 0 
0 0 0 0 0 0 0 0 0 
0 0 0 0 0 0 0 0 0 
0 0 0 0 0 0 0 0 0 
0 0 0 0 0 0 0 0 0 
0 0 0 0 0 0 0 0 0 
0 0 0 0 0 0 0 0 0 
0 0 0 0 0 0 0 0 0 
0 0 0 0 0 0 0 0 0 
0 0 0 0 0 0 0 0 0 
0 0 0 0 0 0 0 0 0 
0 0 0 0 0 0 0 0 0 
0 0 0 0 0 0 0 0 0 
0 0 0 0 0 0 0 0 0 
0 0 0 0 0 0 0 0 0 
0 0 0 0 0 0 0 0 0 
0 0 0 0 0 0 0 0 0 
0 0 0 0 0 0 0 0 0 
0 0 0 0 0 0 0 0 0 
0 0 0 0 0 0 0 0 0 
0 0 0 0 0 0 0 0 0 
0 0 0 0 0 0 0 0 0 
0 0 0 0 0 0 0 0 0 
0 0 0 0 0 0 0 0 0 
0 0 0 0 0 0 0 0 0 
0 0 0 0 0 0 0 0 0 
0 0 0 0 0 0 0 0 0 
0 0 0 0 0 0 0 0 0 
0 0 0 0 0 0 0 0 0 
0 0 0 0 0 0 0 0 0 
0 0 0 0 0 0 0 0 0 
0 0 0 0 0 0 0 0 0 
0 0 0 0 0 0 0 0 0 
0 0 0 0 0 0 0 0 0 
0 0 0 0 0 0 0 0 0 
0 0 0 0 0 0 0 0 0 
0 0 0 0 0 0 0 0 0 
0 0 0 0 0 0 0 0 0 
0 0 0 0 0 0 0 0 0 
0 0 0 0 0 0 0 0 0 
0 0 0 0 0 0 0 0 0 
0 0 0 0 0 0 0 0 0 
0 0 0 0 0 0 0 0 0 
0 0 0 0 0 0 0 0 0 
0 0 0 0 0 0 0 0 0 
0 0 0 0 0 0 0 0 0 
0 0 0 0 0 0 0 0 0 
0 0 0 0 0 0 0 0 0 
0 0 0 0 0 0 0 0 0 
0 0 0 0 0 0 0 0 0 
0 0 0 0 0 0 0 0 0 
0 0 0 0 0 0 0 0 0 
0 0 0 0 0 0 0 0 0 
0 0 0 0 0 0 0 0 0 
0 0 0 0 0 0 0 0 0 
0 0 0 0 0 0 0 0 0 
0 0 0 0 0 0 0 0 0 
0 0 0 0 0 0 0 0 0 
0 0 0 0 0 0 0 0 0 
0 0 0 0 0 0 0 0 0 
0 0 0 0 0 0 0 0 0 
0 0 0 0 0 0 0 0 0 
0 0 0 0 0 0 0 0 0 
0 0 0 0 0 0 0 0 0 
0 0 0 0 0 0 0 0 0 
0 0 0 0 0 0 0 0 0 
0 0 0 0 0 0 0 0 0 
0 0 0 0 0 0 0 0 0 
0 0 0 0 0 0 0 0 0 
0 0 0 0 0 0 0 0 0 
0 0 0 0 0 0 0 0 0 
0 0 0 0 0 0 0 0 0 
0 0 0 0 0 0 0 0 0 
0 0 0 0 0 0 0 0 0 
0 0 0 0 0 0 0 0 0 
0 0 0 0 0 0 0 0 0 
0 0 0 0 0 0 0 0 0 
0 0 0 0 0 0 0 0 0 
0 0 0 0 0 0 0 0 0 
0 0 0 0 0 0 0 0 0 
0 0 0 0 0 0 0 0 0 
0 0 0 0 0 0 0 0 0 
0 0 0 0 0 0 0 0 0 
0 0 0 0 0 0 0 0 0 
0 0 0 0 0 0 0 0 0 
0 0 0 0 0 0 0 0 0 
0 0 0 0 0 0 0 0 0 
0 0 0 0 0 0 0 0 0 
0 0 0 0 0 0 0 0 0 
0 0 0 0 0 0 0 0 0 
0 0 0 0 0 0 0 0 0 
0 0 0 0 0 0 0 0 0 
0 0 0 0 0 0 0 0 0 
0 0 0 0 0 0 0 0 0 
0 0 0 0 0 0 0 0 0 
0 0 0 0 0 0 0 0 0 
0 0 0 0 0 0 0 0 0 
0 0 0 0 0 0 0 0 0 
0 0 0 0 0 0 0 0 0 
0 0 0 0 0 0 0 0 0 
0 0 0 0 0 0 0 0 0 
0 0 0 0 0 0 0 0 0 
0 0 0 0 0 0 0 0 0 
0 0 0 0 0 0 0 0 0 
0 0 0 0 0 0 0 0 0 
0 0 0 0 0 0 0 0 0 
0 0 0 0 0 0 0 0 0 
0 0 0 0 0 0 0 0 0 
0 0 0 0 0 0 0 0 0 
0 0 0 0 0 0 0 0 0 
0 0 0 0 0 0 0 0 0 
0 0 0 0 0 0 0 0 0 
0 0 0 0 0 0 0 0 0 
0 0 0 0 0 0 0 0 0 
0 0 0 0 0 0 0 0 0 
0 0 0 0 0 0 0 0 0 
0 0 0 0 0 0 0 0 0 
0 0 0 0 0 0 0 0 0 
0 0 0 0 0 0 0 0 0 
0 0 0 0 0 0 0 0 0 
0 0 0 0 0 0 0 0 0 
0 0 0 0 0 0 0 0 0 
0 0 0 0 0 0 0 0 0 
0 0 0 0 0 0 0 0 0 
0 0 0 0 0 0 0 0 0 
0 0 0 0 0 0 0 0 0 
0 0 0 0 0 0 0 0 0 
0 0 0 0 0 0 0 0 0 
0 0 0 0 0 0 0 0 0 
0 0 0 0 0 0 0 0 0 
0 0 0 0 0 0 0 0 0 
0 0 0 0 0 0 0 0 0 
0 0 0 0 0 0 0 0 0 
0 0 0 0 0 0 0 0 0 
0 0 0 0 0 0 0 0 0 
0 0 0 0 0 0 0 0 0 
0 0 0 0 0 0 0 0 0 
0 0 0 0 0 0 0 0 0 
0 0 0 0 0 0 0 0 0 
0 0 0 0 0 0 0 0 0 
0 0 0 0 0 0 0 0 0 
0 0 0 0 0 0 0 0 0 
0 0 0 7107597.764 17544177.673 0 0 0 0 
0 0 0 0 0 0 0 0 0 
0 0 0 0 0 0 18371009.9 0 0 
0 0 0 0 0 0 0 0 0 
0 0 0 7268634.8027 16529019.417 8640132.9767 0 0 0 
0 0 0 0 0 0 0 0 0 
0 0 0 0 0 0 0 0 0 
0 0 0 0 0 0 0 0 0 
0 0 0 0 0 0 0 0 0 
0 0 0 0 0 0 0 0 0 
0 0 0 0 0 0 0 0 0 
0 0 0 0 0 0 0 0 0 
0 0 0 0 0 0 0 0 0 
0 0 0 0 0 0 0 0 0 
0 0 0 0 0 0 0 0 0 
0 0 0 0 0 0 0 0 0 
0 0 0 0 0 0 0 0 0 
0 0 0 0 0 0 0 0 0 
0 0 0 0 0 0 0 0 0 
0 0 0 0 0 0 0 0 0 
0 0 0 0 0 0 0 0 0 
0 0 0 0 0 0 0 0 0 
0 0 0 0 0 0 0 0 0 
0 0 0 0 0 0 0 0 0 
0 0 0 0 0 0 0 0 0 
0 0 0 0 0 0 0 0 0 
0 0 0 0 0 0 0 0 0 
0 0 0 0 0 0 0 0 0 
0 0 0 0 0 0 0 0 0 
0 0 0 0 0 0 0 0 0 
0 0 0 0 0 0 0 0 0 
0 0 0 0 0 0 0 0 0 
0 0 0 0 0 0 0 0 0 
0 0 0 0 0 0 0 0 0 
0 0 0 0 0 0 0 0 0 
0 0 0 0 0 0 0 0 0 
0 0 0 0 0 0 0 0 0 
0 0 0 0 0 0 0 0 0 
0 0 0 0 0 0 0 0 0 
0 0 0 0 0 0 0 0 0 
0 0 0 0 0 0 0 0 0 
0 0 0 0 0 0 0 0 0 
0 0 0 0 0 0 0 0 0 
0 0 0 0 0 0 0 0 0 
0 0 0 0 0 0 0 0 0 
0 0 0 0 0 0 0 0 0 
0 0 0 0 0 0 0 0 0 
0 0 0 0 0 0 0 0 0 
0 0 0 0 0 0 0 0 0 
0 0 0 0 0 0 0 0 0 
0 0 0 0 0 0 0 0 0 
0 0 0 0 0 0 0 0 0 
0 0 0 0 0 0 0 0 0 
0 0 0 0 0 0 0 0 0 
0 0 0 0 0 0 0 0 0 
0 0 0 0 0 0 0 0 0 
0 0 0 0 0 0 0 0 0 
0 0 0 0 0 0 0 0 0 
0 0 0 0 0 0 0 0 0 
0 0 0 0 0 0 0 0 0 
0 0 0 0 0 0 0 0 0 
0 0 0 0 0 0 0 0 0 
0 0 0 0 0 0 0 0 0 
0 0 0 0 0 0 0 0 0 
0 0 0 0 0 0 0 0 0 
0 0 0 0 0 0 0 0 0 
0 0 0 0 0 0 0 0 0 
0 0 0 0 0 0 0 0 0 
0 0 0 0 0 0 0 0 0 
0 0 0 0 0 0 0 0 0 
0 0 0 0 0 0 0 0 0 
0 0 0 0 0 0 0 0 0 
0 0 0 0 0 0 0 0 0 
0 0 0 0 0 0 0 0 0 
0 0 0 0 0 0 0 0 0 
0 0 0 0 0 0 0 0 0 
0 0 0 0 0 0 0 0 0 
0 0 0 0 0 0 0 0 0 
0 0 0 0 0 0 0 0 0 
0 0 0 0 0 0 0 0 0 
0 0 0 0 0 0 0 0 0 
0 0 0 0 0 0 0 0 0 
0 0 0 0 0 0 0 0 0 
0 0 0 0 0 0 0 0 0 
0 0 0 0 0 0 0 0 0 
0 0 0 0 0 0 0 0 0 
0 0 0 0 0 0 0 0 0 
0 0 0 0 0 0 0 0 0 
0 0 0 0 0 0 0 0 0 
0 0 0 0 0 0 0 0 0 
0 0 0 0 0 0 0 0 0 
0 0 0 0 0 0 0 0 0 
0 0 0 0 0 0 0 0 0 
0 0 0 0 0 0 0 0 0 
0 0 0 0 0 0 0 0 0 
0 0 0 0 0 0 0 0 0 
0 0 0 0 0 0 0 0 0 
0 0 0 0 0 0 0 0 0 
0 0 0 0 0 0 0 0 0 
0 0 0 0 0 0 0 0 0 
0 0 0 0 0 0 0 0 0 
0 0 0 0 0 0 0 0 0 
0 0 0 0 0 0 0 0 0 
0 0 0 0 0 0 0 0 0 
0 0 0 0 0 0 0 0 0 
0 0 0 0 0 0 0 0 0 
0 0 0 0 0 0 0 0 0 
0 0 0 0 0 0 0 0 0 
0 0 0 0 0 0 0 0 0 
0 0 0 0 0 0 0 0 0 
0 0 0 0 0 0 0 0 0 
0 0 0 0 0 0 0 0 0 
0 0 0 0 0 0 0 0 0 
0 0 0 0 0 0 0 0 0 
0 0 0 0 0 0 0 0 0 
0 0 0 0 0 0 0 0 0 
0 0 0 0 0 0 0 0 0 
0 0 0 0 0 0 0 0 0 
0 0 0 0 0 0 0 0 0 
0 0 0 0 0 0 0 0 0 
0 0 0 0 0 0 0 0 0 
0 0 0 0 0 0 0 0 0 
0 0 0 0 0 0 0 0 0 
0 0 0 0 0 0 0 0 0 
0 0 0 0 0 0 0 0 0 
0 0 0 0 0 0 0 0 0 
0 0 0 0 0 0 0 0 0 
0 0 0 0 0 0 0 0 0 
0 0 0 0 0 0 0 0 0 
0 0 0 0 0 0 0 0 0 
0 0 0 0 0 0 0 0 0 
0 0 0 0 0 0 0 0 0 
0 0 0 0 0 0 0 0 0 
0 0 0 0 0 0 0 0 0 
0 0 0 0 0 0 0 0 0 
0 0 0 0 0 0 0 0 0 
0 0 0 0 0 0 0 0 0 
0 0 0 0 0 0 0 0 0 
0 0 0 0 0 0 0 0 0 
0 0 0 0 0 0 0 0 0 
0 0 0 0 0 0 0 0 0 
0 0 0 0 0 0 0 0 0 
0 0 0 0 0 0 0 0 0 
0 0 0 0 0 0 0 0 0 
0 0 0 0 0 0 0 0 0 
0 0 0 0 0 0 0 0 0 
0 0 0 0 0 0 0 0 0 
0 427752.8547 8565461.1614 17631969.252 8765045.975 3059991.7002 0 0 0 
0 0 0 0 0 0 0 0 0 
0 0 0 0 0 0 0 0 0 
0 0 0 0 0 0 0 0 12093251.911 
22163990.908 34013956.564 24691450.951 5262862.6432 0 0 0 0 0 
0 0 0 0 0 0 0 0 3347961.3078 
0 0 0 0 0 0 0 0 0 
0 0 0 0 0 0 0 0 0 
0 0 0 0 0 0 0 0 0 
0 0 0 0 0 0 0 0 0 
0 0 0 0 0 0 0 0 0 
0 0 0 0 0 0 0 0 0 
0 0 0 0 0 0 0 0 0 
0 0 0 0 0 0 0 0 0 
0 0 0 0 0 0 0 0 0 
0 0 0 0 0 0 0 0 0 
0 0 0 0 0 0 0 0 0 
0 0 0 0 0 0 0 0 0 
0 0 0 0 0 0 0 0 0 
0 0 0 0 0 0 0 0 0 
0 0 0 0 0 0 0 0 0 
0 0 0 0 0 0 0 0 0 
0 0 0 0 0 0 0 0 0 
0 0 0 0 0 0 0 0 0 
0 0 0 0 0 0 0 0 0 
0 0 0 0 0 0 0 0 0 
0 0 0 0 0 0 0 0 0 
0 0 0 0 0 0 0 0 0 
0 0 0 0 0 0 0 0 0 
0 0 0 0 0 0 0 0 0 
0 0 0 0 0 0 0 0 0 
0 0 0 0 0 0 0 0 0 
0 0 0 0 0 0 0 0 0 
0 0 0 0 0 0 0 0 0 
0 0 0 0 0 0 0 0 0 
0 0 0 0 0 0 0 0 0 
0 0 0 0 0 0 0 0 0 
0 0 0 575118.46273 0 783827.42203 1335362.0019 1030867.0257 519456.99768 
742986.72009 2982763.2535 2422948.9716 2352259.3014 9970787.4957 3256088.2899 9264535.0024 3670864.5372 3017419.9444 
3691355.245 0 11640123.613 3312167.3788 6436745.7395 2815517.6009 3860487.9122 2067165.9733 7642237.7877 
3687267.0051 1124625.6107 1614410.8807 5405780.4939 1121316.7601 1841666.6378 5187863.5088 0 0 
2408767.2416 0 0 0 0 0 0 0 0 
0 0 0 0 0 0 0 0 0 
0 0 0 0 0 0 0 0 0 
0 0 0 0 0 0 0 0 0 
0 0 0 0 0 0 0 0 0 
0 0 0 0 0 0 0 0 0 
0 0 0 0 0 0 0 0 0 
0 0 0 0 0 0 0 0 0 
0 0 0 0 0 0 0 0 0 
0 0 0 0 0 0 0 0 0 
0 0 0 0 0 0 0 0 0 
0 0 0 0 0 0 0 0 0 
0 0 0 0 0 0 0 0 0 
0 0 0 0 0 0 0 0 0 
0 0 0 0 0 0 0 0 0 
0 0 0 0 0 0 0 0 0 
0 0 0 0 0 0 0 0 0 
0 0 0 0 0 0 0 0 0 
0 0 0 0 0 0 0 0 0 
0 0 0 0 0 0 0 0 0 
0 0 0 0 0 0 0 0 0 
0 0 0 0 0 0 0 0 0 
0 0 0 0 0 0 0 0 0 
0 0 0 0 0 0 0 0 0 
0 0 0 0 0 0 0 0 0 
0 0 0 0 0 0 0 0 0 
0 0 0 0 0 0 0 0 0 
0 0 0 0 0 0 0 0 0 
0 0 0 0 0 0 0 0 0 
0 0 0 0 0 0 0 0 0 
0 0 0 0 0 0 0 0 0 
0 0 0 19246827.549 25758509.953 0 0 0 0 
0 4265544.2791 9028165.4049 0 0 0 0 0 0 
0 0 0 0 0 0 0 22285550.277 11301823.287 
23195876.148 27514168.982 0 17834798.404 0 16566664.873 0 0 0 
0 0 0 7558645.3683 11318323.342 47132218.008 181096871.81 24475528.946 20025901.615 
86128469.523 63726655.175 120127152.48 109737789.37 89129475.18 64656787.748 31862706.012 19488436.103 49220667.505 
127792148.5 66907800.233 34771621.741 31429802.898 27679829.786 12979369.32 0 0 0 
0 0 0 0 0 0 0 0 0 
0 0 0 0 0 0 0 0 0 
0 0 0 0 0 0 0 0 0 
0 0 0 0 0 7482445.4021 26244103.928 35499485.511 0 
0 0 0 0 13884824.911 35636179.341 0 0 0 
6871539.4235 23574326.159 11257175.186 0 0 0 0 0 0 
0 587638.31866 6629986.2827 0 0 0 0 0 0 
0 0 0 0 0 0 0 0 0 
0 0 0 0 0 0 0 0 0 
0 0 0 0 0 0 0 0 0 
0 0 0 0 0 0 0 0 0 
0 0 0 0 0 0 0 0 0 
0 0 0 0 0 0 0 0 0 
0 0 0 0 0 0 0 0 0 
0 0 0 0 0 0 0 0 0 
0 0 0 0 0 0 0 0 0 
0 0 0 0 0 0 0 0 0 
0 0 0 0 0 0 0 0 0 
0 0 0 0 0 0 0 0 0 
0 0 0 0 0 0 0 0 0 
0 0 0 0 0 0 0 0 0 
0 0 0 0 0 0 0 0 0 
0 0 0 0 0 0 0 0 0 
0 0 0 0 0 0 0 0 0 
0 0 0 0 0 0 0 0 0 
0 0 0 0 0 0 0 0 0 
0 0 0 0 0 0 0 0 0 
0 0 0 0 0 0 0 0 0 
0 0 0 0 0 0 0 0 0 
0 0 0 0 0 0 0 0 0 
0 0 0 0 0 0 0 0 0 
0 0 0 0 0 0 0 0 0 
0 0 0 0 0 0 0 0 0 
0 0 0 0 0 0 0 0 0 
0 0 0 0 0 0 0 0 0 
0 0 0 0 0 0 0 0 0 
0 0 0 0 0 0 0 0 0 
0 0 0 0 0 0 0 0 0 
0 0 0 0 0 0 0 0 0 
0 0 0 0 0 0 0 0 0 
0 0 0 0 0 0 0 0 0 
0 0 0 0 0 0 0 0 0 
0 0 0 0 0 0 0 0 0 
0 0 0 0 0 0 0 0 0 
0 0 0 0 0 0 0 0 0 
0 0 0 0 0 0 0 0 0 
0 0 0 0 0 0 0 0 0 
0 0 0 0 0 0 0 0 0 
0 0 0 0 0 0 0 0 0 
0 0 0 0 0 0 0 0 0 
0 0 0 0 0 0 0 0 0 
0 0 0 0 0 0 0 0 0 
0 0 0 0 0 0 0 0 0 
0 0 0 0 0 0 0 0 0 
0 0 0 0 0 0 0 0 0 
0 0 0 0 0 0 0 0 0 
0 0 0 0 0 0 0 0 0 
0 0 0 0 0 0 0 0 0 
0 0 0 0 0 0 0 0 0 
0 0 0 0 0 0 0 0 0 
0 0 0 0 0 0 0 0 0 
0 0 0 0 0 0 0 0 0 
0 0 0 0 0 0 0 0 0 
0 0 0 0 0 0 0 0 0 
0 0 0 0 0 0 0 0 0 
0 0 0 0 0 0 0 0 0 
0 0 0 0 0 0 0 0 0 
0 0 0 0 0 0 0 0 0 
0 0 0 0 0 0 0 0 0 
0 0 0 0 0 0 0 0 0 
0 0 0 0 0 0 0 0 0 
0 0 0 0 0 0 0 0 0 
0 0 0 0 0 0 0 0 0 
0 0 0 0 0 0 0 0 0 
0 0 0 0 0 0 0 0 0 
0 0 0 0 0 0 0 0 0 
0 0 0 0 0 0 0 0 0 
0 0 0 0 0 0 0 0 0 
0 0 0 0 0 0 0 0 0 
0 0 0 0 0 0 0 0 0 
0 0 0 0 0 0 0 0 0 
0 0 0 0 0 0 0 0 0 
0 0 0 0 0 0 0 0 0 
0 0 0 0 0 0 0 0 0 
0 0 0 0 0 0 0 0 0 
0 0 0 0 0 0 0 0 0 
0 0 0 0 0 0 0 0 0 
0 0 0 0 0 0 0 0 0 
0 0 0 0 0 0 0 0 0 
0 0 0 0 0 0 0 0 0 
0 0 0 0 0 0 0 0 0 
0 0 0 0 0 0 0 0 0 
0 0 0 0 0 0 0 0 0 
0 0 0 0 0 0 0 0 0 
0 0 0 0 0 0 0 0 0 
0 0 0 0 0 0 0 0 0 
0 0 0 0 0 0 0 0 0 
0 0 0 0 0 0 0 0 0 
0 0 0 0 0 0 0 0 0 
0 0 0 0 0 0 0 0 0 
0 0 0 0 0 0 0 0 0 
0 0 0 0 0 0 0 0 0 
0 0 0 0 0 0 0 0 0 
0 0 0 0 0 0 0 0 0 
0 0 0 0 0 0 0 0 0 
0 0 0 0 0 0 0 0 0 
0 0 0 0 0 0 0 0 0 
0 0 0 0 0 0 0 0 0 
0 0 0 0 0 0 0 0 0 
0 0 0 0 0 0 0 0 0 
0 0 0 0 0 0 0 0 0 
0 0 0 0 0 0 0 0 0 
0 0 0 0 0 0 0 0 0 
0 0 0 0 0 0 0 0 0 
0 0 0 0 0 0 0 0 0 
0 0 0 0 0 0 0 0 0 
0 0 0 0 0 0 0 0 0 
0 0 0 0 0 0 0 0 0 
0 0 0 0 0 0 0 0 0 
0 0 0 0 0 0 0 0 0 
0 0 0 0 0 0 0 0 0 
0 0 0 0 0 0 0 0 0 
0 0 0 0 0 0 0 0 0 
0 0 0 0 0 0 0 0 0 
0 0 0 0 0 0 0 0 0 
0 0 0 0 0 0 0 0 0 
0 0 0 0 0 0 0 0 0 
0 0 0 0 0 0 0 0 0 
0 0 0 0 0 0 0 0 0 
0 0 0 0 0 0 0 0 0 
0 0 0 0 0 0 0 0 0 
0 0 0 0 0 0 0 0 0 
0 0 0 0 0 0 0 0 0 
0 0 0 0 0 0 0 0 0 
0 0 0 0 0 0 0 0 0 
0 0 0 0 0 0 0 0 0 
0 0 0 0 0 0 0 0 0 
0 0 0 0 0 0 0 0 0 
0 0 0 0 0 0 0 0 0 
0 0 0 0 0 0 0 0 0 
0 0 0 0 0 0 0 0 0 
0 0 0 0 0 0 0 0 0 
0 0 0 0 0 0 0 0 0 
0 0 0 0 0 0 0 0 0 
0 0 0 0 0 0 0 0 0 
0 0 0 0 0 0 0 0 0 
0 0 0 0 0 0 0 0 0 
0 0 0 0 0 0 0 0 0 
0 0 0 0 0 0 0 0 0 
0 0 0 0 0 0 0 0 0 
0 0 0 0 0 0 0 0 0 
0 0 0 0 0 0 0 0 0 
0 0 0 0 0 0 0 0 0 
0 0 0 0 0 0 0 0 0 
0 0 0 0 0 0 0 0 0 
0 0 0 0 0 0 0 0 0 
0 0 0 0 0 0 0 0 0 
0 0 0 0 0 0 0 0 0 
0 0 0 0 0 0 0 0 0 
0 0 0 0 0 0 0 0 0 
0 0 0 0 0 0 0 0 0 
0 0 0 0 0 0 0 0 0 
0 0 0 0 0 0 0 0 0 
0 0 0 0 0 0 0 0 0 
0 0 0 0 0 0 0 0 0 
0 0 0 0 0 0 0 0 0 
0 0 0 0 0 0 0 0 0 
0 0 0 0 0 0 0 0 0 
0 0 0 0 0 0 0 0 0 
0 0 0 0 0 0 0 0 0 
0 0 0 0 0 0 0 0 0 
0 0 0 0 0 0 0 0 0 
0 0 0 0 0 0 0 0 0 
0 0 0 0 0 0 0 0 0 
0 0 0 0 0 0 0 0 0 
0 0 0 0 0 0 0 0 0 
0 0 0 0 0 0 0 0 0 
0 0 0 0 0 0 0 0 0 
0 0 0 0 0 0 0 0 0 
0 0 0 0 0 0 0 0 0 
0 0 0 0 0 0 0 0 0 
0 0 0 0 0 0 0 0 0 
0 0 0 0 0 0 0 0 0 
0 0 0 0 0 0 0 0 0 
0 0 0 0 0 0 0 0 0 
0 0 0 0 0 0 0 0 0 
0 0 0 0 0 0 0 0 0 
0 0 0 0 0 0 0 0 0 
0 0 0 0 0 0 0 0 0 
0 0 0 0 0 0 0 0 0 
0 0 0 0 0 0 0 0 0 
0 0 0 0 0 0 0 0 0 
0 0 0 0 0 0 0 0 0 
0 0 0 0 0 0 0 0 0 
0 0 0 0 0 0 0 0 0 
0 0 0 0 0 0 0 0 0 
0 0 0 0 0 0 0 0 0 
0 0 0 0 0 0 0 0 0 
0 0 0 0 0 0 0 0 0 
0 0 0 0 0 0 0 0 0 
0 0 0 0 0 0 0 0 0 
0 0 0 0 0 0 0 0 0 
0 0 0 0 0 0 0 0 0 
0 0 0 0 0 0 0 0 0 
0 0 0 0 0 0 0 0 0 
0 0 0 0 0 0 0 0 0 
0 0 0 0 0 0 0 0 0 
0 0 0 0 0 0 0 0 0 
0 0 0 0 0 0 0 0 0 
0 0 0 0 0 0 0 0 0 
0 0 0 0 0 0 0 0 0 
0 0 0 0 0 0 0 0 0 
0 0 0 0 0 0 0 0 0 
0 0 0 0 0 0 0 0 0 
0 0 0 0 0 0 0 0 0 
0 0 0 0 0 0 0 0 0 
0 0 0 0 0 0 0 0 0 
0 0 0 0 0 0 0 0 0 
0 0 0 0 0 0 0 0 0 
0 0 0 0 0 0 0 0 0 
0 0 0 0 0 0 0 0 0 
0 0 0 0 0 0 0 0 0 
0 0 0 0 0 0 0 0 0 
0 0 0 0 0 0 0 0 0 
0 0 0 0 0 0 0 0 0 
0 0 0 0 0 0 0 0 0 
0 0 0 0 0 0 0 0 0 
0 0 0 0 0 0 0 0 0 
0 0 0 0 0 0 0 0 0 
0 0 0 0 0 0 0 0 0 
0 0 0 0 0 0 0 0 0 
0 0 0 0 0 0 0 0 0 
0 0 0 0 0 0 0 0 0 
0 0 0 0 0 0 0 0 0 
0 0 0 0 0 0 0 0 0 
0 0 
stress 3 5744 double
0 0 0 0 0 0 0 0 0 
0 0 0 0 0 0 0 0 0 
0 0 0 0 0 0 0 0 0 
0 0 0 0 0 0 0 0 0 
0 0 0 0 0 0 0 0 0 
0 0 0 0 0 0 0 0 0 
0 0 0 0 0 0 0 0 0 
0 0 0 0 0 0 0 0 0 
0 0 0 0 0 0 0 0 0 
0 0 0 0 0 0 0 0 0 
0 0 0 0 0 0 0 0 0 
0 0 0 0 0 0 0 0 0 
0 0 0 0 0 0 0 0 0 
0 0 0 0 0 0 0 0 0 
0 0 0 0 0 0 0 0 0 
0 0 0 0 0 0 0 0 0 
0 0 0 0 0 0 0 0 0 
0 0 0 0 0 0 0 0 0 
0 0 0 0 0 0 0 0 0 
0 0 0 0 0 0 0 0 0 
0 0 0 0 0 0 0 0 0 
0 0 0 0 0 0 0 0 0 
0 0 0 0 0 0 0 0 0 
0 0 0 0 0 0 0 0 0 
0 0 0 0 0 0 0 0 0 
0 0 0 0 0 0 0 0 0 
0 0 0 0 0 0 0 0 0 
0 0 0 0 0 0 0 0 0 
0 0 0 0 0 0 0 0 0 
0 0 0 0 0 0 0 0 0 
0 0 0 0 0 0 0 0 0 
0 0 0 0 0 0 0 0 0 
0 0 0 0 0 0 0 0 0 
0 0 0 0 0 0 0 0 0 
0 0 0 0 0 0 0 0 0 
0 0 0 0 0 0 0 0 0 
0 0 0 0 0 0 0 0 0 
0 0 0 0 0 0 0 0 0 
0 0 0 0 0 0 0 0 0 
0 0 0 0 0 0 0 0 0 
0 0 0 0 0 0 0 0 0 
0 0 0 0 0 0 0 0 0 
0 0 0 0 0 0 0 0 0 
0 0 0 0 0 0 0 0 0 
0 0 0 0 0 0 0 0 0 
0 0 0 0 0 0 0 0 0 
0 0 0 0 0 0 0 0 0 
0 0 0 0 0 0 0 0 0 
0 0 0 0 0 0 0 0 0 
0 0 0 0 0 0 0 0 0 
0 0 0 0 0 0 0 0 0 
0 0 0 0 0 0 0 0 0 
0 0 0 0 0 0 0 0 0 
0 0 0 0 0 0 0 0 0 
0 0 0 0 0 0 0 0 0 
0 0 0 0 0 0 0 0 0 
0 0 0 0 0 0 0 0 0 
0 0 0 0 0 0 0 0 0 
0 0 0 0 0 0 0 0 0 
0 0 0 0 0 0 0 0 0 
0 0 0 0 0 0 0 0 0 
0 0 0 0 0 0 0 0 0 
0 0 0 0 0 0 0 0 0 
0 0 0 0 0 0 0 0 0 
0 0 0 0 0 0 0 0 0 
0 0 0 0 0 0 0 0 0 
0 0 0 0 0 0 0 0 0 
0 0 0 0 0 0 0 0 0 
0 0 0 0 0 0 0 0 0 
0 0 0 0 0 0 0 0 0 
0 0 0 0 0 0 0 0 0 
0 0 0 0 0 0 0 0 0 
0 0 0 0 0 0 0 0 0 
0 0 0 0 0 0 0 0 0 
0 0 0 0 0 0 0 0 0 
0 0 0 0 0 0 0 0 0 
0 0 0 0 0 0 0 0 0 
0 0 0 0 0 0 0 0 0 
0 0 0 0 0 0 0 0 0 
0 0 0 0 0 0 0 0 0 
0 0 0 0 0 0 0 0 0 
0 0 0 0 0 0 0 0 0 
0 0 0 0 0 0 0 0 0 
0 0 0 0 0 0 0 0 0 
0 0 0 0 0 0 0 0 0 
0 0 0 0 0 0 0 0 0 
0 0 0 0 0 0 0 0 0 
0 0 0 0 0 0 0 0 0 
0 0 0 0 0 0 0 0 0 
0 0 0 0 0 0 0 0 0 
0 0 0 0 0 0 0 0 0 
0 0 0 0 0 0 0 0 0 
0 0 0 0 0 0 0 0 0 
0 0 0 0 0 0 0 0 0 
0 0 0 0 0 0 0 0 0 
0 0 0 0 0 0 0 0 0 
0 0 0 0 0 0 0 0 0 
0 0 0 0 0 0 0 0 0 
0 0 0 0 0 0 0 0 0 
0 0 0 0 0 0 0 0 0 
0 0 0 0 0 0 0 0 0 
0 0 0 0 0 0 0 0 0 
0 0 0 0 0 0 0 0 0 
0 0 0 0 0 0 0 0 0 
0 0 0 0 0 0 0 0 0 
0 0 0 0 0 0 0 0 0 
0 0 0 0 0 0 0 0 0 
0 0 0 0 0 0 0 0 0 
0 0 0 0 0 0 0 0 0 
0 0 0 0 0 0 0 0 0 
0 0 0 0 0 0 0 0 0 
0 0 0 0 0 0 0 0 0 
0 0 0 0 0 0 0 0 0 
0 0 0 0 0 0 0 0 0 
0 0 0 0 0 0 0 0 0 
0 0 0 0 0 0 0 0 0 
0 0 0 0 0 0 0 0 0 
0 0 0 0 0 0 0 0 0 
0 0 0 0 0 0 0 0 0 
0 0 0 0 0 0 0 0 0 
0 0 0 0 0 0 0 0 0 
0 0 0 0 0 0 0 0 0 
0 0 0 0 0 0 0 0 0 
0 0 0 0 0 0 0 0 0 
0 0 0 0 0 0 0 0 0 
0 0 0 0 0 0 0 0 0 
0 0 0 0 0 0 0 0 0 
0 0 0 0 0 0 0 0 0 
0 0 0 0 0 0 0 0 0 
0 0 0 0 0 0 0 0 0 
0 0 0 0 0 0 0 0 0 
0 0 0 0 0 0 0 0 0 
0 0 0 0 0 0 0 0 0 
0 0 0 0 0 0 0 0 0 
0 0 0 0 0 0 0 0 0 
0 0 0 0 0 0 0 0 0 
0 0 0 0 0 0 0 0 0 
0 0 0 0 0 0 0 0 0 
0 0 0 0 0 0 0 0 0 
0 0 0 0 0 0 0 0 0 
0 0 0 0 0 0 0 0 0 
0 0 0 0 0 0 0 0 0 
0 0 0 0 0 0 0 0 0 
0 0 0 0 0 0 0 0 0 
0 0 0 0 0 0 0 0 0 
0 0 0 0 0 0 0 0 0 
0 0 0 0 0 0 0 0 0 
0 0 0 0 0 0 0 0 0 
0 0 0 0 0 0 0 0 0 
0 0 0 0 0 0 0 0 0 
0 0 0 0 0 0 0 0 0 
0 0 0 0 0 0 0 0 0 
0 0 0 0 0 0 0 0 0 
0 0 0 0 0 0 0 0 0 
0 0 0 0 0 0 0 0 0 
0 0 0 0 0 0 0 0 0 
0 0 0 0 0 0 0 0 0 
0 0 0 0 0 0 0 0 0 
0 0 0 0 0 0 0 0 0 
0 0 0 0 0 0 0 0 0 
0 0 0 0 0 0 0 0 0 
0 0 0 0 0 0 0 0 0 
0 0 0 0 0 0 0 0 0 
0 0 0 0 0 0 0 0 0 
0 0 0 0 0 0 0 0 0 
0 0 0 0 0 0 0 0 0 
0 0 0 0 0 0 0 0 0 
0 0 0 0 0 0 0 0 0 
0 0 0 0 0 0 0 0 0 
0 0 0 0 0 0 0 0 0 
0 0 0 0 0 0 0 0 0 
0 0 0 0 0 0 0 0 0 
0 0 0 0 0 0 0 0 0 
0 0 0 0 0 0 0 0 0 
0 0 0 0 0 0 0 0 0 
0 0 0 0 0 0 0 0 0 
0 0 0 0 0 0 0 0 0 
0 0 0 0 0 0 0 0 0 
0 0 0 0 0 0 0 0 0 
0 0 0 0 0 0 0 0 0 
0 0 0 0 0 0 0 0 0 
0 0 0 0 0 0 0 0 0 
0 0 0 0 0 0 0 0 0 
0 0 0 0 0 0 0 0 0 
0 0 0 0 0 0 0 0 0 
0 0 0 0 0 0 0 0 0 
0 0 0 0 0 0 0 0 0 
0 0 0 0 0 0 0 0 0 
0 0 0 0 0 0 0 0 0 
0 0 0 0 0 0 0 0 0 
0 0 0 0 0 0 0 0 0 
0 0 0 0 0 0 0 0 0 
0 0 0 0 0 0 0 0 0 
0 0 0 0 0 0 0 0 0 
0 0 0 0 0 0 0 0 0 
0 0 0 0 0 0 0 0 0 
0 0 0 0 0 0 0 0 0 
0 0 0 0 0 0 0 0 0 
0 0 0 0 0 0 0 0 0 
0 0 0 0 0 0 0 0 0 
0 0 0 0 0 0 0 0 0 
0 0 0 0 0 0 0 0 0 
0 0 0 0 0 0 0 0 0 
0 0 0 0 0 0 0 0 0 
0 0 0 0 0 0 0 0 0 
0 0 0 0 0 0 0 0 0 
0 0 0 0 0 0 0 0 0 
0 0 0 0 0 0 0 0 0 
0 0 0 0 0 0 0 0 0 
0 0 0 0 0 0 0 0 0 
0 0 0 0 0 0 0 0 0 
0 0 0 0 0 0 0 0 0 
0 0 0 0 0 0 0 0 0 
0 0 0 0 0 0 0 0 0 
0 0 0 0 0 0 0 0 0 
0 0 0 0 0 0 0 0 0 
0 0 0 0 0 0 0 0 0 
0 0 0 0 0 0 0 0 0 
0 0 0 0 0 0 0 0 0 
0 0 0 0 0 0 0 0 0 
0 0 0 0 0 0 0 0 0 
0 0 0 0 0 0 0 0 0 
0 0 0 0 0 0 0 0 0 
0 0 0 0 0 0 0 0 0 
0 0 0 0 0 0 0 0 0 
0 0 0 0 0 0 0 0 0 
0 0 0 0 0 0 0 0 0 
0 0 0 0 0 0 0 0 0 
0 0 0 0 0 0 0 0 0 
0 0 0 0 0 0 0 0 0 
0 0 0 0 0 0 0 0 0 
0 0 0 0 0 0 0 0 0 
0 0 0 0 0 0 0 0 0 
0 0 0 0 0 0 0 0 0 
0 0 0 0 0 0 0 0 0 
0 0 0 0 0 0 0 0 0 
0 0 0 0 0 0 0 0 0 
0 0 0 0 0 0 0 0 0 
0 0 0 0 0 0 0 0 0 
0 0 0 0 0 0 0 0 0 
0 0 0 0 0 0 0 0 0 
0 0 0 0 0 0 0 0 0 
0 0 0 0 0 0 0 0 0 
0 0 0 0 0 0 0 0 0 
0 0 0 0 0 0 0 0 0 
0 0 0 0 0 0 0 0 0 
0 0 0 0 0 0 0 0 0 
0 0 0 0 0 0 0 0 0 
0 0 0 0 0 0 0 0 0 
0 0 0 0 0 0 0 0 0 
0 0 0 0 0 0 0 0 0 
0 0 0 0 0 0 0 0 0 
0 0 0 0 0 0 0 0 0 
0 0 0 0 0 0 0 0 0 
0 0 0 0 0 0 0 0 0 
0 0 0 0 0 0 0 0 0 
0 0 0 0 0 0 0 0 0 
0 0 0 0 0 0 0 0 0 
0 0 0 0 0 0 0 0 0 
0 0 0 0 0 0 0 0 0 
0 0 0 0 0 0 0 0 0 
0 0 0 0 0 0 0 0 0 
0 0 0 0 0 0 0 0 0 
0 0 0 0 0 0 0 0 0 
0 0 0 0 0 0 0 0 0 
0 0 0 0 0 0 0 0 0 
0 0 0 0 0 0 0 0 0 
0 0 0 0 0 0 0 0 0 
0 0 0 0 0 0 0 0 0 
0 0 0 0 0 0 0 0 0 
0 0 0 0 0 0 0 0 0 
0 0 0 0 0 0 0 0 0 
0 0 0 0 0 0 0 0 0 
0 0 0 0 0 0 0 0 0 
0 0 0 0 0 0 0 0 0 
0 0 0 0 0 0 0 0 0 
0 0 0 0 0 0 0 0 0 
0 0 0 0 0 0 0 0 0 
0 0 0 0 0 0 0 0 0 
0 0 0 0 0 0 0 0 0 
0 0 0 0 0 0 0 0 0 
0 0 0 0 0 0 0 0 0 
0 0 0 0 0 0 0 0 0 
0 0 0 0 0 0 0 0 0 
0 0 0 0 0 0 0 0 0 
0 0 0 0 0 0 0 0 0 
0 0 0 0 0 0 0 0 0 
0 0 0 0 0 0 0 0 0 
0 0 0 0 0 0 0 0 0 
0 0 0 0 0 0 0 0 0 
0 0 0 0 0 0 0 0 0 
0 0 0 0 0 0 0 0 0 
0 0 0 0 0 0 0 0 0 
0 0 0 0 0 0 0 0 0 
0 0 0 0 0 0 0 0 0 
0 0 0 0 0 0 0 0 0 
0 0 0 0 0 0 0 0 0 
0 0 0 0 0 0 0 0 0 
0 0 0 0 0 0 0 0 0 
0 0 0 0 0 0 0 0 0 
0 0 0 0 0 0 0 0 0 
0 0 0 0 0 0 0 0 0 
0 0 0 0 0 0 0 0 0 
0 0 0 0 0 0 0 0 0 
0 0 0 0 0 0 0 0 0 
0 0 0 0 0 0 0 0 0 
0 0 0 0 0 0 0 0 0 
0 0 0 0 0 0 0 0 0 
0 0 0 0 0 0 0 0 0 
0 0 0 0 0 0 0 0 0 
0 0 0 0 0 0 0 0 0 
0 0 0 0 0 0 0 0 0 
0 0 0 0 0 0 0 0 0 
0 0 0 0 0 0 0 0 0 
0 0 0 0 0 0 0 0 0 
0 0 0 0 0 0 0 0 0 
0 0 0 0 0 0 0 0 0 
0 0 0 0 0 0 0 0 0 
0 0 0 0 0 0 0 0 0 
0 0 0 0 0 0 0 0 0 
0 0 0 0 0 0 0 0 0 
0 0 0 0 0 0 0 0 0 
0 0 0 0 0 0 0 0 0 
0 0 0 0 0 0 0 0 0 
0 0 0 0 0 0 0 0 0 
0 0 0 0 0 0 0 0 0 
0 0 0 0 0 0 0 0 0 
0 0 0 0 0 0 0 0 0 
0 0 0 0 0 0 0 0 0 
0 0 0 0 0 0 0 0 0 
0 0 0 0 0 0 0 0 0 
0 0 0 0 0 0 0 0 0 
0 0 0 0 0 0 0 0 0 
0 0 0 0 0 0 0 0 0 
0 0 0 0 0 0 0 0 0 
0 0 0 0 0 0 0 0 0 
0 0 0 0 0 0 0 0 0 
0 0 0 0 0 0 0 0 0 
0 0 0 0 0 0 0 0 0 
0 0 0 0 0 0 0 0 0 
0 0 0 0 0 0 0 0 0 
0 0 0 0 0 0 0 0 0 
0 0 0 0 0 0 0 0 0 
0 0 0 0 0 0 0 0 0 
0 0 0 0 0 0 0 0 0 
0 0 0 0 0 0 0 0 0 
0 0 0 0 0 0 0 0 0 
0 0 0 0 0 0 0 0 0 
0 0 0 0 0 0 0 0 0 
0 0 0 0 0 0 0 0 0 
0 0 0 0 0 0 0 0 0 
0 0 0 0 0 0 0 0 0 
0 0 0 0 0 0 0 0 0 
0 0 0 0 0 0 0 0 0 
0 0 0 0 0 0 0 0 0 
0 0 0 0 0 0 0 0 0 
0 0 0 0 0 0 0 0 0 
0 0 0 0 0 0 0 0 0 
0 0 0 0 0 0 0 0 0 
0 0 0 0 0 0 0 0 0 
0 0 0 0 0 0 0 0 0 
0 0 0 0 0 0 0 0 0 
0 0 0 0 0 0 0 0 0 
0 0 0 0 0 0 0 0 0 
0 0 0 0 0 0 0 0 0 
0 0 0 0 0 0 0 0 0 
0 0 0 0 0 0 0 0 0 
0 0 0 0 0 0 0 0 0 
0 0 0 0 0 0 0 0 0 
0 0 0 0 0 0 0 0 0 
0 0 0 0 0 0 0 0 0 
0 0 0 0 0 0 0 0 0 
0 0 0 0 0 0 0 0 0 
0 0 0 0 0 0 0 0 0 
0 0 0 0 0 0 0 0 0 
0 0 0 0 0 0 0 0 0 
0 0 0 0 0 0 0 0 0 
0 0 0 0 0 0 0 0 0 
0 0 0 0 0 0 0 0 0 
0 0 0 0 0 0 0 0 0 
0 0 0 0 0 0 0 0 0 
0 0 0 0 0 0 0 0 0 
0 0 0 0 0 0 0 0 0 
0 0 0 0 0 0 0 0 0 
0 0 0 0 0 0 0 0 0 
0 0 0 0 0 0 0 0 0 
0 0 0 0 0 0 0 0 0 
0 0 0 0 0 0 0 0 0 
0 0 0 0 0 0 0 0 0 
0 0 0 0 0 0 0 0 0 
0 0 0 0 0 0 0 0 0 
0 0 0 0 0 0 0 0 0 
0 0 0 0 0 0 0 0 0 
0 0 0 0 0 0 0 0 0 
0 0 0 0 0 0 0 0 0 
0 0 0 0 0 0 0 0 0 
0 0 0 0 0 0 0 0 0 
0 0 0 0 0 0 0 0 0 
0 0 0 0 0 0 0 0 0 
0 0 0 0 0 0 0 0 0 
0 0 0 0 0 0 0 0 0 
0 0 0 0 0 0 0 0 0 
0 0 0 0 0 0 0 0 0 
0 0 0 0 0 0 0 0 0 
0 0 0 0 0 0 0 0 0 
0 0 0 0 0 0 0 0 0 
0 0 0 0 0 0 0 0 0 
0 0 0 0 0 0 0 0 0 
0 0 0 0 0 0 0 0 0 
0 0 0 0 0 0 0 0 0 
0 0 0 0 0 0 0 0 0 
0 0 0 0 0 0 0 0 0 
0 0 0 0 0 0 0 0 0 
0 0 0 0 0 0 0 0 0 
0 0 0 0 0 0 0 0 0 
0 0 0 0 0 0 0 0 0 
0 0 0 0 0 0 0 0 0 
0 0 0 0 0 0 0 0 0 
0 0 0 0 0 0 0 0 0 
0 0 0 0 0 0 0 0 0 
0 0 0 0 0 0 0 0 0 
0 0 0 0 0 0 0 0 0 
0 0 0 0 0 0 0 0 0 
0 0 0 0 0 0 0 0 0 
0 0 0 0 0 0 0 0 0 
0 0 0 0 0 0 0 0 0 
0 0 0 0 0 0 0 0 0 
0 0 0 0 0 0 0 0 0 
0 0 0 0 0 0 0 0 0 
0 0 0 0 0 0 0 0 0 
0 0 0 0 0 0 0 0 0 
0 0 0 0 0 0 0 0 0 
0 0 0 0 0 0 0 0 0 
0 0 0 0 0 0 0 0 0 
0 0 0 0 0 0 0 0 0 
0 0 0 0 0 0 0 0 0 
0 0 0 0 0 0 0 0 0 
0 0 0 0 0 0 0 0 0 
0 0 0 0 0 0 0 0 0 
0 0 0 0 0 0 0 0 0 
0 0 0 0 0 0 0 0 0 
0 0 0 0 0 0 0 0 0 
0 0 0 0 0 0 0 0 0 
0 0 0 0 0 0 0 0 0 
0 0 0 0 0 0 0 0 0 
0 0 0 0 0 0 0 0 0 
0 0 0 0 0 0 0 0 0 
0 0 0 0 0 0 0 0 0 
0 0 0 0 0 0 0 0 0 
0 0 0 0 0 0 0 0 0 
0 0 0 0 0 0 0 0 0 
0 0 0 0 0 0 0 0 0 
0 0 0 0 0 0 0 0 0 
0 0 0 0 0 0 0 0 0 
0 0 0 0 0 0 0 0 0 
0 0 0 0 0 0 0 0 0 
0 0 0 0 0 0 0 0 0 
0 0 0 0 0 0 0 0 0 
0 0 0 0 0 0 0 0 0 
0 0 0 0 0 0 0 0 0 
0 0 0 0 0 0 0 0 0 
0 0 0 0 0 0 0 0 0 
0 0 0 0 0 0 0 0 0 
0 0 0 0 0 0 0 0 0 
0 0 0 0 0 0 0 0 0 
0 0 0 0 0 0 0 0 0 
0 0 0 0 0 0 0 0 0 
0 0 0 0 0 0 0 0 0 
0 0 0 0 0 0 0 0 0 
0 0 0 0 0 0 0 0 0 
0 0 0 0 0 0 0 0 0 
0 0 0 0 0 0 0 0 0 
0 0 0 0 0 0 0 0 0 
0 0 0 0 0 0 0 0 0 
0 0 0 0 0 0 0 0 0 
0 0 0 0 0 0 0 0 0 
0 0 0 0 0 0 0 0 0 
0 0 0 0 0 0 0 0 0 
0 0 0 0 0 0 0 0 0 
0 0 0 0 0 0 0 0 0 
0 0 0 0 0 0 0 0 0 
0 0 0 0 0 0 0 0 0 
0 0 0 0 0 0 0 0 0 
0 0 0 0 0 0 0 0 0 
0 0 0 0 0 0 0 0 0 
0 0 0 0 0 0 0 0 0 
0 0 0 0 0 0 0 0 0 
0 0 0 0 0 0 0 0 0 
0 0 0 0 0 0 0 0 0 
0 0 0 0 0 0 0 0 0 
0 0 0 0 0 0 0 0 0 
0 0 0 0 0 0 0 0 0 
0 0 0 0 0 0 0 0 0 
0 0 0 0 0 0 0 0 0 
0 0 0 0 0 0 0 0 0 
0 0 0 0 0 0 0 0 0 
0 0 0 0 0 0 0 0 0 
0 0 0 0 0 0 0 0 0 
0 0 0 0 0 0 0 0 0 
0 0 0 0 0 0 0 0 0 
0 0 0 0 0 0 0 0 0 
0 0 0 0 0 0 0 0 0 
0 0 0 0 0 0 0 0 0 
0 0 0 0 0 0 0 0 0 
0 0 0 0 0 0 0 0 0 
0 0 0 0 0 0 0 0 0 
0 0 0 0 0 0 0 0 0 
0 0 0 0 0 0 0 0 0 
0 0 0 0 0 0 0 0 0 
0 0 0 0 0 0 0 0 0 
0 0 0 0 0 0 0 0 0 
0 0 0 0 0 0 0 0 0 
0 0 0 0 0 0 0 0 0 
0 0 0 0 0 0 0 0 0 
0 0 0 0 0 0 0 0 0 
0 0 0 0 0 0 0 0 0 
0 0 0 0 0 0 0 0 0 
0 0 0 0 0 0 0 0 0 
0 0 0 0 0 0 0 0 0 
0 0 0 0 0 0 0 0 0 
0 0 0 0 0 0 0 0 0 
0 0 0 0 0 0 0 0 0 
0 0 0 0 0 0 0 0 0 
0 0 0 0 0 0 0 0 0 
0 0 0 0 0 0 0 0 0 
0 0 0 0 0 0 0 0 0 
0 0 0 0 0 0 0 0 0 
0 0 0 0 0 0 0 0 0 
0 0 0 0 0 0 0 0 0 
0 0 0 0 0 0 0 0 0 
0 0 0 0 0 0 0 0 0 
0 0 0 0 0 0 0 0 0 
-1111876.3608 -6020021.5663 4496662.843 -309711.22742 -19687501.602 7907965.8753 0 0 0 
0 0 0 0 0 0 0 0 0 
0 0 0 0 0 0 0 0 0 
0 0 0 0 0 0 0 0 0 
0 0 0 0 0 0 0 0 0 
0 0 0 0 0 0 0 0 0 
0 0 0 0 0 0 0 0 0 
3412113.9815 13608256.463 33466671.118 0 0 0 0 0 0 
0 0 0 0 0 0 0 0 0 
0 0 0 0 0 0 0 0 0 
0 0 0 0 0 0 0 0 0 
0 0 0 0 0 0 0 0 0 
914392.51149 2771288.4771 11252429.372 797334.61133 -14643257.548 9751396.5608 -521964.73148 -1735478.1984 9475576.304 
0 0 0 0 0 0 0 0 0 
0 0 0 0 0 0 0 0 0 
0 0 0 0 0 0 0 0 0 
0 0 0 0 0 0 0 0 0 
0 0 0 0 0 0 0 0 0 
0 0 0 0 0 0 0 0 0 
0 0 0 0 0 0 0 0 0 
0 0 0 0 0 0 0 0 0 
0 0 0 0 0 0 0 0 0 
0 0 0 0 0 0 0 0 0 
0 0 0 0 0 0 0 0 0 
0 0 0 0 0 0 0 0 0 
0 0 0 0 0 0 0 0 0 
0 0 0 0 0 0 0 0 0 
0 0 0 0 0 0 0 0 0 
0 0 0 0 0 0 0 0 0 
0 0 0 0 0 0 0 0 0 
0 0 0 0 0 0 0 0 0 
0 0 0 0 0 0 0 0 0 
0 0 0 0 0 0 0 0 0 
0 0 0 0 0 0 0 0 0 
0 0 0 0 0 0 0 0 0 
0 0 0 0 0 0 0 0 0 
0 0 0 0 0 0 0 0 0 
0 0 0 0 0 0 0 0 0 
0 0 0 0 0 0 0 0 0 
0 0 0 0 0 0 0 0 0 
0 0 0 0 0 0 0 0 0 
0 0 0 0 0 0 0 0 0 
0 0 0 0 0 0 0 0 0 
0 0 0 0 0 0 0 0 0 
0 0 0 0 0 0 0 0 0 
0 0 0 0 0 0 0 0 0 
0 0 0 0 0 0 0 0 0 
0 0 0 0 0 0 0 0 0 
0 0 0 0 0 0 0 0 0 
0 0 0 0 0 0 0 0 0 
0 0 0 0 0 0 0 0 0 
0 0 0 0 0 0 0 0 0 
0 0 0 0 0 0 0 0 0 
0 0 0 0 0 0 0 0 0 
0 0 0 0 0 0 0 0 0 
0 0 0 0 0 0 0 0 0 
0 0 0 0 0 0 0 0 0 
0 0 0 0 0 0 0 0 0 
0 0 0 0 0 0 0 0 0 
0 0 0 0 0 0 0 0 0 
0 0 0 0 0 0 0 0 0 
0 0 0 0 0 0 0 0 0 
0 0 0 0 0 0 0 0 0 
0 0 0 0 0 0 0 0 0 
0 0 0 0 0 0 0 0 0 
0 0 0 0 0 0 0 0 0 
0 0 0 0 0 0 0 0 0 
0 0 0 0 0 0 0 0 0 
0 0 0 0 0 0 0 0 0 
0 0 0 0 0 0 0 0 0 
0 0 0 0 0 0 0 0 0 
0 0 0 0 0 0 0 0 0 
0 0 0 0 0 0 0 0 0 
0 0 0 0 0 0 0 0 0 
0 0 0 0 0 0 0 0 0 
0 0 0 0 0 0 0 0 0 
0 0 0 0 0 0 0 0 0 
0 0 0 0 0 0 0 0 0 
0 0 0 0 0 0 0 0 0 
0 0 0 0 0 0 0 0 0 
0 0 0 0 0 0 0 0 0 
0 0 0 0 0 0 0 0 0 
0 0 0 0 0 0 0 0 0 
0 0 0 0 0 0 0 0 0 
0 0 0 0 0 0 0 0 0 
0 0 0 0 0 0 0 0 0 
0 0 0 0 0 0 0 0 0 
0 0 0 0 0 0 0 0 0 
0 0 0 0 0 0 0 0 0 
0 0 0 0 0 0 0 0 0 
0 0 0 0 0 0 0 0 0 
0 0 0 0 0 0 0 0 0 
0 0 0 0 0 0 0 0 0 
0 0 0 0 0 0 0 0 0 
0 0 0 0 0 0 0 0 0 
0 0 0 0 0 0 0 0 0 
0 0 0 0 0 0 0 0 0 
0 0 0 0 0 0 0 0 0 
0 0 0 0 0 0 0 0 0 
0 0 0 0 0 0 0 0 0 
0 0 0 0 0 0 0 0 0 
0 0 0 0 0 0 0 0 0 
0 0 0 0 0 0 0 0 0 
0 0 0 0 0 0 0 0 0 
0 0 0 0 0 0 0 0 0 
0 0 0 0 0 0 0 0 0 
0 0 0 0 0 0 0 0 0 
0 0 0 0 0 0 0 0 0 
0 0 0 0 0 0 0 0 0 
0 0 0 0 0 0 0 0 0 
0 0 0 0 0 0 0 0 0 
0 0 0 0 0 0 0 0 0 
0 0 0 0 0 0 0 0 0 
0 0 0 0 0 0 0 0 0 
0 0 0 0 0 0 0 0 0 
0 0 0 0 0 0 0 0 0 
0 0 0 0 0 0 0 0 0 
0 0 0 0 0 0 0 0 0 
0 0 0 0 0 0 0 0 0 
0 0 0 0 0 0 0 0 0 
0 0 0 0 0 0 0 0 0 
0 0 0 0 0 0 0 0 0 
0 0 0 0 0 0 0 0 0 
0 0 0 0 0 0 0 0 0 
0 0 0 0 0 0 0 0 0 
0 0 0 0 0 0 0 0 0 
0 0 0 0 0 0 0 0 0 
0 0 0 0 0 0 0 0 0 
0 0 0 0 0 0 0 0 0 
0 0 0 0 0 0 0 0 0 
0 0 0 0 0 0 0 0 0 
0 0 0 0 0 0 0 0 0 
0 0 0 0 0 0 0 0 0 
0 0 0 0 0 0 0 0 0 
0 0 0 0 0 0 0 0 0 
0 0 0 0 0 0 0 0 0 
0 0 0 0 0 0 0 0 0 
0 0 0 0 0 0 0 0 0 
0 0 0 0 0 0 0 0 0 
0 0 0 0 0 0 0 0 0 
0 0 0 0 0 0 0 0 0 
0 0 0 0 0 0 0 0 0 
0 0 0 0 0 0 0 0 0 
0 0 0 0 0 0 0 0 0 
0 0 0 0 0 0 0 0 0 
0 0 0 0 0 0 0 0 0 
0 0 0 0 0 0 0 0 0 
0 0 0 0 0 0 0 0 0 
0 0 0 0 0 0 0 0 0 
0 0 0 0 0 0 0 0 0 
0 0 0 0 0 0 0 0 0 
0 0 0 0 0 0 0 0 0 
0 0 0 0 0 0 0 0 0 
0 0 0 0 0 0 0 0 0 
0 0 0 0 0 0 0 0 0 
0 0 0 0 0 0 0 0 0 
0 0 0 0 0 0 0 0 0 
0 0 0 0 0 0 0 0 0 
0 0 0 0 0 0 0 0 0 
0 0 0 0 0 0 0 0 0 
0 0 0 0 0 0 0 0 0 
0 0 0 0 0 0 0 0 0 
0 0 0 0 0 0 0 0 0 
0 0 0 0 0 0 0 0 0 
0 0 0 0 0 0 0 0 0 
0 0 0 0 0 0 0 0 0 
0 0 0 0 0 0 0 0 0 
0 0 0 0 0 0 0 0 0 
0 0 0 0 0 0 0 0 0 
0 0 0 0 0 0 0 0 0 
0 0 0 0 0 0 0 0 0 
0 0 0 0 0 0 0 0 0 
0 0 0 0 0 0 0 0 0 
0 0 0 0 0 0 0 0 0 
0 0 0 0 0 0 0 0 0 
0 0 0 0 0 0 0 0 0 
0 0 0 0 0 0 0 0 0 
0 0 0 0 0 0 0 0 0 
0 0 0 0 0 0 0 0 0 
0 0 0 0 0 0 0 0 0 
0 0 0 0 0 0 0 0 0 
0 0 0 0 0 0 0 0 0 
0 0 0 0 0 0 0 0 0 
0 0 0 0 0 0 0 0 0 
0 0 0 0 0 0 0 0 0 
0 0 0 0 0 0 0 0 0 
0 0 0 0 0 0 0 0 0 
0 0 0 0 0 0 0 0 0 
0 0 0 0 0 0 0 0 0 
0 0 0 0 0 0 0 0 0 
0 0 0 0 0 0 0 0 0 
0 0 0 0 0 0 0 0 0 
0 0 0 0 0 0 0 0 0 
0 0 0 0 0 0 0 0 0 
0 0 0 0 0 0 0 0 0 
0 0 0 0 0 0 0 0 0 
0 0 0 0 0 0 0 0 0 
0 0 0 0 0 0 0 0 0 
0 0 0 0 0 0 0 0 0 
0 0 0 0 0 0 0 0 0 
0 0 0 0 0 0 0 0 0 
0 0 0 0 0 0 0 0 0 
0 0 0 0 0 0 0 0 0 
0 0 0 0 0 0 0 0 0 
0 0 0 0 0 0 0 0 0 
0 0 0 0 0 0 0 0 0 
0 0 0 0 0 0 0 0 0 
0 0 0 0 0 0 0 0 0 
0 0 0 0 0 0 0 0 0 
0 0 0 0 0 0 0 0 0 
0 0 0 0 0 0 0 0 0 
0 0 0 0 0 0 0 0 0 
0 0 0 0 0 0 0 0 0 
0 0 0 0 0 0 0 0 0 
0 0 0 0 0 0 0 0 0 
0 0 0 0 0 0 0 0 0 
0 0 0 0 0 0 0 0 0 
0 0 0 0 0 0 0 0 0 
0 0 0 0 0 0 0 0 0 
0 0 0 0 0 0 0 0 0 
0 0 0 0 0 0 0 0 0 
0 0 0 0 0 0 0 0 0 
0 0 0 0 0 0 0 0 0 
0 0 0 0 0 0 0 0 0 
0 0 0 0 0 0 0 0 0 
0 0 0 0 0 0 0 0 0 
0 0 0 0 0 0 0 0 0 
0 0 0 0 0 0 0 0 0 
0 0 0 0 0 0 0 0 0 
0 0 0 0 0 0 0 0 0 
0 0 0 0 0 0 0 0 0 
0 0 0 0 0 0 0 0 0 
0 0 0 0 0 0 0 0 0 
0 0 0 0 0 0 0 0 0 
0 0 0 0 0 0 0 0 0 
0 0 0 0 0 0 0 0 0 
0 0 0 0 0 0 0 0 0 
0 0 0 0 0 0 0 0 0 
0 0 0 0 0 0 0 0 0 
0 0 0 0 0 0 0 0 0 
0 0 0 0 0 0 0 0 0 
0 0 0 0 0 0 0 0 0 
0 0 0 0 0 0 0 0 0 
0 0 0 0 0 0 0 0 0 
0 0 0 0 0 0 0 0 0 
0 0 0 0 0 0 0 0 0 
0 0 0 0 0 0 0 0 0 
0 0 0 0 0 0 0 0 0 
0 0 0 0 0 0 0 0 0 
0 0 0 0 0 0 0 0 0 
0 0 0 0 0 0 0 0 0 
0 0 0 0 0 0 0 0 0 
0 0 0 0 0 0 0 0 0 
0 0 0 0 0 0 0 0 0 
0 0 0 0 0 0 0 0 0 
0 0 0 0 0 0 0 0 0 
0 0 0 0 0 0 0 0 0 
0 0 0 0 0 0 0 0 0 
0 0 0 0 0 0 0 0 0 
0 0 0 0 0 0 0 0 0 
0 0 0 0 0 0 0 0 0 
0 0 0 0 0 0 0 0 0 
0 0 0 0 0 0 0 0 0 
0 0 0 0 0 0 0 0 0 
0 0 0 0 0 0 0 0 0 
0 0 0 0 0 0 0 0 0 
0 0 0 0 0 0 0 0 0 
0 0 0 0 0 0 0 0 0 
0 0 0 0 0 0 0 0 0 
0 0 0 0 0 0 0 0 0 
0 0 0 0 0 0 0 0 0 
0 0 0 0 0 0 0 0 0 
0 0 0 0 0 0 0 0 0 
0 0 0 0 0 0 0 0 0 
0 0 0 0 0 0 0 0 0 
0 0 0 0 0 0 0 0 0 
0 0 0 0 0 0 0 0 0 
0 0 0 0 0 0 0 0 0 
0 0 0 0 0 0 0 0 0 
0 0 0 0 0 0 0 0 0 
0 0 0 0 0 0 0 0 0 
0 0 0 0 0 0 0 0 0 
0 0 0 0 0 0 0 0 0 
0 0 0 0 0 0 0 0 0 
0 0 0 0 0 0 0 0 0 
0 0 0 0 0 0 0 0 0 
0 0 0 0 0 0 0 0 0 
0 0 0 0 0 0 0 0 0 
0 0 0 0 0 0 0 0 0 
0 0 0 0 0 0 0 0 0 
0 0 0 0 0 0 0 0 0 
0 0 0 0 0 0 0 0 0 
0 0 0 0 0 0 0 0 0 
0 0 0 0 0 0 0 0 0 
0 0 0 0 0 0 0 0 0 
0 0 0 0 0 0 0 0 0 
0 0 0 0 0 0 0 0 0 
0 0 0 0 0 0 0 0 0 
0 0 0 0 0 0 0 0 0 
0 0 0 0 0 0 0 0 0 
0 0 0 0 0 0 0 0 0 
0 0 0 0 0 0 0 0 0 
0 0 0 0 0 0 0 0 0 
0 0 0 0 0 0 0 0 0 
0 0 0 0 0 0 0 0 0 
0 0 0 0 0 0 0 0 0 
0 0 0 0 0 0 0 0 0 
0 0 0 0 0 0 0 0 0 
0 0 0 0 0 0 0 0 0 
0 0 0 0 0 0 0 0 0 
0 0 0 0 0 0 0 0 0 
0 0 0 0 0 0 0 0 0 
0 0 0 0 0 0 0 0 0 
0 0 0 0 0 0 0 0 0 
0 0 0 0 0 0 0 0 0 
0 0 0 0 0 0 0 0 0 
0 0 0 0 0 0 0 0 0 
0 0 0 0 0 0 0 0 0 
0 0 0 0 0 0 0 0 0 
0 0 0 0 0 0 0 0 0 
0 0 0 0 0 0 0 0 0 
0 0 0 0 0 0 0 0 0 
0 0 0 0 0 0 0 0 0 
0 0 0 0 0 0 0 0 0 
0 0 0 0 0 0 0 0 0 
0 0 0 0 0 0 0 0 0 
0 0 0 0 0 0 0 0 0 
0 0 0 0 0 0 0 0 0 
0 0 0 0 0 0 0 0 0 
0 0 0 0 0 0 0 0 0 
0 0 0 0 0 0 0 0 0 
0 0 0 0 0 0 0 0 0 
0 0 0 0 0 0 0 0 0 
0 0 0 0 0 0 0 0 0 
0 0 0 0 0 0 0 0 0 
0 0 0 0 0 0 0 0 0 
0 0 0 0 0 0 0 0 0 
0 0 0 0 0 0 0 0 0 
0 0 0 0 0 0 0 0 0 
0 0 0 0 0 0 0 0 0 
0 0 0 0 0 0 0 0 0 
0 0 0 0 0 0 0 0 0 
0 0 0 0 0 0 0 0 0 
0 0 0 0 0 0 0 0 0 
0 0 0 0 0 0 0 0 0 
0 0 0 0 0 0 0 0 0 
0 0 0 0 0 0 0 0 0 
0 0 0 0 0 0 0 0 0 
0 0 0 0 0 0 0 0 0 
0 0 0 0 0 0 0 0 0 
0 0 0 0 0 0 0 0 0 
0 0 0 0 0 0 0 0 0 
0 0 0 0 0 0 0 0 0 
0 0 0 0 0 0 0 0 0 
0 0 0 0 0 0 0 0 0 
0 0 0 0 0 0 0 0 0 
0 0 0 0 0 0 0 0 0 
0 0 0 0 0 0 0 0 0 
0 0 0 0 0 0 0 0 0 
0 0 0 0 0 0 0 0 0 
0 0 0 0 0 0 0 0 0 
0 0 0 0 0 0 0 0 0 
0 0 0 0 0 0 0 0 0 
0 0 0 0 0 0 0 0 0 
0 0 0 0 0 0 0 0 0 
0 0 0 0 0 0 0 0 0 
0 0 0 0 0 0 0 0 0 
0 0 0 0 0 0 0 0 0 
0 0 0 0 0 0 0 0 0 
0 0 0 0 0 0 0 0 0 
0 0 0 0 0 0 0 0 0 
0 0 0 0 0 0 0 0 0 
0 0 0 0 0 0 0 0 0 
0 0 0 0 0 0 0 0 0 
0 0 0 0 0 0 0 0 0 
0 0 0 0 0 0 0 0 0 
0 0 0 0 0 0 0 0 0 
0 0 0 0 0 0 0 0 0 
0 0 0 0 0 0 0 0 0 
0 0 0 0 0 0 0 0 0 
0 0 0 0 0 0 0 0 0 
0 0 0 0 0 0 0 0 0 
0 0 0 0 0 0 0 0 0 
0 0 0 0 0 0 0 0 0 
0 0 0 0 0 0 0 0 0 
0 0 0 0 0 0 0 0 0 
0 0 0 0 0 0 0 0 0 
0 0 0 0 0 0 0 0 0 
0 0 0 0 0 0 0 0 0 
0 0 0 0 0 0 0 0 0 
0 0 0 0 0 0 0 0 0 
0 0 0 0 0 0 0 0 0 
0 0 0 0 0 0 0 0 0 
0 0 0 0 0 0 0 0 0 
0 0 0 0 0 0 0 0 0 
0 0 0 0 0 0 0 0 0 
0 0 0 0 0 0 0 0 0 
0 0 0 0 0 0 0 0 0 
0 0 0 0 0 0 0 0 0 
0 0 0 0 0 0 0 0 0 
0 0 0 0 0 0 0 0 0 
0 0 0 0 0 0 0 0 0 
0 0 0 0 0 0 0 0 0 
0 0 0 0 0 0 0 0 0 
0 0 0 0 0 0 0 0 0 
0 0 0 0 0 0 0 0 0 
0 0 0 0 0 0 0 0 0 
0 0 0 0 0 0 0 0 0 
0 0 0 0 0 0 0 0 0 
0 0 0 0 0 0 0 0 0 
0 0 0 0 0 0 0 0 0 
0 0 0 0 0 0 0 0 0 
0 0 0 0 0 0 0 0 0 
0 0 0 0 0 0 0 0 0 
0 0 0 0 0 0 0 0 0 
0 0 0 0 0 0 0 0 0 
0 0 0 0 0 0 0 0 0 
0 0 0 0 0 0 0 0 0 
0 0 0 0 0 0 0 0 0 
0 0 0 0 0 0 0 0 0 
0 0 0 0 0 0 0 0 0 
0 0 0 0 0 0 0 0 0 
0 0 0 0 0 0 0 0 0 
0 0 0 0 0 0 0 0 0 
0 0 0 0 0 0 0 0 0 
0 0 0 0 0 0 0 0 0 
0 0 0 0 0 0 0 0 0 
0 0 0 0 0 0 0 0 0 
0 0 0 0 0 0 0 0 0 
0 0 0 0 0 0 0 0 0 
0 0 0 0 0 0 0 0 0 
0 0 0 0 0 0 0 0 0 
0 0 0 0 0 0 0 0 0 
0 0 0 0 0 0 0 0 0 
0 0 0 0 0 0 0 0 0 
0 0 0 0 0 0 0 0 0 
0 0 0 0 0 0 0 0 0 
0 0 0 0 0 0 0 0 0 
0 0 0 0 0 0 0 0 0 
0 0 0 0 0 0 0 0 0 
0 0 0 491346.04186 -212865.6207 58493.33558 -2091776.6904 -3176635.7117 8262375.9762 
-11593675.909 -11905714.297 6936397.8935 2191377.2146 -6934688.3981 5418868.5809 -1433251.9876 -3570654.5752 1057697.7556 
0 0 0 0 0 0 0 0 0 
0 0 0 0 0 0 0 0 0 
0 0 0 0 0 0 0 0 0 
0 0 0 0 0 0 0 0 0 
0 0 0 0 0 0 0 0 0 
0 0 0 0 0 0 0 0 0 
0 0 0 0 0 0 0 0 0 
0 0 0 0 0 0 0 0 0 
0 0 0 0 0 0 0 0 0 
0 0 0 0 0 0 636773.54399 -6496404.9243 10186406.109 
-1563570.9696 -15425510.718 16277427.87 10447395.301 -34539047.522 17086925.189 6916607.4385 -4762561.1457 25460377.168 
-3894831.8216 -11055024.769 -1051346.0126 0 0 0 0 0 0 
0 0 0 0 0 0 0 0 0 
0 0 0 0 0 0 0 0 0 
0 0 0 0 0 0 0 0 0 
0 0 0 0 0 0 -1469258.3417 12050260.853 3435104.3309 
0 0 0 0 0 0 0 0 0 
0 0 0 0 0 0 0 0 0 
0 0 0 0 0 0 0 0 0 
0 0 0 0 0 0 0 0 0 
0 0 0 0 0 0 0 0 0 
0 0 0 0 0 0 0 0 0 
0 0 0 0 0 0 0 0 0 
0 0 0 0 0 0 0 0 0 
0 0 0 0 0 0 0 0 0 
0 0 0 0 0 0 0 0 0 
0 0 0 0 0 0 0 0 0 
0 0 0 0 0 0 0 0 0 
0 0 0 0 0 0 0 0 0 
0 0 0 0 0 0 0 0 0 
0 0 0 0 0 0 0 0 0 
0 0 0 0 0 0 0 0 0 
0 0 0 0 0 0 0 0 0 
0 0 0 0 0 0 0 0 0 
0 0 0 0 0 0 0 0 0 
0 0 0 0 0 0 0 0 0 
0 0 0 0 0 0 0 0 0 
0 0 0 0 0 0 0 0 0 
0 0 0 0 0 0 0 0 0 
0 0 0 0 0 0 0 0 0 
0 0 0 0 0 0 0 0 0 
0 0 0 0 0 0 0 0 0 
0 0 0 0 0 0 0 0 0 
0 0 0 0 0 0 0 0 0 
0 0 0 0 0 0 0 0 0 
0 0 0 0 0 0 0 0 0 
0 0 0 0 0 0 0 0 0 
0 0 0 0 0 0 0 0 0 
0 0 0 0 0 0 0 0 0 
0 0 0 0 0 0 0 0 0 
0 0 0 0 0 0 0 0 0 
0 0 0 0 0 0 0 0 0 
0 0 0 0 0 0 0 0 0 
0 0 0 0 0 0 0 0 0 
0 0 0 0 0 0 0 0 0 
0 0 0 0 0 0 0 0 0 
0 0 0 0 0 0 0 0 0 
0 0 0 0 0 0 0 0 0 
0 0 0 0 0 0 0 0 0 
0 0 0 0 0 0 0 0 0 
0 0 0 0 0 0 0 0 0 
0 0 0 0 0 0 0 0 0 
0 0 0 0 0 0 0 0 0 
0 0 0 0 0 0 0 0 0 
0 0 0 0 0 0 0 0 0 
0 0 0 0 0 0 0 0 0 
0 0 0 0 0 0 0 0 0 
0 0 0 0 0 0 0 0 0 
0 0 0 0 0 0 0 0 0 
0 0 0 0 0 0 0 0 0 
0 0 0 0 0 0 0 0 0 
0 0 0 0 0 0 0 0 0 
0 0 0 0 0 0 0 0 0 
0 0 0 0 0 0 0 0 0 
0 0 0 0 0 0 0 0 0 
0 0 0 0 0 0 0 0 0 
0 0 0 0 0 0 0 0 0 
0 0 0 0 0 0 0 0 0 
0 0 0 0 0 0 0 0 0 
0 0 0 0 0 0 0 0 0 
0 0 0 0 0 0 0 0 0 
0 0 0 0 0 0 0 0 0 
0 0 0 0 0 0 0 0 0 
0 0 0 0 0 0 0 0 0 
0 0 0 0 0 0 0 0 0 
0 0 0 0 0 0 0 0 0 
0 0 0 0 0 0 0 0 0 
0 0 0 0 0 0 0 0 0 
0 0 0 0 0 0 0 0 0 
0 0 0 0 0 0 0 0 0 
0 0 0 0 0 0 0 0 0 
0 0 0 0 0 0 0 0 0 
0 0 0 0 0 0 0 0 0 
0 0 0 0 0 0 0 0 0 
0 0 0 0 0 0 0 0 0 
0 0 0 0 0 0 0 0 0 
0 0 0 0 0 0 0 0 0 
0 0 0 0 0 0 0 0 0 
0 0 0 0 0 0 0 0 0 
0 0 0 0 0 0 0 0 0 
0 0 0 0 0 0 0 0 0 
0 0 0 0 0 0 0 0 0 
0 0 0 0 0 0 0 0 0 
0 0 0 0 0 0 0 0 0 
0 0 0 0 0 0 0 0 0 
0 0 0 0 0 0 0 0 0 
0 0 0 0 0 0 0 0 0 
0 0 0 0 0 0 0 0 0 
0 0 0 0 0 0 0 0 0 
0 0 0 0 0 0 0 0 0 
-622010.52593 58890.626156 355424.24899 0 0 0 -1091766.0777 -1312241.6234 397486.96948 
-2018608.6268 -2076135.4696 728587.05988 -1525105.2895 -1364888.6214 596204.86185 592519.51616 651061.18815 757772.47653 
-128745.94833 -1182606.984 187265.81751 3257794.6161 3695642.7653 4324568.1021 2146170.2896 3382714.0749 3647548.104 
230348.84309 800022.37888 2684871.1079 10014715.095 4212862.7256 9114699.2136 -1449128.1691 -7044421.1495 1134700.6989 
-5739551.7258 2590218.5911 7344649.7026 608157.81793 1443400.2722 4326936.267 440465.44131 4350656.4137 4586694.4162 
597556.48452 -777912.12647 3583152.8479 0 0 0 7067123.0949 -1560488.6709 9207185.5899 
1587248.4336 -2182443.9479 2414026.3549 4438701.4348 -8804085.2941 2947168.4979 162600.95161 -1435439.3137 2493883.6588 
-1509077.7521 -3125790.2355 2435459.1041 667095.68863 -1846887.0991 1573315.6507 3732267.9292 -4122608.0479 6157498.9137 
2280492.1488 -755922.30369 2909332.5176 -703914.58064 647027.19868 1392624.4461 1615534.3381 -806304.87743 1015072.7463 
-1542926.5148 4753330.0821 6357714.4129 1582592.6351 -1858013.8558 574405.29683 332656.84147 -371760.45218 1775474.6245 
-775904.27988 1654526.7065 5596934.7601 0 0 0 0 0 0 
1655040.7228 927891.22903 1588881.9643 0 0 0 0 0 0 
0 0 0 0 0 0 0 0 0 
0 0 0 0 0 0 0 0 0 
0 0 0 0 0 0 0 0 0 
0 0 0 0 0 0 0 0 0 
0 0 0 0 0 0 0 0 0 
0 0 0 0 0 0 0 0 0 
0 0 0 0 0 0 0 0 0 
0 0 0 0 0 0 0 0 0 
0 0 0 0 0 0 0 0 0 
0 0 0 0 0 0 0 0 0 
0 0 0 0 0 0 0 0 0 
0 0 0 0 0 0 0 0 0 
0 0 0 0 0 0 0 0 0 
0 0 0 0 0 0 0 0 0 
0 0 0 0 0 0 0 0 0 
0 0 0 0 0 0 0 0 0 
0 0 0 0 0 0 0 0 0 
0 0 0 0 0 0 0 0 0 
0 0 0 0 0 0 0 0 0 
0 0 0 0 0 0 0 0 0 
0 0 0 0 0 0 0 0 0 
0 0 0 0 0 0 0 0 0 
0 0 0 0 0 0 0 0 0 
0 0 0 0 0 0 0 0 0 
0 0 0 0 0 0 0 0 0 
0 0 0 0 0 0 0 0 0 
0 0 0 0 0 0 0 0 0 
0 0 0 0 0 0 0 0 0 
0 0 0 0 0 0 0 0 0 
0 0 0 0 0 0 0 0 0 
0 0 0 0 0 0 0 0 0 
0 0 0 0 0 0 0 0 0 
0 0 0 0 0 0 0 0 0 
0 0 0 0 0 0 0 0 0 
0 0 0 0 0 0 0 0 0 
0 0 0 0 0 0 0 0 0 
0 0 0 0 0 0 0 0 0 
0 0 0 0 0 0 0 0 0 
0 0 0 0 0 0 0 0 0 
0 0 0 0 0 0 0 0 0 
0 0 0 0 0 0 0 0 0 
0 0 0 0 0 0 0 0 0 
0 0 0 0 0 0 0 0 0 
0 0 0 0 0 0 0 0 0 
0 0 0 0 0 0 0 0 0 
0 0 0 0 0 0 0 0 0 
0 0 0 0 0 0 0 0 0 
0 0 0 0 0 0 0 0 0 
0 0 0 0 0 0 0 0 0 
0 0 0 0 0 0 0 0 0 
0 0 0 0 0 0 0 0 0 
0 0 0 0 0 0 0 0 0 
0 0 0 0 0 0 0 0 0 
0 0 0 0 0 0 0 0 0 
0 0 0 0 0 0 0 0 0 
0 0 0 0 0 0 0 0 0 
0 0 0 0 0 0 0 0 0 
0 0 0 0 0 0 0 0 0 
0 0 0 0 0 0 0 0 0 
0 0 0 0 0 0 0 0 0 
0 0 0 0 0 0 0 0 0 
0 0 0 0 0 0 0 0 0 
0 0 0 0 0 0 0 0 0 
0 0 0 0 0 0 0 0 0 
0 0 0 0 0 0 0 0 0 
0 0 0 0 0 0 0 0 0 
0 0 0 0 0 0 0 0 0 
0 0 0 0 0 0 0 0 0 
0 0 0 0 0 0 0 0 0 
0 0 0 0 0 0 0 0 0 
0 0 0 0 0 0 0 0 0 
0 0 0 0 0 0 0 0 0 
0 0 0 0 0 0 0 0 0 
0 0 0 0 0 0 0 0 0 
0 0 0 0 0 0 0 0 0 
0 0 0 0 0 0 0 0 0 
0 0 0 0 0 0 0 0 0 
0 0 0 0 0 0 0 0 0 
0 0 0 0 0 0 0 0 0 
0 0 0 0 0 0 0 0 0 
0 0 0 0 0 0 0 0 0 
0 0 0 0 0 0 0 0 0 
0 0 0 0 0 0 0 0 0 
0 0 0 0 0 0 0 0 0 
0 0 0 0 0 0 0 0 0 
0 0 0 0 0 0 0 0 0 
0 0 0 0 0 0 0 0 0 
0 0 0 0 0 0 0 0 0 
0 0 0 0 0 0 0 0 0 
0 0 0 0 0 0 0 0 0 
0 0 0 0 0 0 0 0 0 
0 0 0 0 0 0 0 0 0 
0 0 0 0 0 0 0 0 0 
3901775.3807 3936103.3179 23538570.778 20745685.589 -5457743.893 14261868.321 0 0 0 
0 0 0 0 0 0 0 0 0 
0 0 0 -7322323.3739 -5904508.2966 1580246.6283 14435455.25 -13627988.175 3665299.8425 
0 0 0 0 0 0 0 0 0 
0 0 0 0 0 0 0 0 0 
0 0 0 0 0 0 0 0 0 
0 0 0 0 0 0 0 0 0 
0 0 0 -52812882.224 -50443971.478 6443816.9576 16338004.39 11192868.586 15698578.069 
13523929.749 19446166.613 31445968.289 -2558702.8436 -61083395.359 6886191.3339 0 0 0 
-2108878.8065 1501814.8712 19597503.425 0 0 0 3845101.3331 -6819385.9905 14952978.378 
0 0 0 0 0 0 0 0 0 
0 0 0 0 0 0 0 0 0 
12870323.281 -10231345.201 3916625.2098 18626374.502 -16201071.823 5604121.0964 3885424.6893 -17516196.344 43725296.743 
193019776.47 -98898171.234 124430234.62 -34434063.996 13453946.903 29057824.662 8370908.7271 -18161480.328 13993009.578 
20809152.295 48860650.537 92831903.839 27649111.254 -140623405.45 13420484.759 -48648289.608 -199389905.33 20028378.057 
-81616878.843 -97599986.593 33517957.274 83062392.18 -44411718.729 10328767.058 -63002424.569 -34986650.979 22206497.208 
-29281199.788 -6810442.6845 14532357.912 13792937.698 27302586.864 31037385.988 53079580.484 6360612.1994 32694165.657 
-115401743.28 12664320.757 61712298.43 -58970617.271 6944035.2468 34864530.176 -8875141.2065 17973601.422 31428439.499 
-51929415.716 -44601782.42 15911610.206 -53479426.509 -20246599.982 13689569.303 -19210283.556 -606214.95104 6590941.9482 
0 0 0 0 0 0 0 0 0 
0 0 0 0 0 0 0 0 0 
0 0 0 0 0 0 0 0 0 
0 0 0 0 0 0 0 0 0 
0 0 0 0 0 0 0 0 0 
0 0 0 0 0 0 0 0 0 
0 0 0 0 0 0 0 0 0 
0 0 0 0 0 0 0 0 0 
0 0 0 0 0 0 0 0 0 
0 0 0 0 0 0 0 0 0 
0 0 0 0 0 0 0 0 0 
0 0 0 0 0 0 2662427.1798 -2489351.8407 6724392.5244 
-17814995.563 -26526652.745 14121046.126 -42852405.857 -38608528.729 17363456.819 0 0 0 
0 0 0 0 0 0 0 0 0 
0 0 0 -7161709.2315 11094792.962 22445879.505 -5233271.0251 -35885054.938 21983589.365 
0 0 0 0 0 0 0 0 0 
12318890.751 -9152075.0973 758993.98743 -7384856.702 12009406.378 31953205.904 -6757225.6138 -6837565.2902 6828101.8835 
0 0 0 0 0 0 0 0 0 
0 0 0 0 0 0 0 0 0 
0 0 0 75574.599246 -447492.40933 391812.27263 -1375680.3826 -3362764.0663 5546270.4609 
0 0 0 0 0 0 0 0 0 
0 0 0 0 0 0 0 0 0 
0 0 0 0 0 0 0 0 0 
0 0 0 0 0 0 0 0 0 
0 0 0 0 0 0 0 0 0 
0 0 0 0 0 0 0 0 0 
0 0 0 0 0 0 0 0 0 
0 0 0 0 0 0 0 0 0 
0 0 0 0 0 0 0 0 0 
0 0 0 0 0 0 0 0 0 
0 0 0 0 0 0 0 0 0 
0 0 0 0 0 0 0 0 0 
0 0 0 0 0 0 0 0 0 
0 0 0 0 0 0 0 0 0 
0 0 0 0 0 0 0 0 0 
0 0 0 0 0 0 0 0 0 
0 0 0 0 0 0 0 0 0 
0 0 0 0 0 0 0 0 0 
0 0 0 0 0 0 0 0 0 
0 0 0 0 0 0 0 0 0 
0 0 0 0 0 0 0 0 0 
0 0 0 0 0 0 0 0 0 
0 0 0 0 0 0 0 0 0 
0 0 0 0 0 0 0 0 0 
0 0 0 0 0 0 0 0 0 
0 0 0 0 0 0 0 0 0 
0 0 0 0 0 0 0 0 0 
0 0 0 0 0 0 0 0 0 
0 0 0 0 0 0 0 0 0 
0 0 0 0 0 0 0 0 0 
0 0 0 0 0 0 0 0 0 
0 0 0 0 0 0 0 0 0 
0 0 0 0 0 0 0 0 0 
0 0 0 0 0 0 0 0 0 
0 0 0 0 0 0 0 0 0 
0 0 0 0 0 0 0 0 0 
0 0 0 0 0 0 0 0 0 
0 0 0 0 0 0 0 0 0 
0 0 0 0 0 0 0 0 0 
0 0 0 0 0 0 0 0 0 
0 0 0 0 0 0 0 0 0 
0 0 0 0 0 0 0 0 0 
0 0 0 0 0 0 0 0 0 
0 0 0 0 0 0 0 0 0 
0 0 0 0 0 0 0 0 0 
0 0 0 0 0 0 0 0 0 
0 0 0 0 0 0 0 0 0 
0 0 0 0 0 0 0 0 0 
0 0 0 0 0 0 0 0 0 
0 0 0 0 0 0 0 0 0 
0 0 0 0 0 0 0 0 0 
0 0 0 0 0 0 0 0 0 
0 0 0 0 0 0 0 0 0 
0 0 0 0 0 0 0 0 0 
0 0 0 0 0 0 0 0 0 
0 0 0 0 0 0 0 0 0 
0 0 0 0 0 0 0 0 0 
0 0 0 0 0 0 0 0 0 
0 0 0 0 0 0 0 0 0 
0 0 0 0 0 0 0 0 0 
0 0 0 0 0 0 0 0 0 
0 0 0 0 0 0 0 0 0 
0 0 0 0 0 0 0 0 0 
0 0 0 0 0 0 0 0 0 
0 0 0 0 0 0 0 0 0 
0 0 0 0 0 0 0 0 0 
0 0 0 0 0 0 0 0 0 
0 0 0 0 0 0 0 0 0 
0 0 0 0 0 0 0 0 0 
0 0 0 0 0 0 0 0 0 
0 0 0 0 0 0 0 0 0 
0 0 0 0 0 0 0 0 0 
0 0 0 0 0 0 0 0 0 
0 0 0 0 0 0 0 0 0 
0 0 0 0 0 0 0 0 0 
0 0 0 0 0 0 0 0 0 
0 0 0 0 0 0 0 0 0 
0 0 0 0 0 0 0 0 0 
0 0 0 0 0 0 0 0 0 
0 0 0 0 0 0 0 0 0 
0 0 0 0 0 0 0 0 0 
0 0 0 0 0 0 0 0 0 
0 0 0 0 0 0 0 0 0 
0 0 0 0 0 0 0 0 0 
0 0 0 0 0 0 0 0 0 
0 0 0 0 0 0 0 0 0 
0 0 0 0 0 0 0 0 0 
0 0 0 0 0 0 0 0 0 
0 0 0 0 0 0 0 0 0 
0 0 0 0 0 0 0 0 0 
0 0 0 0 0 0 0 0 0 
0 0 0 0 0 0 0 0 0 
0 0 0 0 0 0 0 0 0 
0 0 0 0 0 0 0 0 0 
0 0 0 0 0 0 0 0 0 
0 0 0 0 0 0 0 0 0 
0 0 0 0 0 0 0 0 0 
0 0 0 0 0 0 0 0 0 
0 0 0 0 0 0 0 0 0 
0 0 0 0 0 0 0 0 0 
0 0 0 0 0 0 0 0 0 
0 0 0 0 0 0 0 0 0 
0 0 0 0 0 0 0 0 0 
0 0 0 0 0 0 0 0 0 
0 0 0 0 0 0 0 0 0 
0 0 0 0 0 0 0 0 0 
0 0 0 0 0 0 0 0 0 
0 0 0 0 0 0 0 0 0 
0 0 0 0 0 0 0 0 0 
0 0 0 0 0 0 0 0 0 
0 0 0 0 0 0 0 0 0 
0 0 0 0 0 0 0 0 0 
0 0 0 0 0 0 0 0 0 
0 0 0 0 0 0 0 0 0 
0 0 0 0 0 0 0 0 0 
0 0 0 0 0 0 0 0 0 
0 0 0 0 0 0 0 0 0 
0 0 0 0 0 0 0 0 0 
0 0 0 0 0 0 0 0 0 
0 0 0 0 0 0 0 0 0 
0 0 0 0 0 0 0 0 0 
0 0 0 0 0 0 0 0 0 
0 0 0 0 0 0 0 0 0 
0 0 0 0 0 0 0 0 0 
0 0 0 0 0 0 0 0 0 
0 0 0 0 0 0 0 0 0 
0 0 0 0 0 0 0 0 0 
0 0 0 0 0 0 0 0 0 
0 0 0 0 0 0 0 0 0 
0 0 0 0 0 0 0 0 0 
0 0 0 0 0 0 0 0 0 
0 0 0 0 0 0 0 0 0 
0 0 0 0 0 0 0 0 0 
0 0 0 0 0 0 0 0 0 
0 0 0 0 0 0 0 0 0 
0 0 0 0 0 0 0 0 0 
0 0 0 0 0 0 0 0 0 
0 0 0 0 0 0 0 0 0 
0 0 0 0 0 0 0 0 0 
0 0 0 0 0 0 0 0 0 
0 0 0 0 0 0 0 0 0 
0 0 0 0 0 0 0 0 0 
0 0 0 0 0 0 0 0 0 
0 0 0 0 0 0 0 0 0 
0 0 0 0 0 0 0 0 0 
0 0 0 0 0 0 0 0 0 
0 0 0 0 0 0 0 0 0 
0 0 0 0 0 0 0 0 0 
0 0 0 0 0 0 0 0 0 
0 0 0 0 0 0 0 0 0 
0 0 0 0 0 0 0 0 0 
0 0 0 0 0 0 0 0 0 
0 0 0 0 0 0 0 0 0 
0 0 0 0 0 0 0 0 0 
0 0 0 0 0 0 0 0 0 
0 0 0 0 0 0 0 0 0 
0 0 0 0 0 0 0 0 0 
0 0 0 0 0 0 0 0 0 
0 0 0 0 0 0 0 0 0 
0 0 0 0 0 0 0 0 0 
0 0 0 0 0 0 0 0 0 
0 0 0 0 0 0 0 0 0 
0 0 0 0 0 0 0 0 0 
0 0 0 0 0 0 0 0 0 
0 0 0 0 0 0 0 0 0 
0 0 0 0 0 0 0 0 0 
0 0 0 0 0 0 0 0 0 
0 0 0 0 0 0 0 0 0 
0 0 0 0 0 0 0 0 0 
0 0 0 0 0 0 0 0 0 
0 0 0 0 0 0 0 0 0 
0 0 0 0 0 0 0 0 0 
0 0 0 0 0 0 0 0 0 
0 0 0 0 0 0 0 0 0 
0 0 0 0 0 0 0 0 0 
0 0 0 0 0 0 0 0 0 
0 0 0 0 0 0 0 0 0 
0 0 0 0 0 0 0 0 0 
0 0 0 0 0 0 0 0 0 
0 0 0 0 0 0 0 0 0 
0 0 0 0 0 0 0 0 0 
0 0 0 0 0 0 0 0 0 
0 0 0 0 0 0 0 0 0 
0 0 0 0 0 0 0 0 0 
0 0 0 0 0 0 0 0 0 
0 0 0 0 0 0 0 0 0 
0 0 0 0 0 0 0 0 0 
0 0 0 0 0 0 0 0 0 
0 0 0 0 0 0 0 0 0 
0 0 0 0 0 0 0 0 0 
0 0 0 0 0 0 0 0 0 
0 0 0 0 0 0 0 0 0 
0 0 0 0 0 0 0 0 0 
0 0 0 0 0 0 0 0 0 
0 0 0 0 0 0 0 0 0 
0 0 0 0 0 0 0 0 0 
0 0 0 0 0 0 0 0 0 
0 0 0 0 0 0 0 0 0 
0 0 0 0 0 0 0 0 0 
0 0 0 0 0 0 0 0 0 
0 0 0 0 0 0 0 0 0 
0 0 0 0 0 0 0 0 0 
0 0 0 0 0 0 0 0 0 
0 0 0 0 0 0 0 0 0 
0 0 0 0 0 0 0 0 0 
0 0 0 0 0 0 0 0 0 
0 0 0 0 0 0 0 0 0 
0 0 0 0 0 0 0 0 0 
0 0 0 0 0 0 0 0 0 
0 0 0 0 0 0 0 0 0 
0 0 0 0 0 0 0 0 0 
0 0 0 0 0 0 0 0 0 
0 0 0 0 0 0 0 0 0 
0 0 0 0 0 0 0 0 0 
0 0 0 0 0 0 0 0 0 
0 0 0 0 0 0 0 0 0 
0 0 0 0 0 0 0 0 0 
0 0 0 0 0 0 0 0 0 
0 0 0 0 0 0 0 0 0 
0 0 0 0 0 0 0 0 0 
0 0 0 0 0 0 0 0 0 
0 0 0 0 0 0 0 0 0 
0 0 0 0 0 0 0 0 0 
0 0 0 0 0 0 0 0 0 
0 0 0 0 0 0 0 0 0 
0 0 0 0 0 0 0 0 0 
0 0 0 0 0 0 0 0 0 
0 0 0 0 0 0 0 0 0 
0 0 0 0 0 0 0 0 0 
0 0 0 0 0 0 0 0 0 
0 0 0 0 0 0 0 0 0 
0 0 0 0 0 0 0 0 0 
0 0 0 0 0 0 0 0 0 
0 0 0 0 0 0 0 0 0 
0 0 0 0 0 0 0 0 0 
0 0 0 0 0 0 0 0 0 
0 0 0 0 0 0 0 0 0 
0 0 0 0 0 0 0 0 0 
0 0 0 0 0 0 0 0 0 
0 0 0 0 0 0 0 0 0 
0 0 0 0 0 0 0 0 0 
0 0 0 0 0 0 0 0 0 
0 0 0 0 0 0 0 0 0 
0 0 0 0 0 0 0 0 0 
0 0 0 0 0 0 0 0 0 
0 0 0 0 0 0 0 0 0 
0 0 0 0 0 0 0 0 0 
0 0 0 0 0 0 0 0 0 
0 0 0 0 0 0 0 0 0 
0 0 0 0 0 0 0 0 0 
0 0 0 0 0 0 0 0 0 
0 0 0 0 0 0 0 0 0 
0 0 0 0 0 0 0 0 0 
0 0 0 0 0 0 0 0 0 
0 0 0 0 0 0 0 0 0 
0 0 0 0 0 0 0 0 0 
0 0 0 0 0 0 0 0 0 
0 0 0 0 0 0 0 0 0 
0 0 0 0 0 0 0 0 0 
0 0 0 0 0 0 0 0 0 
0 0 0 0 0 0 0 0 0 
0 0 0 0 0 0 0 0 0 
0 0 0 0 0 0 0 0 0 
0 0 0 0 0 0 0 0 0 
0 0 0 0 0 0 0 0 0 
0 0 0 0 0 0 0 0 0 
0 0 0 0 0 0 0 0 0 
0 0 0 0 0 0 0 0 0 
0 0 0 0 0 0 0 0 0 
0 0 0 0 0 0 0 0 0 
0 0 0 0 0 0 0 0 0 
0 0 0 0 0 0 0 0 0 
0 0 0 0 0 0 0 0 0 
0 0 0 0 0 0 0 0 0 
0 0 0 0 0 0 0 0 0 
0 0 0 0 0 0 0 0 0 
0 0 0 0 0 0 0 0 0 
0 0 0 0 0 0 0 0 0 
0 0 0 0 0 0 0 0 0 
0 0 0 0 0 0 0 0 0 
0 0 0 0 0 0 0 0 0 
0 0 0 0 0 0 0 0 0 
0 0 0 0 0 0 0 0 0 
0 0 0 0 0 0 0 0 0 
0 0 0 0 0 0 0 0 0 
0 0 0 0 0 0 0 0 0 
0 0 0 0 0 0 0 0 0 
0 0 0 0 0 0 0 0 0 
0 0 0 0 0 0 0 0 0 
0 0 0 0 0 0 0 0 0 
0 0 0 0 0 0 0 0 0 
0 0 0 0 0 0 0 0 0 
0 0 0 0 0 0 0 0 0 
0 0 0 0 0 0 0 0 0 
0 0 0 0 0 0 0 0 0 
0 0 0 0 0 0 0 0 0 
0 0 0 0 0 0 0 0 0 
0 0 0 0 0 0 0 0 0 
0 0 0 0 0 0 0 0 0 
0 0 0 0 0 0 0 0 0 
0 0 0 0 0 0 0 0 0 
0 0 0 0 0 0 0 0 0 
0 0 0 0 0 0 0 0 0 
0 0 0 0 0 0 0 0 0 
0 0 0 0 0 0 0 0 0 
0 0 0 0 0 0 0 0 0 
0 0 0 0 0 0 0 0 0 
0 0 0 0 0 0 0 0 0 
0 0 0 0 0 0 0 0 0 
0 0 0 0 0 0 0 0 0 
0 0 0 0 0 0 0 0 0 
0 0 0 0 0 0 0 0 0 
0 0 0 0 0 0 0 0 0 
0 0 0 0 0 0 0 0 0 
0 0 0 0 0 0 0 0 0 
0 0 0 0 0 0 0 0 0 
0 0 0 0 0 0 0 0 0 
0 0 0 0 0 0 0 0 0 
0 0 0 0 0 0 0 0 0 
0 0 0 0 0 0 0 0 0 
0 0 0 0 0 0 0 0 0 
0 0 0 0 0 0 0 0 0 
0 0 0 0 0 0 0 0 0 
0 0 0 0 0 0 0 0 0 
0 0 0 0 0 0 0 0 0 
0 0 0 0 0 0 0 0 0 
0 0 0 0 0 0 0 0 0 
0 0 0 0 0 0 0 0 0 
0 0 0 0 0 0 0 0 0 
0 0 0 0 0 0 0 0 0 
0 0 0 0 0 0 0 0 0 
0 0 0 0 0 0 0 0 0 
0 0 0 0 0 0 0 0 0 
0 0 0 0 0 0 0 0 0 
0 0 0 0 0 0 0 0 0 
0 0 0 0 0 0 0 0 0 
0 0 0 0 0 0 0 0 0 
0 0 0 0 0 0 0 0 0 
0 0 0 0 0 0 0 0 0 
0 0 0 0 0 0 0 0 0 
0 0 0 0 0 0 0 0 0 
0 0 0 0 0 0 0 0 0 
0 0 0 0 0 0 0 0 0 
0 0 0 0 0 0 0 0 0 
0 0 0 0 0 0 0 0 0 
0 0 0 0 0 0 0 0 0 
0 0 0 0 0 0 0 0 0 
0 0 0 0 0 0 0 0 0 
0 0 0 0 0 0 0 0 0 
0 0 0 0 0 0 0 0 0 
0 0 0 0 0 0 0 0 0 
0 0 0 0 0 0 0 0 0 
0 0 0 0 0 0 0 0 0 
0 0 0 0 0 0 0 0 0 
0 0 0 0 0 0 0 0 0 
0 0 0 0 0 0 0 0 0 
0 0 0 0 0 0 0 0 0 
0 0 0 0 0 0 0 0 0 
0 0 0 0 0 0 0 0 0 
0 0 0 0 0 0 0 0 0 
0 0 0 0 0 0 0 0 0 
0 0 0 0 0 0 0 0 0 
0 0 0 0 0 0 0 0 0 
0 0 0 0 0 0 0 0 0 
0 0 0 0 0 0 0 0 0 
0 0 0 0 0 0 0 0 0 
0 0 0 0 0 0 0 0 0 
0 0 0 0 0 0 0 0 0 
0 0 0 0 0 0 0 0 0 
0 0 0 0 0 0 0 0 0 
0 0 0 0 0 0 0 0 0 
0 0 0 0 0 0 0 0 0 
0 0 0 0 0 0 0 0 0 
0 0 0 0 0 0 0 0 0 
0 0 0 0 0 0 0 0 0 
0 0 0 0 0 0 0 0 0 
0 0 0 0 0 0 0 0 0 
0 0 0 0 0 0 0 0 0 
0 0 0 0 0 0 0 0 0 
0 0 0 0 0 0 0 0 0 
0 0 0 0 0 0 0 0 0 
0 0 0 0 0 0 0 0 0 
0 0 0 0 0 0 0 0 0 
0 0 0 0 0 0 0 0 0 
0 0 0 0 0 0 0 0 0 
0 0 0 0 0 0 0 0 0 
0 0 0 0 0 0 0 0 0 
0 0 0 0 0 0 0 0 0 
0 0 0 0 0 0 0 0 0 
0 0 0 0 0 0 0 0 0 
0 0 0 0 0 0 0 0 0 
0 0 0 0 0 0 0 0 0 
0 0 0 0 0 0 0 0 0 
0 0 0 0 0 0 0 0 0 
0 0 0 0 0 0 0 0 0 
0 0 0 0 0 0 0 0 0 
0 0 0 0 0 0 0 0 0 
0 0 0 0 0 0 0 0 0 
0 0 0 0 0 0 0 0 0 
0 0 0 0 0 0 0 0 0 
0 0 0 0 0 0 0 0 0 
0 0 0 0 0 0 0 0 0 
0 0 0 0 0 0 0 0 0 
0 0 0 0 0 0 0 0 0 
0 0 0 0 0 0 0 0 0 
0 0 0 0 0 0 0 0 0 
0 0 0 0 0 0 0 0 0 
0 0 0 0 0 0 0 0 0 
0 0 0 0 0 0 0 0 0 
0 0 0 0 0 0 0 0 0 
0 0 0 0 0 0 0 0 0 
0 0 0 0 0 0 0 0 0 
0 0 0 0 0 0 0 0 0 
0 0 0 0 0 0 0 0 0 
0 0 0 0 0 0 0 0 0 
0 0 0 0 0 0 0 0 0 
0 0 0 0 0 0 0 0 0 
0 0 0 0 0 0 0 0 0 
0 0 0 0 0 0 0 0 0 
0 0 0 0 0 0 0 0 0 
0 0 0 0 0 0 0 0 0 
0 0 0 0 0 0 0 0 0 
0 0 0 0 0 0 0 0 0 
0 0 0 0 0 0 0 0 0 
0 0 0 0 0 0 0 0 0 
0 0 0 0 0 0 0 0 0 
0 0 0 0 0 0 0 0 0 
0 0 0 0 0 0 0 0 0 
0 0 0 0 0 0 0 0 0 
0 0 0 0 0 0 0 0 0 
0 0 0 0 0 0 0 0 0 
0 0 0 0 0 0 0 0 0 
0 0 0 0 0 0 0 0 0 
0 0 0 0 0 0 0 0 0 
0 0 0 0 0 0 0 0 0 
0 0 0 0 0 0 0 0 0 
0 0 0 0 0 0 0 0 0 
0 0 0 0 0 0 0 0 0 
0 0 0 0 0 0 0 0 0 
0 0 0 0 0 0 0 0 0 
0 0 0 0 0 0 0 0 0 
0 0 0 0 0 0 0 0 0 
0 0 0 0 0 0 0 0 0 
0 0 0 0 0 0 0 0 0 
0 0 0 0 0 0 0 0 0 
0 0 0 0 0 0 0 0 0 
0 0 0 0 0 0 0 0 0 
0 0 0 0 0 0 0 0 0 
0 0 0 0 0 0 0 0 0 
0 0 0 0 0 0 0 0 0 
0 0 0 0 0 0 0 0 0 
0 0 0 0 0 0 0 0 0 
0 0 0 0 0 0 0 0 0 
0 0 0 0 0 0 0 0 0 
0 0 0 0 0 0 0 0 0 
0 0 0 0 0 0 0 0 0 
0 0 0 0 0 0 0 0 0 
0 0 0 0 0 0 0 0 0 
0 0 0 0 0 0 0 0 0 
0 0 0 0 0 0 0 0 0 
0 0 0 0 0 0 0 0 0 
0 0 0 0 0 0 0 0 0 
0 0 0 0 0 0 0 0 0 
0 0 0 0 0 0 0 0 0 
0 0 0 0 0 0 0 0 0 
0 0 0 0 0 0 0 0 0 
0 0 0 0 0 0 0 0 0 
0 0 0 0 0 0 0 0 0 
0 0 0 0 0 0 0 0 0 
0 0 0 0 0 0 0 0 0 
0 0 0 0 0 0 0 0 0 
0 0 0 0 0 0 0 0 0 
0 0 0 0 0 0 0 0 0 
0 0 0 0 0 0 0 0 0 
0 0 0 0 0 0 0 0 0 
0 0 0 0 0 0 0 0 0 
0 0 0 0 0 0 0 0 0 
0 0 0 0 0 0 0 0 0 
0 0 0 0 0 0 0 0 0 
0 0 0 0 0 0 0 0 0 
0 0 0 0 0 0 0 0 0 
0 0 0 0 0 0 0 0 0 
0 0 0 0 0 0 0 0 0 
0 0 0 0 0 0 0 0 0 
0 0 0 0 0 0 0 0 0 
0 0 0 0 0 0 0 0 0 
0 0 0 0 0 0 0 0 0 
0 0 0 0 0 0 0 0 0 
0 0 0 0 0 0 0 0 0 
0 0 0 0 0 0 0 0 0 
0 0 0 0 0 0 0 0 0 
0 0 0 0 0 0 0 0 0 
0 0 0 0 0 0 0 0 0 
0 0 0 0 0 0 0 0 0 
0 0 0 0 0 0 0 0 0 
0 0 0 0 0 0 0 0 0 
0 0 0 0 0 0 0 0 0 
0 0 0 0 0 0 0 0 0 
0 0 0 0 0 0 0 0 0 
0 0 0 0 0 0 0 0 0 
0 0 0 0 0 0 0 0 0 
0 0 0 0 0 0 0 0 0 
0 0 0 0 0 0 0 0 0 
0 0 0 0 0 0 0 0 0 
0 0 0 0 0 0 0 0 0 
0 0 0 0 0 0 0 0 0 
0 0 0 0 0 0 0 0 0 
0 0 0 0 0 0 0 0 0 
0 0 0 0 0 0 0 0 0 
0 0 0 0 0 0 0 0 0 
0 0 0 0 0 0 0 0 0 
0 0 0 0 0 0 0 0 0 
0 0 0 0 0 0 0 0 0 
0 0 0 0 0 0 0 0 0 
0 0 0 0 0 0 0 0 0 
0 0 0 0 0 0 0 0 0 
0 0 0 0 0 0 0 0 0 
0 0 0 0 0 0 0 0 0 
0 0 0 0 0 0 0 0 0 
0 0 0 0 0 0 0 0 0 
0 0 0 0 0 0 0 0 0 
0 0 0 0 0 0 0 0 0 
0 0 0 0 0 0 0 0 0 
0 0 0 0 0 0 0 0 0 
0 0 0 0 0 0 0 0 0 
0 0 0 0 0 0 0 0 0 
0 0 0 0 0 0 0 0 0 
0 0 0 0 0 0 0 0 0 
0 0 0 0 0 0 0 0 0 
0 0 0 0 0 0 0 0 0 
0 0 0 0 0 0 0 0 0 
0 0 0 0 0 0 0 0 0 
0 0 0 0 0 0 0 0 0 
0 0 0 0 0 0 0 0 0 
0 0 0 0 0 0 0 0 0 
0 0 0 0 0 0 0 0 0 
0 0 0 0 0 0 0 0 0 
0 0 0 0 0 0 0 0 0 
0 0 0 0 0 0 0 0 0 
0 0 0 0 0 0 0 0 0 
0 0 0 0 0 0 0 0 0 
0 0 0 0 0 0 0 0 0 
0 0 0 0 0 0 0 0 0 
0 0 0 0 0 0 0 0 0 
0 0 0 0 0 0 0 0 0 
0 0 0 0 0 0 0 0 0 
0 0 0 0 0 0 0 0 0 
0 0 0 0 0 0 0 0 0 
0 0 0 0 0 0 0 0 0 
0 0 0 0 0 0 0 0 0 
0 0 0 0 0 0 0 0 0 
0 0 0 0 0 0 0 0 0 
0 0 0 0 0 0 0 0 0 
0 0 0 0 0 0 0 0 0 
0 0 0 0 0 0 0 0 0 
0 0 0 0 0 0 0 0 0 
0 0 0 0 0 0 0 0 0 
0 0 0 0 0 0 0 0 0 
0 0 0 0 0 0 0 0 0 
0 0 0 0 0 0 0 0 0 
0 0 0 0 0 0 0 0 0 
0 0 0 0 0 0 0 0 0 
0 0 0 0 0 0 0 0 0 
0 0 0 0 0 0 0 0 0 
0 0 0 0 0 0 0 0 0 
0 0 0 0 0 0 0 0 0 
0 0 0 0 0 0 0 0 0 
0 0 0 0 0 0 0 0 0 
0 0 0 0 0 0 0 0 0 
0 0 0 0 0 0 0 0 0 
0 0 0 0 0 0 0 0 0 
0 0 0 0 0 0 0 0 0 
0 0 0 0 0 0 0 0 0 
0 0 0 0 0 0 0 0 0 
0 0 0 0 0 0 0 0 0 
0 0 0 0 0 0 0 0 0 
0 0 0 0 0 0 0 0 0 
0 0 0 0 0 0 0 0 0 
0 0 0 0 0 0 0 0 0 
0 0 0 0 0 0 0 0 0 
0 0 0 0 0 0 0 0 0 
0 0 0 0 0 0 0 0 0 
0 0 0 0 0 0 0 0 0 
0 0 0 0 0 0 0 0 0 
0 0 0 0 0 0 0 0 0 
0 0 0 0 0 0 0 0 0 
0 0 0 0 0 0 0 0 0 
0 0 0 0 0 0 0 0 0 
0 0 0 0 0 0 0 0 0 
0 0 0 0 0 0 0 0 0 
0 0 0 0 0 0 0 0 0 
0 0 0 0 0 0 0 0 0 
0 0 0 0 0 0 0 0 0 
0 0 0 0 0 0 0 0 0 
0 0 0 0 0 0 0 0 0 
0 0 0 0 0 0 0 0 0 
0 0 0 0 0 0 0 0 0 
0 0 0 0 0 0 0 0 0 
0 0 0 0 0 0 0 0 0 
0 0 0 0 0 0 0 0 0 
0 0 0 0 0 0 0 0 0 
0 0 0 0 0 0 0 0 0 
0 0 0 0 0 0 0 0 0 
0 0 0 0 0 0 0 0 0 
0 0 0 0 0 0 0 0 0 
0 0 0 0 0 0 0 0 0 
0 0 0 0 0 0 0 0 0 
0 0 0 0 0 0 0 0 0 
0 0 0 0 0 0 0 0 0 
0 0 0 0 0 0 0 0 0 
0 0 0 0 0 0 0 0 0 
0 0 0 0 0 0 0 0 0 
0 0 0 0 0 0 0 0 0 
0 0 0 0 0 0 0 0 0 
0 0 0 0 0 0 0 0 0 
0 0 0 0 0 0 0 0 0 
0 0 0 0 0 0 0 0 0 
0 0 0 0 0 0 0 0 0 
0 0 0 0 0 0 0 0 0 
0 0 0 0 0 0 0 0 0 
0 0 0 0 0 0 0 0 0 
0 0 0 0 0 0 0 0 0 
0 0 0 0 0 0 0 0 0 
0 0 0 0 0 0 0 0 0 
0 0 0 0 0 0 0 0 0 
0 0 0 0 0 0 0 0 0 
0 0 0 0 0 0 0 0 0 
0 0 0 0 0 0 0 0 0 
0 0 0 0 0 0 0 0 0 
0 0 0 0 0 0 0 0 0 
0 0 0 0 0 0 0 0 0 
0 0 0 0 0 0 0 0 0 
0 0 0 0 0 0 0 0 0 
0 0 0 0 0 0 0 0 0 
0 0 0 0 0 0 0 0 0 
0 0 0 0 0 0 0 0 0 
0 0 0 0 0 0 0 0 0 
0 0 0 0 0 0 0 0 0 
0 0 0 0 0 0 0 0 0 
0 0 0 0 0 0 0 0 0 
0 0 0 0 0 0 0 0 0 
0 0 0 0 0 0 0 0 0 
0 0 0 0 0 0 0 0 0 
0 0 0 0 0 0 0 0 0 
0 0 0 0 0 0 0 0 0 
0 0 0 0 0 0 0 0 0 
0 0 0 0 0 0 0 0 0 
0 0 0 0 0 0 0 0 0 
0 0 0 0 0 0 0 0 0 
0 0 0 0 0 0 0 0 0 
0 0 0 0 0 0 0 0 0 
0 0 0 0 0 0 0 0 0 
0 0 0 0 0 0 0 0 0 
0 0 0 0 0 0 0 0 0 
0 0 0 0 0 0 0 0 0 
0 0 0 0 0 0 0 0 0 
0 0 0 0 0 0 0 0 0 
0 0 0 0 0 0 0 0 0 
0 0 0 0 0 0 0 0 0 
0 0 0 0 0 0 0 0 0 
0 0 0 0 0 0 0 0 0 
0 0 0 0 0 0 0 0 0 
0 0 0 0 0 0 0 0 0 
0 0 0 0 0 0 0 0 0 
0 0 0 0 0 0 0 0 0 
0 0 0 0 0 0 0 0 0 
0 0 0 0 0 0 0 0 0 
0 0 0 0 0 0 0 0 0 
0 0 0 0 0 0 0 0 0 
0 0 0 0 0 0 0 0 0 
0 0 0 0 0 0 0 0 0 
0 0 0 0 0 0 0 0 0 
0 0 0 0 0 0 0 0 0 
0 0 0 0 0 0 0 0 0 
0 0 0 0 0 0 0 0 0 
0 0 0 0 0 0 0 0 0 
0 0 0 0 0 0 0 0 0 
0 0 0 0 0 0 0 0 0 
0 0 0 0 0 0 0 0 0 
0 0 0 0 0 0 0 0 0 
0 0 0 0 0 0 0 0 0 
0 0 0 0 0 0 0 0 0 
0 0 0 0 0 0 0 0 0 
0 0 0 0 0 0 0 0 0 
0 0 0 0 0 0 0 0 0 
0 0 0 0 0 0 0 0 0 
0 0 0 0 0 0 
meshid 1 5744 int
0 1 2 3 4 5 6 7 8 
9 10 11 12 13 14 15 16 17 
18 19 20 21 22 23 24 25 26 
27 28 29 30 31 32 33 34 35 
36 37 38 39 40 41 42 43 44 
45 46 47 48 49 50 51 52 53 
54 55 56 57 58 59 60 61 62 
63 64 65 66 67 68 69 70 71 
72 73 74 75 76 77 78 79 80 
81 82 83 84 85 86 87 88 89 
90 91 92 93 94 95 96 97 98 
99 100 101 102 103 104 105 106 107 
108 109 110 111 112 113 114 115 116 
117 118 119 120 121 122 123 124 125 
126 127 128 129 130 131 132 133 134 
135 136 137 138 139 140 141 142 143 
144 145 146 147 148 149 150 151 152 
153 154 155 156 157 158 159 160 161 
162 163 164 165 166 167 168 169 170 
171 172 173 174 175 176 177 178 179 
180 181 182 183 184 185 186 187 188 
189 190 191 192 193 194 195 196 197 
198 199 200 201 202 203 204 205 206 
207 208 209 210 211 212 213 214 215 
216 217 218 219 220 221 222 223 224 
225 226 227 228 229 230 231 232 233 
234 235 236 237 238 239 240 241 242 
243 244 245 246 247 248 249 250 251 
252 253 254 255 256 257 258 259 260 
261 262 263 264 265 266 267 268 269 
270 271 272 273 274 275 276 277 278 
279 280 281 282 283 284 285 286 287 
288 289 290 291 292 293 294 295 296 
297 298 299 300 301 302 303 304 305 
306 307 308 309 310 311 312 313 314 
315 316 317 318 319 320 321 322 323 
324 325 326 327 328 329 330 331 332 
333 334 335 336 337 338 339 340 341 
342 343 344 345 346 347 348 349 350 
351 352 353 354 355 356 357 358 359 
360 361 362 363 364 365 366 367 368 
369 370 371 372 373 374 375 376 377 
378 379 380 381 382 383 384 385 386 
387 388 389 390 391 392 393 394 395 
396 397 398 399 400 401 402 403 404 
405 406 407 408 409 410 411 412 413 
414 415 416 417 418 419 420 421 422 
423 424 425 426 427 428 429 430 431 
432 433 434 435 436 437 438 439 440 
441 442 443 444 445 446 447 448 449 
450 451 452 453 454 455 456 457 458 
459 460 461 462 463 464 465 466 467 
468 469 470 471 472 473 474 475 476 
477 478 479 480 481 482 483 484 485 
486 487 488 489 490 491 492 493 494 
495 496 497 498 499 500 501 502 503 
504 505 506 507 508 509 510 511 512 
513 514 515 516 517 518 519 520 521 
522 523 524 525 526 527 528 529 530 
531 532 533 534 535 536 537 538 539 
540 541 542 543 544 545 546 547 548 
549 550 551 552 553 554 555 556 557 
558 559 560 561 562 563 564 565 566 
567 568 569 570 571 572 573 574 575 
576 577 578 579 580 581 582 583 584 
585 586 587 588 589 590 591 592 593 
594 595 596 597 598 599 600 601 602 
603 604 605 606 607 608 609 610 611 
612 613 614 615 616 617 618 619 620 
621 622 623 624 625 626 627 628 629 
630 631 632 633 634 635 636 637 638 
639 640 641 642 643 644 645 646 647 
648 649 650 651 652 653 654 655 656 
657 658 659 660 661 662 663 664 665 
666 667 668 669 670 671 672 673 674 
675 676 677 678 679 680 681 682 683 
684 685 686 687 688 689 690 691 692 
693 694 695 696 697 698 699 700 701 
702 703 704 705 706 707 708 709 710 
711 712 713 714 715 716 717 718 719 
720 721 722 723 724 725 726 727 728 
729 730 731 732 733 734 735 736 737 
738 739 740 741 742 743 744 745 746 
747 748 749 750 751 752 753 754 755 
756 757 758 759 760 761 762 763 764 
765 766 767 768 769 770 771 772 773 
774 775 776 777 778 779 780 781 782 
783 784 785 786 787 788 789 790 791 
792 793 794 795 796 797 798 799 800 
801 802 803 804 805 806 807 808 809 
810 811 812 813 814 815 816 817 818 
819 820 821 822 823 824 825 826 827 
828 829 830 831 832 833 834 835 836 
837 838 839 840 841 842 843 844 845 
846 847 848 849 850 851 852 853 854 
855 856 857 858 859 860 861 862 863 
864 865 866 867 868 869 870 871 872 
873 874 875 876 877 878 879 880 881 
882 883 884 885 886 887 888 889 890 
891 892 893 894 895 896 897 898 899 
900 901 902 903 904 905 906 907 908 
909 910 911 912 913 914 915 916 917 
918 919 920 921 922 923 924 925 926 
927 928 929 930 931 932 933 934 935 
936 937 938 939 940 941 942 943 944 
945 946 947 948 949 950 951 952 953 
954 955 956 957 958 959 960 961 962 
963 964 965 966 967 968 969 970 971 
972 973 974 975 976 977 978 979 980 
981 982 983 984 985 986 987 988 989 
990 991 992 993 994 995 996 997 998 
999 1000 1001 1002 1003 1004 1005 1006 1007 
1008 1009 1010 1011 1012 1013 1014 1015 1016 
1017 1018 1019 1020 1021 1022 1023 1024 1025 
1026 1027 1028 1029 1030 1031 1032 1033 1034 
1035 1036 1037 1038 1039 1040 1041 1042 1043 
1044 1045 1046 1047 1048 1049 1050 1051 1052 
1053 1054 1055 1056 1057 1058 1059 1060 1061 
1062 1063 1064 1065 1066 1067 1068 1069 1070 
1071 1072 1073 1074 1075 1076 1077 1078 1079 
1080 1081 1082 1083 1084 1085 1086 1087 1088 
1089 1090 1091 1092 1093 1094 1095 1096 1097 
1098 1099 1100 1101 1102 1103 1104 1105 1106 
1107 1108 1109 1110 1111 1112 1113 1114 1115 
1116 1117 1118 1119 1120 1121 1122 1123 1124 
1125 1126 1127 1128 1129 1130 1131 1132 1133 
1134 1135 1136 1137 1138 1139 1140 1141 1142 
1143 1144 1145 1146 1147 1148 1149 1150 1151 
1152 1153 1154 1155 1156 1157 1158 1159 1160 
1161 1162 1163 1164 1165 1166 1167 1168 1169 
1170 1171 1172 1173 1174 1175 1176 1177 1178 
1179 1180 1181 1182 1183 1184 1185 1186 1187 
1188 1189 1190 1191 1192 1193 1194 1195 1196 
1197 1198 1199 1200 1201 1202 1203 1204 1205 
1206 1207 1208 1209 1210 1211 1212 1213 1214 
1215 1216 1217 1218 1219 1220 1221 1222 1223 
1224 1225 1226 1227 1228 1229 1230 1231 1232 
1233 1234 1235 1236 1237 1238 1239 1240 1241 
1242 1243 1244 1245 1246 1247 1248 1249 1250 
1251 1252 1253 1254 1255 1256 1257 1258 1259 
1260 1261 1262 1263 1264 1265 1266 1267 1268 
1269 1270 1271 1272 1273 1274 1275 1276 1277 
1278 1279 1280 1281 1282 1283 1284 1285 1286 
1287 1288 1289 1290 1291 1292 1293 1294 1295 
1296 1297 1298 1299 1300 1301 1302 1303 1304 
1305 1306 1307 1308 1309 1310 1311 1312 1313 
1314 1315 1316 1317 1318 1319 1320 1321 1322 
1323 1324 1325 1326 1327 1328 1329 1330 1331 
1332 1333 1334 1335 1336 1337 1338 1339 1340 
1341 1342 1343 1344 1345 1346 1347 1348 1349 
1350 1351 1352 1353 1354 1355 1356 1357 1358 
1359 1360 1361 1362 1363 1364 1365 1366 1367 
1368 1369 1370 1371 1372 1373 1374 1375 1376 
1377 1378 1379 1380 1381 1382 1383 1384 1385 
1386 1387 1388 1389 1390 1391 1392 1393 1394 
1395 1396 1397 1398 1399 1400 1401 1402 1403 
1404 1405 1406 1407 1408 1409 1410 1411 1412 
1413 1414 1415 1416 1417 1418 1419 1420 1421 
1422 1423 1424 1425 1426 1427 1428 1429 1430 
1431 1432 1433 1434 1435 1436 1437 1438 1439 
1440 1441 1442 1443 1444 1445 1446 1447 1448 
1449 1450 1451 1452 1453 1454 1455 1456 1457 
1458 1459 1460 1461 1462 1463 1464 1465 1466 
1467 1468 1469 1470 1471 1472 1473 1474 1475 
1476 1477 1478 1479 1480 1481 1482 1483 1484 
1485 1486 1487 1488 1489 1490 1491 1492 1493 
1494 1495 1496 1497 1498 1499 1500 1501 1502 
1503 1504 1505 1506 1507 1508 1509 1510 1511 
1512 1513 1514 1515 1516 1517 1518 1519 1520 
1521 1522 1523 1524 1525 1526 1527 1528 1529 
1530 1531 1532 1533 1534 1535 1536 1537 1538 
1539 1540 1541 1542 1543 1544 1545 1546 1547 
1548 1549 1550 1551 1552 1553 1554 1555 1556 
1557 1558 1559 1560 1561 1562 1563 1564 1565 
1566 1567 1568 1569 1570 1571 1572 1573 1574 
1575 1576 1577 1578 1579 1580 1581 1582 1583 
1584 1585 1586 1587 1588 1589 1590 1591 1592 
1593 1594 1595 1596 1597 1598 1599 1600 1601 
1602 1603 1604 1605 1606 1607 1608 1609 1610 
1611 1612 1613 1614 1615 1616 1617 1618 1619 
1620 1621 1622 1623 1624 1625 1626 1627 1628 
1629 1630 1631 1632 1633 1634 1635 1636 1637 
1638 1639 1640 1641 1642 1643 1644 1645 1646 
1647 1648 1649 1650 1651 1652 1653 1654 1655 
1656 1657 1658 1659 1660 1661 1662 1663 1664 
1665 1666 1667 1668 1669 1670 1671 1672 1673 
1674 1675 1676 1677 1678 1679 1680 1681 1682 
1683 1684 1685 1686 1687 1688 1689 1690 1691 
1692 1693 1694 1695 1696 1697 1698 1699 1700 
1701 1702 1703 1704 1705 1706 1707 1708 1709 
1710 1711 1712 1713 1714 1715 1716 1717 1718 
1719 1720 1721 1722 1723 1724 1725 1726 1727 
1728 1729 1730 1731 1732 1733 1734 1735 1736 
1737 1738 1739 1740 1741 1742 1743 1744 1745 
1746 1747 1748 1749 1750 1751 1752 1753 1754 
1755 1756 1757 1758 1759 1760 1761 1762 1763 
1764 1765 1766 1767 1768 1769 1770 1771 1772 
1773 1774 1775 1776 1777 1778 1779 1780 1781 
1782 1783 1784 1785 1786 1787 1788 1789 1790 
1791 1792 1793 1794 1795 1796 1797 1798 1799 
1800 1801 1802 1803 1804 1805 1806 1807 1808 
1809 1810 1811 1812 1813 1814 1815 1816 1817 
1818 1819 1820 1821 1822 1823 1824 1825 1826 
1827 1828 1829 1830 1831 1832 1833 1834 1835 
1836 1837 1838 1839 1840 1841 1842 1843 1844 
1845 1846 1847 1848 1849 1850 1851 1852 1853 
1854 1855 1856 1857 1858 1859 1860 1861 1862 
1863 1864 1865 1866 1867 1868 1869 1870 1871 
1872 1873 1874 1875 1876 1877 1878 1879 1880 
1881 1882 1883 1884 1885 1886 1887 1888 1889 
1890 1891 1892 1893 1894 1895 1896 1897 1898 
1899 1900 1901 1902 1903 1904 1905 1906 1907 
1908 1909 1910 1911 1912 1913 1914 1915 1916 
1917 1918 1919 1920 1921 1922 1923 1924 1925 
1926 1927 1928 1929 1930 1931 1932 1933 1934 
1935 1936 1937 1938 1939 1940 1941 1942 1943 
1944 1945 1946 1947 1948 1949 1950 1951 1952 
1953 1954 1955 1956 1957 1958 1959 1960 1961 
1962 1963 1964 1965 1966 1967 1968 1969 1970 
1971 1972 1973 1974 1975 1976 1977 1978 1979 
1980 1981 1982 1983 1984 1985 1986 1987 1988 
1989 1990 1991 1992 1993 1994 1995 1996 1997 
1998 1999 2000 2001 2002 2003 2004 2005 2006 
2007 2008 2009 2010 2011 2012 2013 2014 2015 
2016 2017 2018 2019 2020 2021 2022 2023 2024 
2025 2026 2027 2028 2029 2030 2031 2032 2033 
2034 2035 2036 2037 2038 2039 2040 2041 2042 
2043 2044 2045 2046 2047 2048 2049 2050 2051 
2052 2053 2054 2055 2056 2057 2058 2059 2060 
2061 2062 2063 2064 2065 2066 2067 2068 2069 
2070 2071 2072 2073 2074 2075 2076 2077 2078 
2079 2080 2081 2082 2083 2084 2085 2086 2087 
2088 2089 2090 2091 2092 2093 2094 2095 2096 
2097 2098 2099 2100 2101 2102 2103 2104 2105 
2106 2107 2108 2109 2110 2111 2112 2113 2114 
2115 2116 2117 2118 2119 2120 2121 2122 2123 
2124 2125 2126 2127 2128 2129 2130 2131 2132 
2133 2134 2135 2136 2137 2138 2139 2140 2141 
2142 2143 2144 2145 2146 2147 2148 2149 2150 
2151 2152 2153 2154 2155 2156 2157 2158 2159 
2160 2161 2162 2163 2164 2165 2166 2167 2168 
2169 2170 2171 2172 2173 2174 2175 2176 2177 
2178 2179 2180 2181 2182 2183 2184 2185 2186 
2187 2188 2189 2190 2191 2192 2193 2194 2195 
2196 2197 2198 2199 2200 2201 2202 2203 2204 
2205 2206 2207 2208 2209 2210 2211 2212 2213 
2214 2215 2216 2217 2218 2219 2220 2221 2222 
2223 2224 2225 2226 2227 2228 2229 2230 2231 
2232 2233 2234 2235 2236 2237 2238 2239 2240 
2241 2242 2243 2244 2245 2246 2247 2248 2249 
2250 2251 2252 2253 2254 2255 2256 2257 2258 
2259 2260 2261 2262 2263 2264 2265 2266 2267 
2268 2269 2270 2271 2272 2273 2274 2275 2276 
2277 2278 2279 2280 2281 2282 2283 2284 2285 
2286 2287 2288 2289 2290 2291 2292 2293 2294 
2295 2296 2297 2298 2299 2300 2301 2302 2303 
2304 2305 2306 2307 2308 2309 2310 2311 2312 
2313 2314 2315 2316 2317 2318 2319 2320 2321 
2322 2323 2324 2325 2326 2327 2328 2329 2330 
2331 2332 2333 2334 2335 2336 2337 2338 2339 
2340 2341 2342 2343 2344 2345 2346 2347 2348 
2349 2350 2351 2352 2353 2354 2355 2356 2357 
2358 2359 2360 2361 2362 2363 2364 2365 2366 
2367 2368 2369 2370 2371 2372 2373 2374 2375 
2376 2377 2378 2379 2380 2381 2382 2383 2384 
2385 2386 2387 2388 2389 2390 2391 2392 2393 
2394 2395 2396 2397 2398 2399 2400 2401 2402 
2403 2404 2405 2406 2407 2408 2409 2410 2411 
2412 2413 2414 2415 2416 2417 2418 2419 2420 
2421 2422 2423 2424 2425 2426 2427 2428 2429 
2430 2431 2432 2433 2434 2435 2436 2437 2438 
2439 2440 2441 2442 2443 2444 2445 2446 2447 
2448 2449 2450 2451 2452 2453 2454 2455 2456 
2457 2458 2459 2460 2461 2462 2463 2464 2465 
2466 2467 2468 2469 2470 2471 2472 2473 2474 
2475 2476 2477 2478 2479 2480 2481 2482 2483 
2484 2485 2486 2487 2488 2489 2490 2491 2492 
2493 2494 2495 2496 2497 2498 2499 2500 2501 
2502 2503 2504 2505 2506 2507 2508 2509 2510 
2511 2512 2513 2514 2515 2516 2517 2518 2519 
2520 2521 2522 2523 2524 2525 2526 2527 2528 
2529 2530 2531 2532 2533 2534 2535 2536 2537 
2538 2539 2540 2541 2542 2543 2544 2545 2546 
2547 2548 2549 2550 2551 2552 2553 2554 2555 
2556 2557 2558 2559 2560 2561 2562 2563 2564 
2565 2566 2567 2568 2569 2570 2571 2572 2573 
2574 2575 2576 2577 2578 2579 2580 2581 2582 
2583 2584 2585 2586 2587 2588 2589 2590 2591 
2592 2593 2594 2595 2596 2597 2598 2599 2600 
2601 2602 2603 2604 2605 2606 2607 2608 2609 
2610 2611 2612 2613 2614 2615 2616 2617 2618 
2619 2620 2621 2622 2623 2624 2625 2626 2627 
2628 2629 2630 2631 2632 2633 2634 2635 2636 
2637 2638 2639 2640 2641 2642 2643 2644 2645 
2646 2647 2648 2649 2650 2651 2652 2653 2654 
2655 2656 2657 2658 2659 2660 2661 2662 2663 
2664 2665 2666 2667 2668 2669 2670 2671 2672 
2673 2674 2675 2676 2677 2678 2679 2680 2681 
2682 2683 2684 2685 2686 2687 2688 2689 2690 
2691 2692 2693 2694 2695 2696 2697 2698 2699 
2700 2701 2702 2703 2704 2705 2706 2707 2708 
2709 2710 2711 2712 2713 2714 2715 2716 2717 
2718 2719 2720 2721 2722 2723 2724 2725 2726 
2727 2728 2729 2730 2731 2732 2733 2734 2735 
2736 2737 2738 2739 2740 2741 2742 2743 2744 
2745 2746 2747 2748 2749 2750 2751 2752 2753 
2754 2755 2756 2757 2758 2759 2760 2761 2762 
2763 2764 2765 2766 2767 2768 2769 2770 2771 
2772 2773 2774 2775 2776 2777 2778 2779 2780 
2781 2782 2783 2784 2785 2786 2787 2788 2789 
2790 2791 2792 2793 2794 2795 2796 2797 2798 
2799 2800 2801 2802 2803 2804 2805 2806 2807 
2808 2809 2810 2811 2812 2813 2814 2815 2816 
2817 2818 2819 2820 2821 2822 2823 2824 2825 
2826 2827 2828 2829 2830 2831 2832 2833 2834 
2835 2836 2837 2838 2839 2840 2841 2842 2843 
2844 2845 2846 2847 2848 2849 2850 2851 2852 
2853 2854 2855 2856 2857 2858 2859 2860 2861 
2862 2863 2864 2865 2866 2867 2868 2869 2870 
2871 2872 2873 2874 2875 2876 2877 2878 2879 
2880 2881 2882 2883 2884 2885 2886 2887 2888 
2889 2890 2891 2892 2893 2894 2895 2896 2897 
2898 2899 2900 2901 2902 2903 2904 2905 2906 
2907 2908 2909 2910 2911 2912 2913 2914 2915 
2916 2917 2918 2919 2920 2921 2922 2923 2924 
2925 2926 2927 2928 2929 2930 2931 2932 2933 
2934 2935 2936 2937 2938 2939 2940 2941 2942 
2943 2944 2945 2946 2947 2948 2949 2950 2951 
2952 2953 2954 2955 2956 2957 2958 2959 2960 
2961 2962 2963 2964 2965 2966 2967 2968 2969 
2970 2971 2972 2973 2974 2975 2976 2977 2978 
2979 2980 2981 2982 2983 2984 2985 2986 2987 
2988 2989 2990 2991 2992 2993 2994 2995 2996 
2997 2998 2999 3000 3001 3002 3003 3004 3005 
3006 3007 3008 3009 3010 3011 3012 3013 3014 
3015 3016 3017 3018 3019 3020 3021 3022 3023 
3024 3025 3026 3027 3028 3029 3030 3031 3032 
3033 3034 3035 3036 3037 3038 3039 3040 3041 
3042 3043 3044 3045 3046 3047 3048 3049 3050 
3051 3052 3053 3054 3055 3056 3057 3058 3059 
3060 3061 3062 3063 3064 3065 3066 3067 3068 
3069 3070 3071 3072 3073 3074 3075 3076 3077 
3078 3079 3080 3081 3082 3083 3084 3085 3086 
3087 3088 3089 3090 3091 3092 3093 3094 3095 
3096 3097 3098 3099 3100 3101 3102 3103 3104 
3105 3106 3107 3108 3109 3110 3111 3112 3113 
3114 3115 3116 3117 3118 3119 3120 3121 3122 
3123 3124 3125 3126 3127 3128 3129 3130 3131 
3132 3133 3134 3135 3136 3137 3138 3139 3140 
3141 3142 3143 3144 3145 3146 3147 3148 3149 
3150 3151 3152 3153 3154 3155 3156 3157 3158 
3159 3160 3161 3162 3163 3164 3165 3166 3167 
3168 3169 3170 3171 3172 3173 3174 3175 3176 
3177 3178 3179 3180 3181 3182 3183 3184 3185 
3186 3187 3188 3189 3190 3191 3192 3193 3194 
3195 3196 3197 3198 3199 3200 3201 3202 3203 
3204 3205 3206 3207 3208 3209 3210 3211 3212 
3213 3214 3215 3216 3217 3218 3219 3220 3221 
3222 3223 3224 3225 3226 3227 3228 3229 3230 
3231 3232 3233 3234 3235 3236 3237 3238 3239 
3240 3241 3242 3243 3244 3245 3246 3247 3248 
3249 3250 3251 3252 3253 3254 3255 3256 3257 
3258 3259 3260 3261 3262 3263 3264 3265 3266 
3267 3268 3269 3270 3271 3272 3273 3274 3275 
3276 3277 3278 3279 3280 3281 3282 3283 3284 
3285 3286 3287 3288 3289 3290 3291 3292 3293 
3294 3295 3296 3297 3298 3299 3300 3301 3302 
3303 3304 3305 3306 3307 3308 3309 3310 3311 
3312 3313 3314 3315 3316 3317 3318 3319 3320 
3321 3322 3323 3324 3325 3326 3327 3328 3329 
3330 3331 3332 3333 3334 3335 3336 3337 3338 
3339 3340 3341 3342 3343 3344 3345 3346 3347 
3348 3349 3350 3351 3352 3353 3354 3355 3356 
3357 3358 3359 3360 3361 3362 3363 3364 3365 
3366 3367 3368 3369 3370 3371 3372 3373 3374 
3375 3376 3377 3378 3379 3380 3381 3382 3383 
3384 3385 3386 3387 3388 3389 3390 3391 3392 
3393 3394 3395 3396 3397 3398 3399 3400 3401 
3402 3403 3404 3405 3406 3407 3408 3409 3410 
3411 3412 3413 3414 3415 3416 3417 3418 3419 
3420 3421 3422 3423 3424 3425 3426 3427 3428 
3429 3430 3431 3432 3433 3434 3435 3436 3437 
3438 3439 3440 3441 3442 3443 3444 3445 3446 
3447 3448 3449 3450 3451 3452 3453 3454 3455 
3456 3457 3458 3459 3460 3461 3462 3463 3464 
3465 3466 3467 3468 3469 3470 3471 3472 3473 
3474 3475 3476 3477 3478 3479 3480 3481 3482 
3483 3484 3485 3486 3487 3488 3489 3490 3491 
3492 3493 3494 3495 3496 3497 3498 3499 3500 
3501 3502 3503 3504 3505 3506 3507 3508 3509 
3510 3511 3512 3513 3514 3515 3516 3517 3518 
3519 3520 3521 3522 3523 3524 3525 3526 3527 
3528 3529 3530 3531 3532 3533 3534 3535 3536 
3537 3538 3539 3540 3541 3542 3543 3544 3545 
3546 3547 3548 3549 3550 3551 3552 3553 3554 
3555 3556 3557 3558 3559 3560 3561 3562 3563 
3564 3565 3566 3567 3568 3569 3570 3571 3572 
3573 3574 3575 3576 3577 3578 3579 3580 3581 
3582 3583 3584 3585 3586 3587 3588 3589 3590 
3591 3592 3593 3594 3595 3596 3597 3598 3599 
3600 3601 3602 3603 3604 3605 3606 3607 3608 
3609 3610 3611 3612 3613 3614 3615 3616 3617 
3618 3619 3620 3621 3622 3623 3624 3625 3626 
3627 3628 3629 3630 3631 3632 3633 3634 3635 
3636 3637 3638 3639 3640 3641 3642 3643 3644 
3645 3646 3647 3648 3649 3650 3651 3652 3653 
3654 3655 3656 3657 3658 3659 3660 3661 3662 
3663 3664 3665 3666 3667 3668 3669 3670 3671 
3672 3673 3674 3675 3676 3677 3678 3679 3680 
3681 3682 3683 3684 3685 3686 3687 3688 3689 
3690 3691 3692 3693 3694 3695 3696 3697 3698 
3699 3700 3701 3702 3703 3704 3705 3706 3707 
3708 3709 3710 3711 3712 3713 3714 3715 3716 
3717 3718 3719 3720 3721 3722 3723 3724 3725 
3726 3727 3728 3729 3730 3731 3732 3733 3734 
3735 3736 3737 3738 3739 3740 3741 3742 3743 
3744 3745 3746 3747 3748 3749 3750 3751 3752 
3753 3754 3755 3756 3757 3758 3759 3760 3761 
3762 3763 3764 3765 3766 3767 3768 3769 3770 
3771 3772 3773 3774 3775 3776 3777 3778 3779 
3780 3781 3782 3783 3784 3785 3786 3787 3788 
3789 3790 3791 3792 3793 3794 3795 3796 3797 
3798 3799 3800 3801 3802 3803 3804 3805 3806 
3807 3808 3809 3810 3811 3812 3813 3814 3815 
3816 3817 3818 3819 3820 3821 3822 3823 3824 
3825 3826 3827 3828 3829 3830 3831 3832 3833 
3834 3835 3836 3837 3838 3839 3840 3841 3842 
3843 3844 3845 3846 3847 3848 3849 3850 3851 
3852 3853 3854 3855 3856 3857 3858 3859 3860 
3861 3862 3863 3864 3865 3866 3867 3868 3869 
3870 3871 3872 3873 3874 3875 3876 3877 3878 
3879 3880 3881 3882 3883 3884 3885 3886 3887 
3888 3889 3890 3891 3892 3893 3894 3895 3896 
3897 3898 3899 3900 3901 3902 3903 3904 3905 
3906 3907 3908 3909 3910 3911 3912 3913 3914 
3915 3916 3917 3918 3919 3920 3921 3922 3923 
3924 3925 3926 3927 3928 3929 3930 3931 3932 
3933 3934 3935 3936 3937 3938 3939 3940 3941 
3942 3943 3944 3945 3946 3947 3948 3949 3950 
3951 3952 3953 3954 3955 3956 3957 3958 3959 
3960 3961 3962 3963 3964 3965 3966 3967 3968 
3969 3970 3971 3972 3973 3974 3975 3976 3977 
3978 3979 3980 3981 3982 3983 3984 3985 3986 
3987 3988 3989 3990 3991 3992 3993 3994 3995 
3996 3997 3998 3999 4000 4001 4002 4003 4004 
4005 4006 4007 4008 4009 4010 4011 4012 4013 
4014 4015 4016 4017 4018 4019 4020 4021 4022 
4023 4024 4025 4026 4027 4028 4029 4030 4031 
4032 4033 4034 4035 4036 4037 4038 4039 4040 
4041 4042 4043 4044 4045 4046 4047 4048 4049 
4050 4051 4052 4053 4054 4055 4056 4057 4058 
4059 4060 4061 4062 4063 4064 4065 4066 4067 
4068 4069 4070 4071 4072 4073 4074 4075 4076 
4077 4078 4079 4080 4081 4082 4083 4084 4085 
4086 4087 4088 4089 4090 4091 4092 4093 4094 
4095 4096 4097 4098 4099 4100 4101 4102 4103 
4104 4105 4106 4107 4108 4109 4110 4111 4112 
4113 4114 4115 4116 4117 4118 4119 4120 4121 
4122 4123 4124 4125 4126 4127 4128 4129 4130 
4131 4132 4133 4134 4135 4136 4137 4138 4139 
4140 4141 4142 4143 4144 4145 4146 4147 4148 
4149 4150 4151 4152 4153 4154 4155 4156 4157 
4158 4159 4160 4161 4162 4163 4164 4165 4166 
4167 4168 4169 4170 4171 4172 4173 4174 4175 
4176 4177 4178 4179 4180 4181 4182 4183 4184 
4185 4186 4187 4188 4189 4190 4191 4192 4193 
4194 4195 4196 4197 4198 4199 4200 4201 4202 
4203 4204 4205 4206 4207 4208 4209 4210 4211 
4212 4213 4214 4215 4216 4217 4218 4219 4220 
4221 4222 4223 4224 4225 4226 4227 4228 4229 
4230 4231 4232 4233 4234 4235 4236 4237 4238 
4239 4240 4241 4242 4243 4244 4245 4246 4247 
4248 4249 4250 4251 4252 4253 4254 4255 4256 
4257 4258 4259 4260 4261 4262 4263 4264 4265 
4266 4267 4268 4269 4270 4271 4272 4273 4274 
4275 4276 4277 4278 4279 4280 4281 4282 4283 
4284 4285 4286 4287 4288 4289 4290 4291 4292 
4293 4294 4295 4296 4297 4298 4299 4300 4301 
4302 4303 4304 4305 4306 4307 4308 4309 4310 
4311 4312 4313 4314 4315 4316 4317 4318 4319 
4320 4321 4322 4323 4324 4325 4326 4327 4328 
4329 4330 4331 4332 4333 4334 4335 4336 4337 
4338 4339 4340 4341 4342 4343 4344 4345 4346 
4347 4348 4349 4350 4351 4352 4353 4354 4355 
4356 4357 4358 4359 4360 4361 4362 4363 4364 
4365 4366 4367 4368 4369 4370 4371 4372 4373 
4374 4375 4376 4377 4378 4379 4380 4381 4382 
4383 4384 4385 4386 4387 4388 4389 4390 4391 
4392 4393 4394 4395 4396 4397 4398 4399 4400 
4401 4402 4403 4404 4405 4406 4407 4408 4409 
4410 4411 4412 4413 4414 4415 4416 4417 4418 
4419 4420 4421 4422 4423 4424 4425 4426 4427 
4428 4429 4430 4431 4432 4433 4434 4435 4436 
4437 4438 4439 4440 4441 4442 4443 4444 4445 
4446 4447 4448 4449 4450 4451 4452 4453 4454 
4455 4456 4457 4458 4459 4460 4461 4462 4463 
4464 4465 4466 4467 4468 4469 4470 4471 4472 
4473 4474 4475 4476 4477 4478 4479 4480 4481 
4482 4483 4484 4485 4486 4487 4488 4489 4490 
4491 4492 4493 4494 4495 4496 4497 4498 4499 
4500 4501 4502 4503 4504 4505 4506 4507 4508 
4509 4510 4511 4512 4513 4514 4515 4516 4517 
4518 4519 4520 4521 4522 4523 4524 4525 4526 
4527 4528 4529 4530 4531 4532 4533 4534 4535 
4536 4537 4538 4539 4540 4541 4542 4543 4544 
4545 4546 4547 4548 4549 4550 4551 4552 4553 
4554 4555 4556 4557 4558 4559 4560 4561 4562 
4563 4564 4565 4566 4567 4568 4569 4570 4571 
4572 4573 4574 4575 4576 4577 4578 4579 4580 
4581 4582 4583 4584 4585 4586 4587 4588 4589 
4590 4591 4592 4593 4594 4595 4596 4597 4598 
4599 4600 4601 4602 4603 4604 4605 4606 4607 
4608 4609 4610 4611 4612 4613 4614 4615 4616 
4617 4618 4619 4620 4621 4622 4623 4624 4625 
4626 4627 4628 4629 4630 4631 4632 4633 4634 
4635 4636 4637 4638 4639 4640 4641 4642 4643 
4644 4645 4646 4647 4648 4649 4650 4651 4652 
4653 4654 4655 4656 4657 4658 4659 4660 4661 
4662 4663 4664 4665 4666 4667 4668 4669 4670 
4671 4672 4673 4674 4675 4676 4677 4678 4679 
4680 4681 4682 4683 4684 4685 4686 4687 4688 
4689 4690 4691 4692 4693 4694 4695 4696 4697 
4698 4699 4700 4701 4702 4703 4704 4705 4706 
4707 4708 4709 4710 4711 4712 4713 4714 4715 
4716 4717 4718 4719 4720 4721 4722 4723 4724 
4725 4726 4727 4728 4729 4730 4731 4732 4733 
4734 4735 4736 4737 4738 4739 4740 4741 4742 
4743 4744 4745 4746 4747 4748 4749 4750 4751 
4752 4753 4754 4755 4756 4757 4758 4759 4760 
4761 4762 4763 4764 4765 4766 4767 4768 4769 
4770 4771 4772 4773 4774 4775 4776 4777 4778 
4779 4780 4781 4782 4783 4784 4785 4786 4787 
4788 4789 4790 4791 4792 4793 4794 4795 4796 
4797 4798 4799 4800 4801 4802 4803 4804 4805 
4806 4807 4808 4809 4810 4811 4812 4813 4814 
4815 4816 4817 4818 4819 4820 4821 4822 4823 
4824 4825 4826 4827 4828 4829 4830 4831 4832 
4833 4834 4835 4836 4837 4838 4839 4840 4841 
4842 4843 4844 4845 4846 4847 4848 4849 4850 
4851 4852 4853 4854 4855 4856 4857 4858 4859 
4860 4861 4862 4863 4864 4865 4866 4867 4868 
4869 4870 4871 4872 4873 4874 4875 4876 4877 
4878 4879 4880 4881 4882 4883 4884 4885 4886 
4887 4888 4889 4890 4891 4892 4893 4894 4895 
4896 4897 4898 4899 4900 4901 4902 4903 4904 
4905 4906 4907 4908 4909 4910 4911 4912 4913 
4914 4915 4916 4917 4918 4919 4920 4921 4922 
4923 4924 4925 4926 4927 4928 4929 4930 4931 
4932 4933 4934 4935 4936 4937 4938 4939 4940 
4941 4942 4943 4944 4945 4946 4947 4948 4949 
4950 4951 4952 4953 4954 4955 4956 4957 4958 
4959 4960 4961 4962 4963 4964 4965 4966 4967 
4968 4969 4970 4971 4972 4973 4974 4975 4976 
4977 4978 4979 4980 4981 4982 4983 4984 4985 
4986 4987 4988 4989 4990 4991 4992 4993 4994 
4995 4996 4997 4998 4999 5000 5001 5002 5003 
5004 5005 5006 5007 5008 5009 5010 5011 5012 
5013 5014 5015 5016 5017 5018 5019 5020 5021 
5022 5023 5024 5025 5026 5027 5028 5029 5030 
5031 5032 5033 5034 5035 5036 5037 5038 5039 
5040 5041 5042 5043 5044 5045 5046 5047 5048 
5049 5050 5051 5052 5053 5054 5055 5056 5057 
5058 5059 5060 5061 5062 5063 5064 5065 5066 
5067 5068 5069 5070 5071 5072 5073 5074 5075 
5076 5077 5078 5079 5080 5081 5082 5083 5084 
5085 5086 5087 5088 5089 5090 5091 5092 5093 
5094 5095 5096 5097 5098 5099 5100 5101 5102 
5103 5104 5105 5106 5107 5108 5109 5110 5111 
5112 5113 5114 5115 5116 5117 5118 5119 5120 
5121 5122 5123 5124 5125 5126 5127 5128 5129 
5130 5131 5132 5133 5134 5135 5136 5137 5138 
5139 5140 5141 5142 5143 5144 5145 5146 5147 
5148 5149 5150 5151 5152 5153 5154 5155 5156 
5157 5158 5159 5160 5161 5162 5163 5164 5165 
5166 5167 5168 5169 5170 5171 5172 5173 5174 
5175 5176 5177 5178 5179 5180 5181 5182 5183 
5184 5185 5186 5187 5188 5189 5190 5191 5192 
5193 5194 5195 5196 5197 5198 5199 5200 5201 
5202 5203 5204 5205 5206 5207 5208 5209 5210 
5211 5212 5213 5214 5215 5216 5217 5218 5219 
5220 5221 5222 5223 5224 5225 5226 5227 5228 
5229 5230 5231 5232 5233 5234 5235 5236 5237 
5238 5239 5240 5241 5242 5243 5244 5245 5246 
5247 5248 5249 5250 5251 5252 5253 5254 5255 
5256 5257 5258 5259 5260 5261 5262 5263 5264 
5265 5266 5267 5268 5269 5270 5271 5272 5273 
5274 5275 5276 5277 5278 5279 5280 5281 5282 
5283 5284 5285 5286 5287 5288 5289 5290 5291 
5292 5293 5294 5295 5296 5297 5298 5299 5300 
5301 5302 5303 5304 5305 5306 5307 5308 5309 
5310 5311 5312 5313 5314 5315 5316 5317 5318 
5319 5320 5321 5322 5323 5324 5325 5326 5327 
5328 5329 5330 5331 5332 5333 5334 5335 5336 
5337 5338 5339 5340 5341 5342 5343 5344 5345 
5346 5347 5348 5349 5350 5351 5352 5353 5354 
5355 5356 5357 5358 5359 5360 5361 5362 5363 
5364 5365 5366 5367 5368 5369 5370 5371 5372 
5373 5374 5375 5376 5377 5378 5379 5380 5381 
5382 5383 5384 5385 5386 5387 5388 5389 5390 
5391 5392 5393 5394 5395 5396 5397 5398 5399 
5400 5401 5402 5403 5404 5405 5406 5407 5408 
5409 5410 5411 5412 5413 5414 5415 5416 5417 
5418 5419 5420 5421 5422 5423 5424 5425 5426 
5427 5428 5429 5430 5431 5432 5433 5434 5435 
5436 5437 5438 5439 5440 5441 5442 5443 5444 
5445 5446 5447 5448 5449 5450 5451 5452 5453 
5454 5455 5456 5457 5458 5459 5460 5461 5462 
5463 5464 5465 5466 5467 5468 5469 5470 5471 
5472 5473 5474 5475 5476 5477 5478 5479 5480 
5481 5482 5483 5484 5485 5486 5487 5488 5489 
5490 5491 5492 5493 5494 5495 5496 5497 5498 
5499 5500 5501 5502 5503 5504 5505 5506 5507 
5508 5509 5510 5511 5512 5513 5514 5515 5516 
5517 5518 5519 5520 5521 5522 5523 5524 5525 
5526 5527 5528 5529 5530 5531 5532 5533 5534 
5535 5536 5537 5538 5539 5540 5541 5542 5543 
5544 5545 5546 5547 5548 5549 5550 5551 5552 
5553 5554 5555 5556 5557 5558 5559 5560 5561 
5562 5563 5564 5565 5566 5567 5568 5569 5570 
5571 5572 5573 5574 5575 5576 5577 5578 5579 
5580 5581 5582 5583 5584 5585 5586 5587 5588 
5589 5590 5591 5592 5593 5594 5595 5596 5597 
5598 5599 5600 5601 5602 5603 5604 5605 5606 
5607 5608 5609 5610 5611 5612 5613 5614 5615 
5616 5617 5618 5619 5620 5621 5622 5623 5624 
5625 5626 5627 5628 5629 5630 5631 5632 5633 
5634 5635 5636 5637 5638 5639 5640 5641 5642 
5643 5644 5645 5646 5647 5648 5649 5650 5651 
5652 5653 5654 5655 5656 5657 5658 5659 5660 
5661 5662 5663 5664 5665 5666 5667 5668 5669 
5670 5671 5672 5673 5674 5675 5676 5677 5678 
5679 5680 5681 5682 5683 5684 5685 5686 5687 
5688 5689 5690 5691 5692 5693 5694 5695 5696 
5697 5698 5699 5700 5701 5702 5703 5704 5705 
5706 5707 5708 5709 5710 5711 5712 5713 5714 
5715 5716 5717 5718 5719 5720 5721 5722 5723 
5724 5725 5726 5727 5728 5729 5730 5731 5732 
5733 5734 5735 5736 5737 5738 5739 5740 5741 
5742 5743 
v 3 5744 double
0 -48.581090534 -76.903101373 0 -49.062272752 -75.422174782 0 -49.539572049 -73.953198593 
0 -50.011066454 -72.502088024 0 -50.474857511 -71.074685924 0 -50.929077699 -69.676739929 
0 -51.371897883 -68.31387954 0 -51.801534986 -66.9915925 0 -52.216259246 -65.715202473 
0 -52.614400615 -64.489849337 0 -52.99435586 -63.320467333 0 -53.354595198 -62.211764653 
0 -53.693667696 -61.16820681 0 -54.010208212 -60.193995272 0 -54.302942495 -59.29305179 
0 -54.570691342 -58.469005572 0 -54.812376775 -57.725174293 0 -55.027025745 -57.064552692 
0 -55.213773833 -56.489801175 0 -55.371868955 -56.003234422 0 -55.500674447 -55.606811881 
0 -55.59967215 -55.302128278 0 -55.668463032 -55.090411712 0 -55.706769961 -54.97251511 
0 -55.714439247 -54.948911474 0 -55.691439721 -55.019696736 0 -55.637863658 -55.184586903 
0 -55.553927085 -55.442917111 0 -55.439968241 -55.793646372 0 -55.29644541 -56.235364224 
0 -55.123936931 -56.766290729 0 -54.923137487 -57.384287875 0 -54.694855327 -58.086868118 
0 -54.440009805 -58.871201985 0 -54.159627051 -59.734131372 0 -53.854836272 -60.672180935 
0 -53.526864504 -61.681574247 0 -53.177032446 -62.758246611 0 -52.806748908 -63.897862161 
0 -52.417504788 -65.095832383 0 -52.01086721 -66.347334161 0 -51.588473664 -67.647327823 
0 -51.152025213 -68.990578037 0 -50.703279162 -70.371676369 0 -50.244042429 -71.785061702 
0 -49.776164209 -73.225042798 0 -49.301528377 -74.685821683 0 -48.822046199 -76.161516089 
0 -47.373879699 -80.618514284 0 -46.894397521 -82.09420869 0 -46.41976169 -83.554987575 
0 -45.951883469 -84.994968671 0 -45.492646736 -86.408354004 0 -45.043900686 -87.789452336 
0 -44.607452234 -89.13270255 0 -44.185058689 -90.432696212 0 -43.778421111 -91.68419799 
0 -43.38917699 -92.882168213 0 -43.018893452 -94.021783762 0 -42.669061395 -95.098456126 
0 -42.341089626 -96.107849438 0 -42.036298847 -97.045899001 0 -41.755916093 -97.908828388 
0 -41.501070571 -98.693162255 0 -41.272788412 -99.395742498 0 -41.071988967 -100.01373964 
0 -40.899480488 -100.54466615 0 -40.755957658 -100.986384 0 -40.641998813 -101.33711326 
0 -40.55806224 -101.59544347 0 -40.504486177 -101.76033364 0 -40.481486652 -101.8311189 
0 -40.489155938 -101.80751526 0 -40.527462866 -101.68961866 0 -40.596253748 -101.4779021 
0 -40.695251452 -101.17321849 0 -40.824056943 -100.77679595 0 -40.982152065 -100.2902292 
0 -41.168900153 -99.715477681 0 -41.383549124 -99.05485608 0 -41.625234557 -98.311024801 
0 -41.892983403 -97.486978583 0 -42.185717686 -96.586035101 0 -42.502258203 -95.611823563 
0 -42.8413307 -94.56826572 0 -43.201570038 -93.45956304 0 -43.581525284 -92.290181037 
0 -43.979666653 -91.0648279 0 -44.394390912 -89.788437873 0 -44.824028016 -88.466150833 
0 -45.266848199 -87.103290444 0 -45.721068387 -85.705344449 0 -46.184859444 -84.27794235 
0 -46.65635385 -82.82683178 0 -47.133653146 -81.357855592 0 -47.614835365 -79.876929 
0 -47.97705934 -78.762118235 0 -48.218866559 -78.017912138 0 -38.646987863 -73.915126388 
0 -29.025045036 -69.966422189 0 -29.67708889 -67.959637555 0 -39.300000677 -71.905359602 
0 -40.143667704 -69.334680456 0 -30.070390084 -66.775041918 0 -40.760482173 -67.410459743 
0 -31.172188759 -63.373091963 0 -31.502480142 -62.341699732 0 -41.558651776 -64.939086416 
0 -42.178612513 -63.045903342 0 -32.542212893 -59.141692579 0 -32.965512744 -57.201738102 
0 -42.786072296 -61.17633437 0 -43.563050349 -58.828994475 0 -33.306042345 -56.197648421 
0 -34.463811974 -53.212442125 0 -44.101711458 -57.127213379 0 -34.948345994 -51.721199748 
0 -44.632319892 -55.478991939 0 -35.129258963 -51.179583479 0 -45.319013344 -53.380743405 
0 -35.645462466 -49.590872457 0 -35.946106592 -48.008434411 0 -45.820569254 -51.837113038 
0 -46.417544371 -49.999812547 0 -36.193249652 -47.247806283 0 -36.723542012 -46.272884785 
0 -37.163101745 -44.903525072 0 -46.860889348 -48.635337012 0 -47.39156932 -47.012556002 
0 -37.388990938 -44.218793626 0 -47.756636409 -45.878511029 0 -38.026954325 -42.261394168 
0 -38.232979607 -41.613436139 0 -48.184265822 -44.548525614 0 -38.117935247 -41.981383683 
0 -48.492773686 -43.612913448 0 -38.73652824 -40.077550212 0 -38.99998162 -39.271520092 
0 -48.764294374 -42.777258699 0 -49.072537645 -41.85887848 0 -39.135716413 -38.884066379 
0 -49.249651459 -41.283483188 0 -39.463600877 -37.859054163 0 -39.59164694 -37.467140682 
0 -49.406657369 -40.819472122 0 -49.550384316 -40.357922626 0 -39.7211731 -37.047124935 
0 -39.573864826 -36.802860916 0 -49.623106899 -40.134105529 0 -49.661447157 -40.016106347 
0 -39.589205558 -36.755646997 0 -39.801659404 -36.799413562 0 -39.77051173 -36.885554951 
0 -49.649940605 -40.051519874 0 -39.709140841 -37.066497791 0 -49.599186271 -40.198004355 
0 -49.485441501 -40.557796058 0 -39.579827827 -37.482140954 0 -39.488747533 -37.762457277 
0 -49.31012775 -41.097356302 0 -39.545525741 -37.587711921 0 -49.132371037 -41.644435213 
0 -39.196949575 -38.660519047 0 -38.967873978 -39.365541242 0 -48.917795824 -42.304829811 
0 -48.597224316 -43.319706447 0 -38.823279733 -39.83881555 0 -48.304377617 -44.19273693 
0 -38.305638678 -41.390654785 0 -38.126447542 -41.942148396 0 -47.883501047 -45.48806182 
0 -47.522183577 -46.600082648 0 -37.518297435 -43.826879103 0 -36.908947261 -45.037617727 
0 -47.125855142 -47.819856148 0 -46.582459781 -49.537558672 0 -36.682092416 -45.781108714 
0 -36.068847872 -48.294813345 0 -46.124355196 -50.902156044 0 -35.618386276 -49.686155647 
0 -45.654662561 -52.354708516 0 -44.990607978 -54.391471195 0 -34.932263763 -51.785872363 
0 -34.383401282 -53.475168484 0 -44.451898881 -56.049447314 0 -43.743647672 -58.2292204 
0 -34.089874333 -54.378551544 0 -33.668720566 -55.674658458 0 -33.061138164 -57.537404334 
0 -43.161642645 -60.020447689 0 -42.40441105 -62.350966903 0 -32.746726753 -58.505063158 
0 -32.316300865 -59.83697831 0 -41.788780489 -64.245682945 0 -31.6954223 -61.747846045 
0 -31.301795135 -62.959305891 0 -40.991172885 -66.700466737 0 -31.531640639 -62.251914167 
0 -40.356359117 -68.654222619 0 -30.25529758 -66.180094189 0 -29.405862427 -68.150783969 
0 -39.710158577 -70.643023383 0 -38.871537065 -73.241654853 0 -29.048423134 -69.268488848 
0 -28.092866151 -72.811710457 0 -38.50931309 -74.356465619 0 -28.524785388 -71.523682923 
0 -27.499642409 -74.637465401 0 -37.594266268 -77.131406967 0 -36.758510724 -79.727261387 
0 -26.655024779 -77.260594517 0 -26.00703719 -79.254895253 0 -36.112310184 -81.716062152 
0 -35.271862344 -84.259666264 0 -25.638083755 -80.347388795 0 -24.586530624 -83.626764925 
0 -34.679888813 -86.124601825 0 -23.990205078 -85.453967315 0 -34.064258252 -88.019317868 
0 -33.307026657 -90.349837081 0 -23.225068472 -87.816914575 0 -22.860414751 -88.930173642 
0 -32.572342304 -92.601933331 0 -23.072700549 -88.285854824 0 -32.016770421 -94.320837457 
0 -21.94972508 -91.742017938 0 -21.410697494 -93.4081295 0 -31.478061324 -95.978813576 
0 -30.816152637 -98.016269298 0 -21.128744053 -94.27620322 0 -30.344314105 -99.468128727 
0 -20.278283998 -96.873587029 0 -20.041990921 -97.600822343 0 -19.741256154 -98.538986394 
0 -29.76894853 -101.23892188 0 -29.342814159 -102.55042862 0 -19.326717832 -99.814804162 
0 -18.742416775 -100.94567664 0 -28.946485724 -103.77020212 0 -28.490370435 -105.17398064 
0 -18.554050332 -101.52540894 0 -18.499259544 -102.36145891 0 -18.171684031 -103.3575263 
0 -28.164291685 -106.17754784 0 -17.922877096 -104.12327531 0 -27.876180699 -107.0521559 
0 -17.837211686 -104.39903271 0 -27.550873477 -108.06545496 0 -17.60095163 -105.12616639 
0 -17.400646889 -105.742641 0 -27.336298265 -108.72584956 0 -27.116527591 -109.40223414 
0 -17.309681706 -106.02260304 0 -17.195895374 -106.37280136 0 -17.072781471 -106.74449359 
0 -26.983227801 -109.81248871 0 -26.873978487 -110.17374423 0 -17.03232304 -106.89403254 
0 -26.818728697 -110.3187649 0 -16.936564587 -107.15019121 0 -16.936804069 -107.14945416 
0 -26.811298893 -110.34163148 0 -26.845562403 -110.23617924 0 -17.001101495 -106.97231528 
0 -17.091529777 -106.69709526 0 -26.918284986 -110.01236214 0 -27.07314644 -109.55442102 
0 -17.162454658 -106.49748434 0 -17.429207311 -105.6595306 0 -27.219017842 -109.08680158 
0 -17.618398531 -105.08056928 0 -27.406445531 -108.51474802 0 -27.704374928 -107.59302607 
0 -17.934171633 -104.10062067 0 -18.22133302 -103.21711966 0 -27.975895615 -106.75737132 
0 -28.379793431 -105.51938854 0 -18.396948677 -102.68171712 0 -18.811056797 -100.77828008 
0 -28.712032893 -104.49177374 0 -19.174214496 -99.682268154 0 -28.897324114 -103.29794044 
0 -29.607779954 -101.73494776 0 -19.902505895 -98.04271072 0 -20.185626644 -97.171354653 
0 -30.173918993 -99.992550959 0 -20.017879103 -97.687628497 0 -30.648100048 -98.533171732 
0 -20.964686278 -94.773655642 0 -21.47610508 -93.199670417 0 -31.149655958 -96.989541365 
0 -31.832526995 -94.890019876 0 -21.789252707 -92.23804058 0 -32.366957844 -93.243071391 
0 -22.729975685 -89.311308628 0 -23.253792615 -87.699165885 0 -32.910280404 -91.541551622 
0 -33.682597006 -89.1939504 0 -24.04049449 -85.307291344 0 -24.659879354 -83.402067855 
0 -34.290056788 -87.324381428 0 -35.099530136 -84.842289302 0 -25.010115968 -82.333361062 
0 -26.10104584 -78.957415743 0 -35.708187128 -82.959825027 0 -26.676247851 -77.187125983 
0 -36.330218418 -81.037258934 0 -26.894400878 -76.523870638 0 -37.168668625 -78.464925169 
0 -27.545756838 -74.519203122 0 -28.199751228 -72.506415355 0 -37.82168985 -76.455132497 
0 -27.716376079 -73.994091093 0 -27.064332226 -76.000875727 0 -25.57700565 -80.587606912 
0 -24.199208222 -84.818820704 0 -23.589660765 -86.694814878 0 -22.273786727 -90.746798202 
0 -21.612162152 -92.780929803 0 -21.09595865 -94.369640825 0 -20.602391438 -95.888684507 
0 -19.579879557 -99.057325033 0 -18.694812382 -101.76469604 0 -18.004892876 -103.88296307 
0 -17.743819449 -104.68977383 0 -17.288954745 -106.10506749 0 -17.020248015 -106.91338835 
0 -16.962535642 -107.09100877 0 -16.975404843 -107.07642214 0 -17.161593288 -106.47837233 
0 -17.54447154 -105.29999423 0 -17.773547138 -104.59497204 0 -18.414866227 -102.62119484 
0 -19.22312368 -100.13363418 0 -19.6316623 -98.876281595 0 -20.674719141 -95.666392981 
0 -21.809157352 -92.174640919 0 -22.35558479 -90.483880504 0 -23.675793667 -86.421626139 
0 -24.425120251 -84.123534973 0 -25.070210247 -82.095123743 0 -26.486123536 -77.780419093 
0 -27.145069083 -75.752393229 0 -38.113431041 -75.557245433 0 -30.086396336 -66.699918766 
0 -30.734383926 -64.705618029 0 -32.154890492 -60.333748357 0 -33.516352643 -56.143598707 
0 -34.791696035 -52.218495345 0 -35.334286938 -50.553536323 0 -36.47233747 -47.091316436 
0 -37.414703283 -44.14570912 0 -37.80263874 -42.951766552 0 -38.574472798 -40.604564559 
0 -38.904209429 -39.561480576 0 -39.140469485 -38.834346891 0 -39.340774227 -38.217872285 
0 -39.664186953 -37.214572928 0 -39.797822138 -36.811223453 0 -39.74031962 -36.988198005 
0 -39.651437314 -37.263921394 0 -39.322527679 -38.304324409 0 -38.807249482 -39.859892608 
0 -38.515911795 -40.742660403 0 -37.75058845 -43.122444875 0 -36.83891522 -45.917802562 
0 -35.776734837 -49.18685764 0 -35.265316036 -50.760842866 0 -34.016106882 -54.649465981 
0 -32.700926625 -58.653221938 0 -32.076955723 -60.558747032 0 -30.645592095 -65.004752158 
0 -29.847020237 -67.436642644 0 -29.195664277 -69.44131016 0 -28.541678298 -71.454072042 
0 -18.264977419 -67.910086606 0 -18.331073073 -66.324780271 0 -18.506662891 -67.166255208 
0 -19.326440736 -64.871772917 0 -19.71974193 -63.68717728 0 -20.649047569 -60.579931806 
0 -20.398493757 -59.744981393 0 -21.279214889 -58.637599906 0 -21.2239966 -57.271863939 
0 -22.203598496 -55.877894947 0 -22.405376769 -54.619713782 0 -23.949383177 -50.450524285 
0 -23.716313089 -49.722598947 0 -24.546767988 -48.726724596 0 -24.481977814 -47.431944352 
0 -24.727680957 -48.185108328 0 -25.326541303 -46.277886512 0 -25.446975106 -45.250078811 
0 -26.159338472 -42.898301993 0 -26.44054817 -42.016293573 0 -25.881503238 -41.517466955 
0 -26.878391608 -40.785702914 0 -27.397721915 -39.229485575 0 -27.033345279 -38.720581335 
0 -27.947239347 -38.077350158 0 -27.672022848 -37.350537799 0 -28.40264688 -36.74612587 
0 -28.572679462 -36.227615403 0 -27.98319615 -35.775652429 0 -28.626897358 -35.398680487 
0 -28.024694365 -34.88839316 0 -28.860141501 -34.572265735 0 -28.219868654 -34.230324377 
0 -29.008317601 -34.164781365 0 -28.61208324 -33.809486461 0 -29.390516435 -33.724042215 
0 -29.224044975 -33.538756416 0 -29.474282218 -33.466761199 0 -29.45464017 -33.51749191 
0 -28.977080334 -33.42804257 0 -29.402906464 -33.664599046 0 -29.059588128 -33.99489346 
0 -28.53511227 -34.011675532 0 -29.120185421 -34.51422232 0 -28.51963598 -34.717943857 
0 -28.846817286 -35.308371982 0 -28.704039442 -35.747797001 0 -28.33315037 -35.855703334 
0 -28.641660292 -36.579045994 0 -28.07808177 -37.756462259 0 -27.537091981 -37.991412306 
0 -27.777355205 -38.801334952 0 -27.075496118 -39.442101236 0 -27.199646892 -40.490049764 
0 -26.742768951 -41.231527105 0 -25.89415211 -44.483762668 0 -25.246512532 -44.872726392 
0 -25.384932009 -46.015224201 0 -24.584574378 -46.907402954 0 -24.631358267 -48.362718825 
0 -24.285917034 -49.425948722 0 -23.611903254 -49.88848913 0 -23.694066869 -51.199697094 
0 -22.887553155 -52.119819695 0 -23.484216115 -51.845480206 0 -22.878791674 -53.751444985 
0 -22.15187134 -54.312598882 0 -22.281754965 -55.474858466 0 -21.358358274 -56.136961589 
0 -22.07581517 -56.115876466 0 -21.379722727 -57.747285408 0 -20.644549058 -58.330511694 
0 -20.806968416 -60.017656465 0 -19.997049844 -61.085364611 0 -19.993438703 -62.775884175 
0 -19.383865402 -64.008355081 0 -18.006146334 -68.75061359 0 -17.139863807 -69.355771182 
0 -17.131959765 -70.922926483 0 -16.242184062 -72.148963188 0 -16.346770013 -73.888066607 
0 -15.936219868 -75.151610029 0 -15.200655196 -75.384470057 0 -15.198002895 -76.885679299 
0 -14.495991116 -79.599988383 0 -13.877283068 -79.945116626 0 -13.858122082 -81.516253787 
0 -12.942198788 -83.762640611 0 -12.270789547 -84.228192025 0 -12.418142868 -85.905348919 
0 -11.692000116 -86.572821421 0 -11.098621824 -88.599321064 0 -11.715076023 -88.111664526 
0 -11.186930163 -89.902056272 0 -10.904976721 -90.770129992 0 -10.112715497 -93.049518711 
0 -9.5297346393 -93.40235385 0 -9.6778159047 -94.495078484 0 -8.9343471486 -95.263408463 
0 -9.5411494213 -94.928292281 0 -9.0189688411 -96.444365123 0 -8.5749298322 -97.143555397 
0 -8.1746227815 -99.017870969 0 -7.9612459042 -99.662471097 0 -7.4380332352 -99.834209124 
0 -7.6951677586 -100.60038374 0 -7.0595053303 -101.00546148 0 -7.6095023492 -100.87614113 
0 -7.2843990963 -101.75185463 0 -7.1558917228 -102.14735966 0 -6.6248273076 -102.17131099 
0 -6.9637145047 -102.69171986 0 -6.4723696223 -102.86277287 0 -6.9069362965 -102.86646522 
0 -6.8313445317 -103.36124517 0 -6.7908861006 -103.51078412 0 -6.6271260449 -103.74798012 
0 -6.2062462187 -103.60518372 0 -6.6556575266 -103.79143907 0 -6.2214337433 -103.55001922 
0 -6.6732197031 -103.59769632 0 -6.7292351075 -103.42838825 0 -6.3010185357 -103.15780219 
0 -6.8472089529 -103.09404584 0 -6.8938570391 -102.36076872 0 -6.4974008965 -101.97725751 
0 -7.2447041688 -101.84184065 0 -6.9362812941 -101.21591489 0 -7.5989945983 -100.77666144 
0 -7.7787773389 -100.22363792 0 -7.2240730657 -99.728141217 0 -7.9042537576 -99.210211389 
0 -8.150451085 -97.692170933 0 -9.4579478706 -95.072313337 0 -9.0103488847 -94.287377751 
0 -9.8039838352 -93.398262967 0 -10.65019443 -91.511622239 0 -10.971540016 -90.522622218 
0 -10.695866642 -89.757322466 0 -11.533418878 -88.626517126 0 -11.458965125 -87.364716596 
0 -12.404780972 -86.036045561 0 -12.713671028 -85.08537972 0 -12.831552691 -82.960146355 
0 -13.702438385 -81.958614434 0 -14.094598775 -80.752715964 0 -13.814259251 -80.028627055 
0 -14.716236572 -78.865779734 0 -15.570570941 -76.22774765 0 -15.383086303 -75.369271875 
0 -16.259590635 -74.248807019 0 -16.285240999 -72.614055191 0 -16.477743662 -73.585551674 
0 -17.21980143 -71.173268095 0 -17.632106143 -69.904324668 0 -18.5531834 -63.062776305 
0 -22.051905582 -52.295262633 0 -23.665546563 -46.910718537 0 -24.866888803 -43.574684092 
0 -28.372521779 -33.22271961 0 -27.268478998 -36.454854169 0 -26.117700825 -39.473587232 
0 -25.395200171 -42.524191524 0 -17.753793253 -65.604190581 0 -9.5334134806 -90.654958526 
0 -8.2058338419 -94.934776139 0 -7.3655311639 -98.072981521 0 -6.3353790694 -100.66334661 
0 -5.5606739557 -103.05465682 0 -5.4128582736 -103.20483959 0 -8.0293092416 -96.109604671 
0 -15.503859343 -72.448102599 0 -17.144024114 -65.993237243 0 -17.310303399 -64.521122877 
0 -19.235069321 -60.150757853 0 -20.382897993 -56.756329122 0 -20.499223678 -53.719006043 
0 -22.743243485 -49.653478109 0 -22.776787843 -48.076299373 0 -23.766673227 -45.400505577 
0 -26.606865951 -37.24755241 0 -26.715921412 -35.860766752 0 -27.578436202 -33.242228054 
0 -28.046978748 -33.221269714 0 -27.773819727 -33.313801825 0 -27.631612644 -34.450033256 
0 -26.92402138 -35.390333098 0 -26.638402579 -37.691239746 0 -25.92087051 -38.532648389 
0 -25.282357871 -40.651002056 0 -24.34601795 -44.448856441 0 -23.667026266 -46.649674803 
0 -22.901972397 -48.994295123 0 -22.149099947 -51.407751567 0 -21.188377149 -53.834864474 
0 -18.91264053 -61.07422168 0 -16.138507397 -68.604387817 0 -14.282296236 -74.362198732 
0 -12.832637651 -79.364381063 0 -12.197487292 -80.69974403 0 -11.316926383 -84.156212795 
0 -10.95042275 -85.856523373 0 -10.181318412 -88.254802453 0 -9.4730139359 -89.221632898 
0 -8.6964175116 -92.900553054 0 -8.1057803296 -93.696053558 0 -7.0945480961 -96.406727628 
0 -6.5959745751 -99.358794909 0 -6.1182120134 -99.81600384 0 -5.5530838345 -101.43391553 
0 -5.5755732516 -102.46541725 0 -5.1899885432 -102.60749929 0 -5.3461714759 -103.19628304 
0 -5.3946394314 -102.87213714 0 -5.2495254719 -102.2984231 0 -6.0237438586 -100.93281148 
0 -6.2370144493 -99.686619597 0 -8.1165859811 -93.958999388 0 -9.6269936874 -89.972518309 
0 -10.626842131 -86.844529418 0 -11.207390942 -84.322895279 0 -11.630978001 -82.906231222 
0 -12.686182387 -80.420352267 0 -13.51027293 -77.923684408 0 -14.421420528 -75.258060015 
0 -14.545659549 -73.882031669 0 -16.231439716 -69.525628545 0 -17.253797231 -62.337093117 
0 -17.508202593 -59.97316875 0 -19.090474441 -55.184031707 0 -21.735818662 -48.264228409 
0 -22.932387423 -44.831323006 0 -23.5881445 -43.521194204 0 -24.323499447 -41.758146976 
0 -24.869811594 -40.225473294 0 -24.981125559 -38.521437298 0 -26.604881829 -34.742119398 
0 -26.631568313 -34.09456808 0 -26.708399488 -33.535571014 0 -26.64345613 -33.152607876 
0 -26.728807611 -33.02524554 0 -26.795719505 -33.230902791 0 -26.69313052 -33.756817005 
0 -26.187892703 -34.462755759 0 -25.918609965 -35.503348817 0 -25.502728506 -36.824602918 
0 -24.971638476 -38.319399254 0 -24.416178125 -40.380946063 0 -23.518584413 -42.750906413 
0 -22.781355496 -44.803125348 0 -22.125320545 -46.915269557 0 -21.373245423 -49.238121123 
0 -20.235835056 -51.868835264 0 -18.990830931 -57.032375067 0 -14.753429718 -69.823509208 
0 -14.149633238 -71.690018966 0 -13.312571477 -75.408896136 0 -10.749571969 -82.920038756 
0 -9.4027640449 -86.068337762 0 -8.5722427163 -88.817526925 0 -7.8043758443 -91.186278702 
0 -7.2799000601 -93.114529788 0 -6.7549793044 -94.597888569 0 -6.1330165079 -96.246160192 
0 -5.6124769118 -97.944905745 0 -5.2374808452 -99.347551453 0 -4.7638055859 -99.848601967 
0 -4.3265106167 -102.01273338 0 -4.2446599806 -102.41682985 0 -4.1612408323 -102.54545848 
0 -4.1842003426 -102.45563172 0 -3.9525445829 -101.92162531 0 -4.7512592523 -101.29357174 
0 -4.8164928261 -100.17909856 0 -5.432669139 -99.173248567 0 -5.9868474293 -98.207237916 
0 -6.2920923732 -96.768714489 0 -6.7002584477 -94.805012715 0 -7.4089573939 -93.152993594 
0 -7.9749412891 -91.339218128 0 -11.604031355 -79.218510273 0 -12.520371153 -76.490516474 
0 -13.505132566 -73.982633509 0 -14.309699541 -71.459408084 0 -19.982863095 -50.658124511 
0 -24.713691 -36.8374948 0 -24.821846826 -35.557936622 0 -18.792860798 -54.470046381 
0 -16.791928379 -62.35064603 0 -15.691432982 -65.116151253 0 -15.103843422 -66.370807588 
0 -12.334580235 -75.398138353 0 -11.748714179 -77.254114682 0 -3.6396410463 -101.38841697 
0 -14.607039738 -66.595917412 0 -15.259724937 -63.812092389 0 -15.603933148 -62.127792595 
0 -16.491554942 -59.729742423 0 -17.364834334 -57.545936915 0 -17.540574482 -54.944446904 
0 -18.851842138 -52.290470947 0 -20.279113346 -47.667405228 0 -21.007194105 -45.474039626 
0 -21.695331952 -43.208901808 0 -22.528361404 -41.176856969 0 -22.835038142 -40.053411123 
0 -23.116791527 -38.16722721 0 -24.222348275 -36.258243261 0 -24.352530485 -34.62848602 
0 -24.690085722 -33.780035687 0 -24.947171631 -33.470876903 0 -25.060279255 -33.076662372 
0 -24.957533416 -33.431314281 0 -24.768570619 -34.058004556 0 -24.386569473 -34.899080576 
0 -24.157141263 -36.105181924 0 -23.700634857 -37.409971481 0 -23.425103886 -38.358245337 
0 -22.74076985 -40.695612896 0 -21.808282295 -42.89171362 0 -21.190925534 -45.307727297 
0 -20.278994655 -47.985108789 0 -19.532736049 -49.699490217 0 -16.994035063 -57.030738164 
0 -15.831068569 -60.303391743 0 -14.691255161 -63.344463626 0 -13.740306111 -68.904252505 
0 -10.447106024 -76.321789369 0 -10.402808697 -79.656648709 0 -9.0554738905 -82.168919489 
0 -8.3724682613 -84.407926623 0 -7.5692634915 -86.825681029 0 -6.7319021482 -89.446178729 
0 -6.3061460761 -90.777792981 0 -5.7406941762 -92.577152542 0 -5.2416511011 -94.280037021 
0 -4.6498999752 -96.050190597 0 -4.0759479871 -97.67811764 0 -3.799293737 -99.289461802 
0 -3.5957089436 -100.31755839 0 -3.3273938554 -100.58580125 0 -2.9812528606 -101.04691316 
0 -2.8491048985 -101.54316341 0 -2.7865698978 -101.20387016 0 -3.2254793239 -100.21778836 
0 -3.4945893732 -99.165180878 0 -3.9132982999 -98.120613281 0 -4.2539263039 -96.923055235 
0 -4.8261624781 -95.419275039 0 -5.3763934592 -93.730692391 0 -6.0865180721 -91.714410117 
0 -7.0163707506 -89.306493776 0 -7.6256429703 -87.00434652 0 -7.54993947 -85.528122071 
0 -10.474321661 -77.814571692 0 -11.239565456 -75.58271948 0 -12.046967572 -73.149338712 
0 -13.125709961 -65.217738853 0 -15.687878965 -56.915050347 0 -17.825782175 -52.154080435 
0 -18.421578633 -49.305301211 0 -21.424969011 -40.305313872 0 -22.575151201 -37.761009664 
0 -23.200699863 -36.30665059 0 -23.077768199 -35.649560965 0 -23.85302139 -34.255058696 
0 -23.204628895 -33.561135346 0 -22.519259052 -36.726275175 0 -20.920244562 -41.370343069 
0 -19.448362135 -46.312594489 0 -18.681303408 -50.148487627 0 -17.980927368 -52.850995006 
0 -16.987055585 -54.352581243 0 -15.916279991 -58.384645897 0 -13.072322889 -66.497566094 
0 -12.26327909 -68.170744701 0 -8.9625765945 -79.003295999 0 -4.1423744715 -93.405787359 
0 -3.426553646 -95.174236536 0 -2.9180872986 -97.199565101 0 -2.2806202601 -98.541275975 
0 -2.3961920013 -100.44356059 0 -5.2046136796 -90.249651794 0 -5.8689579018 -87.615650477 
0 -7.9369637818 -82.891619601 0 -8.7064593069 -80.06126468 0 -13.896931055 -61.896260453 
0 -14.282779362 -58.978900169 0 -16.03419867 -54.246285774 0 -19.397744918 -44.844521068 
0 -19.85701779 -42.479500943 0 -21.671767468 -37.106140524 0 -22.217015351 -35.657052884 
0 -22.760282518 -34.378424853 0 -22.42707473 -33.997092081 0 -23.211375231 -33.335869539 
0 -23.050953015 -33.932208442 0 -22.827919122 -34.391866268 0 -22.044442502 -35.513904784 
0 -21.428855691 -38.564822717 0 -19.292758063 -44.11481584 0 -17.026986873 -51.419312962 
0 -15.96758503 -54.711585304 0 -14.897771832 -58.593737429 0 -14.204670287 -60.859569995 
0 -12.837342563 -64.106766311 0 -11.170130674 -71.021328743 0 -10.068616298 -73.873111705 
0 -9.2759062231 -75.590324607 0 -8.2087575878 -78.762229125 0 -7.4552149851 -81.554861984 
0 -6.5867733671 -84.400449079 0 -5.6740137326 -87.279409241 0 -5.0037419266 -89.825055636 
0 -4.0759151183 -91.177942288 0 -1.8283872851 -99.249745378 0 -1.6287928145 -99.856400449 
0 -1.6037944051 -100.10382229 0 -1.5172591895 -100.25543383 0 -1.5096152989 -100.08993051 
0 -1.66011311 -99.608408567 0 -1.8177548746 -98.801775041 0 -2.5543965449 -96.580445756 
0 -3.0390530616 -94.903817957 0 -3.6774067422 -93.331897365 0 -3.8583898575 -91.969804993 
0 -6.2299815733 -84.304916101 0 -8.9775747501 -76.995179784 0 -9.8122991801 -74.397172778 
0 -10.298454207 -72.939619804 0 -11.396895901 -70.191972804 0 -11.946790673 -64.358899686 
0 -16.628175671 -51.273478209 0 -17.815245658 -48.411213416 0 -18.040680074 -46.824253545 
0 -20.205578611 -40.149655936 0 -20.31358409 -38.980965705 0 -21.238354202 -36.951934848 
0 -20.699946554 -37.731998188 0 -20.386965284 -40.260048058 0 -19.904791661 -41.975145817 
0 -19.24977639 -43.096974835 0 -17.9121384 -46.839550745 0 -17.058870529 -48.647363345 
0 -11.135354564 -67.73069451 0 -9.5709733689 -71.358442334 0 -3.8073877526 -88.930612832 
0 -3.0084458306 -92.335035016 0 -2.3974874442 -94.812681887 0 -1.7787252881 -96.602332451 
0 -1.7008438092 -97.109550085 0 -2.3345702378 -95.287870298 0 -4.3539076886 -89.093937288 
0 -5.3717713266 -86.710687517 0 -5.5286094443 -85.331975492 0 -6.8145093294 -81.175606641 
0 -7.1721859527 -79.275266289 0 -10.576801075 -68.772279636 0 -12.475141019 -61.259149108 
0 -13.378353937 -58.533026007 0 -14.294041227 -55.645068377 0 -15.108421617 -52.542858979 
0 -16.096508947 -49.301117373 0 -17.101578238 -46.660105125 0 -17.953528968 -44.250555686 
0 -18.594044168 -41.886386843 0 -19.56536938 -38.86693814 0 -20.427418751 -36.836503024 
0 -20.894600384 -35.351429613 0 -21.167542533 -34.42216321 0 -21.357588485 -33.983417462 
0 -21.393422523 -33.924885901 0 -21.269263981 -34.228654505 0 -20.913498473 -34.955581507 
0 -20.262565448 -36.329991139 0 -19.837551953 -38.001278199 0 -19.308939988 -39.723698033 
0 -18.62580667 -41.525930689 0 -18.026478051 -43.639678146 0 -17.305156579 -45.323655182 
0 -15.091279738 -53.091544561 0 -13.812274232 -57.106018765 0 -12.685121983 -60.604168256 
0 -11.469140499 -63.891101992 0 -10.030478283 -67.487885028 0 -7.8600269852 -75.448957665 
0 -6.8491625212 -78.449453596 0 -5.9541894584 -81.32439887 0 -5.0448273921 -84.189812778 
0 -3.9950795278 -86.525902682 0 -2.7711107708 -90.180592107 0 -2.0575994163 -93.360964762 
0 -1.3265862092 -94.629962419 0 -1.0387598654 -96.353435265 0 -0.91447374282 -97.123359075 
0 -0.26369701672 -97.375667272 0 -0.39517433795 -98.626111131 0 -0.42689977181 -98.787519558 
0 -0.43525150953 -98.425351411 0 -0.55862680098 -97.949805099 0 -0.74493498863 -97.066993597 
0 -1.1240173884 -95.808281731 0 -1.6220335927 -94.207554558 0 -3.0206803163 -89.866048784 
0 -3.8518164647 -87.011116294 0 -4.8123370522 -84.349272111 0 -5.3031967936 -82.398155426 
0 -7.7220498027 -75.778004251 0 -8.6283101947 -72.137930215 0 -10.555112804 -65.313967073 
0 -10.878752596 -63.549510147 0 -15.685115995 -48.515201545 0 -8.5383084819 -70.651403739 
0 -2.6591690163 -88.074260889 0 -2.0744350125 -90.825798491 0 0.39713041849 -97.217358568 
0 -1.6519042027 -92.61555001 0 -5.9758163572 -78.754242404 0 -9.4887511616 -68.467516635 
0 -10.293144866 -63.327436599 0 -11.358641683 -60.357562593 0 -12.336954513 -57.352882095 
0 -13.321422227 -54.317811723 0 -14.292397376 -51.32145552 0 -15.235464139 -48.48744429 
0 -15.999930013 -46.159390095 0 -16.918452463 -43.326716043 0 -17.297966937 -42.132325455 
0 -17.859175794 -40.30465742 0 -18.474183939 -38.516774582 0 -18.999048338 -36.979979921 
0 -19.372728717 -35.619189242 0 -19.606205433 -34.945679748 0 -19.716242813 -34.750596078 
0 -19.697969317 -34.768765345 0 -19.565187237 -35.132685337 0 -19.238790658 -35.99491456 
0 -18.661980402 -37.678577311 0 -18.182885879 -39.336742619 0 -17.668265515 -40.950010139 
0 -17.044863279 -42.822132671 0 -15.831790712 -46.08611993 0 -14.939821216 -48.992031405 
0 -14.075189632 -51.986196853 0 -13.070946578 -55.137613241 0 -12.080483206 -58.148935321 
0 -11.102450159 -61.121457851 0 -10.048496417 -64.366609468 0 -8.824014154 -67.761541905 
0 -7.871379775 -70.753644815 0 -7.1895540199 -73.297238759 0 -6.2825817966 -76.046637441 
0 -5.3142905655 -79.108224841 0 -4.7775710553 -80.806699788 0 -3.9531575633 -83.331987127 
0 -2.9218776236 -85.48036307 0 -1.7203263217 -90.020536107 0 -1.0410505347 -92.071645712 
0 -0.32110011394 -94.278718763 0 0.10508976345 -95.571057158 0 0.30094098777 -96.406625728 
0 0.4107348797 -96.904905649 0 0.40428679161 -96.642474062 0 0.20428012952 -96.033328769 
0 -0.1218928697 -94.997495933 0 -0.51629763031 -93.526901137 0 -1.1164765889 -91.785472259 
0 -1.7792725193 -89.884215096 0 -2.5338691049 -87.56464314 0 -3.4076689296 -84.889228286 
0 -4.3549547648 -81.778522536 0 -5.804551901 -77.3534081 0 -6.5875368396 -75.117558004 
0 -7.6824179236 -71.350121183 0 -9.0846732296 -66.670217081 0 -8.3923557412 -67.980749175 
0 -7.7427845091 -69.975728968 0 -6.6597732927 -73.713420901 0 -5.0848225379 -78.39499045 
0 -4.3912007073 -80.536519285 0 -3.4592205964 -83.603324819 0 -2.5807442181 -86.330447148 
0 -1.7905511205 -88.718310103 0 -1.1534132988 -90.67883087 0 -0.51724076198 -92.398034523 
0 -0.06006242146 -93.940349113 0 0.29418275062 -95.150025633 0 0.54614844562 -95.877303497 
0 0.64130263613 -96.430099235 0 0.67966174802 -96.505593454 0 0.57190818047 -96.142671651 
0 0.45494291875 -95.485556623 0 0.1414504046 -94.616555618 0 -0.316889366 -93.120481693 
0 -0.63676239198 -92.116228583 0 -1.2504463086 -90.418187178 0 -1.9819444698 -88.304872245 
0 -3.3860880324 -83.83277312 0 -4.2489076155 -81.270900214 0 -5.4692579262 -77.39021611 
0 -6.4806094086 -74.259840717 0 -7.3026168315 -71.706608917 0 -7.9981703359 -69.147990105 
0 -9.1290531371 -66.026060474 0 -10.236464255 -62.668273978 0 -11.252104595 -59.516063431 
0 -12.227504618 -56.576923762 0 -13.203660221 -53.48461698 0 -14.2189113 -50.427773047 
0 -14.994569803 -47.601292892 0 -15.972824068 -44.948310566 0 -16.411945311 -43.652195319 
0 -17.033873493 -41.765683954 0 -17.50169274 -40.308729892 0 -17.975477526 -38.780426969 
0 -18.402872476 -37.313345687 0 -18.645113736 -36.616772193 0 -19.037621909 -35.655337186 
0 -19.195760626 -35.145890753 0 -19.263617229 -35.012292695 0 -19.037679974 -35.474693992 
0 -18.818909625 -36.291169249 0 -18.637435455 -36.913724476 0 -18.225941197 -38.193559751 
0 -17.660060918 -39.829260093 0 -17.073555173 -41.646620062 0 -16.252085192 -44.162596124 
0 -15.793721224 -45.567930551 0 -15.10513564 -47.790293319 0 -14.261392884 -50.307085581 
0 -13.298881419 -53.25759515 0 -12.37291754 -56.109597178 0 -11.383800582 -59.108702352 
0 -10.478744753 -61.93688943 0 -9.4114400425 -64.88016455 0 -9.6427382614 -66.881946055 
0 -8.562765353 -70.527210031 0 0.615277215 -96.817024184 0 0.42770560832 -97.248613474 
0 -3.1521423057 -86.684036007 0 -9.1956725467 -68.558748253 0 -16.328985966 -46.439747516 
0 -20.122989397 -35.69749106 0 -7.6757263122 -74.36497847 0 -6.8051247862 -77.931418089 
0 -5.2198410516 -81.037828005 0 -4.0736627748 -85.169001431 0 -3.1389475063 -87.965539141 
0 -2.4043233137 -90.631057776 0 -2.313891707 -92.255751302 0 -1.0856628471 -94.50634342 
0 -0.61648261981 -95.885986268 0 -0.34024785962 -97.061806398 0 -0.15596046586 -97.686498035 
0 -0.11917646971 -98.16858677 0 -0.09816449029 -98.267880647 0 -0.13823110766 -98.006156154 
0 -0.39387234414 -96.756105738 0 -0.81503253818 -95.022003626 0 -1.3875926323 -93.313525279 
0 -2.2879234701 -92.265465392 0 -3.0942266265 -89.144718367 0 -4.3318843766 -84.821443753 
0 -5.1947640187 -82.236155726 0 -6.0518995064 -79.451478379 0 -6.9248774507 -76.762621388 
0 -7.9266759424 -73.77037176 0 -8.7066674609 -72.077500842 0 -10.57826317 -65.031227673 
0 -11.805359651 -61.679667661 0 -12.810591103 -58.678830336 0 -13.925608294 -55.136813229 
0 -15.108147432 -51.593924446 0 -15.99716388 -49.55867078 0 -17.824258763 -42.787898469 
0 -18.480803208 -40.744491077 0 -19.177595434 -38.957229821 0 -19.529345275 -37.278941338 
0 -20.556865062 -34.730353158 0 -20.779794848 -34.253861276 0 -20.764222577 -34.178093353 
0 -20.689115943 -34.418936782 0 -20.419680766 -35.093401425 0 -20.127941511 -36.254384494 
0 -19.546768321 -37.885313283 0 -18.691899875 -39.973796767 0 -18.315713221 -41.203384677 
0 -17.769684099 -43.331372931 0 -17.051572818 -45.560863691 0 -16.180263931 -47.955782499 
0 -15.182713648 -50.847149103 0 -14.240646154 -54.07738197 0 -13.338854273 -57.128783046 
0 -12.351295278 -60.005985296 0 -11.786092661 -62.743393718 0 -10.56956012 -67.633697462 
0 -9.5615369584 -71.216818993 0 -6.1017058746 -82.300241435 0 -4.4336526244 -87.570098999 
0 -3.6538043389 -90.435464226 0 -0.54169581139 -98.2129637 0 -1.8881783718 -95.51820403 
0 -3.2568189395 -91.078913635 0 -4.2152673645 -87.702022029 0 -10.237420126 -68.861482006 
0 -11.81929005 -65.216971851 0 -17.977533594 -45.695862252 0 -19.48304123 -41.255881348 
0 -20.357867504 -39.509304354 0 -21.109179773 -36.27226466 0 -19.522974917 -41.382247901 
0 -16.792388839 -49.59239987 0 -15.858003749 -52.677905588 0 -11.212752343 -65.790247028 
0 -11.553445207 -68.515717493 0 -10.216614291 -71.78378368 0 -8.8435559909 -75.575473657 
0 -8.2231297284 -78.541558578 0 -2.9885039208 -93.463703508 0 -2.2848479165 -97.343513939 
0 -1.4548357423 -97.898479647 0 -1.3262330623 -98.858287691 0 -1.1717978924 -99.438779349 
0 -1.0807922182 -99.695435364 0 -1.1603765908 -99.70574851 0 -1.2733919465 -99.102351169 
0 -1.6289670647 -98.432883588 0 -4.3033680756 -90.065515225 0 -4.9474007879 -88.136950432 
0 -5.7176946201 -85.314467452 0 -6.6733315788 -82.364037547 0 -7.5333358795 -79.513198523 
0 -8.459733764 -76.384820475 0 -10.183398704 -72.269963159 0 -11.455639777 -68.979020422 
0 -13.366955345 -61.705397047 0 -14.871350644 -56.862012369 0 -16.074180061 -52.910323032 
0 -17.442865805 -49.691084317 0 -21.428134248 -37.90857394 0 -21.988337253 -34.82972171 
0 -22.525118888 -33.830226173 0 -22.584594423 -33.515392394 0 -22.61356924 -33.550687154 
0 -21.97566994 -35.061524169 0 -21.435423036 -36.529076859 0 -21.198453289 -38.096197248 
0 -19.11193191 -43.902822639 0 -18.934333082 -46.155322118 0 -15.338011611 -55.678925572 
0 -13.66611924 -60.784969042 0 -12.866650846 -63.985946487 0 -12.539301697 -67.177580342 
0 -7.8660279187 -81.719029685 0 -7.0137208911 -84.352871223 0 -5.1700775259 -89.085930785 
0 -4.5930293609 -91.791999064 0 -2.3060923609 -97.480648647 0 -2.9000292982 -95.615726762 
0 -3.5330578763 -93.629982552 0 -4.4368586046 -92.209868477 0 -9.607890162 -77.039104435 
0 -13.440063049 -64.888607405 0 -17.914263624 -51.718988996 0 -18.39275419 -48.832938517 
0 -18.77306206 -47.123081514 0 -19.902662944 -44.448017308 0 -21.23026562 -40.271579155 
0 -21.966541895 -37.1285106 0 -22.726334086 -35.791339546 0 -23.226821654 -33.445939437 
0 -22.576291447 -36.891206174 0 -21.758092357 -38.53321284 0 -21.19384159 -39.730408402 
0 -20.770748906 -41.821814447 0 -17.612379779 -51.122552981 0 -17.017772988 -53.873385848 
0 -15.193074511 -58.4141545 0 -13.503566751 -67.724048646 0 -12.312796609 -70.583145255 
0 -11.752522182 -72.173786031 0 -10.96545938 -74.604441413 0 -10.220424015 -76.795156972 
0 -9.7148019744 -79.534300607 0 -6.8852388377 -87.761118024 0 -6.0346259685 -90.324747238 
0 -5.2218529756 -92.562786613 0 -4.5665867293 -94.321997213 0 -3.9875316319 -95.86928964 
0 -3.5252740407 -97.25015901 0 -3.1447867893 -98.360090614 0 -2.7953021424 -99.419644571 
0 -2.940863187 -100.61184452 0 -2.3883084131 -101.0198693 0 -2.4068787556 -101.17322309 
0 -2.4697476123 -101.02061509 0 -2.4947460217 -100.77319325 0 -2.6702949919 -100.27751457 
0 -3.2035273171 -99.492256098 0 -3.4883816177 -98.057398133 0 -4.0321780157 -96.378794382 
0 -4.6535922007 -94.621437559 0 -5.1708075202 -92.809125215 0 -5.6832725092 -91.022660207 
0 -6.6227203351 -87.976339306 0 -7.489635636 -85.21473259 0 -8.2514893987 -82.784467548 
0 -9.3036270208 -80.287711939 0 -10.870810263 -74.505209054 0 -12.128099111 -71.262165449 
0 -12.689170044 -69.631758756 0 -14.068993646 -66.931534235 0 -14.926249618 -61.716795479 
0 -17.428536435 -55.411097477 0 -20.22862962 -46.705701695 0 -20.961579372 -43.99970971 
0 -21.721837095 -41.717377466 0 -22.334249571 -39.808482191 0 -22.561937421 -38.852469457 
0 -23.389464107 -36.845711398 0 -23.718990326 -35.476538616 0 -23.989361618 -34.430817834 
0 -24.318321382 -33.734371153 0 -24.391867815 -33.244864834 0 -24.522013903 -33.09821412 
0 -24.425503051 -33.353650538 0 -24.021011415 -35.167107874 0 -22.530860105 -39.514335856 
0 -21.569963261 -42.154282277 0 -20.694797523 -44.439302968 0 -20.005239983 -46.551563016 
0 -19.464652217 -48.973730845 0 -16.906867518 -56.553471605 0 -16.309765342 -58.906294881 
0 -15.259929221 -61.21895429 0 -14.394200441 -64.942336099 0 -13.433610969 -69.453358247 
0 -9.0263373146 -83.180247792 0 -8.7215496917 -84.73613289 0 -2.9159493641 -101.54033057 
0 -10.900974133 -77.654917702 0 -11.910544429 -73.982361058 0 -12.575438698 -72.401168956 
0 -15.632213488 -63.720832493 0 -16.755789003 -60.560873427 0 -17.762479154 -57.795728634 
0 -19.055808099 -52.998850612 0 -25.145082068 -33.105546928 0 -24.129148889 -37.696402241 
0 -19.67718352 -52.028682578 0 -18.60409749 -54.148522546 0 -14.323890062 -69.887189608 
0 -13.392299038 -72.824656235 0 -12.433907176 -75.285594052 0 -11.57992708 -77.807056623 
0 -10.49900075 -80.503156097 0 -10.255504224 -82.160571771 0 -9.3472283391 -85.573835077 
0 -8.7290215606 -87.092197841 0 -7.8278576905 -89.821212363 0 -7.2153464529 -92.214162419 
0 -6.4346694968 -93.821147069 0 -5.901558159 -95.811835863 0 -5.4830913644 -97.42991926 
0 -5.145706628 -98.570828163 0 -4.5500633948 -99.528123949 0 -4.191195986 -100.61429927 
0 -4.4843204495 -101.67363327 0 -3.6441446201 -101.90536243 0 -3.7874221056 -102.27743355 
0 -3.7319942337 -102.17829582 0 -3.9087852688 -101.93380396 0 -4.0560770719 -101.43412926 
0 -4.8605353656 -98.409130794 0 -5.4456114927 -96.885288806 0 -5.9253638909 -95.069661446 
0 -6.6411531706 -93.576291472 0 -7.0023146325 -91.870523633 0 -7.7644196514 -89.802346902 
0 -8.4862683695 -87.310700473 0 -9.3685917922 -84.77651235 0 -9.8026176355 -83.409472981 
0 -11.1016099 -81.048422034 0 -17.609444517 -59.407118051 0 -19.586711204 -55.326333501 
0 -20.302498367 -50.461671083 0 -21.287130077 -47.919380663 0 -22.079481037 -45.583023285 
0 -22.739502917 -43.419833271 0 -23.606296548 -41.201022193 0 -24.302289045 -38.990282104 
0 -24.739679289 -37.381070166 0 -25.231361231 -36.112974758 0 -25.511969145 -34.918097942 
0 -25.841702032 -34.070925115 0 -26.259211141 -33.440839574 0 -26.162453221 -33.053175037 
0 -26.24970181 -33.056065683 0 -26.060504968 -33.319315486 0 -26.002725489 -33.824117974 
0 -25.818437641 -34.423913118 0 -25.939810084 -35.337521048 0 -24.272946235 -39.531337534 
0 -23.804519822 -41.116530648 0 -23.17270972 -42.873092829 0 -22.04355931 -45.670316396 
0 -21.564145874 -47.330924 0 -20.968997012 -50.285103302 0 -18.484918249 -56.972421375 
0 -16.899435251 -61.388645897 0 -16.475359852 -63.90795007 0 -15.685867589 -68.669343062 
0 -15.380732862 -71.183456287 0 -13.467357522 -76.563584277 0 -12.587390836 -79.262070256 
0 -11.45932638 -82.034207958 0 -10.432251059 -85.308250223 0 -9.4767675867 -87.74185438 
0 -9.0629270713 -89.020126624 0 -8.9612794355 -91.472607643 0 -7.6116311289 -94.939553543 
0 -5.7492378082 -100.30224717 0 -5.6510621428 -101.48893533 0 -4.9033697079 -102.45289426 
0 -4.9838700288 -102.89113748 0 -4.9870073141 -103.03735876 0 -5.0330707411 -102.94291679 
0 -4.9140224402 -101.77657681 0 -4.7958535461 -101.26179163 0 -5.4693958036 -100.73123134 
0 -6.467184953 -98.426117472 0 -7.4937797061 -95.374849466 0 -8.6725984539 -91.634784353 
0 -10.197042868 -86.608333768 0 -12.612455715 -78.12720752 0 -13.544435421 -77.023717231 
0 -14.831993749 -72.640393123 0 -16.160233565 -67.124404467 0 -16.747823125 -65.869748132 
0 -17.899555275 -62.568436639 0 -18.658669148 -59.702675694 0 -19.520848486 -58.210752008 
0 -20.600803879 -55.018209181 0 -21.269605726 -52.276152057 0 -22.186076332 -49.776884815 
0 -22.927331956 -47.451420325 0 -23.566889314 -45.333626099 0 -24.339565629 -43.249428833 
0 -26.452219763 -36.921523362 0 -27.08062311 -34.680170618 0 -27.590310725 -33.918510287 
0 -27.635232917 -33.110441182 0 -27.693981595 -33.51139662 0 -26.089300879 -36.660433864 
0 -26.083232742 -38.249648402 0 -21.697944497 -50.942716596 0 -20.160259246 -55.016303573 
0 -19.210815466 -57.77777638 0 -18.706750319 -59.288182303 0 -18.390883575 -61.78419152 
0 -15.899061484 -67.107380468 0 -7.5084707747 -96.931942469 0 -7.6501677815 -97.22208421 
0 -18.30164363 -64.035944746 0 -25.742790121 -41.485593736 0 -27.44685034 -35.810680853 
0 -28.346242775 -33.303074515 0 -24.762339124 -44.712953303 0 -21.583804859 -53.775149816 
0 -17.389997098 -69.039040377 0 -17.390420671 -70.648156066 0 -16.979089124 -71.914104398 
0 -15.282396712 -77.132018036 0 -14.511041801 -77.919119098 0 -13.861152117 -81.470143793 
0 -13.473126237 -82.664364655 0 -12.407965632 -84.376810412 0 -12.156058686 -86.833018375 
0 -11.356328323 -89.16940635 0 -10.781466801 -91.107607422 0 -10.468109913 -92.072020759 
0 -9.6579946588 -92.402795524 0 -9.6362362946 -93.914536811 0 -9.293671567 -95.599576356 
0 -8.8880065059 -96.224519477 0 -8.1681486783 -98.266355775 0 -7.3604348085 -98.549542539 
0 -7.6697158408 -100.55900384 0 -7.5020632128 -101.07829495 0 -6.8180396232 -102.6079946 
0 -6.2869856126 -102.65390963 0 -6.6923662235 -103.53876939 0 -6.6538170358 -103.65741159 
0 -6.6544606737 -103.70962174 0 -6.3115973791 -103.42369541 0 -6.8781667683 -103.22435455 
0 -7.2279190061 -101.92568247 0 -7.3706968499 -101.48625745 0 -8.0902294649 -99.27760689 
0 -8.1019267716 -98.574185009 0 -8.9153746887 -96.76319514 0 -9.1714410749 -95.975103839 
0 -10.334146426 -92.380932252 0 -10.25181259 -91.224735341 0 -11.390669899 -89.267854603 
0 -11.917514485 -87.479593316 0 -12.630428666 -85.261030101 0 -13.174589892 -83.039315414 
0 -13.031703628 -81.920014785 0 -14.068551163 -80.876718596 0 -14.749936643 -78.775396045 
0 -14.51150788 -77.478229069 0 -16.177868769 -74.407891183 0 -16.596952465 -73.118084193 
0 -18.317161961 -67.834689104 0 -18.478575732 -66.694305794 0 -19.824537459 -63.295708751 
0 -20.235087604 -62.032165329 0 -21.03681392 -59.310264741 0 -21.609456823 -57.040236564 
0 -23.115672062 -53.029602596 0 -24.490790539 -48.795341807 0 -24.83866132 -47.729669698 
0 -26.122637494 -43.818873347 0 -26.168324157 -43.013615879 0 -27.096052739 -40.808879781 
0 -27.343726147 -40.046619411 0 -28.232717254 -37.321839293 0 -28.073849332 -36.777211625 
0 -28.722589989 -36.30171102 0 -28.790337196 -35.482199826 0 -28.918844569 -35.086694798 
0 -29.176963629 -34.339476963 0 -29.101957673 -33.856556074 0 -28.681799131 -33.590443718 
0 -29.470444951 -33.47857109 0 -29.265664712 -33.411187592 0 -29.409662955 -33.665115285 
0 -29.355193527 -33.834926727 0 -28.783503453 -34.819224981 0 -28.473368122 -36.528468266 
0 -28.289409081 -37.080758569 0 -27.832194986 -38.445297702 0 -27.25529805 -39.678305166 
0 -26.38567959 -40.135325581 0 -26.27471168 -42.54321977 0 -25.798667846 -43.351181473 
0 -25.457813675 -45.873871695 0 -25.136468089 -46.862871716 0 -23.709144757 -51.249031381 
0 -23.214007094 -52.135736918 0 -22.362312228 -55.389424307 0 -21.965565799 -56.595624381 
0 -20.358316866 -61.485671219 0 -19.50574432 -62.727734879 0 -19.496372083 -64.348778006 
0 -19.085728429 -65.612609219 0 40.895614149 -49.351489313 0 40.765164526 -49.204447362 
0 40.687767271 -49.041240578 0 40.550934076 -48.526185097 0 40.492847866 -48.25847461 
0 40.489509861 -48.093914491 0 40.340168155 -47.717087052 0 40.210617421 -47.540283392 
0 40.168416418 -47.171095937 0 40.068602799 -47.091734389 0 40.016746631 -46.940087777 
0 39.994365374 -46.896610638 0 39.933927011 -46.871948791 0 39.945954247 -46.833110914 
0 39.999507802 -46.783378149 0 39.964756502 -46.803570665 0 39.295736375 -47.059027794 
0 40.021895182 -46.867229792 0 40.011629403 -46.916010183 0 40.00847445 -46.974003506 
0 40.018108714 -47.032699031 0 39.60489201 -47.41078007 0 39.655468184 -47.500001131 
0 39.065322944 -47.929863799 0 40.280210579 -47.626663797 0 40.343805309 -47.731325431 
0 40.416651406 -47.950532743 0 40.457053098 -48.100743804 0 40.534506911 -48.528315745 
0 40.642249111 -48.786714787 0 40.01419661 -49.251615478 0 40.772084966 -49.197584259 
0 40.79952926 -49.377352071 0 40.828557527 -49.559658249 0 41.091728973 -50.018993958 
0 41.158012013 -50.141615103 0 41.169204953 -50.294784114 0 41.221936039 -50.457865505 
0 41.301613925 -50.593779182 0 40.726114333 -51.054852038 0 41.495506775 -51.140494767 
0 41.543447074 -51.271644843 0 41.533551224 -51.403176757 0 41.545353863 -51.766842276 
0 41.846025368 -51.756403528 0 41.857579295 -51.965220401 0 41.666861349 -52.105056771 
0 41.689422409 -52.144578904 0 41.682846302 -52.190520813 0 41.047870726 -52.406271591 
0 41.807879026 -52.152319853 0 41.789015749 -52.145072 0 41.767002382 -52.090762936 
0 41.027484782 -52.267944445 0 41.641173218 -51.976514531 0 41.649679642 -51.896594162 
0 41.588370576 -51.68267349 0 41.543382533 -51.595684399 0 41.508727309 -51.513365374 
0 41.412669875 -51.432110135 0 40.684062306 -51.48223842 0 41.343071827 -51.073679978 
0 41.360726046 -50.923036281 0 41.26367179 -50.683718576 0 40.50023096 -50.734800223 
0 41.101866656 -50.276457059 0 41.044446272 -50.12340186 0 40.914048649 -49.535538946 
0 38.182662226 -49.636222007 0 37.933814939 -48.661580097 0 37.693537991 -48.05900918 
0 37.523188195 -47.719993378 0 37.406622504 -47.52535581 0 37.469415523 -47.54181001 
0 38.436934402 -48.894254203 0 38.323450347 -49.795934087 0 38.67344258 -50.588774131 
0 39.262266979 -51.698687048 0 39.143783563 -52.552830397 0 39.21557959 -52.961829242 
0 39.309764814 -53.048924626 0 39.347626401 -52.804308337 0 39.20372701 -52.619071751 
0 39.061345562 -52.095291511 0 39.213266755 -51.274274505 0 38.562159548 -50.610247053 
0 35.384902686 -48.470836561 0 35.98990551 -48.988079578 0 35.655448866 -49.94563088 
0 36.239596141 -51.689295827 0 36.663359451 -52.385313368 0 36.447440295 -52.671863346 
0 34.695595192 -50.227523491 0 34.402095691 -49.406956112 0 34.101571232 -48.895040121 
0 34.020313581 -48.46906978 0 34.355951406 -48.33408895 0 33.692842303 -48.642040812 
0 34.552758856 -50.73003744 0 35.506263065 -51.010801527 0 36.254229036 -53.498953329 
0 36.170317897 -54.15870136 0 36.361098149 -54.261914634 0 36.100564613 -54.056486717 
0 36.137063604 -53.509170298 0 35.173907273 -53.425828683 0 34.839561363 -52.438133287 
0 35.316337635 -51.21235494 0 31.79908513 -51.369856907 0 30.929199622 -48.939683841 
0 31.574071325 -49.072080745 0 32.094359668 -49.439279327 0 32.691306867 -50.029498514 
0 32.788867492 -51.032727236 0 33.245707799 -52.534111187 0 33.595042008 -53.081748209 
0 33.661781806 -54.083283678 0 33.674041695 -54.957822838 0 33.474817359 -55.608364311 
0 33.407970736 -55.638208171 0 33.094234808 -55.468106936 0 33.256546887 -54.113195337 
0 32.972310319 -53.284991727 0 32.733969067 -52.317540556 0 29.789444125 -52.687502857 
0 30.521674749 -50.685104541 0 30.182120374 -50.081674837 0 30.006666043 -49.548804847 
0 30.357293447 -49.018714419 0 29.038643208 -50.217504984 0 29.870115114 -51.08073763 
0 30.14783026 -52.201664702 0 30.479597566 -53.298958577 0 30.84542972 -54.436786641 
0 31.21049446 -55.462713748 0 30.994633352 -56.487572507 0 31.390805771 -56.021649424 
0 31.388523661 -55.5723844 0 30.07079667 -53.925069085 0 27.895243278 -52.689379242 
0 26.76458998 -49.7837244 0 27.100989701 -49.41988448 0 27.413144521 -49.355360222 
0 28.147742341 -49.486997441 0 28.291746709 -49.69124023 0 30.611464941 -57.123090925 
0 30.597093029 -57.16545195 0 30.52911788 -57.052722059 0 29.351691599 -57.179199249 
0 29.541159361 -55.985527969 0 30.100833159 -55.094530023 0 26.335857111 -53.507679152 
0 26.00790188 -51.933137736 0 26.479425353 -50.911208361 0 26.260218727 -50.538976719 
0 25.327444164 -50.074616571 0 25.040575128 -49.725271076 0 25.671973822 -50.185928292 
0 26.363042275 -51.044088962 0 27.116329272 -52.861746871 0 27.324195698 -53.709270494 
0 27.700513095 -54.917824168 0 27.82074402 -56.409209064 0 28.140936949 -57.430418356 
0 28.033688277 -58.468532518 0 27.914314841 -58.809513679 0 27.405811531 -58.047419714 
0 27.572515288 -56.959227234 0 26.921227731 -56.08038839 0 26.995538754 -54.805625301 
0 24.362318046 -53.698282309 0 23.927829089 -52.437740815 0 23.315078187 -51.468649631 
0 22.86725214 -50.525863233 0 23.513489808 -49.989994776 0 23.834280845 -49.751415823 
0 23.919500161 -49.595574759 0 23.593618797 -49.690953458 0 22.9333768 -50.198193082 
0 23.508657552 -50.850407699 0 23.879813006 -51.922789669 0 24.232390697 -53.40622682 
0 24.799305991 -54.881750882 0 24.490119631 -56.401689845 0 25.193053979 -59.403780868 
0 25.442595494 -60.369681109 0 25.757677078 -59.215144182 0 24.087941116 -55.266909559 
0 20.322259614 -50.08420422 0 20.469375936 -49.707194099 0 20.500909439 -49.644392264 
0 20.689470858 -51.010585427 0 21.289029291 -52.029810777 0 22.113889385 -54.837873111 
0 22.28694336 -56.329448149 0 23.377362198 -57.399828239 0 24.245348376 -57.618449263 
0 24.682863424 -58.646066732 0 23.987815244 -60.536386242 0 24.821705372 -60.375081835 
0 24.257183711 -61.320643591 0 24.842016888 -60.864019167 0 24.803927135 -60.650722064 
0 23.993360313 -60.046930022 0 24.160305517 -59.068541429 0 24.314472532 -57.765385347 
0 23.884500304 -56.662088787 0 22.917728067 -56.203179832 0 20.742602965 -55.153848867 
0 20.492909175 -53.731438719 0 20.280584766 -52.211334635 0 19.971582353 -51.341913368 
0 19.672038431 -50.6364724 0 18.580806396 -50.116410701 0 18.266717231 -49.77495097 
0 19.244134982 -50.159004045 0 19.980716192 -53.921121351 0 20.884702803 -57.390738725 
0 21.475143264 -58.409126642 0 21.617571598 -59.686176924 0 22.291859129 -60.778108871 
0 22.755175413 -62.075391261 0 22.813681763 -61.540972344 0 21.18007171 -57.957212015 
0 21.143029027 -56.542575793 0 18.210827182 -56.804932879 0 16.613112805 -52.598575742 
0 17.008592733 -51.606450451 0 16.664250899 -50.743641387 0 16.467492821 -49.774619572 
0 17.041223105 -49.647053985 0 16.808511822 -49.519465487 0 16.165427284 -49.571482129 
0 16.224416143 -50.402147448 0 17.135223605 -51.176650377 0 17.787960858 -52.205721891 
0 18.114246087 -53.145617935 0 18.485300508 -55.105274318 0 19.659007474 -56.355013567 
0 20.563951637 -62.9106961 0 21.068788773 -63.276856254 0 21.279142104 -63.54406019 
0 21.744508078 -63.315868055 0 21.692622033 -63.304836204 0 21.647958581 -62.978864531 
0 21.36483288 -62.865515163 0 21.183787794 -62.065141079 0 20.721784317 -61.300979346 
0 19.787965345 -60.527348831 0 18.551424901 -57.732386133 0 16.827584032 -56.732255563 
0 17.028704203 -55.189628167 0 16.400349477 -54.024451027 0 14.965016462 -52.926727618 
0 14.649337516 -50.010087618 0 14.559410684 -49.676602954 0 14.092956472 -49.488064523 
0 15.353499304 -49.896389801 0 16.186222895 -54.471014841 0 16.729178034 -55.126810461 
0 16.585191205 -56.633042988 0 17.846075055 -58.351974646 0 18.491245554 -59.577463256 
0 18.542453929 -60.933442404 0 18.822503258 -62.053405952 0 19.100853923 -63.017519629 
0 19.366475752 -65.394673543 0 19.276909298 -65.206158973 0 19.347090143 -64.067803628 
0 18.728915448 -63.22779392 0 18.07068292 -59.361787076 0 15.505081805 -57.620409736 
0 14.446624395 -56.433953026 0 13.579653198 -51.62720527 0 13.164720616 -50.632712191 
0 12.584847524 -49.811928344 0 12.769679876 -49.379774731 0 12.938299544 -49.145461531 
0 12.981560725 -49.139262869 0 12.39286315 -49.198638873 0 12.705875028 -50.025355751 
0 13.21509759 -50.868713511 0 13.916059578 -52.045339372 0 14.006095452 -53.234000258 
0 14.125727178 -54.481300396 0 15.008973202 -59.085337974 0 15.776186978 -60.455058684 
0 17.521734418 -65.071043933 0 18.310589066 -65.334859862 0 18.504539562 -65.797302336 
0 17.215984515 -66.22214427 0 17.323022215 -65.165925776 0 17.233053855 -64.000269895 
0 17.069817542 -62.704140232 0 16.123578524 -61.744358162 0 12.577571259 -53.72225104 
0 12.479928865 -52.476387849 0 11.963993223 -51.850618669 0 10.567716905 -50.696913848 
0 9.7036090823 -48.996937258 0 9.9220588744 -48.720790316 0 9.9292680119 -48.632701806 
0 10.344471049 -48.987165036 0 10.8360124 -51.396646982 0 12.818660326 -56.822540256 
0 14.014915851 -57.99040209 0 13.627504437 -59.030719263 0 15.67531263 -63.636774626 
0 15.905447113 -64.961440203 0 15.878369871 -66.24835532 0 15.948652361 -67.349229431 
0 16.120408351 -67.987204595 0 16.518472209 -68.061554284 0 16.846537723 -67.854076841 
0 16.788521372 -67.755230331 0 16.594268444 -67.506139254 0 14.284290755 -62.060613073 
0 14.392069946 -60.695679205 0 13.564286685 -59.193386805 0 11.246569604 -57.902614972 
0 11.441018371 -56.56625734 0 10.373620732 -54.339506071 0 9.3736716227 -52.701170511 
0 8.8036603088 -51.120928033 0 8.6708428755 -50.066292931 0 8.8078292303 -49.370500397 
0 8.4755119974 -49.185186585 0 9.4769981847 -50.101288571 0 9.1251813426 -51.058855183 
0 9.4981741616 -52.39157184 0 10.261883599 -53.867809224 0 10.697973706 -55.669798434 
0 10.903355478 -57.152427919 0 11.228399968 -58.579534232 0 12.243470546 -59.818282836 
0 12.998951002 -61.265580852 0 13.313243321 -63.123076278 0 13.030284713 -65.197313038 
0 14.455168248 -69.098114244 0 14.839879087 -68.113792188 0 14.743788335 -66.403619605 
0 14.283621679 -65.128492648 0 13.842963481 -63.714035954 0 9.4569005898 -58.265635389 
0 8.4389194048 -56.122231644 0 8.0689713595 -55.013717431 0 7.1893085618 -53.01858208 
0 5.9108931487 -48.246641644 0 6.512537433 -48.019273563 0 6.7304021653 -47.957482631 
0 6.7796718015 -48.013838642 0 6.8389665823 -48.303308715 0 6.4322221784 -48.754256252 
0 6.2748198598 -49.552341208 0 10.475617424 -61.454009194 0 10.837613378 -63.398177256 
0 11.994020385 -66.724664273 0 12.791353946 -66.987525336 0 13.029538168 -68.209379913 
0 13.306752896 -69.268664818 0 13.435468433 -69.674305574 0 13.717408395 -70.422301777 
0 14.111315511 -70.555339591 0 14.236446997 -70.665369171 0 14.273406884 -70.58481043 
0 14.055887127 -70.257544373 0 12.435779673 -68.971954806 0 12.010653664 -67.053540154 
0 11.688012873 -66.030730726 0 11.264579749 -63.677379043 0 11.059386643 -62.223001005 
0 10.571343029 -60.764903416 0 5.5940330228 -52.112160685 0 6.1039673764 -51.421744328 
0 5.3631253131 -49.646450378 0 4.9951702528 -48.722188133 0 3.3550926087 -47.060642369 
0 3.6560322466 -47.182311594 0 4.0689368484 -47.534076842 0 4.9560360149 -50.327107341 
0 5.9264878433 -51.240176977 0 6.5677600899 -53.192266742 0 6.9702944246 -54.644756471 
0 7.4137652459 -56.12787785 0 7.9255700159 -57.61183625 0 8.4901786552 -59.036709236 
0 8.4794406595 -61.00358507 0 10.14734921 -66.533222946 0 11.826584036 -73.203491094 
0 12.083329892 -73.237959162 0 12.078101648 -73.334141493 0 12.078306406 -73.149808503 
0 11.998132041 -72.816606158 0 11.977642659 -72.127860695 0 11.931717341 -70.893097514 
0 6.5208960315 -59.243401801 0 5.90872638 -56.974635147 0 5.0081631683 -54.370678934 
0 4.2633152633 -52.973873059 0 3.5066848076 -51.722354598 0 2.838103737 -50.45277731 
0 2.5036182746 -49.273464773 0 2.1572259377 -48.353857512 0 1.4944515641 -47.4837963 
0 2.5354734879 -47.016197871 0 1.2805451692 -46.610867669 0 2.3055929671 -47.671515504 
0 3.2848446903 -48.728194713 0 2.973219119 -50.107178494 0 3.4121971638 -51.314947687 
0 3.7053353563 -52.777078348 0 4.1010609112 -54.305683568 0 4.6843089719 -56.042583264 
0 5.3502643279 -58.091368682 0 5.7285505394 -59.235499118 0 7.7103273345 -64.3185306 
0 8.7483249923 -65.700253521 0 8.92841131 -67.372457734 0 9.5278501188 -68.854130054 
0 10.308959719 -70.179242395 0 10.583539953 -71.373161914 0 10.749400242 -71.90008379 
0 11.054861138 -72.628059498 0 11.300363276 -73.275882249 0 10.927529227 -74.165015645 
0 9.8834917928 -72.084032494 0 10.167796056 -70.121162357 0 9.8455381693 -69.280377227 
0 9.0161408392 -66.852858233 0 8.6686032725 -65.692621061 0 8.2604964783 -64.026687155 
0 7.8810461928 -62.623117827 0 7.387918226 -61.007857541 0 3.6332682559 -58.044734243 
0 2.822678437 -55.910271448 0 2.2297551366 -54.16159563 0 -0.28553394724 -46.705785017 
0 -0.13217570146 -45.91701672 0 0.58812145869 -46.199946011 0 -0.30784680263 -46.415475314 
0 0.16457906836 -46.873633832 0 0.14176481858 -47.571944129 0 0.13115457119 -48.451468611 
0 1.2303040217 -51.743385392 0 4.882282604 -62.253592898 0 6.0284775908 -63.672440398 
0 6.0485184989 -64.714064109 0 6.3213398701 -66.524978974 0 6.9509386881 -68.710526234 
0 7.5451894698 -70.380281712 0 8.1264454905 -72.03290528 0 8.5890904252 -73.766782029 
0 8.9315984031 -74.78468456 0 9.4898666994 -75.378192942 0 9.7003234827 -76.046757518 
0 9.9558469571 -76.129754229 0 9.9626705929 -76.25876244 0 9.9717950338 -76.07310534 
0 10.118534747 -75.462336028 0 9.7628383481 -75.279865643 0 9.7439475617 -74.451494044 
0 9.2794934419 -74.063108984 0 8.0940621018 -72.285248624 0 7.6072179546 -70.601092964 
0 6.1871748546 -66.393074195 0 5.9009301354 -64.40233097 0 5.3061771435 -62.527095928 
0 2.642816928 -58.532004089 0 0.27364274527 -52.521752956 0 0.66371295548 -51.74605022 
0 0.16887562603 -50.333108462 0 -0.49218113217 -49.050453529 0 -0.91454734157 -47.86184767 
0 -0.98613198314 -47.024017193 0 -2.2609228207 -45.554569473 0 -1.7256727409 -45.411268112 
0 -2.1462087578 -45.146252954 0 -2.5029039564 -45.009651167 0 -2.0767379783 -45.337613849 
0 -1.9127748455 -45.798068052 0 -1.368119512 -48.445976718 0 -0.078739052374 -49.702957948 
0 0.31724130733 -52.501991311 0 1.2701962348 -53.509874461 0 1.5391190341 -55.468061007 
0 2.5623401486 -57.733588629 0 3.5213614509 -60.799222805 0 7.8162129838 -77.700049177 
0 7.6956518087 -77.274821906 0 7.3096149498 -75.157802359 0 7.1249213568 -73.617690307 
0 6.4829198135 -72.537005778 0 6.3229493565 -70.892021528 0 4.0488384455 -66.122106796 
0 3.7247501191 -64.260814569 0 2.8685903384 -62.260004543 0 1.1065885954 -60.107386778 
0 0.043617304443 -57.928250624 0 -0.30737319894 -56.071828192 0 -0.64316708795 -54.190416936 
0 -1.4812800679 -52.410501776 0 -2.1637437159 -50.191532318 0 -4.1906101729 -45.956660447 
0 -3.8263212508 -45.415420192 0 -4.2380666933 -44.702971191 0 -3.7550651678 -45.361997556 
0 -2.8684928769 -46.256435174 0 -2.5666212855 -47.260077738 0 -3.2163042074 -49.041503598 
0 -2.1049600056 -50.458577815 0 -1.2775026938 -52.239005274 0 -0.28238239926 -56.907843335 
0 1.3244257758 -61.745406364 0 2.1705441528 -62.811600015 0 3.111159185 -64.697362142 
0 3.9381518904 -67.189840775 0 4.5102095786 -69.070476408 0 4.7687504994 -70.128057421 
0 5.3343149439 -71.843303135 0 6.0651756025 -73.783544419 0 6.5020019247 -75.183686998 
0 6.6705209175 -75.953123884 0 7.0116219017 -77.0671603 0 7.1631279789 -79.85977232 
0 7.6683811308 -79.618882051 0 7.8927240022 -79.446489354 0 7.9160205175 -79.35164036 
0 7.0032758868 -79.324996025 0 6.4770828224 -77.863731119 0 4.4228791277 -70.449111574 
0 4.1850140816 -68.156996436 0 -4.4495039949 -48.09359148 0 -4.3219164354 -46.898139347 
0 -6.1970261784 -43.841674704 0 -5.5743350683 -43.761803599 0 -5.7004680396 -43.580397073 
0 -5.6075038335 -43.715682726 0 -5.584056022 -44.006318287 0 -6.3918460804 -44.172196731 
0 -5.3984520785 -46.20939473 0 -4.4902545658 -47.513490225 0 -3.7346251355 -51.167961565 
0 -3.2236266878 -53.027379601 0 -2.3106354686 -54.943952583 0 -1.8693903491 -56.26646718 
0 -0.49661395559 -59.458363328 0 0.27430502114 -61.901875186 0 0.52776513126 -64.417972187 
0 1.2575906249 -66.770761634 0 1.8777685907 -68.734517403 0 2.5214162401 -70.824244033 
0 3.2460154683 -72.916390868 0 3.8639914546 -74.762570135 0 4.1721819276 -75.714489212 
0 4.8864893409 -77.094528543 0 5.4000182642 -78.586146101 0 5.7372460655 -79.784524894 
0 6.2235535108 -80.371695935 0 6.1127783026 -82.614703508 0 6.3046097159 -82.307961287 
0 6.4122173713 -81.828624069 0 6.3709590769 -81.313968631 0 5.8281300339 -80.180646923 
0 5.203528799 -78.005865613 0 5.1128978327 -76.059658795 0 4.8263585815 -75.166302256 
0 4.1373892626 -72.935506282 0 3.5161248126 -71.91710562 0 2.5184179924 -69.87824927 
0 2.0481763714 -67.689280164 0 1.6395639541 -65.727979447 0 0.99262758497 -63.751508906 
0 -1.8420805684 -61.475903369 0 -2.0546415195 -59.18603532 0 -2.7614752169 -56.900924196 
0 -3.3726508412 -54.790130609 0 -4.0517023053 -52.670427773 0 -4.6842402446 -50.744204653 
0 -7.3919032439 -45.978797329 0 -6.9316159392 -44.999323331 0 -6.995284328 -44.136235305 
0 -8.1562755502 -42.968620679 0 -8.4086339287 -42.487768767 0 -7.8499539918 -43.784235475 
0 -6.2013887741 -48.139067583 0 -5.0651013457 -49.694055076 0 -5.0032665305 -50.528592846 
0 -3.7231986376 -57.38754066 0 -2.599728427 -59.872263011 0 -1.83411341 -62.271896514 
0 -1.5842125701 -63.751694549 0 3.2220079768 -78.433806412 0 3.9810119917 -80.007305191 
0 4.4722675352 -81.50642338 0 4.7888757199 -82.606554273 0 5.440195027 -82.937740396 
0 5.724638143 -83.080158587 0 5.0642816197 -84.607762438 0 5.1948345148 -82.764654529 
0 4.8908146822 -81.889108824 0 4.5530811951 -81.029858581 0 4.22302424 -79.909259391 
0 3.6892723123 -78.347587298 0 2.230471081 -74.697341809 0 1.5075343798 -72.409273491 
0 0.71855427686 -69.276603948 0 0.26165775991 -67.886929165 0 -0.40796885894 -65.689117781 
0 -1.314108126 -63.530169009 0 -4.1000392104 -59.956701968 0 -4.650135484 -57.479473623 
0 -5.3448016957 -55.316800411 0 -6.3777396383 -52.892198331 0 -6.9029745722 -50.514683282 
0 -7.3462823031 -48.478874264 0 -7.5508399037 -46.996906868 0 -9.2110871588 -44.391426838 
0 -9.2607620688 -43.303198078 0 -9.7658542637 -41.909486276 0 -9.1103012575 -41.974215121 
0 -9.0936295387 -41.847911369 0 -9.0472846127 -41.921663504 0 -9.6138537413 -42.283960997 
0 -9.1375574029 -43.839016141 0 -8.1787552551 -45.101470424 0 -6.5062510155 -52.71992822 
0 -5.2349449056 -54.708920607 0 -2.1482347179 -65.151344542 0 -1.1361477973 -66.533930316 
0 0.016025754612 -70.163782677 0 0.47595526591 -71.769065809 0 1.2546434787 -74.330825563 
0 2.047267022 -76.496276814 0 3.9649290256 -86.059245272 0 4.4849737397 -85.628305373 
0 4.709675476 -85.498397295 0 4.3884530282 -85.377350226 0 4.5103417591 -84.578367187 
0 3.9142065733 -84.429682572 0 2.5199304418 -81.194659867 0 1.6336621141 -77.73207256 
0 1.484516657 -76.356152129 0 -0.95178362726 -70.569837415 0 -1.5352164781 -67.148613357 
0 -2.2713279879 -65.418535541 0 -4.0320481305 -62.283402662 0 -4.807353369 -60.841743169 
0 -6.4008288932 -57.43750509 0 -6.9297365817 -55.845793965 0 -9.0795786301 -50.135751958 
0 -9.1632523144 -48.243204491 0 -9.9951533342 -46.357536954 0 -9.9779067765 -45.059020131 
0 -10.239379145 -44.214733526 0 -11.231434345 -42.447259326 0 -11.351602285 -41.554209162 
0 -11.60154332 -40.808219422 0 -11.680197828 -40.475738975 0 -11.737334886 -40.310114652 
0 -11.72961277 -40.328839251 0 -11.306474789 -40.853484995 0 -11.395607539 -41.237761019 
0 -11.171125871 -42.015877675 0 -10.906385762 -42.835356543 0 -10.8781497 -43.627330112 
0 -10.13651521 -45.319290559 0 -9.388329343 -47.010025928 0 -8.9857511464 -48.890239016 
0 -8.3492540037 -50.786717758 0 -6.2663825325 -57.175832878 0 -4.9147265406 -60.026439346 
0 -4.0416964257 -62.630654105 0 -3.366779129 -65.361076032 0 -2.6200470127 -68.294177472 
0 -1.8859176984 -71.222134657 0 -0.78113603165 -74.710796533 0 0.015779948663 -77.231901544 
0 0.70455157537 -79.238854772 0 1.6581984823 -80.600417866 0 2.2302043407 -82.36644899 
0 2.8340677509 -83.664552941 0 3.2163080926 -84.876601728 0 3.3846962086 -86.271857927 
0 3.4292620476 -88.069555761 0 3.6875539024 -87.777126719 0 3.6394166274 -87.882356091 
0 3.6463356398 -87.212475517 0 3.3418802377 -86.640446269 0 3.2338659318 -85.381289791 
0 3.0707529623 -84.122033382 0 2.675056625 -83.153914609 0 1.1375075305 -80.830864378 
0 -0.76191699293 -74.893589387 0 -0.89247801107 -72.92938872 0 -3.2678411137 -68.026306084 
0 -3.4793871928 -64.802212658 0 -6.0371597763 -63.008987896 0 -9.4884187469 -52.44096639 
0 -11.363205896 -47.463340971 0 -12.383430943 -44.080036164 0 -14.084865997 -38.946174063 
0 -13.828067294 -38.96492364 0 -14.113835776 -39.090260722 0 -9.3966592384 -51.905976291 
0 -8.1154964642 -54.168789229 0 -7.2295049477 -60.235159742 0 -6.2140557769 -62.487148366 
0 -5.4468346409 -64.887846819 0 -4.5202399205 -67.711191564 0 0.017598207363 -82.161379301 
0 1.3200512619 -86.298731262 0 1.8489450496 -87.278119539 0 2.4924571066 -89.5265052 
0 2.7740712253 -89.685360145 0 2.7119096458 -89.841233776 0 2.6479654847 -88.884194916 
0 2.1577980103 -88.314359525 0 1.7989914233 -87.146619429 0 1.3896094492 -85.839816429 
0 1.1366788016 -83.612624881 0 -0.33266787757 -80.542203905 0 -0.84727181458 -77.485523132 
0 -2.9697083553 -72.51969836 0 -3.1542538413 -70.445008884 0 -5.612347015 -65.268732804 
0 -8.2338856994 -59.681723771 0 -8.5418124688 -57.281244723 0 -9.475100285 -54.623666526 
0 -11.787296245 -48.908107826 0 -12.238765584 -47.532776954 0 -12.960477092 -45.172512378 
0 -14.179995746 -41.1612048 0 -14.080485841 -40.16241311 0 -14.392781122 -39.368177324 
0 -14.569948603 -38.879145446 0 -15.333560879 -38.035698924 0 -15.065134284 -38.850177116 
0 -14.098502848 -40.149001898 0 -13.801838729 -41.139526144 0 -13.611276911 -41.709655672 
0 -13.245518537 -42.899974012 0 -12.900779863 -44.043019845 0 -12.385038875 -45.597491553 
0 -11.727658975 -47.462223625 0 -11.099272639 -49.434507827 0 -10.700737953 -51.410600208 
0 -10.186536899 -53.667369337 0 -9.0925848659 -56.264344189 0 -8.2139928371 -58.366098042 
0 -4.2657390543 -72.047398051 0 -3.1242022818 -73.98435684 0 -2.3662059152 -76.350756616 
0 -1.6573590064 -78.572030361 0 -0.94218241323 -80.691087688 0 0.3079675134 -85.970379399 
0 0.6500136458 -87.06830869 0 1.5339618594 -89.913446761 0 1.951841455 -89.699792368 
0 2.2028738373 -91.857074178 0 2.4431217159 -91.052792297 0 2.2813402429 -91.253423761 
0 1.9710600405 -91.061446109 0 0.01316515824 -85.83278569 0 -0.34278413325 -83.284818771 
0 -2.6476022139 -76.909970095 0 -2.8970221247 -74.788980165 0 -5.2154278163 -69.100725187 
0 -5.2585074144 -67.623543656 0 -7.9386531971 -64.112903829 0 -8.6858548843 -61.639834365 
0 -9.2973093573 -60.339645788 0 -10.384682731 -59.304241103 0 -11.333845846 -56.420163877 
0 -11.192400811 -55.117591949 0 -13.075118281 -50.363814526 0 -12.995791482 -48.88606627 
0 -13.932576347 -45.994303509 0 -15.524474589 -43.56745016 0 -14.883531289 -43.180562277 
0 -15.760012225 -42.208858718 0 -16.095241511 -40.99652238 0 -16.82489778 -39.358697918 
0 -16.533977113 -38.528051295 0 -16.877757924 -37.599863497 0 -17.006276791 -37.240984793 
0 -17.850775668 -36.419013705 0 -16.914081764 -36.947329578 0 -16.664210983 -37.021751941 
0 -17.772526973 -36.100062406 0 -16.857698633 -37.155937122 0 -16.771852967 -37.473390278 
0 -17.313160715 -38.064153178 0 -16.341795905 -39.289465936 0 -16.892963503 -39.352617064 
0 -16.360250598 -40.969470858 0 -15.848534621 -42.535282835 0 -14.831647521 -43.946060533 
0 -14.153898099 -45.963534809 0 -13.874020875 -48.655621011 0 -12.833369901 -50.079515145 
0 -13.090413411 -51.033828745 0 -12.005729889 -52.550988393 0 -12.183193404 -53.760384858 
0 -11.26339729 -56.616382655 0 -10.25887753 -57.952403582 0 -9.3315319438 -60.244700083 
0 -8.3772617361 -62.64093994 0 -8.3116271337 -65.2095416 0 -7.715712252 -67.000027097 
0 -6.7407299814 -69.993707408 0 -4.7367158274 -75.010327777 0 -3.7981201883 -77.878635378 
0 -3.6592690388 -80.065264865 0 -2.492128763 -81.937058754 0 -1.7105470867 -85.497763998 
0 -0.45585491678 -87.569795921 0 0.056023197951 -89.187615556 0 0.061094571924 -90.871479497 
0 0.81441287994 -91.395328609 0 0.55431218679 -92.94928142 0 0.77548302594 -93.689175637 
0 1.1615699549 -94.203298504 0 1.6075189757 -93.48015754 0 1.553639836 -93.889655641 
0 1.4879960753 -94.105033071 0 1.176686093 -94.972900765 0 1.1274370526 -94.667150891 
0 1.352182614 -93.579338789 0 0.95065567289 -94.133790444 0 0.67296595621 -93.340540911 
0 0.58050452127 -90.275456956 0 0.13919841479 -88.867932474 0 -0.62339236725 -88.847133758 
0 -2.1169570903 -85.015235878 0 -2.7907613272 -82.02508592 0 -2.6671380241 -79.973800368 
0 -3.4937449189 -78.126706598 0 -4.044899505 -77.121356689 0 -4.7930001681 -76.53284159 
0 -4.9478572195 -72.970362509 0 -5.7514453645 -72.856674566 0 -7.3501869193 -68.683281315 
0 -8.1864680762 -65.656404579 0 -7.2334456766 -66.927177219 0 -6.2126897495 -69.77019243 
0 -6.2919102226 -71.187865322 0 -4.7023426464 -74.416268257 0 -3.5582147815 -79.720400655 
0 -2.017818715 -81.956564201 0 -1.8082248869 -83.299124209 0 -1.3791805637 -85.555339174 
0 -1.444005255 -87.149460133 0 -0.55533316558 -87.294070575 0 -0.083567383776 -90.483568765 
0 0.3605442257 -91.917793537 0 0.88784902936 -91.800015899 0 1.1323180692 -92.943276272 
0 1.178543337 -95.20613647 0 1.2150043629 -94.593029519 0 1.4898485395 -92.859104567 
0 1.2563074547 -92.787406324 0 0.6445352016 -90.317725706 0 -0.55924884595 -89.607529194 
0 -1.0612979709 -87.475192605 0 -0.93441882379 -85.488842492 0 -1.6447448637 -83.928783034 
0 -2.5664936619 -83.475562717 0 -2.9798013044 -80.418136407 0 -4.6199068187 -77.102514238 
0 -5.7029660299 -73.790511315 0 -5.4886166506 -72.148377296 0 -5.7728840398 -70.714440141 
0 -6.6752516018 -67.914602727 0 -7.8390603063 -64.315141523 0 -9.4201917474 -61.731290909 
0 -10.415243849 -59.201438363 0 -11.096213963 -55.327386908 0 -13.502493051 -48.012958898 
0 -14.527399027 -46.556171663 0 -15.22683408 -44.459248387 0 -15.334344923 -42.333530958 
0 -15.841395925 -40.81604266 0 -16.71625685 -38.181515116 0 -17.612490684 -37.110676149 
0 -17.87264822 -36.25822639 0 -16.964094729 -36.789844042 0 -16.728144273 -36.881723229 
0 -17.717025837 -36.171078926 0 -17.533578292 -37.298253648 0 -17.121553398 -38.437632125 
0 -15.625854904 -40.602806054 0 -14.987953017 -42.080977392 0 -14.33828108 -44.815014529 
0 -14.679648614 -46.042854387 0 -14.194333089 -47.559286276 0 -11.951177611 -51.369200008 
0 -11.773011029 -52.568039859 0 -12.218773227 -53.621355573 0 -10.31940257 -57.780353107 
0 -9.0692060961 -62.784224233 0 -6.1390281048 -66.536906804 0 -3.652507308 -73.889143335 
0 -3.1987568 -75.904620187 0 -0.87647676251 -82.404311145 0 -0.53675573102 -84.719735132 
0 1.5237183688 -90.557136947 0 1.6388716027 -91.372237227 0 1.8660334482 -92.078033499 
0 2.114379342 -92.097346443 0 1.840608928 -90.738601827 0 -0.86228405119 -82.393574537 
0 -1.6502783268 -80.687792222 0 -2.3710446427 -78.455889198 0 -3.1138137263 -76.126374339 
0 -3.9253177525 -73.644431418 0 -8.3265602635 -59.647787246 0 -9.0625981979 -57.713976098 
0 -10.12168087 -55.213775926 0 -10.983606476 -52.571583853 0 -11.465817855 -50.435691148 
0 -12.095296861 -48.435669711 0 -12.761354236 -46.446875958 0 -13.38239618 -44.60096255 
0 -13.835841506 -43.186365951 0 -14.225167281 -41.893710821 0 -14.752537013 -40.308439438 
0 -15.090857875 -39.247390335 0 -15.320156945 -38.17770702 0 -15.237471373 -38.23684975 
0 -15.402060118 -38.411596362 0 -15.16718025 -38.98455842 0 -14.791462337 -40.007515833 
0 -13.303822058 -44.14820093 0 -10.407391433 -53.130857107 0 -9.8143474652 -55.557085654 
0 -8.9054225386 -58.201940249 0 -3.9275322897 -69.511617177 0 -3.717781696 -71.56547773 
0 -1.6456085799 -76.534934148 0 -1.3203675303 -78.790842962 0 -0.96222527437 -79.934620295 
0 0.5774582118 -82.664157084 0 0.76635734584 -85.346337127 0 1.1081913815 -87.241244705 
0 1.4940703617 -88.56519539 0 2.0307522138 -89.310311545 0 2.4731200775 -89.8202292 
0 2.6461340368 -90.518458221 0 2.3753057004 -91.089409516 0 2.339995706 -90.503410547 
0 1.9035277868 -88.249679059 0 1.3095014438 -87.864284338 0 0.64820894084 -84.074599883 
0 0.011265657747 -83.687666292 0 -3.8349443905 -70.510629778 0 -4.6669325685 -69.531204859 
0 -5.5607130123 -66.815322164 0 -6.3963605942 -64.195697149 0 -7.1915466167 -61.741721609 
0 -8.1034024371 -55.55886103 0 -9.1695349213 -53.327865798 0 -13.94465878 -39.445277662 
0 -14.187487785 -38.768257562 0 -14.773638935 -38.304063504 0 -14.729757778 -38.393256381 
0 -12.852510301 -42.458459918 0 -13.191080966 -42.984516184 0 -11.67921267 -46.282365374 
0 -10.195669442 -50.33400865 0 -10.280224008 -51.317352575 0 -7.0364446172 -60.562241854 
0 -7.133512054 -61.861999387 0 -6.4589497076 -64.11550247 0 -4.227170226 -65.726989497 
0 -4.0492659145 -67.039421911 0 -1.6445252314 -72.195938598 0 -1.4621759516 -74.152985313 
0 0.76107407041 -79.589418826 0 2.0721750988 -82.851936671 0 2.3628124312 -84.408082121 
0 2.7883500222 -85.459142414 0 2.9082349815 -86.817930941 0 3.2086565374 -87.710758223 
0 3.3244341554 -88.406916784 0 3.1886735909 -89.116041618 0 3.3031914166 -88.821979807 
0 3.2034888432 -87.463171423 0 2.784896999 -87.296382245 0 2.7684604411 -86.537821648 
0 2.6287489637 -85.230273659 0 2.0648136549 -84.146845746 0 1.5710198524 -82.419997129 
0 0.7417201203 -80.728733629 0 -0.099468699615 -78.969013595 0 -0.83401444447 -76.838213776 
0 -1.599641866 -74.339480536 0 -2.0906222834 -72.794302552 0 -2.7797964281 -70.009137201 
0 -3.5285023272 -66.975656754 0 -4.244638351 -64.169135497 0 -5.0615878983 -61.640816643 
0 -6.1051527502 -59.366209202 0 -6.7130915708 -58.118867197 0 -6.9923973475 -56.044542845 
0 -8.3001480046 -51.698037742 0 -9.6271242622 -49.667499902 0 -10.090261637 -47.683800854 
0 -10.64941132 -45.939064295 0 -11.390526449 -44.419775112 0 -11.59733496 -43.688798651 
0 -11.912442907 -42.654450323 0 -11.887171223 -41.995866244 0 -12.431759212 -41.000100036 
0 -12.05973147 -40.650841625 0 -12.575817837 -39.996065181 0 -12.636065913 -39.816070117 
0 -12.327204585 -39.968053408 0 -12.536168757 -40.025526889 0 -12.48271779 -40.371162291 
0 -12.368201357 -40.700403208 0 -12.289487641 -41.399837968 0 -11.525163467 -42.949894568 
0 -10.865401075 -45.064623172 0 -10.337296743 -46.786204595 0 -9.795645745 -48.640415151 
0 -8.0181103966 -53.349742791 0 -8.0094599265 -54.842666008 0 -6.8216559212 -58.233762239 
0 -5.9878249089 -60.034975848 0 -4.4427740504 -63.237441392 0 -1.9820612463 -68.211356464 
0 -1.7134388965 -69.773128331 0 0.40718838165 -74.629908548 0 0.45546693217 -76.300594954 
0 2.1444834633 -80.122055372 0 3.901448071 -85.343180523 0 4.4817485863 -85.967092089 
0 4.2476711052 -86.43291296 0 3.9537825707 -86.617842121 0 2.3208178809 -78.855044556 
0 1.7884624616 -78.019360366 0 1.0786047841 -75.978659168 0 0.24469705607 -73.456650696 
0 -0.8290337046 -69.907883672 0 -1.4462368939 -68.062182524 0 -4.9646976729 -56.725891485 
0 -5.6907124879 -55.594601452 0 -6.5487237922 -53.768790199 0 -7.1640831483 -50.622012165 
0 -7.5971802457 -49.400612719 0 -8.5081712307 -45.637888168 0 -9.2236841029 -44.321257127 
0 -9.4533864513 -42.797335762 0 -9.6973013881 -41.689230017 0 -10.111316723 -41.285439802 
0 -10.098277802 -41.296993778 0 -10.102351585 -41.495021562 0 -9.8276111866 -42.519582807 
0 -9.7266998705 -43.38524579 0 -8.399628313 -46.078986594 0 -8.2588706269 -47.269854188 
0 -7.9085205814 -49.023556927 0 -7.4416391903 -51.229667654 0 -6.6299252946 -53.690402961 
0 -5.6532634529 -55.979268198 0 -4.8596837222 -58.353677498 0 -1.4198613895 -64.758104049 
0 -0.47831168845 -67.162979812 0 0.29339532953 -70.412106786 0 0.53294113089 -71.893898235 
0 1.433449803 -73.756870826 0 2.753458004 -77.262545095 0 2.8878458931 -78.411082355 
0 3.4648374672 -80.051369867 0 3.8809987408 -81.354527329 0 4.0550796105 -82.543197122 
0 4.7006238708 -82.908447772 0 5.0508202915 -84.271293978 0 5.4531873497 -83.853522358 
0 5.2184289038 -83.920425937 0 4.7178863179 -84.087022984 0 4.403499194 -83.992746116 
0 4.131997053 -83.051474597 0 3.761897362 -81.765829793 0 3.2185730664 -80.125631583 
0 -2.8052990955 -61.751773889 0 -3.6892643994 -59.13676593 0 -5.343453835 -52.268067436 
0 -5.9521799687 -51.081471364 0 -6.4471118812 -49.025534148 0 -7.5379523436 -47.255131808 
0 -7.1706903412 -46.502767784 0 -7.7226659963 -44.266833931 0 -8.4281883884 -42.739992848 
0 -8.3534570753 -43.161968387 0 -7.7348755748 -44.173178278 0 -7.9418897214 -45.135524178 
0 -5.7120443158 -49.404137997 0 -5.3129322227 -51.310067275 0 -4.5778451028 -53.537574458 
0 -3.8874217778 -55.771151932 0 -3.2157271659 -57.9467781 0 -2.7294053257 -60.321755314 
0 -2.4374092145 -62.552509516 0 0.014482902928 -63.089008362 0 0.67592908663 -65.123683284 
0 1.2956354569 -67.017363296 0 1.7468762122 -69.14945673 0 2.5238748329 -71.499064022 
0 3.4490288244 -74.349116418 0 3.8228702903 -75.538399274 0 4.6820072995 -77.260126788 
0 5.6543973652 -79.56752309 0 6.077456469 -81.277012831 0 5.9040090007 -82.469676628 
0 5.9546524822 -82.884558192 0 6.2068290735 -81.17559405 0 5.5947316844 -80.954080703 
0 5.2716605832 -79.891947247 0 4.819739846 -78.442097631 0 4.051196397 -76.967910931 
0 3.1006203886 -74.914146445 0 2.3687007963 -72.850687631 0 1.6386171324 -70.616797077 
0 0.99503811333 -68.44179373 0 0.26981402496 -66.056026716 0 -0.3141745432 -63.496225794 
0 -0.52224255543 -61.068400219 0 -1.6029141417 -58.782348745 0 -2.4025500257 -57.184171608 
0 -3.6295265982 -54.314326992 0 -3.9641117978 -52.298592001 0 -4.5591018089 -48.207516408 
0 -5.7652795286 -46.692677375 0 -6.4744469155 -45.483067395 0 -6.1044843567 -45.130671887 
0 -6.8096131869 -43.641328869 0 -6.5014890176 -43.396555289 0 -6.8646319692 -43.039329691 
0 -6.8654334986 -43.025202452 0 -6.8145545641 -43.26173386 0 -5.3144431946 -45.827841506 
0 -5.3891027025 -46.912894323 0 -5.603516127 -48.077414759 0 -4.6773088629 -49.275625812 
0 -0.19664279019 -61.75618643 0 3.2784586876 -67.261757079 0 3.7262735456 -69.31331206 
0 6.2723172698 -77.113504445 0 6.8240324014 -78.964800418 0 7.4419926528 -79.635145662 
0 7.3278528302 -80.198566153 0 7.3503422923 -80.405101371 0 7.1499070549 -80.678570472 
0 6.9027031717 -80.781651316 0 6.9739275259 -78.5962133 0 6.6071706635 -78.313618178 
0 6.2700549847 -77.23226587 0 5.7942916612 -75.520673279 0 5.2783588128 -74.103977963 
0 4.9701683398 -73.152058886 0 4.3735331384 -71.456058807 0 3.6604785117 -69.020215098 
0 3.0382410772 -67.111590035 0 2.6643378436 -65.940254018 0 1.9623630725 -63.889815229 
0 0.29075811028 -58.501562345 0 -1.1878275318 -54.162181474 0 -1.8468034001 -52.98532853 
0 -2.4248393192 -51.150425909 0 -3.4765806372 -49.641575701 0 -3.0572296593 -47.720629049 
0 -3.632818742 -46.569656268 0 -4.2641636546 -45.543778128 0 -4.7856864102 -44.823831776 
0 -4.2402038169 -44.903572461 0 -5.0681916707 -45.091199297 0 -2.7895849259 -49.02693575 
0 -2.8974555207 -50.456399101 0 -2.861861699 -51.388073823 0 -2.0424286961 -53.126993103 
0 -1.4472464356 -54.986407757 0 -1.1068310437 -57.005323309 0 -0.44994122239 -59.063108731 
0 1.1315642853 -61.322317912 0 2.518527945 -63.356373605 0 3.1624846266 -65.260246032 
0 5.7761399036 -70.065209643 0 5.5909530307 -72.29432412 0 6.0356326401 -73.734685819 
0 6.6717170121 -74.849695534 0 7.5224348984 -76.786876439 0 8.0393259944 -78.018965853 
0 8.1845401524 -78.29215969 0 8.0221378741 -78.159710081 0 3.392648135 -62.236627696 
0 2.3410902964 -60.426167583 0 1.8728575679 -58.954664663 0 1.0143679463 -56.511080859 
0 0.33442810192 -54.423741369 0 -0.46507581119 -50.488638577 0 -1.458346817 -49.072825084 
0 -2.6548263781 -45.267352773 0 -3.4428102231 -44.689802928 0 -3.5034336372 -44.576598347 
0 -2.9775256864 -44.992741457 0 -1.8147632322 -46.362986802 0 -2.1201085039 -46.941911733 
0 -1.9925222514 -47.946894225 0 -1.2941195682 -49.305848529 0 -0.53894663895 -50.826577038 
0 1.288794498 -56.599699503 0 1.4350349353 -57.73426654 0 2.8079291149 -59.77026622 
0 4.2641350545 -61.860296949 0 5.1168546015 -63.831244486 0 5.395179472 -65.693761816 
0 5.7473892221 -67.716658532 0 6.6419094619 -68.489072226 0 7.6149652246 -71.664746868 
0 8.6531201615 -73.992776492 0 8.7467920917 -75.096630207 0 9.0023050785 -75.754392128 
0 9.2266540875 -76.302512442 0 9.3798920363 -76.70443952 0 9.2132888614 -77.298907104 
0 9.207783959 -77.35288368 0 9.1592610762 -77.163671483 0 9.0369885966 -76.699320875 
0 8.7161187485 -75.950060199 0 8.1609786708 -75.303611568 0 7.840199589 -74.251188774 
0 7.6716805962 -73.481751888 0 7.2276507604 -71.997711529 0 6.5948123591 -70.402044367 
0 6.0856586339 -68.823783616 0 5.8271177131 -67.766202603 0 5.2821051143 -65.998878456 
0 4.8089747343 -63.636112129 0 0.84501561601 -50.927057034 0 -0.68763018289 -47.7157022 
0 -0.97290041894 -46.803098573 0 -0.089402216438 -46.062259443 0 -0.45930803651 -45.795148656 
0 -0.31781096959 -46.40921542 0 1.6647521104 -53.227442626 0 1.4858581086 -54.678623159 
0 2.493973992 -56.667802129 0 4.2284495209 -60.58548976 0 6.7289544241 -62.019283515 
0 7.2423444462 -63.702016724 0 7.7110775501 -65.426313778 0 8.2874434236 -68.072141848 
0 8.7059424633 -69.357350702 0 9.3854927409 -71.483442913 0 10.526035634 -73.836496188 
0 10.234171857 -73.004380613 0 9.8376203299 -71.802096227 0 9.4196177466 -70.36440645 
0 8.5522165722 -68.905199066 0 8.2775105365 -67.156022247 0 7.7909041416 -65.497683652 
0 6.0417185447 -61.184775818 0 5.1096913784 -60.167344865 0 4.2406165931 -57.429083172 
0 3.5307836153 -55.304068868 0 3.0451644629 -53.555808799 0 2.8434298426 -51.972538091 
0 2.2556227385 -50.655032124 0 1.9489487553 -49.593522775 0 2.0686150738 -48.968881803 
0 2.1767791892 -48.06702345 0 1.2787399554 -46.790274964 0 1.6612255498 -46.544056798 
0 1.0494735529 -46.434302547 0 1.7792481156 -46.984203612 0 1.0207647574 -47.715614533 
0 1.3558903595 -48.58219611 0 1.7335216927 -49.656675637 0 2.0753961064 -50.873815135 
0 2.8028239217 -52.101121106 0 3.5153136622 -53.324491843 0 4.2783944108 -54.839961167 
0 4.6711891481 -56.004285886 0 5.1995099329 -58.257552822 0 5.9294554117 -60.240862766 
0 11.392658535 -70.757767776 0 11.04892388 -72.289694724 0 11.21683749 -72.684517487 
0 11.265286 -73.420310767 0 11.387565048 -73.83598462 0 11.401179102 -74.144825731 
0 11.398099311 -74.222276439 0 11.395964172 -74.051315713 0 10.536619803 -67.40755031 
0 8.5410003021 -63.176668886 0 7.6790870409 -62.462847655 0 7.7274222422 -60.45497993 
0 7.4233341187 -58.834659377 0 6.8832228498 -57.237133367 0 6.3244991028 -55.595613257 
0 5.9003815897 -54.093341177 0 5.4286103048 -52.625878681 0 5.1002453727 -51.680163694 
0 3.5897888628 -47.822682159 0 3.035361722 -47.399600137 0 3.0049802383 -47.092466184 
0 2.6091208526 -46.838399647 0 3.8255886158 -47.792070704 0 3.5085150419 -47.995093795 
0 4.1175679553 -48.849133617 0 4.5505112106 -49.842442936 0 4.7793267917 -50.610900415 
0 9.3297883937 -60.406382389 0 9.7815646304 -61.97021288 0 10.177020237 -63.200576383 
0 10.305581712 -64.769797097 0 10.653119279 -65.930034269 0 11.38665836 -68.095153838 
0 11.708916247 -68.935938968 0 13.337847855 -70.596610643 0 13.428527972 -71.185089816 
0 13.500678547 -71.38955892 0 13.527957289 -71.534375775 0 13.471821937 -71.480817613 
0 13.15344333 -71.464656521 0 12.76338315 -71.272002954 0 12.632825969 -70.913779975 
0 12.315955395 -70.076318387 0 12.150095106 -69.549396511 0 11.934322403 -68.410291485 
0 11.01112666 -65.249360753 0 10.263003216 -64.632826815 0 9.9343098484 -62.7299107 
0 9.8826614967 -60.441504796 0 6.1764076849 -50.115534085 0 5.2464074427 -49.009571653 
0 5.6652350279 -48.33957473 0 5.7970955435 -47.92089285 0 5.7025651147 -47.716868044 
0 5.4298410533 -47.645168903 0 5.237417883 -47.800799472 0 6.5624516882 -53.501527945 
0 6.9190637702 -54.463188697 0 7.7967802898 -57.011334402 0 8.8902327786 -59.214785112 
0 13.002369541 -63.204169869 0 13.239382244 -64.807832079 0 13.696501562 -66.275148526 
0 13.947479547 -67.719990533 0 13.844546987 -68.772348169 0 12.436661582 -64.596336883 
0 12.462318561 -62.54145059 0 11.915553396 -60.846406013 0 10.911936692 -59.523163642 
0 10.11116731 -58.179842693 0 9.7846027211 -56.786471335 0 9.3694833965 -55.385907833 
0 9.1347566097 -54.513743737 0 8.7647999142 -53.097747522 0 8.0015305741 -51.601566965 
0 8.2705102818 -50.48589194 0 8.3260131327 -49.63560763 0 7.9873513275 -48.837154124 
0 7.423285233 -49.361306222 0 7.4882852532 -50.224491602 0 8.1250837213 -51.672035702 
0 8.9478308168 -53.357300532 0 9.9235404264 -54.931660785 0 10.293488472 -56.040174998 
0 12.812367619 -60.157123877 0 13.428867368 -61.556246869 0 16.01472139 -67.690218409 
0 15.752754575 -68.574968818 0 15.918719211 -68.755826034 0 15.909715103 -68.814054633 
0 15.484697676 -68.9873908 0 15.310991251 -68.512798642 0 15.086767749 -67.907396113 
0 14.958052213 -67.501755357 0 14.977971539 -66.489788278 0 14.814045285 -65.258265689 
0 14.68888562 -63.838683038 0 14.827863528 -62.526772894 0 12.947345235 -57.834336253 
0 11.083258761 -52.284163793 0 10.127502528 -49.26232507 0 8.9309979813 -48.621419712 
0 8.9038898981 -48.459676297 0 8.832886966 -48.427478738 0 8.9022704535 -48.624898868 
0 10.463964736 -51.332527404 0 11.274454812 -52.950724138 0 12.102577985 -54.454902953 
0 12.673375493 -58.24654865 0 15.414213847 -58.678879448 0 15.751418218 -62.764068508 
0 16.205602241 -63.974768248 0 16.358360066 -65.282465374 0 16.62907244 -66.242746095 
0 18.053365291 -66.466452457 0 17.605357154 -66.392217958 0 17.463301373 -65.766277288 
0 15.783366754 -61.390744298 0 14.708336918 -60.292076387 0 13.906274106 -56.029394158 
0 12.904340243 -55.242608921 0 12.868370127 -53.819955911 0 12.797532667 -52.613270591 
0 12.404901336 -51.318521541 0 11.806414994 -50.262036486 0 11.935250423 -49.65131759 
0 11.954367011 -48.972200018 0 12.002372453 -49.099274896 0 11.490704926 -49.37332854 
0 11.618229583 -49.968883335 0 12.308148866 -50.914208079 0 13.655938952 -55.069803101 
0 13.220054546 -55.968233181 0 14.094394109 -57.375910863 0 17.077313793 -58.71817853 
0 17.044364746 -60.181428623 0 17.920449938 -60.725741376 0 18.670773945 -64.026237316 
0 18.586250487 -65.186890264 0 18.400158705 -65.777165653 0 18.506785836 -66.115394086 
0 18.5760298 -66.132760595 0 19.174100263 -65.49763656 0 18.77690199 -63.838697191 
0 17.927341443 -63.287344395 0 17.661876273 -62.106010697 0 17.566749656 -60.750342738 
0 17.482702043 -59.396809807 0 16.440196273 -58.20348511 0 15.856799698 -57.419287197 
0 15.67061618 -55.923881253 0 14.750976868 -50.154711322 0 13.852312266 -49.665583206 
0 14.892876408 -53.620870885 0 15.638405294 -54.740731331 0 16.27280771 -55.984419783 
0 19.309493256 -61.486037341 0 20.112448725 -62.191113281 0 20.476570714 -63.143388031 
0 20.875607353 -63.804817353 0 20.996464397 -63.946303512 0 20.78192815 -64.067371551 
0 20.122488488 -64.305175078 0 20.156071759 -63.711625416 0 19.288720617 -57.474251181 
0 18.470550312 -56.060809419 0 17.667923129 -53.815511199 0 16.639100683 -52.979078112 
0 16.273482539 -51.892712818 0 15.587996898 -50.879468901 0 15.324738585 -49.376671878 
0 15.342626076 -49.401881343 0 16.157745783 -50.295546891 0 15.701132498 -51.02733726 
0 15.743685183 -51.924822573 0 20.187655639 -57.484765513 0 20.537210099 -58.848441181 
0 21.378407333 -59.469690184 0 22.706064368 -61.135635175 0 22.84079331 -62.290464089 
0 22.121870536 -61.539990999 0 21.057892163 -61.32763641 0 20.829160173 -60.846440658 
0 20.49149234 -59.720573925 0 20.450600751 -58.44911564 0 20.255138432 -54.55508885 
0 19.192304379 -50.820903055 0 18.375640104 -50.380490013 0 17.695433456 -49.922339959 
0 18.181132526 -50.303853356 0 18.850745014 -50.93448885 0 19.092548473 -51.730179095 
0 19.066056648 -52.761359159 0 18.925433374 -53.493091178 0 19.358124187 -54.711695405 
0 19.922293907 -56.096164295 0 23.102217335 -57.473931249 0 23.233524141 -58.869915115 
0 23.080419331 -60.08630199 0 24.226458592 -60.75125684 0 23.674276008 -61.553786935 
0 23.632714141 -61.789115613 0 23.684600186 -61.800147464 0 24.234267426 -60.978150915 
0 24.160253706 -59.470245096 0 23.4692087 -58.593350665 0 21.532508623 -55.682262726 
0 21.507805238 -53.251779556 0 20.40526715 -52.722730669 0 20.146868404 -51.679341822 
0 20.109058206 -49.7554916 0 19.384901076 -49.64137972 0 19.568191366 -49.806560587 
0 25.883157962 -59.514133831 0 23.913273418 -55.931850355 0 23.754356695 -54.434959062 
0 23.29221518 -52.914961852 0 22.979165205 -51.566687482 0 22.361124092 -50.644774598 
0 21.684260961 -50.070596152 0 21.977900409 -49.814472695 0 22.840784957 -49.634984907 
0 22.747347577 -49.700341223 0 22.00837719 -50.193833657 0 21.827247156 -50.754321786 
0 22.065405404 -51.193641968 0 22.409291429 -52.09807657 0 23.106154865 -53.2078844 
0 23.133551134 -54.66399009 0 26.124657119 -54.559306442 0 25.925594989 -55.972137373 
0 26.092388244 -57.061793901 0 26.721380952 -57.861444992 0 27.415763133 -58.811830936 
0 26.970546716 -59.296786133 0 27.015491805 -59.387340222 0 26.978137751 -59.346261993 
0 27.085583966 -58.888882555 0 27.019793021 -58.492166834 0 26.836807625 -57.517854026 
0 26.442939496 -56.562520368 0 26.587531669 -55.777824142 0 26.489133629 -54.491590399 
0 26.024241816 -52.592171349 0 25.693436125 -51.637231617 0 25.078911502 -50.613367231 
0 24.673972579 -49.976387244 0 25.094861182 -50.428200501 0 25.523735608 -51.30389836 
0 28.961028573 -55.086823776 0 29.236162318 -57.644620823 0 29.757744085 -57.664479366 
0 29.823586222 -57.390395763 0 27.487282585 -50.027326403 0 26.760071053 -49.525436503 
0 26.046538799 -49.469643216 0 26.060884331 -49.596890623 0 27.777413949 -51.926859062 
0 29.100939594 -53.752121627 0 30.257638521 -56.411504083 0 30.077729284 -55.372983059 
0 29.687804881 -54.274992752 0 29.327367849 -53.159470088 0 29.018105712 -51.974642087 
0 28.507465217 -50.806828604 0 29.515872042 -49.108495233 0 29.309016829 -49.215820671 
0 28.991407884 -49.499002964 0 28.643205423 -50.102223826 0 28.973419712 -50.64325159 
0 29.937442981 -51.254586249 0 31.960013323 -53.137737536 0 32.222898252 -54.080029523 
0 32.981846094 -54.714552269 0 32.348076198 -56.033757998 0 32.433562962 -56.176306082 
0 32.492068282 -56.056121739 0 32.762251276 -55.658106208 0 32.85927971 -54.838498802 
0 32.780696992 -53.771302206 0 32.195596065 -52.441370286 0 31.98353494 -51.713072648 
0 31.805172215 -50.627414834 0 31.287427758 -49.89349769 0 30.650039242 -49.427200449 
0 30.214143389 -49.148109767 0 31.533256946 -52.040253335 0 34.48482543 -51.903610622 
0 34.974603895 -54.198661114 0 35.152471845 -54.596274875 0 35.459747816 -54.64786591 
0 35.350575467 -54.684315124 0 35.21552052 -54.321944885 0 35.515252306 -53.379616158 
0 34.893879146 -51.743536601 0 32.95223666 -48.555702956 0 32.725621614 -48.616799055 
0 32.762283758 -48.964822324 0 32.884868468 -49.458473655 0 33.247602635 -50.072010244 
0 33.831309456 -50.955888445 0 36.298240748 -52.198813105 0 35.624233966 -52.399426892 
0 34.777692154 -49.650404356 0 34.710452133 -48.912955373 0 37.341107883 -50.590036024 
0 38.070615213 -51.331963428 0 38.328651204 -52.052990299 0 38.143290983 -52.797506174 
0 38.430349136 -53.247542377 0 38.383606702 -53.40137926 0 38.110821409 -53.264952345 
0 38.241988567 -52.623587856 0 38.422614592 -51.579749732 0 38.092214135 -51.101541029 
0 37.433208506 -50.443793854 0 37.499194916 -49.5785352 0 37.805401708 -48.599025105 
0 37.241053871 -47.915091873 0 36.503994075 -47.853192153 0 36.332178278 -47.910622684 
0 36.550610972 -48.208658271 0 36.761725474 -48.693873487 0 37.022177713 -49.530175969 
0 40.234284939 -49.971282149 0 40.972284424 -50.000469042 0 41.326347482 -50.806487392 
0 40.892091814 -52.00278749 0 41.759644201 -52.131062822 0 41.693768857 -52.170052577 
0 41.175596497 -52.136002516 0 40.867225254 -51.847286715 0 41.490957362 -51.515202758 
0 41.423931177 -51.031033088 0 40.350601045 -50.069189324 0 40.576583793 -48.653442429 
0 39.847165452 -48.521625715 0 40.37803151 -47.832862232 0 38.888039826 -47.512555172 
0 39.976722633 -46.789035413 0 39.291469882 -47.016448591 0 39.348708992 -47.192286043 
0 39.530881169 -47.487360657 0 40.258867802 -47.415500614 0 40.240364589 -47.634188521 
0 39.721185742 -48.07779575 0 40.536339685 -48.391478696 0 39.946192429 -48.975877268 
0 54.697993186 -44.756879871 0 67.85803232 -40.381019976 0 54.828442809 -44.903921823 
0 54.523109758 -44.281124681 0 54.570022347 -44.438023601 0 67.711509222 -39.917551435 
0 54.415986624 -43.862494059 0 67.572970164 -39.492022022 0 54.459478443 -43.995498145 
0 54.33445028 -43.420159747 0 54.366638303 -43.556328749 0 67.45318612 -39.086260188 
0 54.163313842 -43.115368446 0 67.34595572 -38.75388619 0 54.106813017 -42.777795111 
0 67.212085893 -38.451477731 0 53.986785462 -42.530786768 0 53.977880777 -42.608815661 
0 53.942949256 -42.421278089 0 67.170417008 -38.217799396 0 53.882510894 -42.396616242 
0 67.075384285 -38.086667056 0 53.921076508 -42.287511365 0 53.881398718 -42.317339412 
0 67.097498053 -38.002782506 0 53.881900597 -42.29408633 0 67.085531922 -38.017317758 
0 53.884280854 -42.383784482 0 53.894546634 -42.335004091 0 67.092830165 -38.120154651 
0 53.903899577 -42.540912282 0 67.137058788 -38.285320668 0 53.894265314 -42.482216757 
0 54.018696283 -42.764553377 0 67.238208532 -38.530191172 0 53.968120109 -42.675332316 
0 54.153462798 -43.067100558 0 54.089868068 -42.962438924 0 67.36681941 -38.834951935 
0 54.262206422 -43.396789098 0 67.482922539 -39.191091315 0 54.223586526 -43.279118587 
0 54.372804169 -43.825725662 0 54.34419382 -43.6749878 0 67.599128909 -39.61142201 
0 54.526556684 -44.225729896 0 67.759841466 -40.037219693 0 54.660866543 -44.723941178 
0 54.633422249 -44.544173366 0 67.886896269 -40.523557127 0 54.821995931 -45.212151493 
0 54.740468394 -45.061896843 0 54.938852554 -45.490422125 0 68.069570973 -40.985110751 
0 54.950045494 -45.643591137 0 68.180374422 -41.444849384 0 55.131491391 -46.093506338 
0 55.051813505 -45.957592662 0 68.355099548 -41.873288386 0 55.294614525 -46.459203959 
0 68.514271167 -42.252342898 0 55.374244679 -46.849873589 0 55.384140528 -46.718341675 
0 68.58185855 -42.622343681 0 55.41042239 -47.143759677 0 55.740212516 -47.222938831 
0 68.689748745 -42.893821669 0 55.75558916 -47.312861814 0 68.755698959 -43.139394095 
0 55.608887222 -47.558251858 0 55.586326162 -47.518729725 0 68.812854379 -43.28538672 
0 55.615450527 -47.644632718 0 68.819495845 -43.359911458 0 55.626373083 -47.624164482 
0 55.628036644 -47.644599963 0 55.646899921 -47.651847815 0 68.800632568 -43.352663605 
0 55.601598666 -47.576673348 0 68.790426726 -43.258307217 0 55.578025302 -47.401046522 
0 55.569518878 -47.480966891 0 68.76433879 -43.071916356 0 55.487283849 -47.160360905 
0 55.532271892 -47.247349996 0 55.423510003 -46.988423978 0 68.668777178 -42.829277822 
0 55.32745257 -46.907168739 0 68.507703597 -42.547923454 0 55.269584642 -46.513662711 
0 55.251930423 -46.664306408 0 68.447874583 -42.158810889 0 55.130944681 -46.146357365 
0 68.29760287 -41.76644924 0 54.974545291 -45.692412088 0 55.031965675 -45.845467286 
0 68.145135245 -41.320868716 0 54.897450893 -45.243620942 0 68.089629111 -40.839360901 
0 54.853346519 -45.418559136 0 55.193620373 -46.269126182 0 55.594240485 -47.616973235 
0 55.367548343 -47.072380817 0 55.223038926 -46.349742279 0 54.460891367 -44.092457538 
0 53.893866728 -42.279551078 0 54.175666696 -42.880104441 0 54.193061009 -43.209273575 
0 81.087741742 -36.067852749 0 81.182788982 -36.360378075 0 81.270385003 -36.629970907 
0 81.347868236 -36.868439776 0 81.412884384 -37.068538905 0 81.463457953 -37.224188347 
0 81.498052314 -37.330658839 0 81.515616336 -37.384715342 0 81.515616336 -37.384715342 
0 81.498052314 -37.330658839 0 81.463457953 -37.224188347 0 81.412884384 -37.068538905 
0 81.347868236 -36.868439776 0 81.270385003 -36.629970907 0 81.182788982 -36.360378075 
0 81.087741742 -36.067852749 0 80.988131234 -35.761283128 0 80.886984066 -35.449984154 
0 80.787373558 -35.143414532 0 80.692326318 -34.850889206 0 80.604730296 -34.581296374 
0 80.527247064 -34.342827506 0 80.377062986 -33.880608442 0 80.359498964 -33.82655194 
0 80.359498964 -33.82655194 0 80.377062986 -33.880608442 0 80.411657346 -33.987078934 
0 80.462230916 -34.142728377 0 80.527247064 -34.342827506 0 80.604730296 -34.581296374 
0 80.692326318 -34.850889206 0 80.787373558 -35.143414532 0 80.886984066 -35.449984154 
0 80.988131234 -35.761283128 0 75.113659424 -38.014332717 0 75.050083379 -37.81866577 
0 74.991491373 -37.63833812 0 74.939663706 -37.478828961 0 74.896175136 -37.344984904 
0 74.862347037 -37.240872721 0 74.839207248 -37.169655773 0 74.82745886 -37.133497954 
0 74.82745886 -37.133497954 0 74.839207248 -37.169655773 0 74.862347037 -37.240872721 
0 74.896175136 -37.344984904 0 74.939663706 -37.478828961 0 74.991491373 -37.63833812 
0 75.050083379 -37.81866577 0 75.113659424 -38.014332717 0 75.31457237 -38.632679184 
0 75.378148415 -38.828346131 0 75.43674042 -39.008673781 0 75.488568087 -39.168182939 
0 75.532056658 -39.302026997 0 75.565884757 -39.406139179 0 75.589024546 -39.477356128 
0 75.600772933 -39.513513947 0 75.600772933 -39.513513947 0 75.589024546 -39.477356128 
0 75.565884757 -39.406139179 0 75.532056658 -39.302026997 0 75.488568087 -39.168182939 
0 75.43674042 -39.008673781 0 75.378148415 -38.828346131 0 75.31457237 -38.632679184 
0 75.247944005 -38.427618163 0 75.180287788 -38.219393738 0 35.179610795 -51.626097829 
0 35.097756869 -51.383026055 0 55.167117611 -45.003015258 0 35.256276299 -51.862049989 
0 55.327065554 -45.255761755 0 35.213686688 -51.990170579 0 35.272125111 -52.170025552 
0 55.348051987 -45.579549292 0 35.299488499 -52.254823129 0 35.384403599 -52.496250496 
0 35.352941263 -52.419333818 0 55.434007381 -45.844674519 0 35.521589823 -52.702329031 
0 35.407413155 -52.567066626 0 55.527915779 -46.113437841 0 35.569495877 -52.849768704 
0 55.650951173 -46.27630717 0 35.522084767 -52.931022973 0 35.550683688 -53.019041401 
0 55.637368162 -46.461673622 0 35.56374556 -53.058058865 0 35.619273005 -53.136938565 
0 35.582615662 -53.116135066 0 55.673569823 -46.571908034 0 35.635360423 -53.165443756 
0 55.721975554 -46.628869351 0 35.602675423 -53.167679524 0 35.613084442 -53.178708398 
0 55.699699573 -46.642133994 0 35.580982984 -53.163918039 0 35.521226043 -53.127511534 
0 55.666258746 -46.60221469 0 35.570961844 -52.9523725 0 35.526016411 -53.079253792 
0 55.647909325 -46.482739999 0 35.528651096 -52.822153408 0 55.638169198 -46.33506031 
0 35.47439495 -52.769072209 0 35.430540251 -52.634101326 0 55.540424481 -46.148135054 
0 35.402296018 -52.567935687 0 35.400490188 -52.287764226 0 35.351470246 -52.411510045 
0 55.460352581 -45.922460257 0 35.33389391 -52.064619771 0 55.450780518 -45.618386787 
0 35.159631892 -51.804131742 0 35.224300762 -51.984979873 0 55.277611325 -45.343079942 
0 35.123177163 -51.721131827 0 35.120341853 -51.481731695 0 55.174528231 -45.055019006 
0 35.006453787 -51.093175357 0 35.083106475 -51.337936777 0 55.069636635 -44.702999663 
0 34.929788283 -50.857223197 0 55.050476677 -44.404508723 0 34.820025171 -50.778605008 
0 34.761586747 -50.598750035 0 54.877137519 -44.130223586 0 34.733881429 -50.514063558 
0 34.660671741 -50.268832871 0 34.680428665 -50.349552868 0 54.790840195 -43.865209459 
0 34.650527804 -50.021475795 0 34.637662186 -50.198016741 0 54.708838568 -43.592577392 
0 34.60262175 -49.874036122 0 54.712644103 -43.388494948 0 34.516505296 -49.836167588 
0 34.487906375 -49.74814916 0 54.59269955 -43.246514231 0 34.475539761 -49.708905794 
0 34.474098084 -49.612452563 0 34.45666966 -49.650829593 0 54.557193147 -43.136053916 
0 34.470358148 -49.579935432 0 54.562873184 -43.061519067 0 34.442601276 -49.597338418 
0 34.444539739 -49.582297604 0 54.537054775 -43.06388124 0 34.427262669 -49.61313202 
0 34.400317495 -49.677709749 0 54.533464555 -43.11583266 0 34.543498744 -49.790166234 
0 34.432558173 -49.713935374 0 54.588845023 -43.223275234 0 34.585809492 -49.920385326 
0 54.667769039 -43.348475715 0 34.573115694 -49.99521988 0 34.616970392 -50.130190764 
0 54.698563811 -43.557154327 0 34.633011514 -50.200321434 0 34.79623122 -50.428046347 
0 34.683837286 -50.356747076 0 54.7664326 -43.786794155 0 34.873514719 -50.647718314 
0 54.937418539 -44.038421077 0 34.885644807 -50.9608862 0 34.831663157 -50.776565581 
0 54.959143023 -44.362935291 0 34.904940129 -51.049460839 0 35.043362083 -51.244805861 
0 55.045066608 -44.656570639 0 -0.96825399214 -62.474703201 0 -1.1071661947 -62.948586464 
0 -1.4716175052 -61.818692467 0 -1.6660056332 -61.22307095 0 -1.5805645281 -60.647059215 
0 -2.1024248629 -59.934592962 0 -2.2803708731 -59.370171269 0 -2.4550446606 -58.810643076 
0 -2.3829165223 -58.179703271 0 -2.9070094062 -57.358311719 0 -3.0805578836 -56.849819175 
0 -3.1839952453 -55.824958416 0 -3.2210814551 -56.323900354 0 -3.934852052 -53.914609794 
0 -4.7389427064 -52.080515689 0 -4.8044146145 -51.878335194 0 -4.8569416328 -51.717578562 
0 -4.7253835921 -51.780494962 0 -5.0828380895 -51.260182867 0 -4.6700835435 -51.666078091 
0 -4.8337768857 -51.48686578 0 -4.8064523568 -51.555332981 0 -4.3954747027 -52.01918061 
0 -4.7514907015 -51.751195273 0 -4.7014909939 -51.905757231 0 -4.2253396725 -52.463862106 
0 -4.5080453284 -52.357693871 0 -3.9444792692 -53.273055701 0 -3.6229660595 -54.323866195 
0 -3.3688999258 -56.085596827 0 -3.1679531318 -55.801705643 0 -2.8020294181 -57.25657204 
0 -3.2105616749 -56.576382823 0 -2.9325331172 -57.646937115 0 -2.7598170556 -58.183156307 
0 -2.5784693632 -58.73541814 0 -2.156889843 -59.44205335 0 -2.1171209418 -60.118692594 
0 -1.8731640587 -60.760789995 0 -1.2381010376 -61.794330074 0 -0.34203711599 -64.852373226 
0 0.18713734002 -66.840052795 0 1.3102798085 -70.521218135 0 1.6661321376 -71.994327913 
0 1.8507616805 -71.99223456 0 1.9776841122 -72.757499966 0 2.0858406705 -73.067742465 
0 2.2279728433 -73.121770842 0 2.5734597164 -74.42384944 0 2.7047799723 -74.570216301 
0 2.7153080182 -74.631258629 0 2.6370931225 -74.367766572 0 2.5108962606 -74.384545072 
0 2.4590130321 -73.33055738 0 2.4451011363 -74.181040176 0 2.2959164165 -73.418985369 
0 2.2030985087 -73.139506914 0 2.0996409518 -72.808435047 0 2.098658464 -71.922208239 
0 1.8443282571 -72.014344681 0 1.7137222228 -71.626529521 0 1.6622299471 -70.58360209 
0 1.381647613 -70.586746912 0 0.99280404777 -68.436669626 0 0.1379379075 -66.411575572 
0 -0.45278690122 -64.643397832 0 -0.91163468302 -63.550473996 0 -1.6154040815 -58.407631966 
0 -3.2173574392 -54.558723729 0 -3.6031309925 -53.325640013 0 -4.0204283475 -52.412284873 
0 -1.7170625451 -59.1884052 0 -0.80449072365 -61.645520395 0 0.5191508313 -66.270830964 
0 1.1004163776 -68.109636327 0 1.5768821564 -69.753829292 0 2.0703956013 -71.079141237 
0 2.4767962288 -72.293659269 0 2.5985539889 -72.894029904 0 2.7671614777 -73.393604759 
0 2.9095624304 -73.624367985 0 2.9172165383 -73.647963689 0 2.8434272074 -73.415699041 
0 2.6776345089 -72.51436625 0 0.023933001106 -64.509944517 0 -0.20088665639 -62.453335642 
0 -0.6188090643 -61.221313173 0 -0.79439709992 -59.50319701 0 -1.9450188859 -56.410555365 
0 -3.3562795834 -52.863169625 0 -3.1996198738 -53.293480339 0 -3.0201320351 -53.793544648 
0 -2.6725892438 -54.916909977 0 -2.2605326242 -56.293090607 0 -1.6713578324 -57.393174552 
0 0.49013851991 -63.859927975 0 2.5206890083 -70.851053386 0 2.0294226414 -69.364421934 
0 1.4172267497 -67.398498898 0 1.1422420115 -65.850969777 0 -1.8892201146 -55.157431299 
0 -2.2030225071 -54.162237335 0 -2.234532186 -53.723037281 0 -0.30776649147 -59.518963163 
0 0.70583806394 -61.714586876 0 1.4916162616 -65.593581778 0 2.0771700302 -67.075400044 
0 2.4405929752 -68.839436289 0 2.9292199122 -70.038896675 0 3.2443896863 -70.874374943 
0 3.3627562921 -71.614969377 0 3.4013132425 -71.78920974 0 3.2677181079 -71.477237025 
0 3.2496301038 -70.622941419 0 1.2274142143 -63.187878247 0 0.66379295141 -60.995321121 
0 0.20371350567 -59.799758355 0 -0.18709058312 -58.105848291 0 -0.36751213744 -56.667364821 
0 -1.2051313691 -54.338772342 0 -1.3422684081 -54.36368072 0 -1.1667085804 -55.008508708 
0 -0.65578705978 -56.582501805 0 0.13957716679 -57.796868936 0 1.9832116564 -63.485522688 
0 3.3577602934 -67.860656098 0 4.045916424 -70.112308886 0 3.9871675269 -70.007523562 
0 3.6715759685 -69.500631344 0 3.2232256272 -68.457564058 0 2.6597554365 -66.725016426 
0 2.4040997798 -64.421143471 0 1.6137472535 -59.655338289 0 -0.15587648831 -55.70845465 
0 0.12974085281 -55.508579232 0 2.8799361313 -64.667520674 0 3.9659473726 -68.462722571 
0 3.2126747702 -61.77264216 0 1.6073842245 -58.202141657 0 0.77407304142 -55.417290068 
0 0.69268225765 -55.347543879 0 0.6942753148 -55.482359259 0 0.67441029725 -55.959447303 
0 1.2214780889 -56.935814665 0 1.4674522045 -58.263072854 0 1.9653829603 -60.037130694 
0 2.834876355 -61.814556818 0 3.8127594314 -65.608590862 0 4.9714018786 -68.162967906 
0 4.9120136197 -68.332172951 0 4.6402863838 -68.155405231 0 4.480304259 -67.711243079 
0 4.155947025 -66.095704174 0 3.821818238 -65.041448823 0 3.253105275 -63.469009335 
0 3.3592822744 -59.155304564 0 2.6203237177 -56.677923869 0 3.769592693 -63.020082314 
0 4.837710567 -63.705438981 0 5.0608302547 -67.212159846 0 5.7177598645 -66.118667846 
0 4.3175616737 -60.969539946 0 4.5321643978 -60.111945751 0 3.6504511121 -58.180823916 
0 3.4917910027 -57.296323783 0 3.1861744463 -56.544645187 0 2.9081397121 -56.175840877 
0 3.74897427 -58.905928 0 4.2286536733 -60.261185046 0 4.8117565197 -61.554543209 
0 5.4894549907 -62.12221117 0 5.6460564586 -64.322665638 0 6.045136562 -65.204509164 
0 6.2343706871 -66.018742852 0 6.2167679958 -66.410990716 0 5.3198702979 -63.677828846 
0 4.8910265653 -62.299759191 0 4.7984079949 -56.73327185 0 3.8851473375 -57.003342232 
0 4.4979514537 -57.826157245 0 7.4237133017 -64.822477179 0 6.5497475532 -65.11195419 
0 6.5618779675 -64.086085639 0 5.8436312682 -59.595214048 0 5.4629325463 -57.411469027 
0 5.2334945446 -56.833013969 0 5.9922881849 -58.995218859 0 6.2475486991 -60.427735659 
0 6.589018816 -61.889281033 0 7.5646001983 -63.879736961 0 7.717078768 -64.486046652 
0 7.0619531118 -62.287308994 0 6.4264507709 -60.978339621 0 6.7711424223 -57.104715824 
0 6.5436216068 -57.360080872 0 8.8032692294 -63.358959043 0 8.4691012138 -63.286097759 
0 8.1351414029 -59.675945983 0 8.3977890954 -58.847682527 0 7.5629790785 -57.378388114 
0 7.5581218821 -57.014319275 0 8.3954364533 -60.477051774 0 9.0947641302 -60.992751117 
0 9.2830180048 -62.672123601 0 9.4930827446 -62.969516467 0 9.6610318783 -58.545807614 
0 9.408543188 -57.633870199 0 9.3267061029 -57.069931138 0 8.8907817703 -57.25949509 
0 8.5177375379 -57.95443474 0 10.294186632 -60.494457574 0 10.625942132 -61.380638887 
0 10.891209602 -61.884977802 0 10.427116513 -61.987847237 0 9.7168421129 -61.644899149 
0 10.536617453 -59.435104249 0 10.423024678 -58.181440487 0 10.479834794 -59.260345195 
0 11.124821139 -60.3413479 0 10.962505275 -56.997529824 0 10.725911291 -56.906688573 
0 12.257155357 -60.982053066 0 12.11914195 -61.194611637 0 12.11547111 -58.198081016 
0 11.804210101 -57.699365346 0 12.421607841 -57.435032257 0 12.501280947 -58.304801822 
0 12.484258045 -59.333090495 0 12.525580315 -59.919514578 0 13.180436612 -59.770467074 
0 12.733655803 -59.019978091 0 14.054897011 -57.963385402 0 14.156270689 -56.988040156 
0 13.745111288 -56.995962767 0 13.404827624 -56.596455645 0 13.106148549 -56.473929192 
0 13.704039556 -56.291023508 0 12.880518204 -56.660696761 0 13.542324578 -56.533931376 
0 13.319678487 -56.959743065 0 14.015003655 -57.39786717 0 14.39188812 -57.534916266 
0 14.191237176 -58.382997285 0 14.846543759 -59.112482219 0 14.509252023 -59.347746124 
0 14.468781131 -59.870967835 0 14.299163925 -60.145652974 0 14.890377174 -59.942195264 
0 14.006845899 -60.127176966 0 14.616769326 -59.84073229 0 14.186359024 -59.627111486 
0 14.491366032 -58.863959813 0 14.715716531 -58.531557634 0 14.678385987 -58.233370477 
0 14.647393188 -58.368658397 0 14.683847918 -58.451658312 0 14.825309679 -58.611197532 
0 14.949659933 -58.986759489 0 14.900639991 -59.110505309 0 14.923649546 -59.181321439 
0 14.95189378 -59.247487078 0 14.598975964 -59.63466289 0 14.65323211 -59.687744088 
0 14.676065738 -59.75801877 0 14.810267162 -59.927156219 0 14.861235293 -59.936513546 
0 14.882927733 -59.940275031 0 14.912653155 -59.928930621 0 14.919168644 -59.890235321 
0 14.8825113 -59.869431823 0 14.872430009 -59.838404798 0 14.859368137 -59.799387335 
0 15.044813287 -59.559971254 0 15.092224397 -59.478716985 0 15.063795462 -59.391221722 
0 14.823534203 -59.041666089 0 14.792071867 -58.964749411 0 14.76643532 -58.885848233 
0 14.739071931 -58.801050656 0 14.711409297 -58.715913822 0 14.753998908 -58.587793231 
0 14.71013366 -58.45278988 0 14.591353569 -57.936316031 0 14.536958783 -57.798095837 
0 14.432364836 -57.706862715 0 14.413069514 -57.618288076 0 14.433739682 -57.406068999 
0 14.313591373 -57.029141755 0 14.201197439 -56.957842483 0 14.178187884 -56.887026353 
0 14.162146762 -56.816895683 0 13.649054 -56.711103699 0 13.661747798 -56.636269145 
0 13.63891417 -56.565994464 0 13.648068924 -56.350277834 0 13.683802909 -56.312749282 
0 13.699141516 -56.29695568 0 13.729857965 -56.288661336 0 13.757873633 -56.316136783 
0 13.740445208 -56.354513813 0 13.7505265 -56.385540837 0 13.762893113 -56.424784204 
0 14.053646632 -56.509473958 0 14.139763087 -56.547342492 0 14.168192021 -56.634837754 
0 14.179280244 -57.058856287 0 14.199037168 -57.139576283 0 14.224673715 -57.218477462 
0 14.252379034 -57.303163938 0 14.280041668 -57.388300773 0 14.389804781 -57.466918962 
0 14.433670029 -57.601922313 0 14.641150608 -58.089575559 0 13.464667911 -59.197226859 
0 13.371359089 -60.276249438 0 13.443965694 -59.863307267 0 13.204802563 -58.68199184 
0 12.988497954 -57.73172642 0 12.278775994 -56.913624433 0 12.580237308 -57.205024634 
0 13.081110055 -58.301305444 0 12.796077728 -60.684804748 0 13.014009262 -60.703672184 
0 11.57322079 -56.921238084 0 11.738441124 -56.777877125 0 11.43345566 -59.621581748 
0 12.140789983 -60.312984459 0 11.930903958 -60.863051371 0 11.141038279 -61.499687256 
0 11.164788043 -59.633912956 0 11.09578318 -58.582332716 0 11.261632332 -57.60721543 
0 10.768509771 -57.285569919 0 9.7552898489 -57.234792126 0 10.871178651 -58.730276164 
0 9.8615454642 -61.041287516 0 10.770231762 -61.495026446 0 11.023366922 -60.723646583 
0 8.9895990244 -58.357712313 0 9.4580406305 -57.456517403 0 10.116236984 -57.931787707 
0 9.0638229877 -60.078899155 0 9.872798818 -62.645232421 0 10.051072964 -62.397268168 
0 9.4610596388 -62.048663224 0 8.9099057057 -59.60519047 0 8.0559280184 -57.053479072 
0 8.3459045626 -57.149299452 0 8.0734786011 -57.778127907 0 8.6973855196 -60.965316269 
0 8.5933839 -62.464374979 0 9.0745377138 -62.675240572 0 8.2735503573 -62.477599001 
0 8.0380011674 -62.051440793 0 8.0924284378 -59.103449818 0 7.1271649436 -57.951817035 
0 7.3924828703 -57.498408072 0 6.8606412871 -58.129112016 0 6.9205674992 -58.612333589 
0 7.4098925668 -61.459556368 0 7.5750711302 -62.800594094 0 8.2493468769 -64.068875708 
0 8.192759677 -63.661542844 0 7.4673492446 -63.319253495 0 6.8625021395 -62.482346251 
0 7.0651901671 -60.942676233 0 6.7603177174 -59.460370548 0 6.1057079702 -58.278359286 
0 5.9093154189 -56.857653008 0 6.0993755236 -57.218768898 0 5.7136987871 -57.922072352 
0 5.716288936 -58.954664744 0 6.7852621389 -60.081146349 0 6.9747542374 -64.360723712 
0 7.5979195808 -64.43684456 0 4.6705471637 -57.361287794 0 5.162428862 -56.94117487 
0 5.270217176 -61.350001514 0 5.6993207052 -62.755849923 0 5.6693095419 -64.494779463 
0 6.4350876863 -65.960507139 0 6.6731255024 -65.690131699 0 6.650164474 -65.032851921 
0 6.3385115262 -64.212870534 0 5.8523539609 -63.466050254 0 5.093678877 -60.806672498 
0 4.614493963 -59.417096518 0 3.5190119755 -58.031848299 0 3.3296672806 -56.393685329 
0 3.7010595521 -56.490788359 0 4.0821664614 -57.079570926 0 4.2751949723 -57.862635144 
0 4.3208551869 -58.75258169 0 5.7773062768 -66.581588177 0 5.27416939 -66.187644642 
0 4.7482949203 -62.954665116 0 3.8050581599 -62.088550949 0 2.4288645279 -56.276169986 
0 2.0968100995 -56.323256785 0 2.2650619766 -56.83579557 0 3.4432491531 -59.874119321 
0 3.6150050347 -62.597409125 0 4.1496763983 -64.093338324 0 4.8332444293 -65.964544291 
0 4.9180602495 -66.769507746 0 5.1375887866 -67.676590229 0 5.3334114194 -67.687654476 
0 5.4160036397 -67.214915298 0 4.5546060148 -66.412448789 0 4.6331181192 -65.539108414 
0 3.8110543769 -64.631536813 0 2.9765495112 -60.735061625 0 2.3519674295 -59.052085597 
0 2.0893258607 -57.640514051 0 1.558936294 -56.536861099 0 1.2799776483 -55.863504066 
0 1.438312631 -55.659982966 0 1.1722883987 -55.821324441 0 1.5261654263 -57.015667339 
0 2.1281505923 -57.794384324 0 2.1681118318 -58.991304123 0 4.3519607109 -68.332020744 
0 3.9552535411 -67.567665819 0 2.927890094 -63.806840041 0 0.37376411439 -56.441149519 
0 2.3214767778 -60.30697144 0 2.3055051191 -61.347900084 0 2.8019379123 -65.515909433 
0 3.3474978886 -67.243932371 0 3.7724831867 -68.590348284 0 4.1224254718 -69.254101391 
0 4.2794532721 -69.564410125 0 4.3164672308 -69.355385143 0 4.0521994482 -69.527193434 
0 3.1367540794 -66.774921516 0 1.8547324505 -62.42477083 0 -0.19575979396 -56.344006336 
0 -0.42573286013 -55.681525583 0 -0.65226775661 -54.905285621 0 -0.69038520075 -54.630279065 
0 -0.48630350028 -54.813344258 0 -0.79989867794 -54.830235896 0 0.26412280669 -57.649639973 
0 0.60180625633 -59.32238414 0 1.4462491982 -61.84769156 0 1.6399949045 -64.464987871 
0 3.5544060277 -71.108349121 0 3.6005378937 -71.236282943 0 3.5438670398 -70.662803612 
0 3.3667087563 -69.869466592 0 2.9309652807 -68.925142932 0 2.5521906813 -67.360129834 
0 2.1189169137 -65.705802275 0 1.3079570416 -64.233982825 0 0.67481541757 -60.406441933 
0 -0.50421504997 -58.208257047 0 -1.8597197693 -54.14671844 0 -1.4288187568 -55.045630208 
0 -1.3575540979 -56.046471042 0 0.33226058785 -63.390447277 0 2.0031016297 -67.785074178 
0 2.5618041869 -69.517995869 0 2.8331108807 -71.200567519 0 0.016498748139 -62.401283884 
0 -1.8887540684 -55.89380597 0 -2.3230715658 -54.541711334 0 -2.6598481699 -53.514436657 
0 -3.0514226334 -53.079480867 0 -1.4061903153 -57.487657462 0 -0.33431765418 -60.698759777 
0 0.4213337345 -65.693357392 0 2.9222815759 -72.571444801 0 3.0357709543 -73.002351884 
0 3.000802971 -72.853512943 0 2.8296374453 -72.366632524 0 2.4975948351 -71.154925411 
0 2.0116483729 -69.877405857 0 1.5308061077 -68.431129934 0 1.019479648 -66.64168594 
0 0.17346892318 -64.848671952 0 -1.0977333169 -60.071344617 0 -2.0942385021 -57.820941252 
0 -3.9445571178 -52.369588767 0 -3.31361318 -53.270176426 0 -2.9529416773 -54.329502012 
0 -2.7411006645 -55.750737339 0 -0.71629513854 -64.147155684 0 0.25506076299 -67.072601346 
0 0.43539146545 -67.641822161 0 0.61475418496 -68.1765795 0 1.0227412874 -69.437470227 
0 1.192902667 -69.981792077 0 2.5631211385 -74.543208358 0 2.68957931 -74.944131612 
0 2.6867053721 -74.906684988 0 0.85281718619 -68.906120757 0 0.61765372758 -68.562972771 
0 0.44204677637 -68.031410564 0 0.26426001415 -67.475829993 0 -0.6338177804 -64.318829256 
0 -0.87763054338 -63.536798344 0 -1.1725448345 -62.543095209 0 -3.6186636829 -55.209076786 
0 -3.762839288 -54.773002835 0 -3.8907269969 -54.373303274 0 -4.1580870866 -53.570445528 
0 -4.2528218834 -53.25598117 0 -4.4066727638 -52.666823157 0 -4.3760322925 -52.607012555 
0 -4.5541402313 -52.638168248 0 -4.4595477153 -52.924478674 0 -4.3487450741 -53.253071046 
0 -4.0480540736 -54.141201193 0 -3.9157949138 -54.539682261 0 -3.700565379 -55.076276143 
0 -3.9223010639 -63.244353607 0 -6.194298004 -64.315235172 0 -6.9163755733 -62.084215345 
0 -4.2294456687 -62.288924745 0 -7.5445035126 -60.16082226 0 -7.2041959111 -61.203960614 
0 -4.7116541345 -60.813048495 0 -5.1822615841 -59.36052451 0 -7.8248201099 -59.297139866 
0 -8.1895104029 -58.165889849 0 -8.511309401 -57.168752806 0 -5.4721890141 -58.452416062 
0 -8.7636598822 -56.392097885 0 -9.0876523049 -55.380369795 0 -5.8992132826 -57.116232948 
0 -6.3093213562 -55.817582294 0 -9.3361828269 -54.615568453 0 -9.662613921 -53.589011615 
0 -9.9700740959 -52.681424844 0 -6.5938689993 -54.96737249 0 -6.9936123829 -53.617744437 
0 -10.229293908 -51.857715613 0 -10.600527884 -50.582857992 0 -11.033047745 -49.404621705 
0 -7.759375095 -51.389608264 0 -11.474338373 -48.045428162 0 -8.0667960148 -50.45203473 
0 -11.862244832 -46.851982047 0 -12.086212709 -46.175943163 0 -8.5244368387 -49.07069541 
0 -12.242450994 -45.695621183 0 -8.7527185271 -48.367845143 0 -12.746494326 -44.140437749 
0 -12.838245338 -43.863105266 0 -8.832253781 -48.125090381 0 -9.0325380651 -47.513086931 
0 -12.928685882 -43.584757891 0 -13.123761439 -42.982244062 0 -9.115820009 -47.254890548 
0 -9.0448953308 -47.133982469 0 -13.184394802 -42.798419584 0 -13.070223942 -42.808683405 
0 -9.1062769009 -46.956089907 0 -13.104892407 -42.707026472 0 -13.305254305 -42.437763631 
0 -13.301499085 -42.42976207 0 -9.2818154931 -46.741856591 0 -9.264731137 -46.785329581 
0 -13.300248475 -42.445368391 0 -9.2012393289 -46.953383201 0 -13.235726172 -42.62587532 
0 -13.175238231 -42.802885563 0 -13.097173232 -43.026132656 0 -9.1364672572 -47.136850006 
0 -9.0166628628 -47.508284742 0 -13.027368545 -43.243005434 0 -8.86166202 -47.961697261 
0 -12.689323838 -44.279942022 0 -8.6271557702 -48.680912471 0 -12.3940001 -45.205072271 
0 -8.4116797687 -49.38990007 0 -12.086429906 -46.175203598 0 -11.870096235 -46.845483009 
0 -7.9619701185 -50.808311775 0 -11.472338296 -48.07169211 0 -11.201756853 -48.902239139 
0 -10.837321777 -49.971266898 0 -7.488248291 -52.265010774 0 -7.0461014551 -53.625398067 
0 -10.546435197 -50.866239335 0 -9.9402844446 -52.782583642 0 -6.7923290377 -54.408549328 
0 -6.3777171559 -55.683559311 0 -9.6946191582 -53.540014548 0 -9.3909608405 -54.471262912 
0 -5.9498781177 -57.008947882 0 -9.1358378639 -55.260432292 0 -8.7878403742 -56.339647853 
0 -8.4609644417 -57.329942523 0 -5.656017281 -57.903507972 0 -5.1925099456 -59.315810423 
0 -8.190711533 -58.173459254 0 -7.8244955643 -59.286310276 0 -7.3696742871 -60.562392398 
0 -4.831481641 -60.306452808 0 -6.9887223415 -61.736289782 0 -4.1566483989 -62.366964817 
0 -6.4855149952 -63.379197195 0 -5.5499372792 -66.230802803 0 -2.9253030099 -66.272911057 
0 -4.8914482531 -68.315318351 0 -2.3679201954 -67.623894392 0 -4.1836797093 -70.108399588 
0 -3.9267808896 -71.286004394 0 -1.7199806431 -70.017253862 0 -3.3335157472 -73.120780708 
0 -2.9767425931 -74.216915264 0 -2.6338524793 -75.267762619 0 -2.4250411609 -75.907231208 
0 -1.0990195025 -71.928918686 0 -2.0304767966 -76.745851239 0 -0.65504472545 -72.911535261 
0 -1.5821439239 -78.508505685 0 -1.7981199684 -77.463124412 0 -0.26353017974 -74.123693614 
0 0.090878150612 -75.211470565 0 -1.3726485993 -79.153265996 0 -1.0521260971 -79.753104468 
0 0.43449900049 -76.271974212 0 -0.84922528064 -80.377168225 0 -0.64676589491 -81.390347614 
0 -0.42395822835 -82.070177809 0 0.58486724222 -77.112701315 0 0.88212321122 -78.017691158 
0 -0.24742218017 -82.615012388 0 -0.02837716751 -83.284083205 0 0.15770394682 -83.835542507 
0 1.054727528 -78.524770972 0 0.29273843799 -84.251135937 0 0.50014390882 -84.52595638 
0 1.3318941919 -78.994392781 0 0.61760723556 -84.887568281 0 0.7705940899 -85.408344928 
0 0.85253822178 -85.664169129 0 0.92993891048 -86.238453815 0 1.8261953229 -80.528835789 
0 1.1089346924 -86.38844614 0 1.1307915822 -86.833765853 0 1.183736885 -87.010708493 
0 1.1620789668 -86.930084376 0 1.90729237 -81.178370266 0 1.1834549656 -87.014791974 
0 1.1914919688 -86.63454873 0 1.0679439123 -86.662433293 0 1.1584693941 -86.542565892 
0 1.739032056 -80.673167587 0 0.81236482517 -85.878420732 0 0.91631460362 -86.206360152 
0 1.655409099 -80.410302042 0 1.4991734303 -79.92844977 0 0.7219242807 -85.600073357 
0 0.59284865359 -85.197674377 0 0.43243278182 -84.698774796 0 1.3756797441 -79.538692771 
0 0.12572375572 -83.773365624 0 0.29976343563 -84.295043245 0 1.1501924901 -78.855482765 
0 0.89079526651 -78.043838055 0 -0.030215910865 -83.29279278 0 -0.24502137947 -82.605744524 
0 -0.45758235581 -81.951568497 0 0.70949409885 -77.462477958 0 -0.63274411578 -81.412476032 
0 -0.87698489221 -80.674327979 0 0.4037263046 -76.535570333 0 0.0033425292691 -75.302811616 
0 -1.1071215414 -79.958038231 0 -1.5143155168 -78.698153573 0 -1.9010893976 -77.50009425 
0 -0.75217703113 -72.940886879 0 -2.4291966926 -75.870397101 0 -2.7712802781 -74.851157092 
0 -1.4601193221 -70.807562021 0 -3.3458049089 -73.066683143 0 -1.8928005056 -69.461686284 
0 -3.9234036634 -71.290503599 0 -4.2235486647 -70.063394829 0 -2.5955454535 -67.008526496 
0 -4.5037630618 -69.200072221 0 -3.1439958082 -65.631295845 0 -5.9242293496 -65.146421024 
0 -5.5736953345 -66.220069962 0 -3.4567008978 -64.677426991 0 -5.1974913796 -67.376504073 
0 -4.9125492622 -68.257492577 0 -2.1220069811 -68.456613969 0 -3.59815539 -72.290028221 
0 -3.0197086438 -74.086586128 0 -1.0323282369 -72.106890324 0 -2.138094637 -76.771255317 
0 -0.34501041214 -74.214047661 0 1.0079537034 -86.485371323 0 1.872994249 -80.674787771 
0 1.9292217596 -80.844153987 0 1.1898844114 -87.029628634 0 1.8982709056 -81.122003501 
0 1.8850581212 -80.689216291 0 1.0011034697 -86.453752758 0 1.7028973113 -80.21416786 
0 1.5835714842 -79.455496358 0 -1.4310466495 -70.913404412 0 -3.6522111632 -72.129976622 
0 -2.0716730436 -68.537504435 0 -4.6258461029 -69.132757716 0 -5.2352885941 -67.233746435 
0 -3.483764458 -64.487936513 0 -6.1075453455 -64.506465757 0 -10.252410942 -51.82374102 
0 -7.7533022251 -51.455159937 0 -11.691759662 -47.390875573 0 -8.2542977376 -49.900643758 
0 -12.258965609 -45.620665701 0 -12.556190153 -44.690027945 0 -12.894128233 -43.670393008 
0 -13.271893451 -42.526288901 0 -13.033773249 -43.261997987 0 -12.547703168 -44.749009284 
0 -12.414013996 -45.165549124 0 -8.2573959126 -49.879609762 0 -11.649500133 -47.506335697 
0 -11.232626215 -48.790492215 0 -7.3445670903 -52.540331635 0 -6.5412170249 -63.240702622 
0 -8.744772293 -65.227349608 0 -9.4041216504 -63.211525292 0 -10.43665357 -60.822888968 
0 -10.5419207 -59.787458548 0 -10.850791964 -58.866486277 0 -11.453962773 -56.88766398 
0 -11.955844058 -55.33565075 0 -12.548138256 -53.546102501 0 -13.020303625 -52.091440284 
0 -13.489495234 -51.403312405 0 -13.528458505 -50.559443625 0 -14.130804324 -49.447147044 
0 -14.220728842 -48.366939515 0 -14.792068713 -47.340878151 0 -14.710405301 -46.851183222 
0 -15.252088035 -45.239222253 0 -15.614203135 -44.127558248 0 -15.99164401 -42.958888717 
0 -16.468236253 -41.488158734 0 -16.603270744 -41.072565303 0 -16.724727816 -40.708648224 
0 -17.003573892 -39.852930278 0 -17.147738703 -39.401383304 0 -17.597223832 -38.738316998 
0 -17.354319044 -38.742047394 0 -17.478916636 -38.366855344 0 -17.877313516 -37.908213445 
0 -17.608121954 -38.016735782 0 -17.644289233 -37.917149363 0 -18.02257782 -37.507977799 
0 -17.685699376 -37.777156147 0 -17.684563281 -37.77406625 0 -18.002281155 -37.501141494 
0 -17.621587685 -37.91577544 0 -17.548276097 -38.138011903 0 -17.785470464 -38.072993652 
0 -17.370297335 -38.643069021 0 -17.227748795 -39.084826218 0 -17.418687923 -39.201808386 
0 -16.907913712 -40.103770724 0 -16.788657807 -40.469587497 0 -16.980086003 -40.691513954 
0 -16.39834042 -41.778060161 0 -16.063848248 -42.778867948 0 -15.748050716 -43.751833458 
0 -16.02508571 -43.930951071 0 -15.477137329 -44.839491036 0 -15.308313835 -45.367815151 
0 -14.702025465 -46.918683497 0 -14.378820225 -48.615596071 0 -13.803183158 -49.661359398 
0 -13.336364509 -51.133196358 0 -13.461933306 -51.534955351 0 -12.815044189 -52.788756768 
0 -12.759001794 -53.733595792 0 -12.037801299 -55.165267678 0 -11.966432937 -56.115655883 
0 -11.286578705 -57.434697783 0 -10.636349465 -59.437694499 0 -10.114853483 -61.045382967 
0 -9.4323583959 -63.149131601 0 -8.9029381067 -64.782643504 0 -8.2175310845 -66.847077318 
0 -7.9651312122 -67.61985741 0 -7.686132659 -68.480478679 0 -7.5391111953 -69.689971372 
0 -6.8353784148 -71.15509689 0 -6.2566184398 -72.923758718 0 -5.7483480205 -74.489366336 
0 -5.5634170517 -75.817135468 0 -5.0793934778 -76.56731613 0 -4.8435262994 -77.294688515 
0 -4.5950979337 -78.059259479 0 -4.494659197 -79.457654527 0 -3.8565241925 -80.664094954 
0 -3.3043654969 -82.004390769 0 -2.7570795243 -84.429851036 0 -2.3740223671 -84.875280802 
0 -1.9713922501 -86.1237048 0 -1.8622605636 -87.204594719 0 -1.3944091287 -87.894260106 
0 -1.0379648629 -88.963857583 0 -0.75898410312 -89.819847841 0 -0.46326506178 -90.740519643 
0 -0.25187559148 -91.396345074 0 -0.26684422074 -92.119305872 0 -0.063536923146 -92.014890005 
0 0.010900438513 -92.25157941 0 -0.0020756847246 -92.961436755 0 0.17226012769 -92.728421232 
0 0.2715162955 -93.028470858 0 0.22218473968 -93.60574115 0 0.35957172577 -93.269130874 
0 0.38369287647 -93.351337795 0 0.28527416995 -93.836669102 0 0.36528009258 -93.353804804 
0 0.34882199129 -93.303261858 0 0.31753460668 -93.206943335 0 0.15215024913 -93.472931587 
0 0.13973953981 -92.644905896 0 0.068574980567 -92.429606953 0 -0.13031769234 -92.550944869 
0 -0.20125698381 -91.5539688 0 -0.4451414546 -90.775853916 0 -0.67933149605 -90.054819609 
0 -1.0089263472 -89.096877822 0 -1.1435540449 -88.684048862 0 -1.5172754506 -87.508883651 
0 -1.8526023863 -86.472761985 0 -2.2956489448 -85.079252434 0 -2.6845547409 -83.886679953 
0 -3.1071544348 -83.341320271 0 -3.2345407589 -82.24171154 0 -3.4401213202 -81.608017159 
0 -3.6724781484 -80.890743987 0 -4.1356283159 -80.210674038 0 -4.472434718 -78.422008649 
0 -5.0125113531 -76.777734393 0 -5.510193161 -75.246376322 0 -6.0640061599 -74.287494633 
0 -6.205276224 -73.090079572 0 -6.7208488894 -71.502353451 0 -7.3196660799 -70.390665557 
0 -7.665790147 -68.578306801 0 -7.9804388322 -67.575363169 0 -8.5514929585 -66.553380732 
0 -9.9678800649 -63.809715034 0 -11.024774668 -60.946994919 0 -12.13013389 -57.29597961 
0 -13.173122626 -53.891344661 0 -14.111961362 -51.08728066 0 -14.908464895 -48.636974277 
0 -15.636633118 -46.39867582 0 -16.087923331 -45.008506345 0 -16.948223409 -42.350672306 
0 -17.484560357 -40.611070321 0 -17.9801703 -39.148023277 0 -18.41940975 -38.061553952 
0 -18.583494108 -37.335608038 0 -18.826152581 -36.848212677 0 -18.726140836 -36.870383005 
0 -18.468534107 -37.528913738 0 -18.197259366 -38.604853146 0 -17.250943794 -41.838626403 
0 -15.882558313 -45.887736932 0 -14.870254976 -48.678391997 0 -14.200753359 -51.166946924 
0 -13.257476629 -53.967204941 0 -12.240914524 -56.831298648 0 -11.600356452 -58.763105181 
0 -10.197552561 -63.388651537 0 -8.9407750655 -66.963599309 0 -7.8924358234 -70.423948569 
0 -6.8450874914 -73.448650444 0 -5.8705549472 -76.472663661 0 -3.8304610362 -83.075112655 
0 -2.9091791405 -85.547329072 0 -2.1286797067 -88.247439033 0 -1.4805074795 -90.201167035 
0 -0.90276066885 -91.708999362 0 -0.56862890392 -93.133138511 0 -0.19373475997 -93.948805825 
0 0.0097254351489 -94.551082959 0 0.067427244138 -94.7580933 0 -0.14086465949 -94.504188648 
0 -0.43623546982 -93.636575549 0 -0.72309142556 -92.252844255 0 -1.2162987838 -90.766108019 
0 -1.8822429761 -89.028160499 0 -2.6717828556 -86.260372179 0 -3.5526551008 -83.593912276 
0 -4.5471122726 -80.553344446 0 -5.542568315 -77.795808428 0 -6.596136054 -74.222510047 
0 -7.9155300182 -70.485266433 0 -9.0307335607 -66.948661116 0 -10.503560717 -65.169160761 
0 -12.385280955 -59.590862534 0 -13.700297248 -55.157857524 0 -14.677832873 -52.009549201 
0 -15.837441857 -48.482058649 0 -16.713870313 -45.823936366 0 -17.486772123 -43.426140877 
0 -18.086860148 -41.582498121 0 -18.570426419 -39.989549254 0 -19.027214577 -38.57293792 
0 -19.770293757 -36.712109409 0 -19.965832728 -35.99732459 0 -19.883999368 -36.111648702 
0 -19.726817038 -36.523381968 0 -19.577420664 -37.19151238 0 -19.155336373 -38.637226892 
0 -17.479384429 -43.204462243 0 -16.887465988 -44.699217883 0 -16.051173608 -47.752617106 
0 -14.509091041 -53.104146029 0 -13.195073771 -56.742256109 0 -10.037905402 -66.714586598 
0 -9.1317574628 -69.907690791 0 -7.6869799561 -73.891605191 0 -6.7064707582 -76.584020141 
0 -5.8987437252 -79.033920072 0 -5.0028362761 -81.34689759 0 -4.2587276089 -83.594077779 
0 -3.5678231435 -86.2493171 0 -1.5901428038 -92.622491623 0 -0.47615206175 -95.765109871 
0 -0.38375763021 -96.044551872 0 -1.1342919027 -94.181119983 0 -1.5090935976 -92.557505795 
0 -3.3731008168 -87.154631254 0 -3.8200027623 -85.544061717 0 -4.9854820543 -82.023641262 
0 -7.1365243231 -75.55234233 0 -11.894599949 -62.759603194 0 -20.110691857 -37.307196308 
0 -20.462948055 -35.931993122 0 -20.004179303 -37.2997528 0 -19.37585217 -39.19482128 
0 -18.792099558 -40.264146152 0 -15.988650836 -50.001620098 0 -12.528793278 -60.284668358 
0 -11.263904786 -63.428221238 0 -9.1504241641 -71.921464856 0 -3.1171252376 -89.283316192 
0 -2.2712187814 -91.09713241 0 -1.5859574149 -94.51267543 0 -0.89730397559 -96.586544817 
0 -0.92030898233 -95.922691914 0 -2.5081549399 -91.523808445 0 -2.9431576242 -89.482521391 
0 -6.2366507685 -80.252269562 0 -8.6981681997 -72.144043625 0 -9.5420457414 -68.558030444 
0 -11.343813365 -65.621124547 0 -13.289150864 -60.735199612 0 -13.657212649 -58.884700692 
0 -14.706400394 -55.670260031 0 -15.439053711 -52.80194146 0 -15.990845473 -51.146722943 
0 -16.887001538 -48.470357821 0 -17.661482687 -46.070138417 0 -18.639062174 -43.515334062 
0 -19.321466006 -41.34673877 0 -19.862841482 -39.552647652 0 -20.2168455 -38.14155044 
0 -21.374647077 -36.209325902 0 -21.45599445 -35.518901265 0 -21.418214328 -35.270783046 
0 -21.312073161 -35.278355594 0 -21.212871822 -35.578430386 0 -21.021162246 -36.099148774 
0 -21.099625475 -36.734913805 0 -20.618303956 -37.722389788 0 -20.204911355 -38.993912219 
0 -19.807424798 -40.561147365 0 -19.021130306 -42.565430617 0 -18.069723615 -44.817774118 
0 -17.228369819 -47.265331143 0 -15.967767096 -52.368283087 0 -14.452903294 -55.937865274 
0 -13.369914784 -59.49830636 0 -12.37757478 -63.300308292 0 -11.308196919 -66.351649705 
0 -7.7384095965 -77.132775554 0 -6.6409855829 -79.863148037 0 -6.1068058467 -81.518941556 
0 -5.2534248114 -84.205360785 0 -4.4619863715 -86.640330497 0 -3.8251996509 -89.446260303 
0 -3.1556343917 -91.784027218 0 -2.4515851477 -93.556509129 0 -1.4853600347 -96.621853249 
0 -1.1289801077 -97.047643442 0 -1.0849414912 -97.414591167 0 -1.007970807 -97.367037709 
0 -1.8418471167 -95.40030631 0 -2.1389652882 -93.706544544 0 -4.2198660541 -88.564440058 
0 -5.0222217665 -85.3724289 0 -5.901372403 -82.955469884 0 -7.6507215536 -79.440956608 
0 -8.9006419609 -73.267637151 0 -10.469349798 -69.00749349 0 -12.235778707 -66.737799949 
0 -12.969076956 -63.684537035 0 -16.75773717 -52.940375073 0 -17.60728531 -49.765137849 
0 -18.536746135 -46.941937191 0 -21.582174544 -37.978937413 0 -21.643302049 -36.916290392 
0 -19.520073891 -44.29377826 0 -18.807046901 -46.014478703 0 -17.576809274 -49.260698842 
0 -16.17453856 -54.690715583 0 -14.982289046 -57.868536321 0 -11.099217551 -69.606987336 
0 -10.235511791 -71.855348164 0 -7.7829207207 -80.557508294 0 -6.6055324547 -83.626680326 
0 -5.6896096735 -86.465780237 0 -2.7482058184 -95.484840812 0 -2.2144469699 -96.317352968 
0 -2.0559719161 -97.238455881 0 -1.948394521 -98.158258737 0 -1.856007534 -98.738301152 
0 -1.7899510478 -98.239535794 0 -1.9468809432 -97.216402795 0 -2.3323868122 -96.347502223 
0 -2.8411940163 -95.198329385 0 -3.4259011151 -93.02996491 0 -3.8933424898 -91.202127406 
0 -8.5936644953 -78.235953813 0 -8.8900528285 -76.255565808 0 -14.906041984 -60.86879305 
0 -15.611207225 -57.18761876 0 -20.111523649 -44.689867492 0 -20.58733726 -41.743819315 
0 -21.220998827 -39.695058609 0 -23.166046869 -34.686013369 0 -23.156390078 -34.86474639 
0 -22.618174944 -35.368136303 0 -22.283996212 -36.9315302 0 -21.571420589 -38.440482712 
0 -21.071565704 -40.160945327 0 -20.704177987 -41.344708377 0 -17.688976474 -51.599996351 
0 -13.986625522 -63.556324321 0 -12.557627939 -66.170177954 0 -10.358891621 -73.864322359 
0 -9.3294912252 -76.139883412 0 -5.6397058369 -89.20907908 0 -4.3011050927 -91.862801437 
0 -3.5410361891 -94.046925922 0 -2.3972886824 -99.203124567 0 -2.1091393092 -98.986939075 
0 -6.2845702515 -86.14630909 0 -6.6712946412 -84.60587506 0 -11.593781593 -70.004211204 
0 -14.050904519 -65.062862056 0 -15.509464338 -61.736082027 0 -16.970280172 -58.183235252 
0 -17.396181958 -55.449004846 0 -18.131980484 -52.90725716 0 -18.898416608 -50.245032487 
0 -19.670035565 -47.810399725 0 -21.550078807 -43.17646665 0 -21.876904524 -41.548954662 
0 -22.407226174 -39.928562716 0 -22.933987666 -38.261588596 0 -23.324530114 -36.639085984 
0 -23.400374901 -35.763776252 0 -23.413142098 -35.369694334 0 -23.533288487 -34.875600355 
0 -24.429644436 -34.314042603 0 -23.969097164 -34.46371127 0 -24.194272425 -34.993411071 
0 -23.556900588 -35.697127431 0 -23.279826049 -36.561677763 0 -23.077124634 -37.84192936 
0 -22.37712488 -39.957551166 0 -21.85840922 -41.711803285 0 -21.071912736 -43.897573433 
0 -20.009348822 -46.854969316 0 -19.320174388 -48.865056101 0 -18.480167897 -51.578723752 
0 -17.638727545 -54.557081734 0 -16.561188608 -57.536863875 0 -15.320518846 -60.908784153 
0 -14.17604013 -66.125457589 0 -12.716477068 -69.383546696 0 -11.41762149 -73.758476058 
0 -9.9232241422 -78.544460061 0 -8.8765875024 -81.392485941 0 -7.9318343933 -83.996766664 
0 -7.1169329933 -86.429305969 0 -5.9222605924 -91.273945492 0 -5.2300406065 -92.782733686 
0 -4.6220808523 -94.544101941 0 -3.8167005209 -96.675504082 0 -3.4314386591 -97.673314049 
0 -3.1976298818 -98.400847272 0 -3.0278822874 -99.110993326 0 -3.0684996721 -100.13319577 
0 -2.8284957901 -99.817931405 0 -2.9794932849 -99.317154786 0 -3.0658681343 -98.963906233 
0 -3.3298009911 -98.184051835 0 -3.6852627543 -97.145200691 0 -4.1803961792 -95.556958968 
0 -4.5874149139 -94.28727184 0 -4.9978883784 -92.933376673 0 -5.6383149237 -91.209728863 
0 -6.2124323317 -88.988668537 0 -6.9665096646 -86.806482568 0 -8.9013104435 -81.505871336 
0 -9.5973843643 -78.391511113 0 -10.727904377 -75.469777765 0 -11.474155681 -72.600833913 
0 -12.036763424 -71.173270344 0 -13.125974162 -68.32726864 0 -21.800904855 -44.715618798 
0 -25.17315962 -34.340524847 0 -25.327526938 -34.511418976 0 -7.0298740609 -90.176177099 
0 -3.5007067706 -100.44968583 0 -9.0263130029 -84.034988721 0 -15.271912755 -66.630613623 
0 -16.189575914 -63.504394919 0 -17.015222575 -60.875817654 0 -18.907989104 -56.034891775 
0 -19.678328491 -53.19976147 0 -20.536853368 -50.417581906 0 -21.351478034 -47.977814765 
0 -21.742961852 -46.7314679 0 -23.343731586 -42.978509549 0 -23.366088414 -41.957028216 
0 -23.865532721 -40.316523896 0 -24.344631256 -38.877715301 0 -24.876381612 -37.595582549 
0 -25.066600542 -36.475212583 0 -25.479119827 -35.695836153 0 -25.650889421 -34.794833499 
0 -26.344272561 -34.150414345 0 -25.829080911 -34.217536994 0 -26.155969575 -34.835896667 
0 -25.552863329 -35.425531905 0 -25.212612864 -36.168685502 0 -24.734675444 -37.138448862 
0 -24.429612108 -38.510077148 0 -24.075127981 -39.761746432 0 -23.599242793 -41.234443509 
0 -22.848267569 -42.959559974 0 -22.357869036 -45.030068872 0 -21.709762878 -46.919383859 
0 -21.112867779 -48.762565596 0 -20.290469661 -51.060865656 0 -19.300669962 -54.139351225 
0 -18.44267994 -57.21446451 0 -16.957060254 -61.085344124 0 -15.964016398 -64.167453972 
0 -15.474086531 -65.675296595 0 -14.632853854 -68.615048069 0 -13.582706775 -72.093869141 
0 -11.349387659 -79.332061134 0 -10.299527652 -82.064742411 0 -9.3587647501 -84.820201221 
0 -8.5837508047 -87.272838665 0 -8.1678835599 -88.511262875 0 -7.2569999079 -92.488378803 
0 -6.6746752984 -93.327915574 0 -6.114469985 -94.948677446 0 -5.6510646194 -96.39743118 
0 -5.3288287588 -97.747417751 0 -4.8282881246 -98.762333531 0 -4.7361652946 -99.5587667 
0 -4.4088676199 -100.15702176 0 -4.2731523636 -100.61402861 0 -4.3321144322 -101.27386135 
0 -4.1561474434 -100.96247235 0 -4.2686862207 -100.55880708 0 -4.390713535 -99.76424742 
0 -4.8777216964 -98.870289021 0 -5.224105 -97.762811904 0 -5.5245113156 -96.616844763 
0 -5.9579461001 -95.520698845 0 -6.4262171017 -94.032227456 0 -6.9479550363 -92.180109105 
0 -7.6421021324 -90.109020192 0 -8.2992989965 -88.295435798 0 -8.915393435 -86.267136754 
0 -10.557172941 -82.229837114 0 -10.829028965 -80.274884535 0 -12.096875635 -76.424957014 
0 -12.932900305 -73.343547473 0 -14.131655046 -70.101733644 0 -17.54930954 -64.485832896 
0 -23.473387018 -45.175645417 0 -26.947848767 -34.21402065 0 -18.458880183 -61.653549511 
0 -8.6533374161 -90.787068096 0 -4.8458909044 -101.58661155 0 -5.6536773459 -101.16754282 
0 -5.7817150193 -100.15864371 0 -10.809899018 -84.75509513 0 -11.333597324 -83.103113713 
0 -14.281151011 -74.509390428 0 -19.219947445 -61.977051635 0 -20.882575603 -56.346065892 
0 -21.150742636 -54.657133791 0 -22.267549257 -51.05726693 0 -23.052715707 -48.513639978 
0 -25.128381225 -43.176810854 0 -25.549047937 -41.070054579 0 -26.053684786 -39.334131272 
0 -26.899824354 -37.077504863 0 -27.540047436 -35.361606164 0 -27.690577206 -34.535500354 
0 -27.88292786 -34.312566129 0 -27.874793342 -34.250465436 0 -27.531662625 -34.454749259 
0 -27.42624479 -34.898743254 0 -27.182646362 -36.260276809 0 -26.578803916 -38.715939039 
0 -26.097162123 -39.396344228 0 -25.511660558 -41.247676088 0 -24.728647568 -45.314409223 
0 -23.828863205 -46.355015213 0 -23.028740558 -48.741591885 0 -22.624254409 -50.006205701 
0 -21.603448053 -53.101263688 0 -19.723474568 -59.085841489 0 -18.269861751 -64.848332751 
0 -16.731434615 -68.080266535 0 -14.711153817 -74.555879133 0 -13.123135369 -80.227167357 
0 -12.347357675 -81.751166756 0 -11.134924559 -85.319962686 0 -10.275031152 -87.839309377 
0 -8.8173703776 -93.376940414 0 -7.9193766274 -95.328603733 0 -7.3060797933 -97.029396634 
0 -6.665397148 -99.352558477 0 -6.1735254027 -101.00393651 0 -5.8891894511 -101.53495429 
0 -5.7841944721 -101.91766441 0 -5.8191305687 -102.1583701 0 -5.782029834 -102.20259858 
0 -5.7326025485 -101.88533794 0 -6.5942711199 -100.24643267 0 -7.1126704038 -97.722922524 
0 -7.3790280576 -97.004837286 0 -7.9928156153 -95.164044406 0 -9.1361698423 -91.259606529 
0 -9.7977506271 -89.402590291 0 -10.505580884 -87.373900872 0 -12.39063376 -82.793561884 
0 -13.798647135 -77.310346952 0 -15.864094958 -72.189068169 0 -16.518813159 -68.737737702 
0 -21.143323032 -57.64492552 0 -25.361276639 -45.321124974 0 -27.412056482 -38.502453728 
0 -28.012337882 -36.400556227 0 -28.690097388 -34.35273004 0 -28.23318246 -35.602000392 
0 -14.097535005 -79.329631338 0 -10.266182941 -91.779046341 0 -7.9173655721 -98.50083312 
0 -7.1675577889 -100.55419276 0 -6.4957521886 -102.60031916 0 -6.9200509628 -101.32350289 
0 -9.4506282169 -92.426778191 0 -18.685511776 -67.626797417 0 -19.617600124 -66.292576753 
0 -19.42682861 -64.746869073 0 -20.147456224 -62.648543659 0 -21.090889369 -61.871811711 
0 -21.06991806 -60.319672192 0 -21.944005947 -57.821508353 0 -22.719219417 -56.980679875 
0 -23.102526175 -55.800982976 0 -23.094336371 -54.294968117 0 -24.464603637 -51.487972804 
0 -23.775061199 -52.072921628 0 -24.427987023 -49.985652199 0 -25.756368946 -47.50419027 
0 -25.061925156 -48.059980374 0 -26.07660104 -46.517615365 0 -26.718010023 -43.917604394 
0 -27.146181933 -43.253577458 0 -27.019818452 -42.084724123 0 -28.133022192 -40.174078067 
0 -27.525507579 -40.529433055 0 -28.356050121 -39.484863469 0 -28.739130378 -37.783570227 
0 -29.072521767 -37.403969693 0 -28.949009472 -36.702678357 0 -29.550446828 -35.794939876 
0 -29.177814958 -35.934659156 0 -29.199983962 -35.3050833 0 -29.705333828 -35.304918706 
0 -29.379385957 -34.761854076 0 -29.897431875 -34.735943054 0 -29.624852444 -34.563143412 
0 -30.100345391 -34.648120941 0 -29.918999097 -34.658868665 0 -29.628026788 -34.544841797 
0 -29.405596513 -34.654801749 0 -29.731624465 -35.264744691 0 -29.308212465 -34.990495583 
0 -29.647606056 -35.523236273 0 -29.237043519 -35.762604311 0 -29.621843005 -36.106133886 
0 -29.024807948 -36.431698759 0 -29.21613309 -36.867074042 0 -28.570573948 -37.3589154 
0 -28.520878834 -39.059156761 0 -28.229256097 -38.526465883 0 -28.313796074 -39.696491962 
0 -27.624180678 -40.278465831 0 -27.172495349 -41.534839093 0 -27.425605514 -42.300284708 
0 -26.496466583 -43.282177051 0 -26.300984459 -45.870999804 0 -25.930685243 -45.174928692 
0 -25.989841082 -46.828600655 0 -25.197390174 -47.698519842 0 -24.635439207 -49.392528839 
0 -24.815801356 -50.387157073 0 -23.938075354 -51.486109058 0 -23.301131649 -53.431159589 
0 -23.458964918 -54.494336025 0 -22.605660219 -55.743300368 0 -22.834359726 -56.647004515 
0 -21.541137085 -59.029164179 0 -21.522247985 -60.460367291 0 -20.318455009 -61.868301116 
0 -19.548441247 -64.437685521 0 -19.952779323 -65.464366368 0 -19.531330964 -66.765368003 
0 -18.59426826 -68.06707378 0 -17.870206857 -71.888266326 0 -17.677914913 -70.897803396 
0 -16.563564483 -74.395586785 0 -16.539616646 -75.879188842 0 -15.610325782 -77.122569465 
0 -14.849093875 -79.657402434 0 -14.982028168 -80.793306007 0 -14.59872141 -81.973002907 
0 -13.706882395 -83.186580676 0 -13.165541451 -86.262910477 0 -12.951514193 -85.384374062 
0 -12.252876093 -87.456790672 0 -11.868992918 -90.245138847 0 -11.633861316 -89.387311389 
0 -11.548171944 -91.231522413 0 -10.538834608 -93.711986215 0 -10.494927719 -94.500868426 
0 -9.7056627629 -95.372216047 0 -9.483213933 -97.572285918 0 -9.200596708 -96.927709564 
0 -9.2585371409 -98.260964767 0 -8.5684605021 -99.862508838 0 -8.6150562059 -100.36557466 
0 -8.1029239551 -100.86033257 0 -8.0559417054 -101.94822443 0 -7.8366011217 -101.61616164 
0 -7.4844808192 -102.13852982 0 -7.8932207035 -102.43570018 0 -7.3103179555 -102.68346134 
0 -7.7141957905 -103.00892355 0 -7.3921053176 -102.98850323 0 -7.8267357306 -103.19924271 
0 -7.6863408507 -103.08395494 0 -7.3839159963 -103.00517538 0 -7.2685989623 -102.78547467 
0 -7.7554515486 -102.42175402 0 -7.2517044635 -102.39475088 0 -7.839416768 -102.16324515 
0 -7.6479617003 -101.72826974 0 -8.2966176749 -101.73842881 0 -8.0049683988 -101.12411289 
0 -8.4156608614 -100.88434499 0 -8.1824896407 -100.10698683 0 -9.1416622462 -98.702252616 
0 -8.5926266543 -98.961797045 0 -9.3487450062 -98.064917415 0 -9.1329100888 -97.188744905 
0 -9.5059666562 -95.90682361 0 -10.160654725 -95.436339521 0 -10.0041829 -94.323960289 
0 -10.572195316 -92.720983835 0 -11.261335815 -92.145804041 0 -11.180152534 -90.797864636 
0 -11.772283664 -90.467846487 0 -11.988268588 -88.228088752 0 -12.794743638 -87.343809619 
0 -12.622606142 -85.655800871 0 -13.268971885 -83.690051586 0 -14.137816268 -83.208298618 
0 -14.182944429 -81.691291884 0 -14.880392521 -81.125919383 0 -15.234464363 -78.43860929 
0 -16.0590795 -77.274652352 0 -15.911806474 -75.428683388 0 -16.67046679 -73.25394218 
0 -17.601885199 -72.660323946 0 -17.669267844 -70.922406147 0 -18.327800406 -70.355384087 
0 -18.565770185 -69.622988416 0 -17.856935821 -71.879275805 0 -16.803672701 -74.285565902 
0 -16.342715587 -76.375474371 0 -15.452251589 -79.374010606 0 -15.107110795 -80.428152283 
0 -14.366076913 -82.501615548 0 -13.481190644 -84.590914179 0 -13.041352836 -86.559306149 
0 -12.247894574 -88.983169711 0 -11.958898541 -89.874236879 0 -11.443773999 -91.584317044 
0 -10.768713582 -93.572870587 0 -10.338971274 -94.839364197 0 -9.8215776219 -96.541361249 
0 -9.4859089168 -97.646764827 0 -9.2608862993 -98.335318711 0 -8.8058383418 -99.726847266 
0 -8.5086095061 -100.53350646 0 -8.370982015 -101.53596929 0 -7.8998097341 -101.97737471 
0 -7.801253961 -102.28069819 0 -7.7577767165 -102.83695718 0 -7.7033187694 -103.02492193 
0 -7.8267357306 -103.19924271 0 -7.8257898386 -103.20215386 0 -7.694530172 -103.06728279 
0 -7.7878111824 -102.7506158 0 -7.8439230852 -102.5757558 0 -7.9955487392 -102.13409487 
0 -8.329125125 -101.655471 0 -8.4017652821 -101.45245545 0 -8.4811089675 -100.70352247 
0 -8.9486054159 -98.568363879 0 -9.3463958477 -97.990563472 0 -9.8894897767 -96.354008745 
0 -10.289969229 -95.08828839 0 -11.172684675 -91.733402698 0 -11.676877137 -90.835408559 
0 -12.414648717 -88.518443368 0 -12.902156087 -87.040000441 0 -13.707291007 -84.622892081 
0 -14.371007342 -82.679858845 0 -14.755309894 -81.491073107 0 -15.644233134 -78.558566955 
0 -16.228154244 -76.766122236 0 -17.270931041 -73.752904649 0 -17.614536439 -72.669153642 
0 -18.323176438 -70.321790814 0 -18.561146217 -69.589395143 0 -19.293361185 -67.497763674 
0 -19.700031032 -66.246162581 0 -20.368082344 -63.317328404 0 -21.223302381 -61.354572745 
0 -22.267145751 -58.400420737 0 -22.607641452 -57.344771615 0 -23.228253772 -55.200222879 
0 -23.998107219 -52.863117565 0 -24.546006311 -51.164027248 0 -25.280653598 -48.945093606 
0 -25.791900715 -47.418530388 0 -26.118546275 -46.432486801 0 -26.673505447 -44.339201244 
0 -27.221117924 -42.887664462 0 -27.80080185 -41.206998831 0 -28.178980084 -40.115407435 
0 -28.401654781 -39.426090666 0 -28.851433213 -38.032849938 0 -29.085112411 -37.205542216 
0 -29.563002298 -36.313637342 0 -29.58721309 -35.709106711 0 -29.685768863 -35.405783231 
0 -29.831610285 -34.900683 0 -29.898035791 -34.716606741 0 -30.100345391 -34.648120941 
0 -30.101291283 -34.645209785 0 -29.915824753 -34.677170281 0 -29.805158488 -34.98818846 
0 -29.747773845 -35.162634916 0 -29.610839794 -35.609069438 0 -29.599380706 -36.192355565 
0 -29.538818285 -36.399295403 0 -29.162796914 -37.05183196 0 -28.285994752 -39.053999066 
0 -28.268191414 -39.755264765 0 -27.745620899 -41.398487953 0 -27.325643823 -42.657873147 
0 -26.067823288 -45.890879807 0 -25.947895847 -46.913729219 0 -25.182887623 -49.221844689 
0 -24.708282421 -50.704479784 0 -23.938909607 -53.133207957 0 -23.333781121 -55.095277538 
0 -22.945937691 -56.282912776 0 -21.941407831 -59.17785606 0 -21.360237361 -60.971194515 
0 -20.341968708 -63.58426406 0 -19.869752459 -65.510546342 0 -19.448900056 -66.811782174 
0 -18.903871098 -68.5824208 0 -14.07055734 -78.620678208 0 -7.5732157788 -98.555317441 
0 -7.2026933212 -100.92180556 0 -6.4875628673 -102.61699131 0 -6.9738751126 -101.10700629 
0 -7.6747262403 -99.27693214 0 -9.8747222265 -92.962954556 0 -15.723261231 -73.530862809 
0 -20.715507969 -58.180740491 0 -27.440662407 -38.313219185 0 -28.079787595 -36.063591383 
0 -28.693271732 -34.334428425 0 -28.180580948 -35.839476864 0 -27.671936697 -37.73195661 
0 -25.740462058 -44.133228272 0 -16.607845391 -70.638580277 0 -14.67139842 -75.743277927 
0 -12.955027522 -80.064039992 0 -13.076345659 -81.501485252 0 -11.406874713 -85.869221027 
0 -10.793380424 -88.4457128 0 -10.111511628 -90.406051561 0 -8.5223957522 -93.286471658 
0 -8.8794321696 -94.331767003 0 -8.375433823 -95.931514434 0 -8.1234689033 -96.849266557 
0 -6.7211770684 -99.065115498 0 -7.1172392428 -99.851734662 0 -6.2447158586 -101.89804603 
0 -6.2504133992 -102.33056028 0 -6.3593631113 -102.11293081 0 -6.4875163137 -101.63345447 
0 -6.4898180053 -99.969943175 0 -7.1472654767 -97.863541399 0 -8.1509328008 -96.568712469 
0 -8.7852135208 -94.70580813 0 -9.6968041472 -90.576553732 0 -10.496879473 -89.276968778 
0 -11.250240371 -86.887999293 0 -12.044627199 -84.627244466 0 -12.633978172 -82.978185941 
0 -14.059073192 -77.341934943 0 -14.77672471 -76.233708549 0 -15.713367352 -71.489597539 
0 -16.704984058 -70.280107578 0 -17.806406834 -66.963529127 0 -19.499857844 -60.884695227 
0 -20.725047645 -56.202111852 0 -21.662472954 -55.091182271 0 -22.474726846 -52.425756015 
0 -22.944769321 -51.029084336 0 -23.776824277 -48.447760476 0 -24.190288994 -47.252946194 
0 -25.588892994 -42.616468522 0 -26.272387977 -40.85035327 0 -26.607985238 -39.959774942 
0 -27.043057282 -37.407886982 0 -27.550791706 -36.947199143 0 -27.520845187 -35.276029232 
0 -28.103502441 -34.779514663 0 -28.310358877 -34.419848929 0 -28.270673125 -34.715602155 
0 -28.164092792 -35.036874664 0 -27.120621592 -36.474858619 0 -26.415545168 -38.56591397 
0 -26.465298442 -40.20289084 0 -25.883454627 -42.082832963 0 -24.193832097 -45.959289472 
0 -24.077229762 -47.480948262 0 -23.2825105 -49.8564796 0 -22.596344598 -52.152397538 
0 -22.10384727 -53.832925719 0 -19.943868145 -59.230398397 0 -19.873061289 -60.548797362 
0 -18.020091246 -65.447758448 0 -17.59984607 -67.333544518 0 -14.91654394 -72.524436099 
0 -6.0389505918 -100.93255455 0 -8.1653643611 -92.403546563 0 -12.417480482 -78.923948387 
0 -13.021549002 -77.211379406 0 -17.80590324 -63.656005418 0 -24.150097766 -44.399404647 
0 -24.575253831 -43.16252582 0 -25.889952437 -38.12863139 0 -26.177883015 -37.333848494 
0 -24.028750727 -43.581063501 0 -19.532211695 -56.992871133 0 -19.014290603 -58.733431109 
0 -18.235196788 -62.509649181 0 -15.344448746 -68.366535148 0 -14.056303924 -71.812990425 
0 -13.127524093 -74.855409813 0 -12.377751269 -77.646006654 0 -11.812119985 -79.312405607 
0 -9.5924126924 -85.136146897 0 -9.2315859322 -87.390764833 0 -8.5776641515 -89.235449328 
0 -7.8868468221 -91.129716123 0 -7.2690455917 -93.169692978 0 -6.7929507079 -94.981283538 
0 -6.286256801 -96.307700327 0 -5.9090596184 -97.409374129 0 -5.575677075 -98.586158356 
0 -5.0575487216 -99.624585365 0 -4.7296065869 -100.53329404 0 -4.6806436696 -101.18034777 
0 -4.7397227571 -101.53950082 0 -4.2503736996 -101.00732845 0 -4.7279004433 -101.15802555 
0 -4.8592727322 -100.79569095 0 -5.1247934278 -100.26676714 0 -5.3347195936 -99.559341012 
0 -5.587126863 -98.662998837 0 -6.0024676884 -97.540277809 0 -6.315777719 -96.152712169 
0 -6.8732158859 -94.585253175 0 -8.0482857476 -89.832014723 0 -9.2857714024 -86.945416747 
0 -10.232708688 -84.146057244 0 -11.148564164 -81.314461913 0 -12.656040652 -75.516553763 
0 -13.627993949 -73.969279884 0 -14.655972764 -70.63920312 0 -15.716698998 -67.265601444 
0 -16.817642573 -63.44869408 0 -17.877023989 -60.252824978 0 -18.633940086 -58.582166052 
0 -19.541754097 -55.739511309 0 -20.424938609 -52.612033185 0 -21.375918916 -49.885815436 
0 -21.999316483 -47.989946978 0 -22.562742219 -46.211657332 0 -23.045440219 -44.258422177 
0 -23.663738874 -42.337907057 0 -24.433525315 -40.690269838 0 -24.803324781 -39.318025047 
0 -25.034597969 -38.00108868 0 -25.434269193 -36.797017382 0 -26.006248535 -35.941683132 
0 -26.250569973 -35.213182645 0 -26.287480234 -34.343268994 0 -26.637697768 -34.159633765 
0 -26.107427015 -34.330025654 0 -26.389947453 -34.528980671 0 -26.277224712 -35.260659502 
0 -25.94478145 -36.128092935 0 -25.622172382 -37.001578959 0 -25.300716577 -38.159651199 
0 -24.737211379 -39.461298949 0 -24.265755622 -41.056519958 0 -22.422523647 -45.592659379 
0 -21.726970853 -48.655342015 0 -20.847636978 -51.476667198 0 -19.924209647 -54.305802284 
0 -17.643179529 -59.458219053 0 -17.330776136 -62.002026222 0 -16.282554641 -65.00164767 
0 -9.4673749466 -82.780660355 0 -6.7265612762 -91.216062713 0 -25.25626251 -34.748633191 
0 -25.239868142 -34.237911243 0 -22.166749085 -43.696050883 0 -13.097485372 -69.989345637 
0 -11.811864691 -73.684619038 0 -10.818291533 -76.698253402 0 -9.6857423899 -79.847346013 
0 -8.0723148246 -84.581490033 0 -7.9078714905 -86.008907146 0 -7.0417446734 -87.969383142 
0 -6.5344246357 -90.188292057 0 -5.8071006346 -92.18084998 0 -5.2959142901 -93.795170277 
0 -4.8827131178 -95.063744326 0 -4.4938836762 -96.323057923 0 -4.2821110276 -97.060121149 
0 -3.9293013481 -98.13202211 0 -3.6113861528 -99.061980801 0 -3.3455523896 -99.85544194 
0 -3.2726447798 -100.1366761 0 -3.3043901289 -100.37808819 0 -3.0432604319 -99.824038968 
0 -3.3381792812 -99.837684651 0 -3.5124502576 -99.248668098 0 -3.7054191109 -98.601200488 
0 -3.9557533738 -97.83387278 0 -4.4309371675 -96.688383746 0 -4.76154471 -95.725159901 
0 -5.3102930276 -94.012338497 0 -5.8356769764 -92.461735033 0 -6.5512052243 -88.922467171 
0 -7.1665440301 -87.949968094 0 -7.902410395 -85.743557928 0 -8.6861681507 -83.400831875 
0 -9.616003066 -80.730540454 0 -10.807572223 -77.896261238 0 -11.510156696 -75.793322848 
0 -12.518218272 -71.60629623 0 -13.75784666 -67.846964556 0 -15.06928995 -62.906217676 
0 -16.354662974 -59.806670493 0 -17.437328184 -56.536200292 0 -18.402995166 -53.635185868 
0 -19.243373744 -50.531721579 0 -20.104219167 -48.270950338 0 -20.728443829 -46.276021454 
0 -21.191107931 -44.953069019 0 -22.041501191 -42.675711084 0 -22.600679518 -40.892188627 
0 -23.017290821 -39.371282642 0 -23.333824451 -38.474209842 0 -23.872989765 -37.015156848 
0 -23.919855399 -36.056637898 0 -24.396272846 -35.293023808 0 -24.11279278 -34.564949311 
0 -24.725431999 -34.284448934 0 -24.021401646 -34.593229448 0 -24.250722496 -34.94176708 
0 -24.087921513 -35.87795487 0 -23.83754752 -36.804086915 0 -23.638678855 -37.515086945 
0 -23.215605101 -39.060148302 0 -22.664573671 -40.601354663 0 -22.178196366 -42.164632153 
0 -20.677795928 -45.46086887 0 -20.603994863 -46.609324226 0 -19.901373043 -48.81454166 
0 -19.158404113 -51.170545483 0 -18.341121251 -53.877387856 0 -17.717168655 -56.500467951 
0 -15.142230702 -63.492487806 0 -14.087607845 -66.703735122 0 -12.253366295 -68.368454272 
0 -7.9056110635 -82.017341095 0 -7.5176773884 -83.838631425 0 -5.3564995101 -88.978391455 
0 -2.3394735581 -99.324401062 0 -4.0511263749 -93.648523502 0 -4.7918071489 -91.528775064 
0 -5.3140739898 -90.520671788 0 -8.5405638568 -79.854828151 0 -9.2944271632 -77.918660196 
0 -12.108992907 -68.564496073 0 -13.583305569 -65.267721611 0 -17.089625788 -53.586872537 
0 -20.283284318 -43.536868996 0 -20.876638213 -42.034735141 0 -21.618705373 -39.551768743 
0 -22.193035442 -37.802493394 0 -22.66394096 -35.709657063 0 -23.309134151 -35.055993934 
0 -23.081937491 -34.614596967 0 -23.507581137 -34.509440128 0 -21.927701065 -38.507559348 
0 -21.4189065 -40.317502272 0 -20.787987787 -42.302479759 0 -20.617962299 -43.425033188 
0 -16.958280321 -53.953894751 0 -16.521599834 -55.58584603 0 -15.738900865 -58.733544876 
0 -10.256249943 -73.371168678 0 -9.8033855414 -75.182647471 0 -7.3395132988 -81.278418085 
0 -4.7006289619 -89.724484905 0 -4.6604520714 -90.756198793 0 -4.0619930859 -92.408184169 
0 -3.6532970315 -94.047258978 0 -3.3911495657 -94.913570075 0 -2.9227528277 -96.310386382 
0 -2.4953963818 -97.234346257 0 -2.2357675339 -98.068033805 0 -2.1493926845 -98.421282359 
0 -1.9372082893 -98.538315985 0 -2.3282707466 -98.22805517 0 -2.4407630812 -97.273573211 
0 -2.6973333187 -96.51674059 0 -3.343258306 -95.483045572 0 -5.2791079501 -88.183322045 
0 -6.3872788374 -85.618094158 0 -7.364610609 -82.691100873 0 -14.661832785 -59.845925494 
0 -15.847500741 -56.661588363 0 -17.205481313 -50.904013955 0 -18.500094501 -48.270845029 
0 -18.970357517 -46.892012886 0 -22.107784978 -36.313392279 0 -22.172500573 -37.12780548 
0 -19.216868973 -45.307768246 0 -18.602914613 -48.037803914 0 -17.671449826 -50.968224486 
0 -13.707210119 -61.800931131 0 -13.071683249 -65.05574125 0 -10.656628059 -70.39583334 
0 -9.8817041534 -72.335227245 0 -8.3618550378 -75.37649692 0 -6.4817473615 -81.870343275 
0 -5.9662441729 -84.109150091 0 -5.2514739228 -86.590038184 0 -4.8757366023 -87.818346608 
0 -2.6854698436 -92.785267893 0 -2.2004121883 -94.629962965 0 -1.2257244088 -97.455063959 
0 -1.3190656709 -97.902871621 0 -1.3639172335 -97.770022999 0 -1.44187762 -97.252731334 
0 -2.2862305182 -94.53048283 0 -3.1113383311 -93.074747461 0 -3.8353109675 -90.970483614 
0 -4.4526627302 -88.304717815 0 -5.1570440844 -85.640680997 0 -6.0042440179 -83.039046192 
0 -7.408120493 -79.159927869 0 -8.4964799922 -75.871318402 0 -10.739393494 -68.325875235 
0 -12.116656008 -65.238443688 0 -13.221866665 -62.520645269 0 -13.645845032 -60.807679965 
0 -14.22605513 -57.667420286 0 -15.536175029 -54.168108529 0 -16.925918401 -48.858127473 
0 -17.957667655 -46.188683171 0 -18.906920309 -43.744639158 0 -19.833178036 -41.567246494 
0 -20.44027602 -39.758049561 0 -20.788916255 -38.285521954 0 -21.49176906 -37.006387352 
0 -21.638922349 -36.167546421 0 -21.65846529 -35.615058442 0 -22.019837402 -35.140260702 
0 -22.089080432 -34.99134932 0 -22.098640597 -35.067806843 0 -22.035287563 -35.419478698 
0 -21.983914478 -35.686727148 0 -20.699110318 -37.391366154 0 -20.570711203 -38.517606612 
0 -20.167602585 -40.201477714 0 -19.543293009 -42.266636708 0 -18.618426261 -44.732970852 
0 -17.636351579 -47.265898449 0 -16.791766791 -49.873730498 0 -15.63869819 -53.839007532 
0 -14.679369916 -57.290204639 0 -12.088070035 -64.00250325 0 -11.388915744 -66.98521703 
0 -9.4919521313 -69.823293869 0 -7.3433625141 -76.740551828 0 -6.928617363 -78.824623511 
0 -3.544342873 -88.381591812 0 -3.0799356154 -90.562448699 0 -1.3772602045 -95.192074158 
0 -1.3192844614 -96.121326611 0 -1.2207505962 -95.607263401 0 -1.5650463663 -95.26764579 
0 -2.0450953384 -92.548169192 0 -2.7220046512 -90.814752104 0 -8.4407927618 -73.661874041 
0 -10.872588836 -65.468030561 0 -11.960431641 -62.373704986 0 -13.99175891 -55.373725262 
0 -15.401827492 -51.868460599 0 -18.41308973 -42.222225415 0 -18.988307522 -40.866334896 
0 -19.81378326 -37.873185664 0 -20.494315396 -35.751769786 0 -20.321745688 -36.72805417 
0 -12.357547613 -61.37590546 0 -7.9525430856 -73.064693896 0 -5.6606305872 -80.226812126 
0 -4.981127277 -83.134225306 0 -4.4178632104 -84.807319541 0 -1.9333120674 -91.536657178 
0 -1.5374319147 -93.465933713 0 -0.49381290976 -96.070404545 0 -0.56664323166 -96.504783184 
0 -0.59096102586 -96.418525942 0 -0.7351954013 -96.03879554 0 -0.78348347522 -95.229293584 
0 -1.2963595098 -93.61302416 0 -3.0795548202 -88.015296647 0 -4.0779610946 -85.670994794 
0 -4.7391336127 -83.12809327 0 -5.6196893036 -80.904060468 0 -6.4204970705 -78.428801384 
0 -7.2572483741 -75.991214479 0 -9.8570210325 -68.560461998 0 -12.463693982 -59.098588167 
0 -15.600838069 -49.465259736 0 -16.741437793 -46.696181137 0 -17.249438099 -45.170781261 
0 -20.055106733 -36.558275739 0 -20.247279082 -36.027626946 0 -20.307556331 -35.784411845 
0 -19.881521837 -36.339224549 0 -19.38811388 -37.796645103 0 -19.267527737 -38.833673411 
0 -18.811874461 -40.332467322 0 -18.291690589 -41.947939506 0 -17.612316705 -44.073637496 
0 -16.783672208 -46.602800498 0 -15.965902295 -49.15385594 0 -15.441801714 -50.723849765 
0 -14.544057653 -53.427770179 0 -13.662995511 -56.363281304 0 -13.094435868 -58.166116777 
0 -11.179562966 -63.16924767 0 -10.47434103 -66.378137582 0 -8.8085327871 -68.826983795 
0 -7.580485541 -72.35776541 0 -6.3439534419 -76.157738366 0 -5.3443738638 -79.249026639 
0 -4.3238822098 -82.119700781 0 -3.381176291 -84.967235103 0 -2.6874846618 -87.363244944 
0 -2.3561140008 -88.66788641 0 -1.7066695847 -90.438369002 0 -1.0878907549 -92.001565975 
0 -0.74115425625 -93.523970345 0 -0.48081344952 -94.70057275 0 -0.17686912647 -95.210167539 
0 -0.0666309377 -95.158098993 0 -0.19259229325 -94.784119766 0 -0.5255826024 -94.120293974 
0 -0.88122764176 -93.00286924 0 -1.3380606309 -91.495396451 0 -1.9587130955 -89.877225425 
0 -2.6200476586 -87.567737403 0 -3.4334362016 -84.783856967 0 -4.9128848709 -79.770210267 
0 -5.5563286816 -78.299971027 0 -6.4989436786 -75.361831464 0 -7.4823461531 -72.571229834 
0 -8.5408210195 -69.276245249 0 -9.7125958785 -65.749169451 0 -10.914178035 -62.314259361 
0 -11.545605594 -60.073662918 0 -12.917543454 -55.785524328 0 -14.052339076 -52.654357489 
0 -14.825839126 -50.004274625 0 -15.55426624 -47.415736278 0 -16.976938281 -42.907677323 
0 -17.892689503 -40.802765944 0 -18.388784354 -39.067510386 0 -18.758116129 -37.73196409 
0 -18.959548946 -36.953568257 0 -19.057669489 -36.695795491 0 -19.210747113 -36.49914896 
0 -19.135056622 -36.743250095 0 -18.937478458 -37.33435967 0 -18.666284768 -38.161335699 
0 -18.159673074 -39.383260539 0 -17.655000542 -40.956623545 0 -17.138634973 -42.633628813 
0 -16.72993953 -43.898800267 0 -15.747519652 -46.906929681 0 -14.928585205 -49.433239113 
0 -14.030587209 -52.165301593 0 -12.976607885 -55.465679614 0 -11.895189524 -59.248807976 
0 -10.750848159 -62.582262099 0 -9.7934662021 -65.470730945 0 -17.709890096 -40.163724567 
0 -7.4187795614 -69.340046167 0 -6.4736334048 -72.264283904 0 -5.2800787802 -75.953212347 
0 -4.9733705011 -77.643983845 0 -4.2636233995 -79.061477238 0 -2.4985497613 -84.455188677 
0 -2.2177611551 -86.056472792 0 -1.6938114988 -86.964049072 0 -1.5029069367 -88.311528078 
0 -0.96233934421 -89.944411944 0 -0.56260478135 -90.414242015 0 -0.45102827962 -91.489405865 
0 -0.11931285192 -91.809793001 0 0.18928379583 -92.798983953 0 0.37958930959 -93.329135683 
0 0.23225033664 -92.905483202 0 -0.34466851107 -91.106200976 0 -0.69378985245 -90.750626503 
0 -0.88202519627 -89.444430426 0 -1.2663414348 -89.00341844 0 -1.5481113795 -87.421885437 
0 -2.1438857178 -85.59157055 0 -3.0078367448 -82.907950421 0 -3.6938819523 -81.896933613 
0 -4.0677099971 -80.013058917 0 -5.9834946782 -73.766531929 0 -6.6747534906 -72.388940298 
0 -7.0778617797 -70.412946552 0 -8.6918112054 -66.129029845 0 -9.1524597586 -64.00912964 
0 -9.9167572868 -62.396697015 0 -10.356032867 -60.301376893 0 -11.090859241 -58.769887077 
0 -11.521594328 -56.712273122 0 -12.27390331 -54.4383554 0 -13.543963346 -50.48506863 
0 -14.411846476 -47.77706584 0 -15.353800688 -45.944579155 0 -15.901424918 -43.279220939 
0 -16.545203901 -42.103932585 0 -16.520645327 -41.40089458 0 -16.999664723 -39.826438241 
0 -17.301565086 -38.854895994 0 -17.58691922 -38.017432374 0 -17.686949986 -37.761549825 
0 -17.424123731 -38.525174615 0 -17.207278987 -39.957078467 0 -16.68747192 -41.542996246 
0 -16.152951415 -42.460806741 0 -16.144602549 -43.224732222 0 -15.453746548 -44.618296766 
0 -15.411662997 -45.481910212 0 -14.002712168 -49.085478753 0 -12.803261233 -52.756933121 
0 -12.530182194 -54.290620987 0 -11.724215682 -56.044147249 0 -11.482057586 -57.61019115 
0 -9.7593977132 -62.100122653 0 -9.398426758 -63.961614082 0 -37.679986166 -76.389952014 
0 -28.028632757 -74.063753935 0 -27.367890161 -76.093393589 0 -37.036324412 -78.370939197 
0 -36.207665727 -80.903144987 0 -27.011263578 -77.17283395 0 -35.596620155 -82.801893289 
0 -25.915225211 -80.576246011 0 -25.586385629 -81.588310178 0 -34.807406686 -85.230842588 
0 -34.19965897 -87.10129773 0 -24.562833432 -84.730387462 0 -23.960269748 -86.589056833 
0 -33.601914023 -88.940967513 0 -32.844466387 -91.245004394 0 -23.631628899 -87.573362128 
0 -32.308314607 -92.92225714 0 -22.662562918 -90.577189904 0 -22.371366243 -91.454133044 
0 -31.618238674 -95.026824403 0 -31.113862416 -96.598402982 0 -21.514330792 -94.112713851 
0 -21.026933172 -95.612769481 0 -30.622754986 -98.109876234 0 -30.01395643 -99.94789923 
0 -20.760025501 -96.398560528 0 -20.024778242 -98.709592332 0 -29.606537239 -101.23747287 
0 -19.670409148 -99.804222778 0 -29.218921699 -102.44293795 0 -28.735811721 -103.91729046 
0 -19.192540611 -101.25844927 0 -18.868621828 -102.25536877 0 -28.40122951 -104.94702862 
0 -28.004309128 -106.13026231 0 -18.691841835 -102.76108002 0 -18.262128793 -104.14837279 
0 -27.765520965 -106.90353834 0 -18.073880857 -104.72774036 0 -27.554335172 -107.57991176 
0 -17.999516516 -104.93019988 0 -27.306885868 -108.31507203 0 -17.833109272 -105.44234872 
0 -17.703630446 -105.84093406 0 -27.162816488 -108.75847199 0 -27.028056975 -109.16643878 
0 -17.644830844 -106.01512028 0 -17.543490107 -106.33370486 0 -26.972128366 -109.34534968 
0 -17.534848079 -106.36030228 0 -26.949177601 -109.41598487 0 -17.535793971 -106.35739113 
0 -26.972128366 -109.34534968 0 -17.578410355 -106.2283967 0 -17.613577034 -106.10849794 
0 -27.052995979 -109.08479792 0 -27.162816488 -108.75847199 0 -17.794946465 -105.55980176 
0 -17.953895204 -105.07060784 0 -27.306885868 -108.31507203 0 -27.552610989 -107.57935574 
0 -18.072156673 -104.72718434 0 -27.765520965 -106.90353834 0 -18.483699911 -103.53488389 
0 -18.437104207 -103.03181807 0 -27.91157769 -105.80754931 0 -28.40122951 -104.94702862 
0 -19.104681904 -101.52885056 0 -19.459246177 -100.44041915 0 -28.735811721 -103.91729046 
0 -29.216798076 -102.44226685 0 -19.6679397 -99.803426707 0 -29.606537239 -101.23747287 
0 -20.381951203 -97.64649745 0 -20.591494735 -96.347838071 0 -30.038474748 -99.956783484 
0 -30.622754986 -98.109876234 0 -21.385625599 -94.508827705 0 -21.892594567 -92.94953952 
0 -31.113862416 -96.598402982 0 -31.788341173 -94.532854447 0 -22.185648783 -92.057895016 
0 -23.133609177 -89.172897893 0 -32.308314607 -92.92225714 0 -23.653009826 -87.580371167 
0 -32.865300737 -91.251840564 0 -33.601914023 -88.940967513 0 -24.406244948 -85.212317261 
0 -25.012993614 -83.34493688 0 -34.19965897 -87.10129773 0 -34.981687762 -84.649053604 
0 -25.343329278 -82.282861261 0 -26.444005149 -78.966978568 0 -35.596620155 -82.801893289 
0 -27.023664966 -77.17698377 0 -36.220686912 -80.907455633 0 -37.036324412 -78.370939197 
0 -27.85993269 -74.582959357 0 -28.504572315 -72.598962594 0 -37.679986166 -76.389952014 
0 -38.494026637 -73.884593057 0 -29.318612787 -70.093603636 0 -29.977053053 -68.063215911 
0 -39.137688391 -71.903605873 0 -39.955682652 -69.367935002 0 -30.323015211 -66.980310468 
0 -40.577392649 -67.472651781 0 -31.436665426 -63.582619005 0 -31.765505008 -62.570554838 
0 -41.366606117 -65.043702482 0 -41.974353834 -63.173247341 0 -32.784412112 -59.42697011 
0 -33.389426296 -57.569096954 0 -42.572098781 -61.333577558 0 -43.312593146 -59.0240296 
0 -33.701113875 -56.579280583 0 -43.865698197 -57.352287931 0 -34.690915202 -53.582289887 
0 -34.970786388 -52.701666872 0 -44.54444864 -55.244040793 0 -45.060150387 -53.676142088 
0 -35.832914752 -50.04464372 0 -36.320312372 -48.54458809 0 -45.551257817 -52.164668837 
0 -46.141236833 -50.319438918 0 -36.568400502 -47.751590121 0 -37.329818803 -45.450153887 
0 -46.567475565 -49.037072205 0 -37.686535817 -44.356286326 0 -46.962442605 -47.833995767 
0 -47.438201082 -46.357254614 0 -38.154704933 -42.898908303 0 -38.478623716 -41.901988797 
0 -47.772783293 -45.327516452 0 -48.147155275 -44.136956337 0 -38.632855308 -41.388951136 
0 -39.100640385 -40.014028721 0 -48.408491839 -43.371006726 0 -39.288888321 -39.434661146 
0 -48.635201265 -42.699677241 0 -39.347729028 -39.227157689 0 -48.867127553 -41.959471141 
0 -39.514136889 -38.715006954 0 -39.643668287 -38.316440793 0 -49.011196932 -41.516071182 
0 -49.141970441 -41.106811362 0 -39.698482503 -38.140959639 0 -39.803755437 -37.823652715 
0 -49.201884437 -40.929195388 0 -49.224835202 -40.858560196 0 -39.812397465 -37.79705529 
0 -39.811451573 -37.799966447 0 -49.201884437 -40.929195388 0 -39.770107929 -37.929374412 
0 -39.728083649 -38.047044999 0 -49.114159224 -41.187518985 0 -49.011196315 -41.516073082 
0 -39.552299079 -38.59755581 0 -39.39335034 -39.086749728 0 -48.867126935 -41.95947304 
0 -48.633479551 -42.699113621 0 -39.287166607 -39.434097526 0 -48.408491839 -43.371006726 
0 -38.919295462 -40.640587894 0 -38.585904073 -41.020188429 0 -47.88244802 -44.343530471 
0 -47.772783293 -45.327516452 0 -38.24256364 -42.628507008 0 -37.889648231 -43.717474167 
0 -47.438201082 -46.357254614 0 -46.960330092 -47.833290469 0 -37.684070072 -44.355478857 
0 -46.567475565 -49.037072205 0 -36.993906305 -46.520156712 0 -36.400097752 -47.693960818 
0 -46.164150019 -50.327058177 0 -45.551257817 -52.164668837 0 -35.961619945 -49.648529867 
0 -35.455239857 -51.20800939 0 -45.060150387 -53.676142088 0 -44.391716197 -55.743654623 
0 -35.168230208 -52.101617893 0 -34.239387515 -54.992826734 0 -43.865698197 -57.352287931 
0 -33.723527744 -56.58650396 0 -43.334463214 -59.031071561 0 -42.572098781 -61.333577558 
0 -32.941000596 -58.94504031 0 -32.33425193 -60.812420691 0 -41.974353834 -63.173247341 
0 -41.165635485 -65.616819504 0 -31.97722671 -61.865824348 0 -30.918665249 -65.195390842 
0 -40.577392649 -67.472651781 0 -30.335487349 -66.984242546 0 -39.968750745 -69.372101277 
0 -39.137688391 -71.903605873 0 -29.487312854 -69.574398215 0 -28.842673229 -71.558394978 
0 -38.494026637 -73.884593057 0 -29.318612787 -70.093603636 0 -29.976457097 -68.062981713 
0 -31.420135907 -63.58037354 0 -32.784412112 -59.42697011 0 -33.389970097 -57.569278371 
0 -34.68666901 -53.582709003 0 -35.832914752 -50.04464372 0 -36.129096436 -48.479339529 
0 -37.32770629 -45.449448588 0 -38.154704933 -42.898908303 0 -38.289344295 -41.8380583 
0 -39.098918671 -40.013465101 0 -39.347729028 -39.227157689 0 -39.514136272 -38.715008853 
0 -39.640252703 -38.315195542 0 -39.803755437 -37.823652715 0 -39.811451573 -37.799966447 
0 -39.767537502 -37.928339714 0 -39.552299696 -38.597553911 0 -39.39335034 -39.086749728 
0 -38.880271643 -40.627481954 0 -38.24256364 -42.628507008 0 -37.890001463 -43.717576338 
0 -36.970993119 -46.512537453 0 -35.961619945 -49.648529867 0 -35.448826391 -51.207478072 
0 -34.217517447 -54.985784773 0 -32.941000596 -58.94504031 0 -32.33425193 -60.812420691 
0 -30.905597156 -65.191224567 0 -29.487312854 -69.574398215 0 -28.842673229 -71.558394978 
0 -28.028632757 -74.063753935 0 -27.367270365 -76.093232764 0 -25.900420081 -80.568312069 
0 -24.562833432 -84.730387462 0 -23.960816325 -86.589229702 0 -22.666621101 -90.576612568 
0 -21.514330792 -94.112713851 0 -20.833884088 -95.553162769 0 -20.022654619 -98.708921227 
0 -19.192540611 -101.25844927 0 -18.677914156 -102.19583398 0 -18.26040461 -104.14781676 
0 -17.999516516 -104.93019988 0 -17.833109272 -105.44234872 0 -17.70013524 -105.83993386 
0 -17.543490107 -106.33370486 0 -17.535793971 -106.35739113 0 -17.575722655 -106.22772293 
0 -17.794946465 -105.55980176 0 -17.953895204 -105.07060784 0 -18.4444255 -103.5225492 
0 -19.104681904 -101.52885056 0 -19.459592002 -100.44054412 0 -20.357432885 -97.637613196 
0 -21.385625599 -94.508827705 0 -21.887093663 -92.946199625 0 -23.112774827 -89.166061722 
0 -24.406244948 -85.212317261 0 -25.012993614 -83.34493688 0 -26.430983964 -78.962667923 
0 -27.85993269 -74.582959357 0 -28.504572315 -72.598962594 0 -50.408538946 -69.245504246 
0 -49.936506844 -70.698269675 0 -49.469343984 -72.13604912 0 -49.008970097 -73.552934252 
0 -48.557276968 -74.943102759 0 -48.116120505 -76.300842742 0 -47.687313719 -77.620574328 
0 -47.272618777 -78.896874124 0 -46.87373952 -80.124498247 0 -46.492314979 -81.298402278 
0 -46.129912742 -82.413761676 0 -45.788021857 -83.465993624 0 -45.46804712 -84.450774606 
0 -45.171303675 -85.364057022 0 -44.899010843 -86.202088187 0 -44.652287339 -86.961425053 
0 -44.432146949 -87.638947507 0 -44.23949452 -88.231870717 0 -44.075121638 -88.73775843 
0 -43.939703852 -89.15453152 0 -43.833797279 -89.480478436 0 -43.757837369 -89.714259001 
0 -43.712136436 -89.854912011 0 -43.696881806 -89.901860935 0 -43.712136436 -89.854912011 
0 -43.757837369 -89.714259001 0 -43.833797279 -89.480478436 0 -43.939703852 -89.15453152 
0 -44.075121638 -88.73775843 0 -44.23949452 -88.231870717 0 -44.432146949 -87.638947507 
0 -44.652287339 -86.961425053 0 -44.899010843 -86.202088187 0 -45.171303675 -85.364057022 
0 -45.46804712 -84.450774606 0 -45.788021857 -83.465993624 0 -46.129912742 -82.413761676 
0 -46.492314979 -81.298402278 0 -46.87373952 -80.124498247 0 -47.272618777 -78.896874124 
0 -47.687313719 -77.620574328 0 -48.116120505 -76.300842742 0 -48.557276968 -74.943102759 
0 -49.008970097 -73.552934252 0 -49.469343984 -72.13604912 0 -49.936506844 -70.698269675 
0 -50.408538946 -69.245504246 0 -50.883500632 -67.783722484 0 -51.35944019 -66.318931142 
0 -51.834401876 -64.85714938 0 -52.306433978 -63.404383951 0 -52.773596839 -61.966604506 
0 -53.233970725 -60.549719374 0 -53.685663854 -59.159550867 0 -54.126820317 -57.801810884 
0 -54.555627103 -56.482079298 0 -54.970322045 -55.205779503 0 -55.369201302 -53.978155379 
0 -55.750625844 -52.804251348 0 -56.11302808 -51.688891951 0 -56.454918965 -50.636660002 
0 -56.774893703 -49.65187902 0 -57.071637148 -48.738596604 0 -57.343929979 -47.90056544 
0 -57.590653483 -47.141228573 0 -57.810793873 -46.463706119 0 -58.003446303 -45.870782909 
0 -58.167819185 -45.364895196 0 -58.30323697 -44.948122106 0 -58.409143543 -44.622175191 
0 -58.485103453 -44.388394625 0 -58.530804387 -44.247741615 0 -58.546059017 -44.200792691 
0 -58.530804387 -44.247741615 0 -58.485103453 -44.388394625 0 -58.167819185 -45.364895196 
0 -58.003446303 -45.870782909 0 -57.810793873 -46.463706119 0 -57.590653483 -47.141228573 
0 -57.343929979 -47.90056544 0 -57.071637148 -48.738596604 0 -56.774893703 -49.65187902 
0 -56.454918965 -50.636660002 0 -56.11302808 -51.688891951 0 -55.750625844 -52.804251348 
0 -55.369201302 -53.978155379 0 -54.970322045 -55.205779503 0 -54.555627103 -56.482079298 
0 -54.126820317 -57.801810884 0 -53.685663854 -59.159550867 0 -53.233970725 -60.549719374 
0 -52.773596839 -61.966604506 0 -52.306433978 -63.404383951 0 -51.834401876 -64.85714938 
0 -51.35944019 -66.318931142 0 -50.883500632 -67.783722484 
